<?xml version="1.0"?>
<VTKFile type="UnstructuredGrid" version="0.1" byte_order="LittleEndian">
<UnstructuredGrid>
<Piece NumberOfPoints="29426" NumberOfCells="10360">
<Points>
<DataArray type="Float64" NumberOfComponents="3" format="ascii">
-0.5 -0.5 0 -0.48844779397140192 -0.47366123027711948 0 -0.50000000000000155 -0.46247496764540152 0 -0.5 -0.5 0 -0.47382683668517039 -0.47564534988414781 0 -0.45607271870562072 -0.49999999999999839 0 -0.5 -0.5 0 -0.48844779397140192 -0.47366123027711948 0 -0.47382683668517039 -0.47564534988414781 0 -0.48844779397140192 -0.47366123027711948 0 -0.47382683668517039 -0.47564534988414781 0 -0.48013650800985669 -0.45934970404010128 0 -0.47382683668517039 -0.47564534988414781 0 -0.45607271870562072 -0.49999999999999839 0 -0.45809880136126802 -0.47915999827553651 0 -0.45607271870562072 -0.49999999999999839 0 -0.45809880136126802 -0.47915999827553651 0 -0.4509613007386935 -0.48640473505746801 0 -0.47382683668517039 -0.47564534988414781 0 -0.45809880136126802 -0.47915999827553651 0 -0.46446330631975058 -0.46857003922130508 0 -0.4567195393145953 -0.47108996935110109 0 -0.45809880136126802 -0.47915999827553651 0 -0.44906287663230798 -0.47260029275850218 0 -0.4567195393145953 -0.47108996935110109 0 -0.45809880136126802 -0.47915999827553651 0 -0.46446330631975058 -0.46857003922130508 0 -0.4567195393145953 -0.47108996935110109 0 -0.44906287663230798 -0.47260029275850218 0 -0.45524118388891049 -0.46329942228200133 0 -0.45809880136126802 -0.47915999827553651 0 -0.450064024555207 -0.47988016699097741 0 -0.4509613007386935 -0.48640473505746801 0 -0.450064024555207 -0.47988016699097741 0 -0.44906287663230798 -0.47260029275850218 0 -0.44213311948855871 -0.48135564187240282 0 -0.45809880136126802 -0.47915999827553651 0 -0.450064024555207 -0.47988016699097741 0 -0.44906287663230798 -0.47260029275850218 0 -0.450064024555207 -0.47988016699097741 0 -0.44213311948855871 -0.48135564187240282 0 -0.4509613007386935 -0.48640473505746801 0 -0.44906287663230798 -0.47260029275850218 0 -0.43965395527957929 -0.48146152865944941 0 -0.44474168558519678 -0.46405619312909752 0 -0.44906287663230798 -0.47260029275850218 0 -0.44213311948855871 -0.48135564187240282 0 -0.43965395527957929 -0.48146152865944941 0 -0.44213311948855871 -0.48135564187240282 0 -0.43965395527957929 -0.48146152865944941 0 -0.44080119470646628 -0.48595487775725948 0 -0.43965395527957929 -0.48146152865944941 0 -0.44080119470646628 -0.48595487775725948 0 -0.43608140202719481 -0.48161411483509031 0 -0.44080119470646628 -0.48595487775725948 0 -0.43608140202719481 -0.48161411483509031 0 -0.43965395527957929 -0.48146152865944941 0 -0.44080119470646628 -0.48595487775725948 0 -0.43965395527957929 -0.48146152865944941 0 -0.43608140202719481 -0.48161411483509031 0 -0.44213311948855871 -0.48135564187240282 0 -0.43965395527957929 -0.48146152865944941 0 -0.45607271870562072 -0.49999999999999839 0 -0.44159960279081473 -0.48908197238229439 0 -0.4274681276564915 -0.5 0 -0.44080119470646628 -0.48595487775725948 0 -0.44159960279081473 -0.48908197238229439 0 -0.43608140202719481 -0.48161411483509031 0 -0.44213311948855871 -0.48135564187240282 0 -0.44080119470646628 -0.48595487775725948 0 -0.4509613007386935 -0.48640473505746801 0 -0.44080119470646628 -0.48595487775725948 0 -0.44159960279081473 -0.48908197238229439 0 -0.45607271870562072 -0.49999999999999839 0 -0.44080119470646628 -0.48595487775725948 0 -0.45607271870562072 -0.49999999999999839 0 -0.44080119470646628 -0.48595487775725948 0 -0.44159960279081473 -0.48908197238229439 0 -0.45607271870562072 -0.49999999999999839 0 -0.44080119470646628 -0.48595487775725948 0 -0.4509613007386935 -0.48640473505746801 0 -0.44983985647950581 -0.45160308804861499 0 -0.45966461093131178 -0.44273722091553369 0 -0.44448147895640161 -0.43499756902142322 0 -0.44983985647950581 -0.45160308804861499 0 -0.44448147895640161 -0.43499756902142322 0 -0.43300807702817251 -0.45543186968409682 0 -0.43965395527957929 -0.48146152865944941 0 -0.44474168558519678 -0.46405619312909752 0 -0.43300807702817251 -0.45543186968409682 0 -0.44983985647950581 -0.45160308804861499 0 -0.44474168558519678 -0.46405619312909752 0 -0.43300807702817251 -0.45543186968409682 0 -0.44906287663230798 -0.47260029275850218 0 -0.44474168558519678 -0.46405619312909752 0 -0.45524118388891049 -0.46329942228200133 0 -0.44983985647950581 -0.45160308804861499 0 -0.44474168558519678 -0.46405619312909752 0 -0.45524118388891049 -0.46329942228200133 0 -0.44983985647950581 -0.45160308804861499 0 -0.45524118388891049 -0.46329942228200133 0 -0.46382197426144212 -0.45499431324530482 0 -0.4567195393145953 -0.47108996935110109 0 -0.45524118388891049 -0.46329942228200133 0 -0.46446330631975058 -0.46857003922130508 0 -0.45524118388891049 -0.46329942228200133 0 -0.46446330631975058 -0.46857003922130508 0 -0.46382197426144212 -0.45499431324530482 0 -0.46382197426144212 -0.45499431324530482 0 -0.45966461093131178 -0.44273722091553369 0 -0.46983948991283231 -0.44156782445419968 0 -0.44983985647950581 -0.45160308804861499 0 -0.46382197426144212 -0.45499431324530482 0 -0.45966461093131178 -0.44273722091553369 0 -0.45966461093131178 -0.44273722091553369 0 -0.46983948991283231 -0.44156782445419968 0 -0.45985716457620551 -0.43105742298173683 0 -0.46983948991283231 -0.44156782445419968 0 -0.48013650800985669 -0.45934970404010128 0 -0.48644617933454881 -0.44305405819605709 0 -0.48013650800985669 -0.45934970404010128 0 -0.48644617933454881 -0.44305405819605709 0 -0.46382197426144212 -0.45499431324530482 0 -0.46983948991283231 -0.44156782445419968 0 -0.48013650800985669 -0.45934970404010128 0 -0.46446330631975058 -0.46857003922130508 0 -0.46382197426144212 -0.45499431324530482 0 -0.48013650800985669 -0.45934970404010128 0 -0.47382683668517039 -0.47564534988414781 0 -0.46446330631975058 -0.46857003922130508 0 -0.48013650800985669 -0.45934970404010128 0 -0.47382683668517039 -0.47564534988414781 0 -0.48013650800985669 -0.45934970404010128 0 -0.48844779397140192 -0.47366123027711948 0 -0.48013650800985669 -0.45934970404010128 0 -0.50000000000000155 -0.46247496764540152 0 -0.48013650800985669 -0.45934970404010128 0 -0.50000000000000155 -0.46247496764540152 0 -0.48644617933454881 -0.44305405819605709 0 -0.50000000000000155 -0.46247496764540152 0 -0.48644617933454881 -0.44305405819605709 0 -0.5 -0.43526215423733111 0 -0.50000000000000155 -0.46247496764540152 0 -0.48644617933454881 -0.44305405819605709 0 -0.48644617933454881 -0.44305405819605709 0 -0.5 -0.43526215423733111 0 -0.49322308966727169 -0.4255516995126577 0 -0.5 -0.43526215423733111 0 -0.49322308966727169 -0.4255516995126577 0 -0.50000000000000022 -0.40804934082926048 0 -0.48644617933454881 -0.44305405819605709 0 -0.48656776968788462 -0.43141975740227151 0 -0.49322308966727169 -0.4255516995126577 0 -0.48644617933454881 -0.44305405819605709 0 -0.49322308966727169 -0.4255516995126577 0 -0.48656776968788462 -0.43141975740227151 0 -0.49322308966727169 -0.4255516995126577 0 -0.48251009263801248 -0.41804762166735843 0 -0.49322308966727169 -0.4255516995126577 0 -0.50000000000000022 -0.40804934082926048 0 -0.49322308966727169 -0.4255516995126577 0 -0.48786992139865959 -0.40883626199836048 0 -0.48251009263801248 -0.41804762166735843 0 -0.49322308966727169 -0.4255516995126577 0 -0.50000000000000022 -0.40804934082926048 0 -0.48786992139865959 -0.40883626199836048 0 -0.46911050236362589 -0.41821422734646718 0 -0.47757641969057918 -0.40532423639974557 0 -0.46040120992690009 -0.40573491365651138 0 -0.48786992139865959 -0.40883626199836048 0 -0.48251009263801248 -0.41804762166735843 0 -0.47757641969057918 -0.40532423639974557 0 -0.48251009263801248 -0.41804762166735843 0 -0.46911050236362589 -0.41821422734646718 0 -0.47757641969057918 -0.40532423639974557 0 -0.48656776968788462 -0.43141975740227151 0 -0.48251009263801248 -0.41804762166735843 0 -0.46911050236362589 -0.41821422734646718 0 -0.48644617933454881 -0.44305405819605709 0 -0.48656776968788462 -0.43141975740227151 0 -0.46911050236362589 -0.41821422734646718 0 -0.48644617933454881 -0.44305405819605709 0 -0.46911050236362589 -0.41821422734646718 0 -0.46983948991283231 -0.44156782445419968 0 -0.48644617933454881 -0.44305405819605709 0 -0.46911050236362589 -0.41821422734646718 0 -0.48656776968788462 -0.43141975740227151 0 -0.46911050236362589 -0.41821422734646718 0 -0.5 -0.3847533113815268 0 -0.48922066936689818 -0.39738781464685369 0 -0.47521167947678228 -0.38471106762438162 0 -0.5 -0.3847533113815268 0 -0.47521167947678228 -0.38471106762438162 0 -0.49002214902665348 -0.36368722159224398 0 -0.50000000000000022 -0.40804934082926048 0 -0.5 -0.3847533113815268 0 -0.48922066936689818 -0.39738781464685369 0 -0.50000000000000022 -0.40804934082926048 0 -0.48786992139865959 -0.40883626199836048 0 -0.48922066936689818 -0.39738781464685369 0 -0.48786992139865959 -0.40883626199836048 0 -0.48922066936689818 -0.39738781464685369 0 -0.47757641969057918 -0.40532423639974557 0 -0.48922066936689818 -0.39738781464685369 0 -0.47757641969057918 -0.40532423639974557 0 -0.47521167947678228 -0.38471106762438162 0 -0.47757641969057918 -0.40532423639974557 0 -0.47521167947678228 -0.38471106762438162 0 -0.46040120992690009 -0.40573491365651138 0 -0.46048868583517699 -0.38346273104891382 0 -0.43910629694810849 -0.37522199874484979 0 -0.46462758010571459 -0.3693626276989439 0 -0.47521167947678228 -0.38471106762438162 0 -0.46048868583517699 -0.38346273104891382 0 -0.46462758010571459 -0.3693626276989439 0 -0.47521167947678228 -0.38471106762438162 0 -0.46048868583517699 -0.38346273104891382 0 -0.46040120992690009 -0.40573491365651138 0 -0.47521167947678228 -0.38471106762438162 0 -0.46040120992690009 -0.40573491365651138 0 -0.46048868583517699 -0.38346273104891382 0 -0.46040120992690009 -0.40573491365651138 0 -0.4497537534375024 -0.39047845620068189 0 -0.46040120992690009 -0.40573491365651138 0 -0.44380468417398461 -0.39907166989558501 0 -0.45769383517366491 -0.40957810240699011 0 -0.46040120992690009 -0.40573491365651138 0 -0.4497537534375024 -0.39047845620068189 0 -0.46040120992690009 -0.40573491365651138 0 -0.44380468417398461 -0.39907166989558501 0 -0.4497537534375024 -0.39047845620068189 0 -0.44380468417398461 -0.39907166989558501 0 -0.4497537534375024 -0.39047845620068189 0 -0.42991553317430481 -0.38856523738417909 0 -0.44380468417398461 -0.39907166989558501 0 -0.45769383517366491 -0.40957810240699011 0 -0.46048868583517699 -0.38346273104891382 0 -0.4497537534375024 -0.39047845620068189 0 -0.43910629694810849 -0.37522199874484979 0 -0.4497537534375024 -0.39047845620068189 0 -0.43910629694810849 -0.37522199874484979 0 -0.42991553317430481 -0.38856523738417909 0 -0.4497537534375024 -0.39047845620068189 0 -0.43910629694810849 -0.37522199874484979 0 -0.46911050236362589 -0.41821422734646718 0 -0.45985716457620551 -0.43105742298173683 0 -0.45062039628687839 -0.41961903254581728 0 -0.46983948991283231 -0.44156782445419968 0 -0.46911050236362589 -0.41821422734646718 0 -0.45985716457620551 -0.43105742298173683 0 -0.45966461093131178 -0.44273722091553369 0 -0.45985716457620551 -0.43105742298173683 0 -0.44448147895640161 -0.43499756902142322 0 -0.46911050236362589 -0.41821422734646718 0 -0.45769383517366491 -0.40957810240699011 0 -0.45062039628687839 -0.41961903254581728 0 -0.46911050236362589 -0.41821422734646718 0 -0.46040120992690009 -0.40573491365651138 0 -0.46911050236362589 -0.41821422734646718 0 -0.45769383517366491 -0.40957810240699011 0 -0.46911050236362589 -0.41821422734646718 0 -0.46040120992690009 -0.40573491365651138 0 -0.45769383517366491 -0.40957810240699011 0 -0.46040120992690009 -0.40573491365651138 0 -0.45769383517366491 -0.40957810240699011 0 -0.45769383517366491 -0.40957810240699011 0 -0.45062039628687839 -0.41961903254581728 0 -0.45769383517366491 -0.40957810240699011 0 -0.45062039628687839 -0.41961903254581728 0 -0.4468576513337052 -0.41030206358896121 0 -0.44380468417398461 -0.39907166989558501 0 -0.45769383517366491 -0.40957810240699011 0 -0.4468576513337052 -0.41030206358896121 0 -0.44380468417398461 -0.39907166989558501 0 -0.4468576513337052 -0.41030206358896121 0 -0.4353013631666226 -0.4142852638506398 0 -0.45062039628687839 -0.41961903254581728 0 -0.4468576513337052 -0.41030206358896121 0 -0.4353013631666226 -0.4142852638506398 0 -0.45062039628687839 -0.41961903254581728 0 -0.44448147895640161 -0.43499756902142322 0 -0.4353013631666226 -0.4142852638506398 0 -0.45985716457620551 -0.43105742298173683 0 -0.45062039628687839 -0.41961903254581728 0 -0.44448147895640161 -0.43499756902142322 0 -0.44448147895640161 -0.43499756902142322 0 -0.42636219877676629 -0.42940221070874413 0 -0.4353013631666226 -0.4142852638506398 0 -0.42636219877676629 -0.42940221070874413 0 -0.41971632052536267 -0.40337255173339059 0 -0.42636219877676629 -0.42940221070874413 0 -0.4353013631666226 -0.4142852638506398 0 -0.41971632052536267 -0.40337255173339059 0 -0.40639339828346649 -0.42271489750812957 0 -0.41971632052536267 -0.40337255173339059 0 -0.40176388368988608 -0.41044102021040157 0 -0.42636219877676629 -0.42940221070874413 0 -0.40639339828346649 -0.42271489750812957 0 -0.41971632052536267 -0.40337255173339059 0 -0.40639339828346649 -0.42271489750812957 0 -0.41971632052536267 -0.40337255173339059 0 -0.42636219877676629 -0.42940221070874413 0 -0.40639339828346649 -0.42271489750812957 0 -0.41354204325176069 -0.44247537017624278 0 -0.43910629694810849 -0.37522199874484979 0 -0.4182363739876887 -0.37973055067173611 0 -0.435309083809991 -0.37237163518283112 0 -0.43910629694810849 -0.37522199874484979 0 -0.4182363739876887 -0.37973055067173611 0 -0.43910629694810849 -0.37522199874484979 0 -0.42991553317430481 -0.38856523738417909 0 -0.4182363739876887 -0.37973055067173611 0 -0.43910629694810849 -0.37522199874484979 0 -0.42991553317430481 -0.38856523738417909 0 -0.42991553317430481 -0.38856523738417909 0 -0.4182363739876887 -0.37973055067173611 0 -0.44380468417398461 -0.39907166989558501 0 -0.4353013631666226 -0.4142852638506398 0 -0.41971632052536267 -0.40337255173339059 0 -0.44380468417398461 -0.39907166989558501 0 -0.42991553317430481 -0.38856523738417909 0 -0.41971632052536267 -0.40337255173339059 0 -0.42991553317430481 -0.38856523738417909 0 -0.41971632052536267 -0.40337255173339059 0 -0.44380468417398461 -0.39907166989558501 0 -0.42991553317430481 -0.38856523738417909 0 -0.41103539279334939 -0.40116095618927289 0 -0.4156674806820011 -0.38751461447037311 0 -0.39768699919678091 -0.38432310932238423 0 -0.42991553317430481 -0.38856523738417909 0 -0.41971632052536267 -0.40337255173339059 0 -0.4156674806820011 -0.38751461447037311 0 -0.41971632052536267 -0.40337255173339059 0 -0.41103539279334939 -0.40116095618927289 0 -0.4156674806820011 -0.38751461447037311 0 -0.41971632052536267 -0.40337255173339059 0 -0.41103539279334939 -0.40116095618927289 0 -0.40176388368988608 -0.41044102021040157 0 -0.41971632052536267 -0.40337255173339059 0 -0.4156674806820011 -0.38751461447037311 0 -0.4156674806820011 -0.38751461447037311 0 -0.4182363739876887 -0.37973055067173611 0 -0.39768699919678091 -0.38432310932238423 0 -0.4182363739876887 -0.37973055067173611 0 -0.39768699919678091 -0.38432310932238423 0 -0.42991553317430481 -0.38856523738417909 0 -0.4156674806820011 -0.38751461447037311 0 -0.4182363739876887 -0.37973055067173611 0 -0.4182363739876887 -0.37973055067173611 0 -0.39768699919678091 -0.38432310932238423 0 -0.40059713356567977 -0.3663873672726452 0 -0.39447321120395551 -0.38026919304441431 0 -0.39768699919678091 -0.38432310932238423 0 -0.40059713356567977 -0.3663873672726452 0 -0.39212298564631343 -0.37730458627312541 0 -0.39447321120395551 -0.38026919304441431 0 -0.39086562684671872 -0.37571853662818522 0 -0.39212298564631343 -0.37730458627312541 0 -0.39216050600871871 -0.38123128719347449 0 -0.39447321120395551 -0.38026919304441431 0 -0.3921377286601222 -0.38556331009089068 0 -0.39212298564631343 -0.37730458627312541 0 -0.39216050600871871 -0.38123128719347449 0 -0.39212298564631343 -0.37730458627312541 0 -0.39216050600871871 -0.38123128719347449 0 -0.39447321120395551 -0.38026919304441431 0 -0.39447321120395551 -0.38026919304441431 0 -0.39768699919678091 -0.38432310932238423 0 -0.39768699919678091 -0.38432310932238423 0 -0.3921377286601222 -0.38556331009089068 0 -0.3972063599099917 -0.39736817761298182 0 -0.39447321120395551 -0.38026919304441431 0 -0.39768699919678091 -0.38432310932238423 0 -0.3921377286601222 -0.38556331009089068 0 -0.39768699919678091 -0.38432310932238423 0 -0.3921377286601222 -0.38556331009089068 0 -0.39447321120395551 -0.38026919304441431 0 -0.3921377286601222 -0.38556331009089068 0 -0.3972063599099917 -0.39736817761298182 0 -0.38340779520981899 -0.40535249225195691 0 -0.40176388368988608 -0.41044102021040157 0 -0.3921377286601222 -0.38556331009089068 0 -0.3972063599099917 -0.39736817761298182 0 -0.38340779520981899 -0.40535249225195691 0 -0.41103539279334939 -0.40116095618927289 0 -0.39768699919678091 -0.38432310932238423 0 -0.3972063599099917 -0.39736817761298182 0 -0.41103539279334939 -0.40116095618927289 0 -0.39768699919678091 -0.38432310932238423 0 -0.41103539279334939 -0.40116095618927289 0 -0.3972063599099917 -0.39736817761298182 0 -0.40176388368988608 -0.41044102021040157 0 -0.37892870089931707 -0.4038789221349901 0 -0.38750885444934002 -0.38659781243053448 0 -0.37892870089931707 -0.4038789221349901 0 -0.38750885444934002 -0.38659781243053448 0 -0.36548942974071619 -0.3915189110263248 0 -0.3921377286601222 -0.38556331009089068 0 -0.38340779520981899 -0.40535249225195691 0 -0.38750885444934002 -0.38659781243053448 0 -0.38340779520981899 -0.40535249225195691 0 -0.37892870089931707 -0.4038789221349901 0 -0.38750885444934002 -0.38659781243053448 0 -0.3921377286601222 -0.38556331009089068 0 -0.38340779520981899 -0.40535249225195691 0 -0.38750885444934002 -0.38659781243053448 0 -0.38261724061142721 -0.3791310180187335 0 -0.36548942974071619 -0.3915189110263248 0 -0.38750885444934002 -0.38659781243053448 0 -0.36548942974071619 -0.3915189110263248 0 -0.39216050600871871 -0.38123128719347449 0 -0.3921377286601222 -0.38556331009089068 0 -0.38750885444934002 -0.38659781243053448 0 -0.3921377286601222 -0.38556331009089068 0 -0.38750885444934002 -0.38659781243053448 0 -0.39212298564631343 -0.37730458627312541 0 -0.38750885444934002 -0.38659781243053448 0 -0.39212298564631343 -0.37730458627312541 0 -0.38750885444934002 -0.38659781243053448 0 -0.38261724061142721 -0.3791310180187335 0 -0.39212298564631343 -0.37730458627312541 0 -0.39216050600871871 -0.38123128719347449 0 -0.38750885444934002 -0.38659781243053448 0 -0.39086562684671872 -0.37571853662818522 0 -0.39212298564631343 -0.37730458627312541 0 -0.38261724061142721 -0.3791310180187335 0 -0.40639339828346649 -0.42271489750812957 0 -0.39075773113791501 -0.42159090211590777 0 -0.39307047604156897 -0.44205724328286761 0 -0.40639339828346649 -0.42271489750812957 0 -0.39307047604156897 -0.44205724328286761 0 -0.41354204325176069 -0.44247537017624278 0 -0.40639339828346649 -0.42271489750812957 0 -0.39307047604156897 -0.44205724328286761 0 -0.40639339828346649 -0.42271489750812957 0 -0.39075773113791501 -0.42159090211590777 0 -0.40176388368988608 -0.41044102021040157 0 -0.38340779520981899 -0.40535249225195691 0 -0.39075773113791501 -0.42159090211590777 0 -0.40176388368988608 -0.41044102021040157 0 -0.38340779520981899 -0.40535249225195691 0 -0.39075773113791501 -0.42159090211590777 0 -0.37467786175951029 -0.42514167441302059 0 -0.38340779520981899 -0.40535249225195691 0 -0.37467786175951029 -0.42514167441302059 0 -0.37034854734929579 -0.4211600318394465 0 -0.38340779520981899 -0.40535249225195691 0 -0.37892870089931707 -0.4038789221349901 0 -0.37034854734929579 -0.4211600318394465 0 -0.38340779520981899 -0.40535249225195691 0 -0.37467786175951029 -0.42514167441302059 0 -0.39307047604156897 -0.44205724328286761 0 -0.37467786175951029 -0.42514167441302059 0 -0.39075773113791501 -0.42159090211590777 0 -0.39307047604156897 -0.44205724328286761 0 -0.37467786175951029 -0.42514167441302059 0 -0.39307047604156897 -0.44205724328286761 0 -0.37948549180955898 -0.46178005315813342 0 -0.37850361487224571 -0.44656369719318167 0 -0.39307047604156897 -0.44205724328286761 0 -0.37948549180955898 -0.46178005315813342 0 -0.37850361487224571 -0.44656369719318167 0 -0.39307047604156897 -0.44205724328286761 0 -0.37467786175951029 -0.42514167441302059 0 -0.39307047604156897 -0.44205724328286761 0 -0.41457593903438339 -0.46183567905897721 0 -0.39307047604156897 -0.44205724328286761 0 -0.39702205062854018 -0.46727387154837902 0 -0.41457593903438339 -0.46183567905897721 0 -0.39307047604156897 -0.44205724328286761 0 -0.39702205062854018 -0.46727387154837902 0 -0.37948549180955898 -0.46178005315813342 0 -0.39702205062854018 -0.46727387154837902 0 -0.37948549180955898 -0.46178005315813342 0 -0.38866249699820049 -0.48363940847260178 0 -0.37948549180955898 -0.46178005315813342 0 -0.38866249699820049 -0.48363940847260178 0 -0.36754531370280219 -0.4700663554132325 0 -0.38866249699820049 -0.48363940847260178 0 -0.36495304448370319 -0.48465205529135491 0 -0.38866249699820049 -0.48363940847260178 0 -0.3988635366073624 -0.5 0 -0.37025894555823341 -0.5 0 -0.38866249699820049 -0.48363940847260178 0 -0.3988635366073624 -0.5 0 -0.41237194951269779 -0.48262676165384871 0 -0.39702205062854018 -0.46727387154837902 0 -0.38866249699820049 -0.48363940847260178 0 -0.41237194951269779 -0.48262676165384871 0 -0.38866249699820049 -0.48363940847260178 0 -0.41237194951269779 -0.48262676165384871 0 -0.39702205062854018 -0.46727387154837902 0 -0.41237194951269779 -0.48262676165384871 0 -0.41457593903438339 -0.46183567905897721 0 -0.41237194951269779 -0.48262676165384871 0 -0.43608140202719481 -0.48161411483509031 0 -0.41457593903438339 -0.46183567905897721 0 -0.3988635366073624 -0.5 0 -0.41237194951269779 -0.48262676165384871 0 -0.4274681276564915 -0.5 0 -0.44159960279081473 -0.48908197238229439 0 -0.4274681276564915 -0.5 0 -0.43608140202719481 -0.48161411483509031 0 -0.41237194951269779 -0.48262676165384871 0 -0.4274681276564915 -0.5 0 -0.43608140202719481 -0.48161411483509031 0 -0.43608140202719481 -0.48161411483509031 0 -0.41457593903438339 -0.46183567905897721 0 -0.41237194951269779 -0.48262676165384871 0 -0.43608140202719481 -0.48161411483509031 0 -0.43965395527957929 -0.48146152865944941 0 -0.43608140202719481 -0.48161411483509031 0 -0.43300807702817251 -0.45543186968409682 0 -0.43965395527957929 -0.48146152865944941 0 -0.43300807702817251 -0.45543186968409682 0 -0.43608140202719481 -0.48161411483509031 0 -0.43300807702817251 -0.45543186968409682 0 -0.41457593903438339 -0.46183567905897721 0 -0.42636219877676629 -0.42940221070874413 0 -0.43300807702817251 -0.45543186968409682 0 -0.42636219877676629 -0.42940221070874413 0 -0.43300807702817251 -0.45543186968409682 0 -0.41354204325176069 -0.44247537017624278 0 -0.44448147895640161 -0.43499756902142322 0 -0.42636219877676629 -0.42940221070874413 0 -0.43300807702817251 -0.45543186968409682 0 -0.39307047604156897 -0.44205724328286761 0 -0.41354204325176069 -0.44247537017624278 0 -0.41457593903438339 -0.46183567905897721 0 -0.43300807702817251 -0.45543186968409682 0 -0.41354204325176069 -0.44247537017624278 0 -0.41457593903438339 -0.46183567905897721 0 -0.44700860420265759 -0.26118094708325068 0 -0.43889065781272357 -0.25976048621561382 0 -0.44447372108731381 -0.24780305591174071 0 -0.43889065781272357 -0.25976048621561382 0 -0.43515266417079101 -0.2502256321201316 0 -0.44447372108731381 -0.24780305591174071 0 -0.44700860420265759 -0.26118094708325068 0 -0.43889065781272357 -0.25976048621561382 0 -0.44091070517908981 -0.27237787910993838 0 -0.44700860420265759 -0.26118094708325068 0 -0.45644872850549312 -0.26150350036281661 0 -0.45485053385107438 -0.28684792876211279 0 -0.44700860420265759 -0.26118094708325068 0 -0.45485053385107438 -0.28684792876211279 0 -0.43597028524540149 -0.28620282220298099 0 -0.44700860420265759 -0.26118094708325068 0 -0.43597028524540149 -0.28620282220298099 0 -0.44700860420265759 -0.26118094708325068 0 -0.44091070517908981 -0.27237787910993838 0 -0.43597028524540149 -0.28620282220298099 0 -0.45644872850549312 -0.26150350036281661 0 -0.45485053385107438 -0.28684792876211279 0 -0.46632180134556739 -0.27429152379540978 0 -0.45644872850549312 -0.26150350036281661 0 -0.45485053385107438 -0.28684792876211279 0 -0.46632180134556739 -0.27429152379540978 0 -0.45644872850549312 -0.26150350036281661 0 -0.46985772484600219 -0.26302490633579417 0 -0.45644872850549312 -0.26150350036281661 0 -0.46589110977684922 -0.25460530120969299 0 -0.46985772484600219 -0.26302490633579417 0 -0.44700860420265759 -0.26118094708325068 0 -0.45644872850549312 -0.26150350036281661 0 -0.45804692315991269 -0.2361590719635204 0 -0.46589110977684922 -0.25460530120969299 0 -0.47363774134022202 -0.24915436340244099 0 -0.46421518581644988 -0.24697777112724201 0 -0.45644872850549312 -0.26150350036281661 0 -0.46589110977684922 -0.25460530120969299 0 -0.46421518581644988 -0.24697777112724201 0 -0.46589110977684922 -0.25460530120969299 0 -0.46985772484600219 -0.26302490633579417 0 -0.47363774134022202 -0.24915436340244099 0 -0.46985772484600219 -0.26302490633579417 0 -0.48219580908709669 -0.25908031094877398 0 -0.47363774134022202 -0.24915436340244099 0 -0.46985772484600219 -0.26302490633579417 0 -0.48219580908709669 -0.25908031094877398 0 -0.48048865374384908 -0.2728223901545333 0 -0.48219580908709669 -0.25908031094877398 0 -0.48868092713117528 -0.2485917731294561 0 -0.47363774134022202 -0.24915436340244099 0 -0.48219580908709669 -0.25908031094877398 0 -0.5 -0.263066819075782 0 -0.48868092713117528 -0.2485917731294561 0 -0.48219580908709669 -0.25908031094877398 0 -0.5 -0.263066819075782 0 -0.48048865374384908 -0.2728223901545333 0 -0.5 -0.263066819075782 0 -0.48048865374384908 -0.2728223901545333 0 -0.5 -0.29057185612146341 0 -0.46632180134556739 -0.27429152379540978 0 -0.46985772484600219 -0.26302490633579417 0 -0.48048865374384908 -0.2728223901545333 0 -0.46632180134556739 -0.27429152379540978 0 -0.48048865374384908 -0.2728223901545333 0 -0.47184660474866053 -0.28665266940982648 0 -0.48048865374384908 -0.2728223901545333 0 -0.47184660474866053 -0.28665266940982648 0 -0.5 -0.29057185612146341 0 -0.47184660474866053 -0.28665266940982648 0 -0.5 -0.29057185612146341 0 -0.47399387859716829 -0.30344337535447102 0 -0.5 -0.29057185612146341 0 -0.47399387859716829 -0.30344337535447102 0 -0.50000000000000078 -0.31807689316714488 0 -0.45325233919665558 -0.31219235716140908 0 -0.45485053385107438 -0.28684792876211279 0 -0.47399387859716829 -0.30344337535447102 0 -0.45325233919665558 -0.31219235716140908 0 -0.47190060612898271 -0.32164109816216452 0 -0.47399387859716829 -0.30344337535447102 0 -0.45325233919665558 -0.31219235716140908 0 -0.45485053385107438 -0.28684792876211279 0 -0.47184660474866053 -0.28665266940982648 0 -0.47399387859716829 -0.30344337535447102 0 -0.45485053385107438 -0.28684792876211279 0 -0.46632180134556739 -0.27429152379540978 0 -0.47184660474866053 -0.28665266940982648 0 -0.45485053385107438 -0.28684792876211279 0 -0.45485053385107438 -0.28684792876211279 0 -0.43427594803523739 -0.2924051770534587 0 -0.43597028524540149 -0.28620282220298099 0 -0.45485053385107438 -0.28684792876211279 0 -0.43926628138097551 -0.30661232733659899 0 -0.43427594803523739 -0.2924051770534587 0 -0.45325233919665558 -0.31219235716140908 0 -0.45485053385107438 -0.28684792876211279 0 -0.43926628138097551 -0.30661232733659899 0 -0.45325233919665558 -0.31219235716140908 0 -0.43926628138097551 -0.30661232733659899 0 -0.43504882708437409 -0.32661045604378569 0 -0.45325233919665558 -0.31219235716140908 0 -0.4516541445422369 -0.33753678556070538 0 -0.45325233919665558 -0.31219235716140908 0 -0.4516541445422369 -0.33753678556070538 0 -0.43504882708437409 -0.32661045604378569 0 -0.4516541445422369 -0.33753678556070538 0 -0.43394790683623657 -0.34303301418617521 0 -0.43504882708437409 -0.32661045604378569 0 -0.4516541445422369 -0.33753678556070538 0 -0.48060266830885162 -0.33695607956709173 0 -0.46120533661770258 -0.35583526596703879 0 -0.4516541445422369 -0.33753678556070538 0 -0.47190060612898271 -0.32164109816216452 0 -0.48060266830885162 -0.33695607956709173 0 -0.45325233919665558 -0.31219235716140908 0 -0.4516541445422369 -0.33753678556070538 0 -0.47190060612898271 -0.32164109816216452 0 -0.47399387859716829 -0.30344337535447102 0 -0.47190060612898271 -0.32164109816216452 0 -0.50000000000000078 -0.31807689316714488 0 -0.47190060612898271 -0.32164109816216452 0 -0.50000000000000078 -0.31807689316714488 0 -0.48060266830885162 -0.33695607956709173 0 -0.50000000000000078 -0.31807689316714488 0 -0.48060266830885162 -0.33695607956709173 0 -0.5 -0.33380014813000441 0 -0.48060266830885162 -0.33695607956709173 0 -0.49042579984026008 -0.34598261573826838 0 -0.50000000000000078 -0.31807689316714488 0 -0.5 -0.33380014813000441 0 -0.48060266830885162 -0.33695607956709173 0 -0.5 -0.33380014813000441 0 -0.49042579984026008 -0.34598261573826838 0 -0.50000000000000133 -0.34952340309286378 0 -0.47869753857263903 -0.35538371565106019 0 -0.47363815108067708 -0.36106720772732059 0 -0.46120533661770258 -0.35583526596703879 0 -0.48060266830885162 -0.33695607956709173 0 -0.46120533661770258 -0.35583526596703879 0 -0.47869753857263903 -0.35538371565106019 0 -0.46120533661770258 -0.35583526596703879 0 -0.48060266830885162 -0.33695607956709173 0 -0.47869753857263903 -0.35538371565106019 0 -0.46120533661770258 -0.35583526596703879 0 -0.48060266830885162 -0.33695607956709173 0 -0.47869753857263903 -0.35538371565106019 0 -0.49042579984026008 -0.34598261573826838 0 -0.47869753857263903 -0.35538371565106019 0 -0.4961897405275752 -0.3549321653350776 0 -0.47869753857263903 -0.35538371565106019 0 -0.4961897405275752 -0.3549321653350776 0 -0.49002214902665348 -0.36368722159224398 0 -0.47869753857263903 -0.35538371565106019 0 -0.49042579984026008 -0.34598261573826838 0 -0.4961897405275752 -0.3549321653350776 0 -0.4961897405275752 -0.3549321653350776 0 -0.49002214902665348 -0.36368722159224398 0 -0.4961897405275752 -0.3549321653350776 0 -0.49999999999999911 -0.35483380585620111 0 -0.49999999999999878 -0.36145728193379312 0 -0.4961897405275752 -0.3549321653350776 0 -0.49999999999999911 -0.35483380585620111 0 -0.50000000000000133 -0.34952340309286378 0 -0.4961897405275752 -0.3549321653350776 0 -0.50000000000000133 -0.34952340309286378 0 -0.4961897405275752 -0.3549321653350776 0 -0.49999999999999911 -0.35483380585620111 0 -0.49042579984026008 -0.34598261573826838 0 -0.4961897405275752 -0.3549321653350776 0 -0.50000000000000133 -0.34952340309286378 0 -0.5 -0.3847533113815268 0 -0.49999999999999878 -0.36145728193379312 0 -0.49002214902665348 -0.36368722159224398 0 -0.4961897405275752 -0.3549321653350776 0 -0.49999999999999878 -0.36145728193379312 0 -0.49002214902665348 -0.36368722159224398 0 -0.49999999999999878 -0.36145728193379312 0 -0.49002214902665348 -0.36368722159224398 0 -0.47521167947678228 -0.38471106762438162 0 -0.49002214902665348 -0.36368722159224398 0 -0.47869753857263903 -0.35538371565106019 0 -0.49002214902665348 -0.36368722159224398 0 -0.47363815108067708 -0.36106720772732059 0 -0.49002214902665348 -0.36368722159224398 0 -0.47363815108067708 -0.36106720772732059 0 -0.46462758010571459 -0.3693626276989439 0 -0.47521167947678228 -0.38471106762438162 0 -0.49002214902665348 -0.36368722159224398 0 -0.46462758010571459 -0.3693626276989439 0 -0.49002214902665348 -0.36368722159224398 0 -0.46462758010571459 -0.3693626276989439 0 -0.46462758010571459 -0.3693626276989439 0 -0.46120533661770258 -0.35583526596703879 0 -0.44875150735593639 -0.36795642612296092 0 -0.46120533661770258 -0.35583526596703879 0 -0.45149800061261919 -0.35723160499600132 0 -0.44875150735593639 -0.36795642612296092 0 -0.46120533661770258 -0.35583526596703879 0 -0.44875150735593639 -0.36795642612296092 0 -0.47363815108067708 -0.36106720772732059 0 -0.46462758010571459 -0.3693626276989439 0 -0.46120533661770258 -0.35583526596703879 0 -0.46120533661770258 -0.35583526596703879 0 -0.44370609540995959 -0.35628699799695401 0 -0.45149800061261919 -0.35723160499600132 0 -0.46120533661770258 -0.35583526596703879 0 -0.44370609540995959 -0.35628699799695401 0 -0.4516541445422369 -0.33753678556070538 0 -0.46120533661770258 -0.35583526596703879 0 -0.44370609540995959 -0.35628699799695401 0 -0.4516541445422369 -0.33753678556070538 0 -0.44370609540995959 -0.35628699799695401 0 -0.43394790683623657 -0.34303301418617521 0 -0.43910629694810849 -0.37522199874484979 0 -0.45149800061261919 -0.35723160499600132 0 -0.44875150735593639 -0.36795642612296092 0 -0.43910629694810849 -0.37522199874484979 0 -0.45149800061261919 -0.35723160499600132 0 -0.43910629694810849 -0.37522199874484979 0 -0.46462758010571459 -0.3693626276989439 0 -0.43910629694810849 -0.37522199874484979 0 -0.46462758010571459 -0.3693626276989439 0 -0.44875150735593639 -0.36795642612296092 0 -0.43910629694810849 -0.37522199874484979 0 -0.44370609540995959 -0.35628699799695401 0 -0.45149800061261919 -0.35723160499600132 0 -0.43910629694810849 -0.37522199874484979 0 -0.42620685420221649 -0.35673873002686579 0 -0.43910629694810849 -0.37522199874484979 0 -0.435309083809991 -0.37237163518283112 0 -0.42620685420221649 -0.35673873002686579 0 -0.435309083809991 -0.37237163518283112 0 -0.42620685420221649 -0.35673873002686579 0 -0.41946922560496519 -0.36594273804719307 0 -0.435309083809991 -0.37237163518283112 0 -0.41946922560496519 -0.36594273804719307 0 -0.43910629694810849 -0.37522199874484979 0 -0.44370609540995959 -0.35628699799695401 0 -0.42620685420221649 -0.35673873002686579 0 -0.4182363739876887 -0.37973055067173611 0 -0.435309083809991 -0.37237163518283112 0 -0.41946922560496519 -0.36594273804719307 0 -0.44370609540995959 -0.35628699799695401 0 -0.42620685420221649 -0.35673873002686579 0 -0.43394790683623657 -0.34303301418617521 0 -0.42620685420221649 -0.35673873002686579 0 -0.4122577919971086 -0.33675148947857408 0 -0.43394790683623657 -0.34303301418617521 0 -0.44370609540995959 -0.35628699799695401 0 -0.42620685420221649 -0.35673873002686579 0 -0.4014045176203338 -0.35861084479945488 0 -0.4122577919971086 -0.33675148947857408 0 -0.42620685420221649 -0.35673873002686579 0 -0.40460762809988848 -0.35729630061727907 0 -0.4122577919971086 -0.33675148947857408 0 -0.40460762809988848 -0.35729630061727907 0 -0.4122577919971086 -0.33675148947857408 0 -0.42620685420221649 -0.35673873002686579 0 -0.40460762809988848 -0.35729630061727907 0 -0.42620685420221649 -0.35673873002686579 0 -0.4122577919971086 -0.33675148947857408 0 -0.41946922560496519 -0.36594273804719307 0 -0.40362936739993788 -0.35951384091155852 0 -0.40460762809988848 -0.35729630061727907 0 -0.4100398314836633 -0.36644738956117812 0 -0.41946922560496519 -0.36594273804719307 0 -0.40362936739993788 -0.35951384091155852 0 -0.4182363739876887 -0.37973055067173611 0 -0.4100398314836633 -0.36644738956117812 0 -0.40059713356567977 -0.3663873672726452 0 -0.42620685420221649 -0.35673873002686579 0 -0.41946922560496519 -0.36594273804719307 0 -0.40460762809988848 -0.35729630061727907 0 -0.41946922560496519 -0.36594273804719307 0 -0.40362936739993788 -0.35951384091155852 0 -0.4182363739876887 -0.37973055067173611 0 -0.40059713356567977 -0.3663873672726452 0 -0.4182363739876887 -0.37973055067173611 0 -0.4100398314836633 -0.36644738956117812 0 -0.41946922560496519 -0.36594273804719307 0 -0.39086562684671872 -0.37571853662818522 0 -0.39837720055007902 -0.3647081014623173 0 -0.38910798549436038 -0.35769641425271581 0 -0.4100398314836633 -0.36644738956117812 0 -0.40362936739993788 -0.35951384091155852 0 -0.40059713356567977 -0.3663873672726452 0 -0.40362936739993788 -0.35951384091155852 0 -0.40059713356567977 -0.3663873672726452 0 -0.39837720055007902 -0.3647081014623173 0 -0.40059713356567977 -0.3663873672726452 0 -0.39837720055007902 -0.3647081014623173 0 -0.39837720055007902 -0.3647081014623173 0 -0.4014045176203338 -0.35861084479945488 0 -0.40362936739993788 -0.35951384091155852 0 -0.39837720055007902 -0.3647081014623173 0 -0.4014045176203338 -0.35861084479945488 0 -0.40362936739993788 -0.35951384091155852 0 -0.40059713356567977 -0.3663873672726452 0 -0.39837720055007902 -0.3647081014623173 0 -0.4014045176203338 -0.35861084479945488 0 -0.39855089899546758 -0.3574526513127369 0 -0.39837720055007902 -0.3647081014623173 0 -0.38910798549436038 -0.35769641425271581 0 -0.39837720055007902 -0.3647081014623173 0 -0.38910798549436038 -0.35769641425271581 0 -0.39855089899546758 -0.3574526513127369 0 -0.39086562684671872 -0.37571853662818522 0 -0.39212298564631343 -0.37730458627312541 0 -0.39837720055007902 -0.3647081014623173 0 -0.39447321120395551 -0.38026919304441431 0 -0.40059713356567977 -0.3663873672726452 0 -0.39212298564631343 -0.37730458627312541 0 -0.39837720055007902 -0.3647081014623173 0 -0.39212298564631343 -0.37730458627312541 0 -0.39447321120395551 -0.38026919304441431 0 -0.40059713356567977 -0.3663873672726452 0 -0.39212298564631343 -0.37730458627312541 0 -0.40059713356567977 -0.3663873672726452 0 -0.39837720055007902 -0.3647081014623173 0 -0.39086562684671872 -0.37571853662818522 0 -0.37682965701864968 -0.3580133716670596 0 -0.38664736582811782 -0.35775993361927078 0 -0.39086562684671872 -0.37571853662818522 0 -0.38261724061142721 -0.3791310180187335 0 -0.37682965701864968 -0.3580133716670596 0 -0.39086562684671872 -0.37571853662818522 0 -0.38664736582811782 -0.35775993361927078 0 -0.39086562684671872 -0.37571853662818522 0 -0.38664736582811782 -0.35775993361927078 0 -0.38910798549436038 -0.35769641425271581 0 -0.38261724061142721 -0.3791310180187335 0 -0.37682965701864968 -0.3580133716670596 0 -0.37158788119171299 -0.37582068762881671 0 -0.39086562684671872 -0.37571853662818522 0 -0.37682965701864968 -0.3580133716670596 0 -0.37748057748168218 -0.34890087465706138 0 -0.38531319018074389 -0.3520798842601604 0 -0.37682965701864968 -0.3580133716670596 0 -0.38664736582811782 -0.35775993361927078 0 -0.37748057748168218 -0.34890087465706138 0 -0.37682965701864968 -0.3580133716670596 0 -0.38609754918945433 -0.35541917312630611 0 -0.37748057748168218 -0.34890087465706138 0 -0.38609754918945433 -0.35541917312630611 0 -0.37748057748168218 -0.34890087465706138 0 -0.38609754918945433 -0.35541917312630611 0 -0.38531319018074389 -0.3520798842601604 0 -0.37682965701864968 -0.3580133716670596 0 -0.38609754918945433 -0.35541917312630611 0 -0.38664736582811782 -0.35775993361927078 0 -0.38609754918945433 -0.35541917312630611 0 -0.38531319018074389 -0.3520798842601604 0 -0.38609754918945433 -0.35541917312630611 0 -0.38664736582811782 -0.35775993361927078 0 -0.38664736582811782 -0.35775993361927078 0 -0.38910798549436038 -0.35769641425271581 0 -0.38609754918945433 -0.35541917312630611 0 -0.38910798549436038 -0.35769641425271581 0 -0.38609754918945433 -0.35541917312630611 0 -0.38664736582811782 -0.35775993361927078 0 -0.38910798549436038 -0.35769641425271581 0 -0.38609754918945433 -0.35541917312630611 0 -0.38531319018074389 -0.3520798842601604 0 -0.38910798549436038 -0.35769641425271581 0 -0.38531319018074389 -0.3520798842601604 0 -0.38756021640698979 -0.34829170930346909 0 -0.39447097758819788 -0.35117405464686108 0 -0.39811800595874469 -0.34560636847348708 0 -0.4014045176203338 -0.35861084479945488 0 -0.4122577919971086 -0.33675148947857408 0 -0.4014045176203338 -0.35861084479945488 0 -0.40460762809988848 -0.35729630061727907 0 -0.4122577919971086 -0.33675148947857408 0 -0.38756021640698979 -0.34829170930346909 0 -0.39811800595874469 -0.34560636847348708 0 -0.39447097758819788 -0.35117405464686108 0 -0.39811800595874469 -0.34560636847348708 0 -0.39447097758819788 -0.35117405464686108 0 -0.4014045176203338 -0.35861084479945488 0 -0.38531319018074389 -0.3520798842601604 0 -0.39855089899546758 -0.3574526513127369 0 -0.38910798549436038 -0.35769641425271581 0 -0.39855089899546758 -0.3574526513127369 0 -0.38531319018074389 -0.3520798842601604 0 -0.39447097758819788 -0.35117405464686108 0 -0.39855089899546758 -0.3574526513127369 0 -0.38531319018074389 -0.3520798842601604 0 -0.38910798549436038 -0.35769641425271581 0 -0.39855089899546758 -0.3574526513127369 0 -0.39447097758819788 -0.35117405464686108 0 -0.4014045176203338 -0.35861084479945488 0 -0.39855089899546758 -0.3574526513127369 0 -0.4014045176203338 -0.35861084479945488 0 -0.39855089899546758 -0.3574526513127369 0 -0.4014045176203338 -0.35861084479945488 0 -0.40460762809988848 -0.35729630061727907 0 -0.40362936739993788 -0.35951384091155852 0 -0.4014045176203338 -0.35861084479945488 0 -0.40460762809988848 -0.35729630061727907 0 -0.40362936739993788 -0.35951384091155852 0 -0.40460762809988848 -0.35729630061727907 0 -0.40362936739993788 -0.35951384091155852 0 -0.4014045176203338 -0.35861084479945488 0 -0.39427696192686867 -0.33445159568203281 0 -0.40099370744674689 -0.32061148206059609 0 -0.4122577919971086 -0.33675148947857408 0 -0.39811800595874469 -0.34560636847348708 0 -0.39427696192686867 -0.33445159568203281 0 -0.4122577919971086 -0.33675148947857408 0 -0.38756021640698979 -0.34829170930346909 0 -0.39427696192686867 -0.33445159568203281 0 -0.38756021640698979 -0.34829170930346909 0 -0.39811800595874469 -0.34560636847348708 0 -0.39427696192686867 -0.33445159568203281 0 -0.38756021640698979 -0.34829170930346909 0 -0.39427696192686867 -0.33445159568203281 0 -0.38007730354759078 -0.32978889538350431 0 -0.38531319018074389 -0.3520798842601604 0 -0.38756021640698979 -0.34829170930346909 0 -0.38007730354759078 -0.32978889538350431 0 -0.37748057748168218 -0.34890087465706138 0 -0.38531319018074389 -0.3520798842601604 0 -0.38007730354759078 -0.32978889538350431 0 -0.37748057748168218 -0.34890087465706138 0 -0.38007730354759078 -0.32978889538350431 0 -0.3677926426779346 -0.32585017640098363 0 -0.38531319018074389 -0.3520798842601604 0 -0.38007730354759078 -0.32978889538350431 0 -0.39427696192686867 -0.33445159568203281 0 -0.38007730354759078 -0.32978889538350431 0 -0.38712205538958622 -0.31564116661032049 0 -0.38007730354759078 -0.32978889538350431 0 -0.38712205538958622 -0.31564116661032049 0 -0.37484141691443529 -0.30749790650684888 0 -0.38007730354759078 -0.32978889538350431 0 -0.37484141691443529 -0.30749790650684888 0 -0.39427696192686867 -0.33445159568203281 0 -0.38712205538958622 -0.31564116661032049 0 -0.40099370744674689 -0.32061148206059609 0 -0.39427696192686867 -0.33445159568203281 0 -0.40099370744674689 -0.32061148206059609 0 -0.40099370744674689 -0.32061148206059609 0 -0.41200289544843688 -0.31774887767128063 0 -0.40982811606174452 -0.30240784182323982 0 -0.4122577919971086 -0.33675148947857408 0 -0.42493196628814561 -0.31122469732271141 0 -0.40099370744674689 -0.32061148206059609 0 -0.41200289544843688 -0.31774887767128063 0 -0.4122577919971086 -0.33675148947857408 0 -0.41200289544843688 -0.31774887767128063 0 -0.4122577919971086 -0.33675148947857408 0 -0.42493196628814561 -0.31122469732271141 0 -0.40099370744674689 -0.32061148206059609 0 -0.4122577919971086 -0.33675148947857408 0 -0.4122577919971086 -0.33675148947857408 0 -0.43394790683623657 -0.34303301418617521 0 -0.43504882708437409 -0.32661045604378569 0 -0.4122577919971086 -0.33675148947857408 0 -0.43504882708437409 -0.32661045604378569 0 -0.42493196628814561 -0.31122469732271141 0 -0.43926628138097551 -0.30661232733659899 0 -0.43504882708437409 -0.32661045604378569 0 -0.42493196628814561 -0.31122469732271141 0 -0.42493196628814561 -0.31122469732271141 0 -0.43597028524540149 -0.28620282220298099 0 -0.42493196628814561 -0.31122469732271141 0 -0.43597028524540149 -0.28620282220298099 0 -0.42234822306800818 -0.29600989073370382 0 -0.42493196628814561 -0.31122469732271141 0 -0.43427594803523739 -0.2924051770534587 0 -0.43926628138097551 -0.30661232733659899 0 -0.42493196628814561 -0.31122469732271141 0 -0.43427594803523739 -0.2924051770534587 0 -0.42493196628814561 -0.31122469732271141 0 -0.43427594803523739 -0.2924051770534587 0 -0.43597028524540149 -0.28620282220298099 0 -0.43597028524540149 -0.28620282220298099 0 -0.42234822306800818 -0.29600989073370382 0 -0.41866252467674098 -0.28420420158588289 0 -0.42234822306800818 -0.29600989073370382 0 -0.41866252467674098 -0.28420420158588289 0 -0.40982811606174452 -0.30240784182323982 0 -0.41866252467674098 -0.28420420158588289 0 -0.40295205420417851 -0.29255531551350011 0 -0.40669758581583448 -0.26743991008705842 0 -0.41866252467674098 -0.28420420158588289 0 -0.40982811606174452 -0.30240784182323982 0 -0.41866252467674098 -0.28420420158588289 0 -0.40295205420417851 -0.29255531551350011 0 -0.41866252467674098 -0.28420420158588289 0 -0.40982811606174452 -0.30240784182323982 0 -0.40295205420417851 -0.29255531551350011 0 -0.42493196628814561 -0.31122469732271141 0 -0.42234822306800818 -0.29600989073370382 0 -0.40982811606174452 -0.30240784182323982 0 -0.41200289544843688 -0.31774887767128063 0 -0.42493196628814561 -0.31122469732271141 0 -0.40982811606174452 -0.30240784182323982 0 -0.40099370744674689 -0.32061148206059609 0 -0.40982811606174452 -0.30240784182323982 0 -0.39973669524397382 -0.3038079905567036 0 -0.40099370744674689 -0.32061148206059609 0 -0.40982811606174452 -0.30240784182323982 0 -0.39973669524397382 -0.3038079905567036 0 -0.3872415837316141 -0.30090642944111362 0 -0.40295205420417851 -0.29255531551350011 0 -0.40099370744674689 -0.32061148206059609 0 -0.39973669524397382 -0.3038079905567036 0 -0.3872415837316141 -0.30090642944111362 0 -0.38712205538958622 -0.31564116661032049 0 -0.40099370744674689 -0.32061148206059609 0 -0.3872415837316141 -0.30090642944111362 0 -0.40099370744674689 -0.32061148206059609 0 -0.3872415837316141 -0.30090642944111362 0 -0.40982811606174452 -0.30240784182323982 0 -0.39973669524397382 -0.3038079905567036 0 -0.40295205420417851 -0.29255531551350011 0 -0.38712205538958622 -0.31564116661032049 0 -0.3872415837316141 -0.30090642944111362 0 -0.37484141691443529 -0.30749790650684888 0 -0.3872415837316141 -0.30090642944111362 0 -0.37733365865616503 -0.29722681863388462 0 -0.37484141691443529 -0.30749790650684888 0 -0.3872415837316141 -0.30090642944111362 0 -0.37484141691443529 -0.30749790650684888 0 -0.3872415837316141 -0.30090642944111362 0 -0.37672930875763372 -0.28584366998637822 0 -0.39220399970382108 -0.27952123861344169 0 -0.3872415837316141 -0.30090642944111362 0 -0.37733365865616503 -0.29722681863388462 0 -0.37672930875763372 -0.28584366998637822 0 -0.3872415837316141 -0.30090642944111362 0 -0.37672930875763372 -0.28584366998637822 0 -0.3872415837316141 -0.30090642944111362 0 -0.40295205420417851 -0.29255531551350011 0 -0.3872415837316141 -0.30090642944111362 0 -0.40295205420417851 -0.29255531551350011 0 -0.39220399970382108 -0.27952123861344169 0 -0.40295205420417851 -0.29255531551350011 0 -0.39220399970382108 -0.27952123861344169 0 -0.40669758581583448 -0.26743991008705842 0 -0.39220399970382108 -0.27952123861344169 0 -0.38265275165652918 -0.26654448607639247 0 -0.40669758581583448 -0.26743991008705842 0 -0.37672930875763372 -0.28584366998637822 0 -0.38265275165652918 -0.26654448607639247 0 -0.36621703378365422 -0.27078091053164222 0 -0.37672930875763372 -0.28584366998637822 0 -0.39220399970382108 -0.27952123861344169 0 -0.38265275165652918 -0.26654448607639247 0 -0.38265275165652918 -0.26654448607639247 0 -0.39208886696519007 -0.25326531818076359 0 -0.37497438621630619 -0.25056020184208438 0 -0.38265275165652918 -0.26654448607639247 0 -0.39208886696519007 -0.25326531818076359 0 -0.40669758581583448 -0.26743991008705842 0 -0.39208886696519007 -0.25326531818076359 0 -0.40669758581583448 -0.26743991008705842 0 -0.41589114755914408 -0.24313452901118929 0 -0.42116224799238389 -0.25700374701784662 0 -0.40669758581583448 -0.26743991008705842 0 -0.41589114755914408 -0.24313452901118929 0 -0.42116224799238389 -0.25700374701784662 0 -0.40669758581583448 -0.26743991008705842 0 -0.42690759442376608 -0.26721491685300741 0 -0.41866252467674098 -0.28420420158588289 0 -0.40669758581583448 -0.26743991008705842 0 -0.42690759442376608 -0.26721491685300741 0 -0.44091070517908981 -0.27237787910993838 0 -0.41866252467674098 -0.28420420158588289 0 -0.42690759442376608 -0.26721491685300741 0 -0.44091070517908981 -0.27237787910993838 0 -0.43597028524540149 -0.28620282220298099 0 -0.41866252467674098 -0.28420420158588289 0 -0.44091070517908981 -0.27237787910993838 0 -0.41866252467674098 -0.28420420158588289 0 -0.41866252467674098 -0.28420420158588289 0 -0.42690759442376608 -0.26721491685300741 0 -0.43889065781272357 -0.25976048621561382 0 -0.44091070517908981 -0.27237787910993838 0 -0.42690759442376608 -0.26721491685300741 0 -0.42116224799238389 -0.25700374701784662 0 -0.43515266417079101 -0.2502256321201316 0 -0.41589114755914408 -0.24313452901118929 0 -0.43889065781272357 -0.25976048621561382 0 -0.42690759442376608 -0.26721491685300741 0 -0.43515266417079101 -0.2502256321201316 0 -0.42690759442376608 -0.26721491685300741 0 -0.43515266417079101 -0.2502256321201316 0 -0.42116224799238389 -0.25700374701784662 0 -0.42690759442376608 -0.26721491685300741 0 -0.43515266417079101 -0.2502256321201316 0 -0.32476054388628972 -0.26512147044745199 0 -0.31224782762896908 -0.25694043905287578 0 -0.32902662723973952 -0.24995314561344231 0 -0.32476054388628972 -0.26512147044745199 0 -0.31034107885493167 -0.27414376672779323 0 -0.31224782762896908 -0.25694043905287578 0 -0.33103701534712721 -0.27893093571679262 0 -0.32291609774739299 -0.29000606812966062 0 -0.31034107885493167 -0.27414376672779323 0 -0.32476054388628972 -0.26512147044745199 0 -0.33103701534712721 -0.27893093571679262 0 -0.31034107885493167 -0.27414376672779323 0 -0.32476054388628972 -0.26512147044745199 0 -0.33103701534712721 -0.27893093571679262 0 -0.33962204729269319 -0.26674414087508269 0 -0.33103701534712721 -0.27893093571679262 0 -0.33962204729269319 -0.26674414087508269 0 -0.34743916862230001 -0.28370610772885929 0 -0.32476054388628972 -0.26512147044745199 0 -0.33962204729269319 -0.26674414087508269 0 -0.32902662723973952 -0.24995314561344231 0 -0.33962204729269319 -0.26674414087508269 0 -0.3445951553371811 -0.24845299757837119 0 -0.32902662723973952 -0.24995314561344231 0 -0.33962204729269319 -0.26674414087508269 0 -0.35712271818797692 -0.2577499073889204 0 -0.3445951553371811 -0.24845299757837119 0 -0.37497438621630619 -0.25056020184208438 0 -0.36621703378365422 -0.27078091053164222 0 -0.35939052077907929 -0.2417180724465379 0 -0.36621703378365422 -0.27078091053164222 0 -0.35939052077907929 -0.2417180724465379 0 -0.35712271818797692 -0.2577499073889204 0 -0.36621703378365422 -0.27078091053164222 0 -0.35939052077907929 -0.2417180724465379 0 -0.38265275165652918 -0.26654448607639247 0 -0.37497438621630619 -0.25056020184208438 0 -0.36621703378365422 -0.27078091053164222 0 -0.35712271818797692 -0.2577499073889204 0 -0.36621703378365422 -0.27078091053164222 0 -0.36621703378365422 -0.27078091053164222 0 -0.35918851098308963 -0.28258259452368251 0 -0.37052922534904559 -0.28913940851924541 0 -0.36621703378365422 -0.27078091053164222 0 -0.37052922534904559 -0.28913940851924541 0 -0.37672930875763372 -0.28584366998637822 0 -0.36621703378365422 -0.27078091053164222 0 -0.36621703378365422 -0.27078091053164222 0 -0.35399027208298262 -0.27233652835550393 0 -0.35918851098308963 -0.28258259452368251 0 -0.35399027208298262 -0.27233652835550393 0 -0.34743916862230001 -0.28370610772885929 0 -0.35918851098308963 -0.28258259452368251 0 -0.33962204729269319 -0.26674414087508269 0 -0.35712271818797692 -0.2577499073889204 0 -0.35399027208298262 -0.27233652835550393 0 -0.33962204729269319 -0.26674414087508269 0 -0.35399027208298262 -0.27233652835550393 0 -0.34743916862230001 -0.28370610772885929 0 -0.35712271818797692 -0.2577499073889204 0 -0.36621703378365422 -0.27078091053164222 0 -0.35399027208298262 -0.27233652835550393 0 -0.34743916862230001 -0.28370610772885929 0 -0.35776685507746397 -0.2969500174831623 0 -0.34114315567915549 -0.29386406039190799 0 -0.34743916862230001 -0.28370610772885929 0 -0.35918851098308963 -0.28258259452368251 0 -0.35776685507746397 -0.2969500174831623 0 -0.37672930875763372 -0.28584366998637822 0 -0.36621703378365422 -0.27078091053164222 0 -0.37052922534904559 -0.28913940851924541 0 -0.35918851098308963 -0.28258259452368251 0 -0.37052922534904559 -0.28913940851924541 0 -0.35776685507746397 -0.2969500174831623 0 -0.37733365865616503 -0.29722681863388462 0 -0.37672930875763372 -0.28584366998637822 0 -0.37052922534904559 -0.28913940851924541 0 -0.37052922534904559 -0.28913940851924541 0 -0.37484141691443529 -0.30749790650684888 0 -0.35776685507746397 -0.2969500174831623 0 -0.37484141691443529 -0.30749790650684888 0 -0.35776685507746397 -0.2969500174831623 0 -0.3614537762233746 -0.31461428872011982 0 -0.37733365865616503 -0.29722681863388462 0 -0.37052922534904559 -0.28913940851924541 0 -0.37484141691443529 -0.30749790650684888 0 -0.37052922534904559 -0.28913940851924541 0 -0.37484141691443529 -0.30749790650684888 0 -0.37484141691443529 -0.30749790650684888 0 -0.3614537762233746 -0.31461428872011982 0 -0.35776685507746397 -0.2969500174831623 0 -0.34941085022565033 -0.30712677526213961 0 -0.34114315567915549 -0.29386406039190799 0 -0.35776685507746397 -0.2969500174831623 0 -0.34941085022565033 -0.30712677526213961 0 -0.3614537762233746 -0.31461428872011982 0 -0.34941085022565033 -0.30712677526213961 0 -0.3354911166398542 -0.30586836953152802 0 -0.34806613553231619 -0.3217306709333948 0 -0.3354911166398542 -0.30586836953152802 0 -0.32291609774739299 -0.29000606812966062 0 -0.34941085022565033 -0.30712677526213961 0 -0.3354911166398542 -0.30586836953152802 0 -0.34114315567915549 -0.29386406039190799 0 -0.3354911166398542 -0.30586836953152802 0 -0.34114315567915549 -0.29386406039190799 0 -0.32291609774739299 -0.29000606812966062 0 -0.33103701534712721 -0.27893093571679262 0 -0.34114315567915549 -0.29386406039190799 0 -0.32291609774739299 -0.29000606812966062 0 -0.33103701534712721 -0.27893093571679262 0 -0.34743916862230001 -0.28370610772885929 0 -0.34114315567915549 -0.29386406039190799 0 -0.32291609774739299 -0.29000606812966062 0 -0.31034107885493167 -0.27414376672779323 0 -0.32291609774739299 -0.29000606812966062 0 -0.30991515307007661 -0.30168615568957668 0 -0.31034107885493167 -0.27414376672779323 0 -0.32291609774739299 -0.29000606812966062 0 -0.32548674818356538 -0.30957020149044517 0 -0.30991515307007661 -0.30168615568957668 0 -0.32548674818356538 -0.30957020149044517 0 -0.31701288711366149 -0.32240402384892353 0 -0.30991515307007661 -0.30168615568957668 0 -0.3354911166398542 -0.30586836953152802 0 -0.32291609774739299 -0.29000606812966062 0 -0.32548674818356538 -0.30957020149044517 0 -0.31701288711366149 -0.32240402384892353 0 -0.33004549371929848 -0.3313097878091143 0 -0.32919791804769277 -0.32176126006745132 0 -0.32548674818356538 -0.30957020149044517 0 -0.31701288711366149 -0.32240402384892353 0 -0.32919791804769277 -0.32176126006745132 0 -0.31701288711366149 -0.32240402384892353 0 -0.31584444426435099 -0.33885854849690661 0 -0.33004549371929848 -0.3313097878091143 0 -0.31584444426435099 -0.33885854849690661 0 -0.33004549371929848 -0.3313097878091143 0 -0.32802324768148322 -0.34584975608853868 0 -0.31584444426435099 -0.33885854849690661 0 -0.33004549371929848 -0.3313097878091143 0 -0.33004549371929848 -0.3313097878091143 0 -0.33696049143236573 -0.34023307930720581 0 -0.32802324768148322 -0.34584975608853868 0 -0.33696049143236573 -0.34023307930720581 0 -0.34251022353025112 -0.33458918081437372 0 -0.3485912057948054 -0.34162866955638238 0 -0.33696049143236573 -0.34023307930720581 0 -0.3485912057948054 -0.34162866955638238 0 -0.34229023774577882 -0.34932644104505362 0 -0.33004549371929848 -0.3313097878091143 0 -0.34251022353025112 -0.33458918081437372 0 -0.34424654317424591 -0.3237610271213221 0 -0.33004549371929848 -0.3313097878091143 0 -0.33696049143236573 -0.34023307930720581 0 -0.34251022353025112 -0.33458918081437372 0 -0.3354911166398542 -0.30586836953152802 0 -0.32548674818356538 -0.30957020149044517 0 -0.34424654317424591 -0.3237610271213221 0 -0.32548674818356538 -0.30957020149044517 0 -0.32919791804769277 -0.32176126006745132 0 -0.34424654317424591 -0.3237610271213221 0 -0.3354911166398542 -0.30586836953152802 0 -0.34424654317424591 -0.3237610271213221 0 -0.34806613553231619 -0.3217306709333948 0 -0.32548674818356538 -0.30957020149044517 0 -0.34424654317424591 -0.3237610271213221 0 -0.3354911166398542 -0.30586836953152802 0 -0.34806613553231619 -0.3217306709333948 0 -0.33004549371929848 -0.3313097878091143 0 -0.34424654317424591 -0.3237610271213221 0 -0.33004549371929848 -0.3313097878091143 0 -0.32919791804769277 -0.32176126006745132 0 -0.34424654317424591 -0.3237610271213221 0 -0.34806613553231619 -0.3217306709333948 0 -0.3614537762233746 -0.31461428872011982 0 -0.35780875902938009 -0.33402014991366208 0 -0.34424654317424591 -0.3237610271213221 0 -0.34806613553231619 -0.3217306709333948 0 -0.35780875902938009 -0.33402014991366208 0 -0.34424654317424591 -0.3237610271213221 0 -0.34806613553231619 -0.3217306709333948 0 -0.34806613553231619 -0.3217306709333948 0 -0.35780875902938009 -0.33402014991366208 0 -0.34806613553231619 -0.3217306709333948 0 -0.3614537762233746 -0.31461428872011982 0 -0.34941085022565033 -0.30712677526213961 0 -0.34806613553231619 -0.3217306709333948 0 -0.3614537762233746 -0.31461428872011982 0 -0.38007730354759078 -0.32978889538350431 0 -0.37484141691443529 -0.30749790650684888 0 -0.3677926426779346 -0.32585017640098363 0 -0.3677926426779346 -0.32585017640098363 0 -0.3614537762233746 -0.31461428872011982 0 -0.35780875902938009 -0.33402014991366208 0 -0.37484141691443529 -0.30749790650684888 0 -0.3677926426779346 -0.32585017640098363 0 -0.3614537762233746 -0.31461428872011982 0 -0.37748057748168218 -0.34890087465706138 0 -0.3677926426779346 -0.32585017640098363 0 -0.35780875902938009 -0.33402014991366208 0 -0.37748057748168218 -0.34890087465706138 0 -0.35780875902938009 -0.33402014991366208 0 -0.36586976484609429 -0.34418841327456878 0 -0.37748057748168218 -0.34890087465706138 0 -0.35780875902938009 -0.33402014991366208 0 -0.35780875902938009 -0.33402014991366208 0 -0.36586976484609429 -0.34418841327456878 0 -0.35624209612074648 -0.34028084724145752 0 -0.36586976484609429 -0.34418841327456878 0 -0.35624209612074648 -0.34028084724145752 0 -0.35780875902938009 -0.33402014991366208 0 -0.36586976484609429 -0.34418841327456878 0 -0.35624209612074648 -0.34028084724145752 0 -0.35780875902938009 -0.33402014991366208 0 -0.34987976552988592 -0.33485597492943953 0 -0.35624209612074648 -0.34028084724145752 0 -0.3485912057948054 -0.34162866955638238 0 -0.35748126336873848 -0.34902530349059341 0 -0.34424654317424591 -0.3237610271213221 0 -0.35780875902938009 -0.33402014991366208 0 -0.34987976552988592 -0.33485597492943953 0 -0.34424654317424591 -0.3237610271213221 0 -0.35780875902938009 -0.33402014991366208 0 -0.34251022353025112 -0.33458918081437372 0 -0.34424654317424591 -0.3237610271213221 0 -0.34987976552988592 -0.33485597492943953 0 -0.35624209612074648 -0.34028084724145752 0 -0.34987976552988592 -0.33485597492943953 0 -0.3485912057948054 -0.34162866955638238 0 -0.34251022353025112 -0.33458918081437372 0 -0.34987976552988592 -0.33485597492943953 0 -0.3485912057948054 -0.34162866955638238 0 -0.3485912057948054 -0.34162866955638238 0 -0.35748126336873848 -0.34902530349059341 0 -0.34229023774577882 -0.34932644104505362 0 -0.35358510873320598 -0.35861341522647988 0 -0.35748126336873848 -0.34902530349059341 0 -0.34229023774577882 -0.34932644104505362 0 -0.37682965701864968 -0.3580133716670596 0 -0.35358510873320598 -0.35861341522647988 0 -0.37682965701864968 -0.3580133716670596 0 -0.35358510873320598 -0.35861341522647988 0 -0.35748126336873848 -0.34902530349059341 0 -0.37682965701864968 -0.3580133716670596 0 -0.35748126336873848 -0.34902530349059341 0 -0.36586976484609429 -0.34418841327456878 0 -0.35624209612074648 -0.34028084724145752 0 -0.35748126336873848 -0.34902530349059341 0 -0.36586976484609429 -0.34418841327456878 0 -0.37748057748168218 -0.34890087465706138 0 -0.36586976484609429 -0.34418841327456878 0 -0.37748057748168218 -0.34890087465706138 0 -0.37682965701864968 -0.3580133716670596 0 -0.36586976484609429 -0.34418841327456878 0 -0.37682965701864968 -0.3580133716670596 0 -0.36586976484609429 -0.34418841327456878 0 -0.37682965701864968 -0.3580133716670596 0 -0.35358510873320598 -0.35861341522647988 0 -0.35809495027582222 -0.37374339601652612 0 -0.37682965701864968 -0.3580133716670596 0 -0.35809495027582222 -0.37374339601652612 0 -0.37158788119171299 -0.37582068762881671 0 -0.35358510873320598 -0.35861341522647988 0 -0.35809495027582222 -0.37374339601652612 0 -0.34156632930004283 -0.37300361994040698 0 -0.34156632930004283 -0.37300361994040698 0 -0.33034056044776239 -0.35921345878589822 0 -0.32234102201133169 -0.37700782005101752 0 -0.35358510873320598 -0.35861341522647988 0 -0.34156632930004283 -0.37300361994040698 0 -0.33034056044776239 -0.35921345878589822 0 -0.35358510873320598 -0.35861341522647988 0 -0.33034056044776239 -0.35921345878589822 0 -0.35358510873320598 -0.35861341522647988 0 -0.34229023774577882 -0.34932644104505362 0 -0.33034056044776239 -0.35921345878589822 0 -0.33696049143236573 -0.34023307930720581 0 -0.34229023774577882 -0.34932644104505362 0 -0.32802324768148322 -0.34584975608853868 0 -0.34229023774577882 -0.34932644104505362 0 -0.33034056044776239 -0.35921345878589822 0 -0.32802324768148322 -0.34584975608853868 0 -0.33034056044776239 -0.35921345878589822 0 -0.32802324768148322 -0.34584975608853868 0 -0.31761123230819888 -0.35495491541363489 0 -0.31584444426435099 -0.33885854849690661 0 -0.32802324768148322 -0.34584975608853868 0 -0.31761123230819888 -0.35495491541363489 0 -0.31761123230819888 -0.35495491541363489 0 -0.30121203899057297 -0.35757563047991892 0 -0.32234102201133169 -0.37700782005101752 0 -0.33034056044776239 -0.35921345878589822 0 -0.31761123230819888 -0.35495491541363489 0 -0.32234102201133169 -0.37700782005101752 0 -0.30121203899057297 -0.35757563047991892 0 -0.32234102201133169 -0.37700782005101752 0 -0.30121203899057297 -0.35757563047991892 0 -0.32234102201133169 -0.37700782005101752 0 -0.30556465915130049 -0.37878672010880632 0 -0.30121203899057297 -0.35757563047991892 0 -0.29484163223803678 -0.36978311311353662 0 -0.30556465915130049 -0.37878672010880632 0 -0.31584444426435099 -0.33885854849690661 0 -0.31761123230819888 -0.35495491541363489 0 -0.30121203899057297 -0.35757563047991892 0 -0.30121203899057297 -0.35757563047991892 0 -0.28008305596981448 -0.33814344090882043 0 -0.30121203899057297 -0.35757563047991892 0 -0.28081050546990233 -0.36348039131310539 0 -0.28008305596981448 -0.33814344090882043 0 -0.29484163223803678 -0.36978311311353662 0 -0.28081050546990233 -0.36348039131310539 0 -0.29037013545561169 -0.38055510458701541 0 -0.30121203899057297 -0.35757563047991892 0 -0.29484163223803678 -0.36978311311353662 0 -0.28081050546990233 -0.36348039131310539 0 -0.28081050546990233 -0.36348039131310539 0 -0.2588950241192306 -0.35306592533703213 0 -0.26942999121470212 -0.37995935712223378 0 -0.28081050546990233 -0.36348039131310539 0 -0.26942999121470212 -0.37995935712223378 0 -0.28081050546990233 -0.36348039131310539 0 -0.29037013545561169 -0.38055510458701541 0 -0.26942999121470212 -0.37995935712223378 0 -0.2503155090110683 -0.36625896225040039 0 -0.2588950241192306 -0.35306592533703213 0 -0.26942999121470212 -0.37995935712223378 0 -0.2588950241192306 -0.35306592533703213 0 -0.26942999121470212 -0.37995935712223378 0 -0.28081050546990233 -0.36348039131310539 0 -0.2588950241192306 -0.35306592533703213 0 -0.28008305596981448 -0.33814344090882043 0 -0.2588950241192306 -0.35306592533703213 0 -0.28008305596981448 -0.33814344090882043 0 -0.26292320095256932 -0.33559860816980658 0 -0.28008305596981448 -0.33814344090882043 0 -0.25895407294905581 -0.31871125133772182 0 -0.28008305596981448 -0.33814344090882043 0 -0.26292320095256932 -0.33559860816980658 0 -0.25895407294905581 -0.31871125133772182 0 -0.2588950241192306 -0.35306592533703213 0 -0.26292320095256932 -0.33559860816980658 0 -0.24836005702376021 -0.32617249355183009 0 -0.2588950241192306 -0.35306592533703213 0 -0.24836005702376021 -0.32617249355183009 0 -0.26292320095256932 -0.33559860816980658 0 -0.25895407294905581 -0.31871125133772182 0 -0.24836005702376021 -0.32617249355183009 0 -0.28008305596981448 -0.33814344090882043 0 -0.25895407294905581 -0.31871125133772182 0 -0.28273870017266278 -0.31717095039734278 0 -0.28273870017266278 -0.31717095039734278 0 -0.29911909825377941 -0.33283926758755888 0 -0.30046593584532438 -0.31581409644353942 0 -0.30121203899057297 -0.35757563047991892 0 -0.28008305596981448 -0.33814344090882043 0 -0.29911909825377941 -0.33283926758755888 0 -0.28008305596981448 -0.33814344090882043 0 -0.28273870017266278 -0.31717095039734278 0 -0.29911909825377941 -0.33283926758755888 0 -0.31701288711366149 -0.32240402384892353 0 -0.31584444426435099 -0.33885854849690661 0 -0.29911909825377941 -0.33283926758755888 0 -0.31584444426435099 -0.33885854849690661 0 -0.30121203899057297 -0.35757563047991892 0 -0.29911909825377941 -0.33283926758755888 0 -0.31701288711366149 -0.32240402384892353 0 -0.29911909825377941 -0.33283926758755888 0 -0.30046593584532438 -0.31581409644353942 0 -0.31701288711366149 -0.32240402384892353 0 -0.30046593584532438 -0.31581409644353942 0 -0.30991515307007661 -0.30168615568957668 0 -0.30046593584532438 -0.31581409644353942 0 -0.30991515307007661 -0.30168615568957668 0 -0.29102153294544147 -0.2972675529120824 0 -0.30991515307007661 -0.30168615568957668 0 -0.29102153294544147 -0.2972675529120824 0 -0.31034107885493167 -0.27414376672779323 0 -0.29102153294544147 -0.2972675529120824 0 -0.28256824031174949 -0.2742724088468087 0 -0.31034107885493167 -0.27414376672779323 0 -0.29102153294544147 -0.2972675529120824 0 -0.28256824031174949 -0.2742724088468087 0 -0.28273870017266278 -0.31717095039734278 0 -0.30046593584532438 -0.31581409644353942 0 -0.29102153294544147 -0.2972675529120824 0 -0.28273870017266278 -0.31717095039734278 0 -0.29102153294544147 -0.2972675529120824 0 -0.2678895354199412 -0.29730471196520819 0 -0.25895407294905581 -0.31871125133772182 0 -0.28273870017266278 -0.31717095039734278 0 -0.2678895354199412 -0.29730471196520819 0 -0.25895407294905581 -0.31871125133772182 0 -0.2678895354199412 -0.29730471196520819 0 -0.23782508992829429 -0.29927906176662639 0 -0.2678895354199412 -0.29730471196520819 0 -0.25556737118846129 -0.2777034208580284 0 -0.23782508992829429 -0.29927906176662639 0 -0.29102153294544147 -0.2972675529120824 0 -0.2678895354199412 -0.29730471196520819 0 -0.28256824031174949 -0.2742724088468087 0 -0.2678895354199412 -0.29730471196520819 0 -0.25556737118846129 -0.2777034208580284 0 -0.28256824031174949 -0.2742724088468087 0 -0.25556737118846129 -0.2777034208580284 0 -0.26062413518602789 -0.26090660968127988 0 -0.28256824031174949 -0.2742724088468087 0 -0.26062413518602789 -0.26090660968127988 0 -0.2393768668894786 -0.25582451898022163 0 -0.2581986285306509 -0.2447208203320011 0 -0.25556737118846129 -0.2777034208580284 0 -0.26062413518602789 -0.26090660968127988 0 -0.2393768668894786 -0.25582451898022163 0 -0.26062413518602789 -0.26090660968127988 0 -0.27411494767805761 -0.25127726478153489 0 -0.2581986285306509 -0.2447208203320011 0 -0.26062413518602789 -0.26090660968127988 0 -0.27411494767805761 -0.25127726478153489 0 -0.28256824031174949 -0.2742724088468087 0 -0.27411494767805761 -0.25127726478153489 0 -0.28256824031174949 -0.2742724088468087 0 -0.27411494767805761 -0.25127726478153489 0 -0.29338529096400301 -0.25771546205265577 0 -0.28256824031174949 -0.2742724088468087 0 -0.29338529096400301 -0.25771546205265577 0 -0.28256824031174949 -0.2742724088468087 0 -0.31034107885493167 -0.27414376672779323 0 -0.29338529096400301 -0.25771546205265577 0 -0.31224782762896908 -0.25694043905287578 0 -0.30066928905000129 -0.2428974283370558 0 -0.29338529096400301 -0.25771546205265577 0 -0.31034107885493167 -0.27414376672779323 0 -0.31224782762896908 -0.25694043905287578 0 -0.32429330855498523 -0.45430399770136121 0 -0.3309604670398717 -0.47646953553283511 0 -0.34397771396762461 -0.45646607793899241 0 -0.32429330855498523 -0.45430399770136121 0 -0.34397771396762461 -0.45646607793899241 0 -0.34276266808960082 -0.43574294500490612 0 -0.32429330855498523 -0.45430399770136121 0 -0.34276266808960082 -0.43574294500490612 0 -0.32017161180505449 -0.4296277099892265 0 -0.32429330855498523 -0.45430399770136121 0 -0.34276266808960082 -0.43574294500490612 0 -0.32429330855498523 -0.45430399770136121 0 -0.32017161180505449 -0.4296277099892265 0 -0.29672545956894841 -0.44963862707892099 0 -0.32429330855498523 -0.45430399770136121 0 -0.30597565035569507 -0.47325231022278541 0 -0.32429330855498523 -0.45430399770136121 0 -0.3309604670398717 -0.47646953553283511 0 -0.30597565035569507 -0.47325231022278541 0 -0.31645352591778048 -0.49999999999999872 0 -0.3309604670398717 -0.47646953553283511 0 -0.30597565035569507 -0.47325231022278541 0 -0.31645352591778048 -0.49999999999999872 0 -0.34165435450910431 -0.50000000000000377 0 -0.3309604670398717 -0.47646953553283511 0 -0.34165435450910431 -0.50000000000000377 0 -0.3309604670398717 -0.47646953553283511 0 -0.35266219025924178 -0.47504722480434369 0 -0.3309604670398717 -0.47646953553283511 0 -0.35266219025924178 -0.47504722480434369 0 -0.34397771396762461 -0.45646607793899241 0 -0.34165435450910431 -0.50000000000000377 0 -0.35266219025924178 -0.47504722480434369 0 -0.34165435450910431 -0.50000000000000377 0 -0.35266219025924178 -0.47504722480434369 0 -0.36495304448370319 -0.48465205529135491 0 -0.34165435450910431 -0.50000000000000377 0 -0.37025894555823341 -0.5 0 -0.36495304448370319 -0.48465205529135491 0 -0.38866249699820049 -0.48363940847260178 0 -0.37025894555823341 -0.5 0 -0.36495304448370319 -0.48465205529135491 0 -0.38866249699820049 -0.48363940847260178 0 -0.36495304448370319 -0.48465205529135491 0 -0.36754531370280219 -0.4700663554132325 0 -0.35266219025924178 -0.47504722480434369 0 -0.36495304448370319 -0.48465205529135491 0 -0.36754531370280219 -0.4700663554132325 0 -0.35266219025924178 -0.47504722480434369 0 -0.36754531370280219 -0.4700663554132325 0 -0.36367002600937809 -0.45009444960868289 0 -0.37948549180955898 -0.46178005315813342 0 -0.36754531370280219 -0.4700663554132325 0 -0.36367002600937809 -0.45009444960868289 0 -0.35266219025924178 -0.47504722480434369 0 -0.34397771396762461 -0.45646607793899241 0 -0.36367002600937809 -0.45009444960868289 0 -0.35266219025924178 -0.47504722480434369 0 -0.36367002600937809 -0.45009444960868289 0 -0.34397771396762461 -0.45646607793899241 0 -0.36367002600937809 -0.45009444960868289 0 -0.34276266808960082 -0.43574294500490612 0 -0.36367002600937809 -0.45009444960868289 0 -0.37467786175951029 -0.42514167441302059 0 -0.37850361487224571 -0.44656369719318167 0 -0.37948549180955898 -0.46178005315813342 0 -0.36367002600937809 -0.45009444960868289 0 -0.37850361487224571 -0.44656369719318167 0 -0.36367002600937809 -0.45009444960868289 0 -0.37467786175951029 -0.42514167441302059 0 -0.36367002600937809 -0.45009444960868289 0 -0.36795769594655742 -0.42597539617260222 0 -0.37467786175951029 -0.42514167441302059 0 -0.36795769594655742 -0.42597539617260222 0 -0.37467786175951029 -0.42514167441302059 0 -0.37034854734929579 -0.4211600318394465 0 -0.36795769594655742 -0.42597539617260222 0 -0.37034854734929579 -0.4211600318394465 0 -0.37467786175951029 -0.42514167441302059 0 -0.37034854734929579 -0.4211600318394465 0 -0.37892870089931707 -0.4038789221349901 0 -0.37034854734929579 -0.4211600318394465 0 -0.35690927619069329 -0.40880002073078098 0 -0.37892870089931707 -0.4038789221349901 0 -0.37034854734929579 -0.4211600318394465 0 -0.37034854734929579 -0.4211600318394465 0 -0.36123202762421641 -0.41718189230845099 0 -0.35690927619069329 -0.40880002073078098 0 -0.36795769594655742 -0.42597539617260222 0 -0.37034854734929579 -0.4211600318394465 0 -0.36123202762421641 -0.41718189230845099 0 -0.37034854734929579 -0.4211600318394465 0 -0.35690927619069329 -0.40880002073078098 0 -0.36123202762421641 -0.41718189230845099 0 -0.35690927619069329 -0.40880002073078098 0 -0.34865199484583342 -0.41679766830964782 0 -0.34639167748351402 -0.40923264828897232 0 -0.34865199484583342 -0.41679766830964782 0 -0.33653543386543888 -0.41489289449334449 0 -0.35690927619069329 -0.40880002073078098 0 -0.34639167748351402 -0.40923264828897232 0 -0.34865199484583342 -0.41679766830964782 0 -0.36123202762421641 -0.41718189230845099 0 -0.34865199484583342 -0.41679766830964782 0 -0.34276266808960082 -0.43574294500490612 0 -0.36367002600937809 -0.45009444960868289 0 -0.36795769594655742 -0.42597539617260222 0 -0.34276266808960082 -0.43574294500490612 0 -0.36123202762421641 -0.41718189230845099 0 -0.34276266808960082 -0.43574294500490612 0 -0.36795769594655742 -0.42597539617260222 0 -0.36123202762421641 -0.41718189230845099 0 -0.34276266808960082 -0.43574294500490612 0 -0.35809495027582222 -0.37374339601652612 0 -0.37158788119171299 -0.37582068762881671 0 -0.36548942974071619 -0.3915189110263248 0 -0.38261724061142721 -0.3791310180187335 0 -0.37158788119171299 -0.37582068762881671 0 -0.36548942974071619 -0.3915189110263248 0 -0.37892870089931707 -0.4038789221349901 0 -0.35690927619069329 -0.40880002073078098 0 -0.36548942974071619 -0.3915189110263248 0 -0.35690927619069329 -0.40880002073078098 0 -0.36548942974071619 -0.3915189110263248 0 -0.34347000503209207 -0.39644000962211418 0 -0.36548942974071619 -0.3915189110263248 0 -0.34347000503209207 -0.39644000962211418 0 -0.35690927619069329 -0.40880002073078098 0 -0.34639167748351402 -0.40923264828897232 0 -0.34347000503209207 -0.39644000962211418 0 -0.35690927619069329 -0.40880002073078098 0 -0.34347000503209207 -0.39644000962211418 0 -0.35809495027582222 -0.37374339601652612 0 -0.34156632930004283 -0.37300361994040698 0 -0.34347000503209207 -0.39644000962211418 0 -0.35809495027582222 -0.37374339601652612 0 -0.36548942974071619 -0.3915189110263248 0 -0.34347000503209207 -0.39644000962211418 0 -0.34347000503209207 -0.39644000962211418 0 -0.32234102201133169 -0.37700782005101752 0 -0.34156632930004283 -0.37300361994040698 0 -0.34347000503209207 -0.39644000962211418 0 -0.32234102201133169 -0.37700782005101752 0 -0.34347000503209207 -0.39644000962211418 0 -0.317496520034734 -0.402244797087707 0 -0.34347000503209207 -0.39644000962211418 0 -0.317496520034734 -0.402244797087707 0 -0.33653543386543888 -0.41489289449334449 0 -0.34347000503209207 -0.39644000962211418 0 -0.317496520034734 -0.402244797087707 0 -0.32234102201133169 -0.37700782005101752 0 -0.317496520034734 -0.402244797087707 0 -0.32234102201133169 -0.37700782005101752 0 -0.30556465915130049 -0.37878672010880632 0 -0.34865199484583342 -0.41679766830964782 0 -0.34276266808960082 -0.43574294500490612 0 -0.33653543386543888 -0.41489289449334449 0 -0.34276266808960082 -0.43574294500490612 0 -0.33653543386543888 -0.41489289449334449 0 -0.32017161180505449 -0.4296277099892265 0 -0.34639167748351402 -0.40923264828897232 0 -0.34347000503209207 -0.39644000962211418 0 -0.33653543386543888 -0.41489289449334449 0 -0.317496520034734 -0.402244797087707 0 -0.32017161180505449 -0.4296277099892265 0 -0.30270871931272908 -0.42319458449383618 0 -0.317496520034734 -0.402244797087707 0 -0.33653543386543888 -0.41489289449334449 0 -0.32017161180505449 -0.4296277099892265 0 -0.32017161180505449 -0.4296277099892265 0 -0.30270871931272908 -0.42319458449383618 0 -0.29672545956894841 -0.44963862707892099 0 -0.317496520034734 -0.402244797087707 0 -0.30270871931272908 -0.42319458449383618 0 -0.29152303503737631 -0.4080495845533012 0 -0.29152303503737631 -0.4080495845533012 0 -0.28762697011753258 -0.42641220376002542 0 -0.2785284806661168 -0.40318578044112968 0 -0.30270871931272908 -0.42319458449383618 0 -0.29152303503737631 -0.4080495845533012 0 -0.28762697011753258 -0.42641220376002542 0 -0.28762697011753258 -0.42641220376002542 0 -0.2785284806661168 -0.40318578044112968 0 -0.30270871931272908 -0.42319458449383618 0 -0.28762697011753258 -0.42641220376002542 0 -0.29672545956894841 -0.44963862707892099 0 -0.30556465915130049 -0.37878672010880632 0 -0.29900967244129978 -0.39284252497351368 0 -0.29037013545561169 -0.38055510458701541 0 -0.317496520034734 -0.402244797087707 0 -0.30556465915130049 -0.37878672010880632 0 -0.29900967244129978 -0.39284252497351368 0 -0.317496520034734 -0.402244797087707 0 -0.29152303503737631 -0.4080495845533012 0 -0.29900967244129978 -0.39284252497351368 0 -0.317496520034734 -0.402244797087707 0 -0.29152303503737631 -0.4080495845533012 0 -0.29152303503737631 -0.4080495845533012 0 -0.28577226296302111 -0.39291847033543892 0 -0.2785284806661168 -0.40318578044112968 0 -0.29152303503737631 -0.4080495845533012 0 -0.29900967244129978 -0.39284252497351368 0 -0.28577226296302111 -0.39291847033543892 0 -0.28577226296302111 -0.39291847033543892 0 -0.29037013545561169 -0.38055510458701541 0 -0.26942999121470212 -0.37995935712223378 0 -0.29900967244129978 -0.39284252497351368 0 -0.28577226296302111 -0.39291847033543892 0 -0.29037013545561169 -0.38055510458701541 0 -0.29484163223803678 -0.36978311311353662 0 -0.30556465915130049 -0.37878672010880632 0 -0.29037013545561169 -0.38055510458701541 0 -0.26942999121470212 -0.37995935712223378 0 -0.26883293235450528 -0.39799703745830911 0 -0.25997919002844572 -0.39364410160081209 0 -0.26942999121470212 -0.37995935712223378 0 -0.26883293235450528 -0.39799703745830911 0 -0.2785284806661168 -0.40318578044112968 0 -0.26942999121470212 -0.37995935712223378 0 -0.2785284806661168 -0.40318578044112968 0 -0.28577226296302111 -0.39291847033543892 0 -0.26942999121470212 -0.37995935712223378 0 -0.2785284806661168 -0.40318578044112968 0 -0.26883293235450528 -0.39799703745830911 0 -0.26400100313782332 -0.40504119886049339 0 -0.27222599672543751 -0.40815474926687589 0 -0.26883293235450528 -0.39799703745830911 0 -0.2785284806661168 -0.40318578044112968 0 -0.27222599672543751 -0.40815474926687589 0 -0.25457300195326749 -0.40147225298754369 0 -0.25997919002844572 -0.39364410160081209 0 -0.24583051340353329 -0.38574620816565952 0 -0.26400100313782332 -0.40504119886049339 0 -0.25997919002844572 -0.39364410160081209 0 -0.26400100313782332 -0.40504119886049339 0 -0.25457300195326749 -0.40147225298754369 0 -0.26883293235450528 -0.39799703745830911 0 -0.26400100313782332 -0.40504119886049339 0 -0.25997919002844572 -0.39364410160081209 0 -0.26400100313782332 -0.40504119886049339 0 -0.25457300195326749 -0.40147225298754369 0 -0.25997919002844572 -0.39364410160081209 0 -0.26400100313782332 -0.40504119886049339 0 -0.25457300195326749 -0.40147225298754369 0 -0.25639874903274879 -0.40908475451765908 0 -0.25457300195326749 -0.40147225298754369 0 -0.24936398468376089 -0.40901490137394142 0 -0.25457300195326749 -0.40147225298754369 0 -0.25997919002844572 -0.39364410160081209 0 -0.2503155090110683 -0.36625896225040039 0 -0.26942999121470212 -0.37995935712223378 0 -0.25997919002844572 -0.39364410160081209 0 -0.2503155090110683 -0.36625896225040039 0 -0.25997919002844572 -0.39364410160081209 0 -0.2503155090110683 -0.36625896225040039 0 -0.25997919002844572 -0.39364410160081209 0 -0.24583051340353329 -0.38574620816565952 0 -0.26942999121470212 -0.37995935712223378 0 -0.25997919002844572 -0.39364410160081209 0 -0.28762697011753258 -0.42641220376002542 0 -0.27098024041238422 -0.4335429247157655 0 -0.26947944797133222 -0.42056612925910619 0 -0.28762697011753258 -0.42641220376002542 0 -0.2785284806661168 -0.40318578044112968 0 -0.27222599672543751 -0.40815474926687589 0 -0.28762697011753258 -0.42641220376002542 0 -0.27222599672543751 -0.40815474926687589 0 -0.26947944797133222 -0.42056612925910619 0 -0.26400100313782332 -0.40504119886049339 0 -0.27222599672543751 -0.40815474926687589 0 -0.26947944797133222 -0.42056612925910619 0 -0.26400100313782332 -0.40504119886049339 0 -0.27222599672543751 -0.40815474926687589 0 -0.26400100313782332 -0.40504119886049339 0 -0.26947944797133222 -0.42056612925910619 0 -0.27098024041238422 -0.4335429247157655 0 -0.25360865652048759 -0.41383134188966619 0 -0.25554239660400968 -0.41413572411211408 0 -0.26947944797133222 -0.42056612925910619 0 -0.26132995532231501 -0.41162221186441422 0 -0.25554239660400968 -0.41413572411211408 0 -0.26400100313782332 -0.40504119886049339 0 -0.26947944797133222 -0.42056612925910619 0 -0.26132995532231501 -0.41162221186441422 0 -0.26400100313782332 -0.40504119886049339 0 -0.26132995532231501 -0.41162221186441422 0 -0.25639874903274879 -0.40908475451765908 0 -0.25639874903274879 -0.40908475451765908 0 -0.25360865652048759 -0.41383134188966619 0 -0.25554239660400968 -0.41413572411211408 0 -0.26132995532231501 -0.41162221186441422 0 -0.25639874903274879 -0.40908475451765908 0 -0.25554239660400968 -0.41413572411211408 0 -0.25360865652048759 -0.41383134188966619 0 -0.25554239660400968 -0.41413572411211408 0 -0.25639874903274879 -0.40908475451765908 0 -0.25360865652048759 -0.41383134188966619 0 -0.24936398468376089 -0.40901490137394142 0 -0.25360865652048759 -0.41383134188966619 0 -0.24936398468376089 -0.40901490137394142 0 -0.25360865652048759 -0.41383134188966619 0 -0.24678002260771009 -0.41275647418414141 0 -0.25457300195326749 -0.40147225298754369 0 -0.25639874903274879 -0.40908475451765908 0 -0.24936398468376089 -0.40901490137394142 0 -0.25360865652048759 -0.41383134188966619 0 -0.2513073026449652 -0.42602055735538502 0 -0.24678002260771009 -0.41275647418414141 0 -0.27098024041238422 -0.4335429247157655 0 -0.2513073026449652 -0.42602055735538502 0 -0.24803200348614721 -0.44325044963363558 0 -0.27098024041238422 -0.4335429247157655 0 -0.25360865652048759 -0.41383134188966619 0 -0.2513073026449652 -0.42602055735538502 0 -0.27098024041238422 -0.4335429247157655 0 -0.25360865652048759 -0.41383134188966619 0 -0.27098024041238422 -0.4335429247157655 0 -0.26947944797133222 -0.42056612925910619 0 -0.25554239660400968 -0.41413572411211408 0 -0.27098024041238422 -0.4335429247157655 0 -0.26603916174807168 -0.45355071126704632 0 -0.24803200348614721 -0.44325044963363558 0 -0.26603916174807168 -0.45355071126704632 0 -0.27315608891438581 -0.47326791987504341 0 -0.24967565162316011 -0.46443775456892189 0 -0.26603916174807168 -0.45355071126704632 0 -0.24803200348614721 -0.44325044963363558 0 -0.24967565162316011 -0.46443775456892189 0 -0.26603916174807168 -0.45355071126704632 0 -0.28835182430428091 -0.45325450754186458 0 -0.27315608891438581 -0.47326791987504341 0 -0.27098024041238422 -0.4335429247157655 0 -0.26603916174807168 -0.45355071126704632 0 -0.28835182430428091 -0.45325450754186458 0 -0.27098024041238422 -0.4335429247157655 0 -0.28835182430428091 -0.45325450754186458 0 -0.28762697011753258 -0.42641220376002542 0 -0.29672545956894841 -0.44963862707892099 0 -0.28762697011753258 -0.42641220376002542 0 -0.29672545956894841 -0.44963862707892099 0 -0.28835182430428091 -0.45325450754186458 0 -0.28762697011753258 -0.42641220376002542 0 -0.27098024041238422 -0.4335429247157655 0 -0.28835182430428091 -0.45325450754186458 0 -0.29672545956894841 -0.44963862707892099 0 -0.28835182430428091 -0.45325450754186458 0 -0.30597565035569507 -0.47325231022278541 0 -0.32429330855498523 -0.45430399770136121 0 -0.29672545956894841 -0.44963862707892099 0 -0.30597565035569507 -0.47325231022278541 0 -0.29672545956894841 -0.44963862707892099 0 -0.30597565035569507 -0.47325231022278541 0 -0.28835182430428091 -0.45325450754186458 0 -0.30597565035569507 -0.47325231022278541 0 -0.31645352591778048 -0.49999999999999872 0 -0.30546213926421439 -0.49149596378984511 0 -0.30597565035569507 -0.47325231022278541 0 -0.31645352591778048 -0.49999999999999872 0 -0.29763828713491719 -0.5 0 -0.30546213926421439 -0.49149596378984511 0 -0.31645352591778048 -0.49999999999999872 0 -0.30597565035569507 -0.47325231022278541 0 -0.29886604026976837 -0.49176185566115899 0 -0.30077510978466471 -0.48365446067294049 0 -0.29663652620561121 -0.48209808518116559 0 -0.29886604026976837 -0.49176185566115899 0 -0.30546213926421439 -0.49149596378984511 0 -0.30077510978466471 -0.48365446067294049 0 -0.29886604026976837 -0.49176185566115899 0 -0.29763828713491719 -0.5 0 -0.30546213926421439 -0.49149596378984511 0 -0.30546213926421439 -0.49149596378984511 0 -0.30597565035569507 -0.47325231022278541 0 -0.30077510978466471 -0.48365446067294049 0 -0.28835182430428091 -0.45325450754186458 0 -0.30597565035569507 -0.47325231022278541 0 -0.29663652620561121 -0.48209808518116559 0 -0.30597565035569507 -0.47325231022278541 0 -0.30077510978466471 -0.48365446067294049 0 -0.29663652620561121 -0.48209808518116559 0 -0.30597565035569507 -0.47325231022278541 0 -0.29663652620561121 -0.48209808518116559 0 -0.30077510978466471 -0.48365446067294049 0 -0.29663652620561121 -0.48209808518116559 0 -0.28835182430428091 -0.45325450754186458 0 -0.29663652620561121 -0.48209808518116559 0 -0.27315608891438581 -0.47326791987504341 0 -0.29663652620561121 -0.48209808518116559 0 -0.27315608891438581 -0.47326791987504341 0 -0.29663652620561121 -0.48209808518116559 0 -0.27882304835205379 -0.49999999999999861 0 -0.27315608891438581 -0.47326791987504341 0 -0.29663652620561121 -0.48209808518116559 0 -0.27882304835205379 -0.49999999999999861 0 -0.29886604026976837 -0.49176185566115899 0 -0.29763828713491719 -0.5 0 -0.27882304835205379 -0.49999999999999861 0 -0.29886604026976837 -0.49176185566115899 0 -0.29663652620561121 -0.48209808518116559 0 -0.27882304835205379 -0.49999999999999861 0 -0.27882304835205379 -0.49999999999999861 0 -0.27315608891438581 -0.47326791987504341 0 -0.25805537839550291 -0.48319963358769691 0 -0.27315608891438581 -0.47326791987504341 0 -0.25805537839550291 -0.48319963358769691 0 -0.24967565162316011 -0.46443775456892189 0 -0.27315608891438581 -0.47326791987504341 0 -0.24967565162316011 -0.46443775456892189 0 -0.27882304835205379 -0.49999999999999861 0 -0.25805537839550291 -0.48319963358769691 0 -0.25376710832155408 -0.5 0 -0.25805537839550291 -0.48319963358769691 0 -0.25376710832155408 -0.5 0 -0.23776480226711599 -0.48137669137235389 0 -0.25376710832155408 -0.5 0 -0.23776480226711599 -0.48137669137235389 0 -0.22871116829105451 -0.5 0 -0.25805537839550291 -0.48319963358769691 0 -0.23776480226711599 -0.48137669137235389 0 -0.24967565162316011 -0.46443775456892189 0 -0.23776480226711599 -0.48137669137235389 0 -0.22619521433193451 -0.45560758926280048 0 -0.21727530431572201 -0.47838062960515482 0 -0.23776480226711599 -0.48137669137235389 0 -0.22871116829105451 -0.5 0 -0.21727530431572201 -0.47838062960515482 0 -0.24803200348614721 -0.44325044963363558 0 -0.2363608392132957 -0.4489738040625153 0 -0.22749115778848469 -0.44068671852329078 0 -0.24803200348614721 -0.44325044963363558 0 -0.2363608392132957 -0.4489738040625153 0 -0.24967565162316011 -0.46443775456892189 0 -0.23776480226711599 -0.48137669137235389 0 -0.24967565162316011 -0.46443775456892189 0 -0.22619521433193451 -0.45560758926280048 0 -0.24967565162316011 -0.46443775456892189 0 -0.22619521433193451 -0.45560758926280048 0 -0.2363608392132957 -0.4489738040625153 0 -0.24967565162316011 -0.46443775456892189 0 -0.22619521433193451 -0.45560758926280048 0 -0.2363608392132957 -0.4489738040625153 0 -0.22619521433193451 -0.45560758926280048 0 -0.22749115778848469 -0.44068671852329078 0 -0.22619521433193451 -0.45560758926280048 0 -0.22749115778848469 -0.44068671852329078 0 -0.21668064952434399 -0.44183244646805209 0 -0.22619521433193451 -0.45560758926280048 0 -0.20271477704070881 -0.44677742395667908 0 -0.22619521433193451 -0.45560758926280048 0 -0.21668064952434399 -0.44183244646805209 0 -0.20271477704070881 -0.44677742395667908 0 -0.21668064952434399 -0.44183244646805209 0 -0.20271477704070881 -0.44677742395667908 0 -0.20157088559986211 -0.42664288526034599 0 -0.22619521433193451 -0.45560758926280048 0 -0.2077174257130435 -0.46362839105083442 0 -0.21727530431572201 -0.47838062960515482 0 -0.22619521433193451 -0.45560758926280048 0 -0.2077174257130435 -0.46362839105083442 0 -0.20271477704070881 -0.44677742395667908 0 -0.2077174257130435 -0.46362839105083442 0 -0.1903347107458154 -0.45949285307961357 0 -0.19644913975576631 -0.47655003398704732 0 -0.2077174257130435 -0.46362839105083442 0 -0.1903347107458154 -0.45949285307961357 0 -0.20271477704070881 -0.44677742395667908 0 -0.20271477704070881 -0.44677742395667908 0 -0.1792343397494833 -0.4379472586505575 0 -0.1903347107458154 -0.45949285307961357 0 -0.20271477704070881 -0.44677742395667908 0 -0.1792343397494833 -0.4379472586505575 0 -0.22871116829105451 -0.5 0 -0.2036552282605549 -0.5 0 -0.21727530431572201 -0.47838062960515482 0 -0.2036552282605549 -0.5 0 -0.21727530431572201 -0.47838062960515482 0 -0.19644913975576631 -0.47655003398704732 0 -0.2077174257130435 -0.46362839105083442 0 -0.21727530431572201 -0.47838062960515482 0 -0.19644913975576631 -0.47655003398704732 0 -0.1903347107458154 -0.45949285307961357 0 -0.19644913975576631 -0.47655003398704732 0 -0.18254986142167171 -0.47250762702819399 0 -0.19644913975576631 -0.47655003398704732 0 -0.1848194943864796 -0.48601995336435128 0 -0.18254986142167171 -0.47250762702819399 0 -0.2036552282605549 -0.5 0 -0.17859928823005539 -0.49999999999999811 0 -0.1848194943864796 -0.48601995336435128 0 -0.2036552282605549 -0.5 0 -0.19644913975576631 -0.47655003398704732 0 -0.1848194943864796 -0.48601995336435128 0 -0.17859928823005539 -0.49999999999999811 0 -0.1848194943864796 -0.48601995336435128 0 -0.16745110183895279 -0.48114550895818192 0 -0.17859928823005539 -0.49999999999999811 0 -0.15830312108087949 -0.48320388767478778 0 -0.17859928823005539 -0.49999999999999811 0 -0.15830312108087949 -0.48320388767478778 0 -0.1528247458873413 -0.5 0 -0.17859928823005539 -0.49999999999999811 0 -0.15830312108087949 -0.48320388767478778 0 -0.16745110183895279 -0.48114550895818192 0 -0.16745110183895279 -0.48114550895818192 0 -0.1733427207942187 -0.45954638380436991 0 -0.16745110183895279 -0.48114550895818192 0 -0.1733427207942187 -0.45954638380436991 0 -0.15834845913200249 -0.46798375572992229 0 -0.15830312108087949 -0.48320388767478778 0 -0.16745110183895279 -0.48114550895818192 0 -0.15834845913200249 -0.46798375572992229 0 -0.1848194943864796 -0.48601995336435128 0 -0.16745110183895279 -0.48114550895818192 0 -0.18254986142167171 -0.47250762702819399 0 -0.16745110183895279 -0.48114550895818192 0 -0.18254986142167171 -0.47250762702819399 0 -0.1733427207942187 -0.45954638380436991 0 -0.1903347107458154 -0.45949285307961357 0 -0.18254986142167171 -0.47250762702819399 0 -0.1733427207942187 -0.45954638380436991 0 -0.1733427207942187 -0.45954638380436991 0 -0.1792343397494833 -0.4379472586505575 0 -0.1903347107458154 -0.45949285307961357 0 -0.1733427207942187 -0.45954638380436991 0 -0.1792343397494833 -0.4379472586505575 0 -0.1733427207942187 -0.45954638380436991 0 -0.1792343397494833 -0.4379472586505575 0 -0.1546383980142591 -0.44961522286269312 0 -0.1792343397494833 -0.4379472586505575 0 -0.1546383980142591 -0.44961522286269312 0 -0.15378023633796861 -0.42837486704408723 0 -0.1733427207942187 -0.45954638380436991 0 -0.15834845913200249 -0.46798375572992229 0 -0.1546383980142591 -0.44961522286269312 0 -0.15834845913200249 -0.46798375572992229 0 -0.1546383980142591 -0.44961522286269312 0 -0.13800695393170259 -0.46640777534957861 0 -0.1546383980142591 -0.44961522286269312 0 -0.13550590447972019 -0.44799312598095431 0 -0.13800695393170259 -0.46640777534957861 0 -0.1546383980142591 -0.44961522286269312 0 -0.14546083638061891 -0.43920940938131692 0 -0.15378023633796861 -0.42837486704408723 0 -0.1546383980142591 -0.44961522286269312 0 -0.14546083638061891 -0.43920940938131692 0 -0.13550590447972019 -0.44799312598095431 0 -0.13550590447972019 -0.44799312598095431 0 -0.13329008540230969 -0.43300678542596049 0 -0.11771078678252581 -0.44961166302436911 0 -0.13329008540230969 -0.43300678542596049 0 -0.11771078678252581 -0.44961166302436911 0 -0.14546083638061891 -0.43920940938131692 0 -0.13550590447972019 -0.44799312598095431 0 -0.13329008540230969 -0.43300678542596049 0 -0.13800695393170259 -0.46640777534957861 0 -0.11771078678252581 -0.44961166302436911 0 -0.13550590447972019 -0.44799312598095431 0 -0.13800695393170259 -0.46640777534957861 0 -0.11771078678252581 -0.44961166302436911 0 -0.13800695393170259 -0.46640777534957861 0 -0.1395367645409015 -0.48633341742226599 0 -0.1195753894195599 -0.48123147416630702 0 -0.13800695393170259 -0.46640777534957861 0 -0.1195753894195599 -0.48123147416630702 0 -0.11909264355961 -0.46496431345098987 0 -0.1270502035446272 -0.5 0 -0.1395367645409015 -0.48633341742226599 0 -0.1195753894195599 -0.48123147416630702 0 -0.1270502035446272 -0.5 0 -0.1395367645409015 -0.48633341742226599 0 -0.1528247458873413 -0.5 0 -0.15830312108087949 -0.48320388767478778 0 -0.1395367645409015 -0.48633341742226599 0 -0.1528247458873413 -0.5 0 -0.15830312108087949 -0.48320388767478778 0 -0.13800695393170259 -0.46640777534957861 0 -0.15830312108087949 -0.48320388767478778 0 -0.13800695393170259 -0.46640777534957861 0 -0.1395367645409015 -0.48633341742226599 0 -0.15830312108087949 -0.48320388767478778 0 -0.15834845913200249 -0.46798375572992229 0 -0.13800695393170259 -0.46640777534957861 0 -0.15044242195091301 -0.40233974525522698 0 -0.14886938402209651 -0.4164019078275546 0 -0.15826524180157181 -0.39882371976132169 0 -0.14536695466331731 -0.39625503070621082 0 -0.13274886960764071 -0.39254721408582349 0 -0.1465654676861157 -0.40935188304167203 0 -0.14536695466331731 -0.39625503070621082 0 -0.15044242195091301 -0.40233974525522698 0 -0.1465654676861157 -0.40935188304167203 0 -0.14536695466331731 -0.39625503070621082 0 -0.15044242195091301 -0.40233974525522698 0 -0.15314506158146399 -0.39086618493937592 0 -0.15044242195091301 -0.40233974525522698 0 -0.15314506158146399 -0.39086618493937592 0 -0.15826524180157181 -0.39882371976132169 0 -0.15314506158146399 -0.39086618493937592 0 -0.14221707737603989 -0.38226235982788243 0 -0.15777065578206681 -0.38261133883419579 0 -0.14221707737603989 -0.38226235982788243 0 -0.15777065578206681 -0.38261133883419579 0 -0.13874128687995971 -0.36348147253534269 0 -0.14536695466331731 -0.39625503070621082 0 -0.15314506158146399 -0.39086618493937592 0 -0.14221707737603989 -0.38226235982788243 0 -0.13274886960764071 -0.39254721408582349 0 -0.1189322715291658 -0.37574254512997513 0 -0.14536695466331731 -0.39625503070621082 0 -0.14221707737603989 -0.38226235982788243 0 -0.13274886960764071 -0.39254721408582349 0 -0.14221707737603989 -0.38226235982788243 0 -0.13274886960764071 -0.39254721408582349 0 -0.1189322715291658 -0.37574254512997513 0 -0.13274886960764071 -0.39254721408582349 0 -0.1465654676861157 -0.40935188304167203 0 -0.13274886960764071 -0.39254721408582349 0 -0.13673604589525801 -0.416465560928309 0 -0.1465654676861157 -0.40935188304167203 0 -0.13274886960764071 -0.39254721408582349 0 -0.13673604589525801 -0.416465560928309 0 -0.12302216387698379 -0.41305217270374361 0 -0.13673604589525801 -0.416465560928309 0 -0.13329008540230969 -0.43300678542596049 0 -0.12302216387698379 -0.41305217270374361 0 -0.13673604589525801 -0.416465560928309 0 -0.13329008540230969 -0.43300678542596049 0 -0.14886938402209651 -0.4164019078275546 0 -0.13329008540230969 -0.43300678542596049 0 -0.14886938402209651 -0.4164019078275546 0 -0.13329008540230969 -0.43300678542596049 0 -0.15378023633796861 -0.42837486704408723 0 -0.14886938402209651 -0.4164019078275546 0 -0.14546083638061891 -0.43920940938131692 0 -0.13329008540230969 -0.43300678542596049 0 -0.15378023633796861 -0.42837486704408723 0 -0.13673604589525801 -0.416465560928309 0 -0.1465654676861157 -0.40935188304167203 0 -0.14886938402209651 -0.4164019078275546 0 -0.15378023633796861 -0.42837486704408723 0 -0.14886938402209651 -0.4164019078275546 0 -0.15943440018006341 -0.41855278798581919 0 -0.15044242195091301 -0.40233974525522698 0 -0.1465654676861157 -0.40935188304167203 0 -0.14886938402209651 -0.4164019078275546 0 -0.14886938402209651 -0.4164019078275546 0 -0.1644486826418835 -0.39979703022914892 0 -0.14886938402209651 -0.4164019078275546 0 -0.1661066209085495 -0.41114227856987012 0 -0.1644486826418835 -0.39979703022914892 0 -0.14886938402209651 -0.4164019078275546 0 -0.15943440018006341 -0.41855278798581919 0 -0.1661066209085495 -0.41114227856987012 0 -0.16713194432478409 -0.42118252081583091 0 -0.1661066209085495 -0.41114227856987012 0 -0.17551669329384451 -0.41611523298157671 0 -0.15943440018006341 -0.41855278798581919 0 -0.16713194432478409 -0.42118252081583091 0 -0.1661066209085495 -0.41114227856987012 0 -0.1792343397494833 -0.4379472586505575 0 -0.15378023633796861 -0.42837486704408723 0 -0.16713194432478409 -0.42118252081583091 0 -0.1792343397494833 -0.4379472586505575 0 -0.15378023633796861 -0.42837486704408723 0 -0.15378023633796861 -0.42837486704408723 0 -0.15943440018006341 -0.41855278798581919 0 -0.16713194432478409 -0.42118252081583091 0 -0.1792343397494833 -0.4379472586505575 0 -0.16713194432478409 -0.42118252081583091 0 -0.17551669329384451 -0.41611523298157671 0 -0.1792343397494833 -0.4379472586505575 0 -0.1864611216753784 -0.4114533240526419 0 -0.1792343397494833 -0.4379472586505575 0 -0.17551669329384451 -0.41611523298157671 0 -0.1864611216753784 -0.4114533240526419 0 -0.1661066209085495 -0.41114227856987012 0 -0.17551669329384451 -0.41611523298157671 0 -0.17680002468417369 -0.40174120513304912 0 -0.17551669329384451 -0.41611523298157671 0 -0.1864611216753784 -0.4114533240526419 0 -0.17680002468417369 -0.40174120513304912 0 -0.1864611216753784 -0.4114533240526419 0 -0.17680002468417369 -0.40174120513304912 0 -0.1864611216753784 -0.4114533240526419 0 -0.18860351540757489 -0.40359914497183608 0 -0.17680002468417369 -0.40174120513304912 0 -0.1760824314182563 -0.38343941247340663 0 -0.18142044585569961 -0.389153187701751 0 -0.1864611216753784 -0.4114533240526419 0 -0.17680002468417369 -0.40174120513304912 0 -0.18860351540757489 -0.40359914497183608 0 -0.18356164881925921 -0.39606881995878213 0 -0.17680002468417369 -0.40174120513304912 0 -0.18860351540757489 -0.40359914497183608 0 -0.18356164881925921 -0.39606881995878213 0 -0.18707024489676749 -0.38764829741496448 0 -0.18860351540757489 -0.40359914497183608 0 -0.17680002468417369 -0.40174120513304912 0 -0.18860351540757489 -0.40359914497183608 0 -0.18356164881925921 -0.39606881995878213 0 -0.17680002468417369 -0.40174120513304912 0 -0.18142044585569961 -0.389153187701751 0 -0.18356164881925921 -0.39606881995878213 0 -0.18707024489676749 -0.38764829741496448 0 -0.18142044585569961 -0.389153187701751 0 -0.17680002468417369 -0.40174120513304912 0 -0.15777065578206681 -0.38261133883419579 0 -0.17680002468417369 -0.40174120513304912 0 -0.1644486826418835 -0.39979703022914892 0 -0.15777065578206681 -0.38261133883419579 0 -0.14886938402209651 -0.4164019078275546 0 -0.1644486826418835 -0.39979703022914892 0 -0.15826524180157181 -0.39882371976132169 0 -0.1661066209085495 -0.41114227856987012 0 -0.17680002468417369 -0.40174120513304912 0 -0.1644486826418835 -0.39979703022914892 0 -0.17680002468417369 -0.40174120513304912 0 -0.1644486826418835 -0.39979703022914892 0 -0.15314506158146399 -0.39086618493937592 0 -0.1644486826418835 -0.39979703022914892 0 -0.15777065578206681 -0.38261133883419579 0 -0.15314506158146399 -0.39086618493937592 0 -0.1644486826418835 -0.39979703022914892 0 -0.15826524180157181 -0.39882371976132169 0 -0.1644486826418835 -0.39979703022914892 0 -0.15826524180157181 -0.39882371976132169 0 -0.17680002468417369 -0.40174120513304912 0 -0.15777065578206681 -0.38261133883419579 0 -0.16854958288626809 -0.38244049251401641 0 -0.15777065578206681 -0.38261133883419579 0 -0.16854958288626809 -0.38244049251401641 0 -0.1615252775151019 -0.36783926376064169 0 -0.16854958288626809 -0.38244049251401641 0 -0.1737708867924512 -0.37639033043819281 0 -0.1615252775151019 -0.36783926376064169 0 -0.17680002468417369 -0.40174120513304912 0 -0.16854958288626809 -0.38244049251401641 0 -0.1760824314182563 -0.38343941247340663 0 -0.1737708867924512 -0.37639033043819281 0 -0.1760824314182563 -0.38343941247340663 0 -0.18253063393902741 -0.38010434179123498 0 -0.16854958288626809 -0.38244049251401641 0 -0.1737708867924512 -0.37639033043819281 0 -0.1760824314182563 -0.38343941247340663 0 -0.1760824314182563 -0.38343941247340663 0 -0.18142044585569961 -0.389153187701751 0 -0.18253063393902741 -0.38010434179123498 0 -0.18707024489676749 -0.38764829741496448 0 -0.18142044585569961 -0.389153187701751 0 -0.18253063393902741 -0.38010434179123498 0 -0.18707024489676749 -0.38764829741496448 0 -0.18253063393902741 -0.38010434179123498 0 -0.1909098263475531 -0.37737271975784209 0 -0.18253063393902741 -0.38010434179123498 0 -0.1909098263475531 -0.37737271975784209 0 -0.18515441851144429 -0.37120018288987189 0 -0.1737708867924512 -0.37639033043819281 0 -0.18253063393902741 -0.38010434179123498 0 -0.18515441851144429 -0.37120018288987189 0 -0.18707024489676749 -0.38764829741496448 0 -0.19530363744044371 -0.37903598577356751 0 -0.18860351540757489 -0.40359914497183608 0 -0.18707024489676749 -0.38764829741496448 0 -0.1909098263475531 -0.37737271975784209 0 -0.19530363744044371 -0.37903598577356751 0 -0.19530363744044371 -0.37903598577356751 0 -0.18860351540757489 -0.40359914497183608 0 -0.21506009227805159 -0.38651474151155962 0 -0.1909098263475531 -0.37737271975784209 0 -0.19530363744044371 -0.37903598577356751 0 -0.1909098263475531 -0.37737271975784209 0 -0.19530363744044371 -0.37903598577356751 0 -0.19082292946682791 -0.37336622346805393 0 -0.19530363744044371 -0.37903598577356751 0 -0.18860351540757489 -0.40359914497183608 0 -0.18860351540757489 -0.40359914497183608 0 -0.2176917690076425 -0.40817780957798883 0 -0.18860351540757489 -0.40359914497183608 0 -0.21506009227805159 -0.38651474151155962 0 -0.2176917690076425 -0.40817780957798883 0 -0.19530363744044371 -0.37903598577356751 0 -0.21506009227805159 -0.38651474151155962 0 -0.20509729049418321 -0.37190518241196452 0 -0.19530363744044371 -0.37903598577356751 0 -0.21506009227805159 -0.38651474151155962 0 -0.21506009227805159 -0.38651474151155962 0 -0.20509729049418321 -0.37190518241196452 0 -0.21560586690307301 -0.37236644341257069 0 -0.1792343397494833 -0.4379472586505575 0 -0.1864611216753784 -0.4114533240526419 0 -0.20157088559986211 -0.42664288526034599 0 -0.20271477704070881 -0.44677742395667908 0 -0.1792343397494833 -0.4379472586505575 0 -0.20157088559986211 -0.42664288526034599 0 -0.1864611216753784 -0.4114533240526419 0 -0.18860351540757489 -0.40359914497183608 0 -0.20157088559986211 -0.42664288526034599 0 -0.18860351540757489 -0.40359914497183608 0 -0.20157088559986211 -0.42664288526034599 0 -0.2176917690076425 -0.40817780957798883 0 -0.1864611216753784 -0.4114533240526419 0 -0.20157088559986211 -0.42664288526034599 0 -0.20157088559986211 -0.42664288526034599 0 -0.2176917690076425 -0.40817780957798883 0 -0.22019978712324739 -0.42786206699448998 0 -0.21668064952434399 -0.44183244646805209 0 -0.20157088559986211 -0.42664288526034599 0 -0.22019978712324739 -0.42786206699448998 0 -0.21668064952434399 -0.44183244646805209 0 -0.20157088559986211 -0.42664288526034599 0 -0.22749115778848469 -0.44068671852329078 0 -0.22019978712324739 -0.42786206699448998 0 -0.23713559019809699 -0.42672159635371582 0 -0.22749115778848469 -0.44068671852329078 0 -0.23713559019809699 -0.42672159635371582 0 -0.22749115778848469 -0.44068671852329078 0 -0.21668064952434399 -0.44183244646805209 0 -0.22019978712324739 -0.42786206699448998 0 -0.2176917690076425 -0.40817780957798883 0 -0.24678002260771009 -0.41275647418414141 0 -0.23713559019809699 -0.42672159635371582 0 -0.2176917690076425 -0.40817780957798883 0 -0.22019978712324739 -0.42786206699448998 0 -0.23713559019809699 -0.42672159635371582 0 -0.2176917690076425 -0.40817780957798883 0 -0.24678002260771009 -0.41275647418414141 0 -0.25360865652048759 -0.41383134188966619 0 -0.24936398468376089 -0.40901490137394142 0 -0.24678002260771009 -0.41275647418414141 0 -0.24936398468376089 -0.40901490137394142 0 -0.24678002260771009 -0.41275647418414141 0 -0.2513073026449652 -0.42602055735538502 0 -0.24678002260771009 -0.41275647418414141 0 -0.23713559019809699 -0.42672159635371582 0 -0.24678002260771009 -0.41275647418414141 0 -0.23713559019809699 -0.42672159635371582 0 -0.24803200348614721 -0.44325044963363558 0 -0.22749115778848469 -0.44068671852329078 0 -0.23713559019809699 -0.42672159635371582 0 -0.2513073026449652 -0.42602055735538502 0 -0.24803200348614721 -0.44325044963363558 0 -0.23713559019809699 -0.42672159635371582 0 -0.21506009227805159 -0.38651474151155962 0 -0.23481654711565961 -0.39399349724955168 0 -0.21506009227805159 -0.38651474151155962 0 -0.23481654711565961 -0.39399349724955168 0 -0.22946831890922509 -0.37336222673998948 0 -0.21506009227805159 -0.38651474151155962 0 -0.22946831890922509 -0.37336222673998948 0 -0.21560586690307301 -0.37236644341257069 0 -0.21506009227805159 -0.38651474151155962 0 -0.2176917690076425 -0.40817780957798883 0 -0.23481654711565961 -0.39399349724955168 0 -0.2176917690076425 -0.40817780957798883 0 -0.24678002260771009 -0.41275647418414141 0 -0.23481654711565961 -0.39399349724955168 0 -0.24936398468376089 -0.40901490137394142 0 -0.24678002260771009 -0.41275647418414141 0 -0.23481654711565961 -0.39399349724955168 0 -0.25457300195326749 -0.40147225298754369 0 -0.23481654711565961 -0.39399349724955168 0 -0.24583051340353329 -0.38574620816565952 0 -0.25457300195326749 -0.40147225298754369 0 -0.24936398468376089 -0.40901490137394142 0 -0.23481654711565961 -0.39399349724955168 0 -0.25457300195326749 -0.40147225298754369 0 -0.23481654711565961 -0.39399349724955168 0 -0.23481654711565961 -0.39399349724955168 0 -0.24583051340353329 -0.38574620816565952 0 -0.22946831890922509 -0.37336222673998948 0 -0.2503155090110683 -0.36625896225040039 0 -0.24583051340353329 -0.38574620816565952 0 -0.22946831890922509 -0.37336222673998948 0 -0.2503155090110683 -0.36625896225040039 0 -0.22946831890922509 -0.37336222673998948 0 -0.22752915135517909 -0.35238293982625168 0 -0.22946831890922509 -0.37336222673998948 0 -0.21926747949479389 -0.36246456103869251 0 -0.22752915135517909 -0.35238293982625168 0 -0.22946831890922509 -0.37336222673998948 0 -0.21926747949479389 -0.36246456103869251 0 -0.21560586690307301 -0.37236644341257069 0 -0.22752915135517909 -0.35238293982625168 0 -0.22438206662611601 -0.33851106076919002 0 -0.2156725075445593 -0.34231279522275992 0 -0.22752915135517909 -0.35238293982625168 0 -0.2156725075445593 -0.34231279522275992 0 -0.2152017041510427 -0.35209251881275938 0 -0.21926747949479389 -0.36246456103869251 0 -0.22752915135517909 -0.35238293982625168 0 -0.2152017041510427 -0.35209251881275938 0 -0.2503155090110683 -0.36625896225040039 0 -0.22752915135517909 -0.35238293982625168 0 -0.24065182799369031 -0.33887382289998891 0 -0.2503155090110683 -0.36625896225040039 0 -0.24065182799369031 -0.33887382289998891 0 -0.2503155090110683 -0.36625896225040039 0 -0.2588950241192306 -0.35306592533703213 0 -0.24065182799369031 -0.33887382289998891 0 -0.2588950241192306 -0.35306592533703213 0 -0.24065182799369031 -0.33887382289998891 0 -0.24836005702376021 -0.32617249355183009 0 -0.25895407294905581 -0.31871125133772182 0 -0.24836005702376021 -0.32617249355183009 0 -0.23782508992829429 -0.29927906176662639 0 -0.24065182799369031 -0.33887382289998891 0 -0.2309881469763124 -0.31148868354957743 0 -0.24065182799369031 -0.33887382289998891 0 -0.24836005702376021 -0.32617249355183009 0 -0.2309881469763124 -0.31148868354957743 0 -0.24836005702376021 -0.32617249355183009 0 -0.23782508992829429 -0.29927906176662639 0 -0.24065182799369031 -0.33887382289998891 0 -0.2227772634257327 -0.32567088265657629 0 -0.2309881469763124 -0.31148868354957743 0 -0.2227772634257327 -0.32567088265657629 0 -0.2309881469763124 -0.31148868354957743 0 -0.21271355798758229 -0.30746549996793138 0 -0.24065182799369031 -0.33887382289998891 0 -0.2227772634257327 -0.32567088265657629 0 -0.22438206662611601 -0.33851106076919002 0 -0.22752915135517909 -0.35238293982625168 0 -0.24065182799369031 -0.33887382289998891 0 -0.22438206662611601 -0.33851106076919002 0 -0.2227772634257327 -0.32567088265657629 0 -0.22438206662611601 -0.33851106076919002 0 -0.21586576572823521 -0.333578795995361 0 -0.20698372735831111 -0.3362158838865853 0 -0.20507336380283861 -0.34321942261460442 0 -0.20098161386701729 -0.32086290586404331 0 -0.22438206662611601 -0.33851106076919002 0 -0.2156725075445593 -0.34231279522275992 0 -0.21586576572823521 -0.333578795995361 0 -0.2156725075445593 -0.34231279522275992 0 -0.21586576572823521 -0.333578795995361 0 -0.20698372735831111 -0.3362158838865853 0 -0.2227772634257327 -0.32567088265657629 0 -0.21586576572823521 -0.333578795995361 0 -0.21068562952009051 -0.32571122295166832 0 -0.21586576572823521 -0.333578795995361 0 -0.20698372735831111 -0.3362158838865853 0 -0.21068562952009051 -0.32571122295166832 0 -0.20698372735831111 -0.3362158838865853 0 -0.20507336380283861 -0.34321942261460442 0 -0.2156725075445593 -0.34231279522275992 0 -0.20698372735831111 -0.3362158838865853 0 -0.20507336380283861 -0.34321942261460442 0 -0.21068562952009051 -0.32571122295166832 0 -0.20098161386701729 -0.32086290586404331 0 -0.21271355798758229 -0.30746549996793138 0 -0.2227772634257327 -0.32567088265657629 0 -0.21068562952009051 -0.32571122295166832 0 -0.21271355798758229 -0.30746549996793138 0 -0.20698372735831111 -0.3362158838865853 0 -0.21068562952009051 -0.32571122295166832 0 -0.20098161386701729 -0.32086290586404331 0 -0.20098161386701729 -0.32086290586404331 0 -0.19481281666001521 -0.33221084432343878 0 -0.1854900263032408 -0.31710068680559522 0 -0.20507336380283861 -0.34321942261460442 0 -0.20098161386701729 -0.32086290586404331 0 -0.19481281666001521 -0.33221084432343878 0 -0.20507336380283861 -0.34321942261460442 0 -0.20098161386701729 -0.32086290586404331 0 -0.19481281666001521 -0.33221084432343878 0 -0.1832303771999915 -0.33566448495450951 0 -0.1854900263032408 -0.31710068680559522 0 -0.20507336380283861 -0.34321942261460442 0 -0.1957815520798343 -0.34223028783879161 0 -0.19481281666001521 -0.33221084432343878 0 -0.1957815520798343 -0.34223028783879161 0 -0.19023309513330111 -0.34873457553443987 0 -0.1832303771999915 -0.33566448495450951 0 -0.1957815520798343 -0.34223028783879161 0 -0.19481281666001521 -0.33221084432343878 0 -0.1832303771999915 -0.33566448495450951 0 -0.1957815520798343 -0.34223028783879161 0 -0.19023309513330111 -0.34873457553443987 0 -0.19645245671823791 -0.35061363297880987 0 -0.20507336380283861 -0.34321942261460442 0 -0.19645245671823791 -0.35061363297880987 0 -0.20018850062164181 -0.36112770419408607 0 -0.20507336380283861 -0.34321942261460442 0 -0.20018850062164181 -0.36112770419408607 0 -0.20507336380283861 -0.34321942261460442 0 -0.1957815520798343 -0.34223028783879161 0 -0.19645245671823791 -0.35061363297880987 0 -0.19645245671823791 -0.35061363297880987 0 -0.19098577195357361 -0.35775617471212762 0 -0.20018850062164181 -0.36112770419408607 0 -0.19023309513330111 -0.34873457553443987 0 -0.19645245671823791 -0.35061363297880987 0 -0.19098577195357361 -0.35775617471212762 0 -0.19098577195357361 -0.35775617471212762 0 -0.19283342004942289 -0.36769905933790842 0 -0.18426893553064599 -0.36280727811040969 0 -0.19530363744044371 -0.37903598577356751 0 -0.19283342004942289 -0.36769905933790842 0 -0.20018850062164181 -0.36112770419408607 0 -0.19530363744044371 -0.37903598577356751 0 -0.20018850062164181 -0.36112770419408607 0 -0.20509729049418321 -0.37190518241196452 0 -0.19098577195357361 -0.35775617471212762 0 -0.19283342004942289 -0.36769905933790842 0 -0.20018850062164181 -0.36112770419408607 0 -0.19530363744044371 -0.37903598577356751 0 -0.20018850062164181 -0.36112770419408607 0 -0.19530363744044371 -0.37903598577356751 0 -0.19082292946682791 -0.37336622346805393 0 -0.19283342004942289 -0.36769905933790842 0 -0.1909098263475531 -0.37737271975784209 0 -0.19082292946682791 -0.37336622346805393 0 -0.18515441851144429 -0.37120018288987189 0 -0.19082292946682791 -0.37336622346805393 0 -0.19283342004942289 -0.36769905933790842 0 -0.18515441851144429 -0.37120018288987189 0 -0.20018850062164181 -0.36112770419408607 0 -0.20853235615544979 -0.36211867640189122 0 -0.20509729049418321 -0.37190518241196452 0 -0.20853235615544979 -0.36211867640189122 0 -0.20509729049418321 -0.37190518241196452 0 -0.21560586690307301 -0.37236644341257069 0 -0.21926747949479389 -0.36246456103869251 0 -0.20853235615544979 -0.36211867640189122 0 -0.21560586690307301 -0.37236644341257069 0 -0.20507336380283861 -0.34321942261460442 0 -0.20018850062164181 -0.36112770419408607 0 -0.20853235615544979 -0.36211867640189122 0 -0.20507336380283861 -0.34321942261460442 0 -0.20853235615544979 -0.36211867640189122 0 -0.21926747949479389 -0.36246456103869251 0 -0.20853235615544979 -0.36211867640189122 0 -0.2152017041510427 -0.35209251881275938 0 -0.20507336380283861 -0.34321942261460442 0 -0.20853235615544979 -0.36211867640189122 0 -0.2152017041510427 -0.35209251881275938 0 -0.2156725075445593 -0.34231279522275992 0 -0.20507336380283861 -0.34321942261460442 0 -0.2152017041510427 -0.35209251881275938 0 -0.2190775644290763 -0.25142079191296962 0 -0.22845132717868311 -0.27534992683979892 0 -0.2190775644290763 -0.25142079191296962 0 -0.2393768668894786 -0.25582451898022163 0 -0.22301620101341341 -0.24302674165157989 0 -0.2190775644290763 -0.25142079191296962 0 -0.2393768668894786 -0.25582451898022163 0 -0.22845132717868311 -0.27534992683979892 0 -0.2190775644290763 -0.25142079191296962 0 -0.22845132717868311 -0.27534992683979892 0 -0.21518945271802531 -0.26671801665362821 0 -0.25556737118846129 -0.2777034208580284 0 -0.2393768668894786 -0.25582451898022163 0 -0.22845132717868311 -0.27534992683979892 0 -0.22845132717868311 -0.27534992683979892 0 -0.2213244659589351 -0.28410354419916578 0 -0.21518945271802531 -0.26671801665362821 0 -0.2213244659589351 -0.28410354419916578 0 -0.23782508992829429 -0.29927906176662639 0 -0.22845132717868311 -0.27534992683979892 0 -0.23782508992829429 -0.29927906176662639 0 -0.22845132717868311 -0.27534992683979892 0 -0.2213244659589351 -0.28410354419916578 0 -0.23782508992829429 -0.29927906176662639 0 -0.25556737118846129 -0.2777034208580284 0 -0.22845132717868311 -0.27534992683979892 0 -0.23782508992829429 -0.29927906176662639 0 -0.25895407294905581 -0.31871125133772182 0 -0.23782508992829429 -0.29927906176662639 0 -0.24836005702376021 -0.32617249355183009 0 -0.23782508992829429 -0.29927906176662639 0 -0.2309881469763124 -0.31148868354957743 0 -0.2213244659589351 -0.28410354419916578 0 -0.2309881469763124 -0.31148868354957743 0 -0.2213244659589351 -0.28410354419916578 0 -0.23782508992829429 -0.29927906176662639 0 -0.2309881469763124 -0.31148868354957743 0 -0.2213244659589351 -0.28410354419916578 0 -0.2309881469763124 -0.31148868354957743 0 -0.21271355798758229 -0.30746549996793138 0 -0.20098161386701729 -0.32086290586404331 0 -0.21271355798758229 -0.30746549996793138 0 -0.1968898639311957 -0.29850638911348237 0 -0.21271355798758229 -0.30746549996793138 0 -0.1968898639311957 -0.29850638911348237 0 -0.20591936321483151 -0.2872232451747036 0 -0.20098161386701729 -0.32086290586404331 0 -0.1968898639311957 -0.29850638911348237 0 -0.1854900263032408 -0.31710068680559522 0 -0.20098161386701729 -0.32086290586404331 0 -0.1968898639311957 -0.29850638911348237 0 -0.1968898639311957 -0.29850638911348237 0 -0.20591936321483151 -0.2872232451747036 0 -0.192798113995374 -0.27614987236292132 0 -0.1968898639311957 -0.29850638911348237 0 -0.192798113995374 -0.27614987236292132 0 -0.1968898639311957 -0.29850638911348237 0 -0.192798113995374 -0.27614987236292132 0 -0.17893882695756941 -0.29676981405937619 0 -0.2213244659589351 -0.28410354419916578 0 -0.21271355798758229 -0.30746549996793138 0 -0.20591936321483151 -0.2872232451747036 0 -0.2213244659589351 -0.28410354419916578 0 -0.21518945271802531 -0.26671801665362821 0 -0.2213244659589351 -0.28410354419916578 0 -0.20591936321483151 -0.2872232451747036 0 -0.2058708142010709 -0.2698909202300166 0 -0.2213244659589351 -0.28410354419916578 0 -0.21518945271802531 -0.26671801665362821 0 -0.2058708142010709 -0.2698909202300166 0 -0.2213244659589351 -0.28410354419916578 0 -0.2058708142010709 -0.2698909202300166 0 -0.2058708142010709 -0.2698909202300166 0 -0.192798113995374 -0.27614987236292132 0 -0.19041716244320731 -0.25567829626086669 0 -0.20591936321483151 -0.2872232451747036 0 -0.2058708142010709 -0.2698909202300166 0 -0.192798113995374 -0.27614987236292132 0 -0.2058708142010709 -0.2698909202300166 0 -0.19041716244320731 -0.25567829626086669 0 -0.20637389757624119 -0.25653967376115039 0 -0.19041716244320731 -0.25567829626086669 0 -0.20637389757624119 -0.25653967376115039 0 -0.20006048206133589 -0.2415849766235047 0 -0.2058708142010709 -0.2698909202300166 0 -0.19041716244320731 -0.25567829626086669 0 -0.21518945271802531 -0.26671801665362821 0 -0.2058708142010709 -0.2698909202300166 0 -0.20637389757624119 -0.25653967376115039 0 -0.2190775644290763 -0.25142079191296962 0 -0.21518945271802531 -0.26671801665362821 0 -0.20637389757624119 -0.25653967376115039 0 -0.16950490137503291 -0.25772797401075798 0 -0.1557014375071277 -0.27150310645242948 0 -0.1515656057754648 -0.24762527439959109 0 -0.19041716244320731 -0.25567829626086669 0 -0.16950490137503291 -0.25772797401075798 0 -0.17574556494438151 -0.27712023962997878 0 -0.19041716244320731 -0.25567829626086669 0 -0.16950490137503291 -0.25772797401075798 0 -0.16990885256148389 -0.23681693577735929 0 -0.19041716244320731 -0.25567829626086669 0 -0.17574556494438151 -0.27712023962997878 0 -0.192798113995374 -0.27614987236292132 0 -0.19041716244320731 -0.25567829626086669 0 -0.17574556494438151 -0.27712023962997878 0 -0.16950490137503291 -0.25772797401075798 0 -0.17574556494438151 -0.27712023962997878 0 -0.1557014375071277 -0.27150310645242948 0 -0.17574556494438151 -0.27712023962997878 0 -0.15983726923879071 -0.29538093850526792 0 -0.17893882695756941 -0.29676981405937619 0 -0.17574556494438151 -0.27712023962997878 0 -0.15983726923879071 -0.29538093850526792 0 -0.1557014375071277 -0.27150310645242948 0 -0.15983726923879071 -0.29538093850526792 0 -0.1557014375071277 -0.27150310645242948 0 -0.192798113995374 -0.27614987236292132 0 -0.17574556494438151 -0.27712023962997878 0 -0.17893882695756941 -0.29676981405937619 0 -0.17893882695756941 -0.29676981405937619 0 -0.1854900263032408 -0.31710068680559522 0 -0.16397310097045359 -0.31925877055810642 0 -0.1968898639311957 -0.29850638911348237 0 -0.17893882695756941 -0.29676981405937619 0 -0.1854900263032408 -0.31710068680559522 0 -0.15983726923879071 -0.29538093850526792 0 -0.16397310097045359 -0.31925877055810642 0 -0.14590202517066261 -0.31433596975105338 0 -0.15983726923879071 -0.29538093850526792 0 -0.16397310097045359 -0.31925877055810642 0 -0.15983726923879071 -0.29538093850526792 0 -0.17893882695756941 -0.29676981405937619 0 -0.16397310097045359 -0.31925877055810642 0 -0.15983726923879071 -0.29538093850526792 0 -0.14288074060626901 -0.29917908402640803 0 -0.14590202517066261 -0.31433596975105338 0 -0.14288074060626901 -0.29917908402640803 0 -0.13108674317545299 -0.31194040830201503 0 -0.14590202517066261 -0.31433596975105338 0 -0.13108674317545299 -0.31194040830201503 0 -0.12603097848941441 -0.29543721807643969 0 -0.11838082969964039 -0.30732429362681168 0 -0.14288074060626901 -0.29917908402640803 0 -0.13108674317545299 -0.31194040830201503 0 -0.12603097848941441 -0.29543721807643969 0 -0.14288074060626901 -0.29917908402640803 0 -0.12603097848941441 -0.29543721807643969 0 -0.14533322258468079 -0.28197631957383101 0 -0.12603097848941441 -0.29543721807643969 0 -0.14533322258468079 -0.28197631957383101 0 -0.1214156893529843 -0.27880546680457202 0 -0.15983726923879071 -0.29538093850526792 0 -0.14288074060626901 -0.29917908402640803 0 -0.14533322258468079 -0.28197631957383101 0 -0.15983726923879071 -0.29538093850526792 0 -0.14533322258468079 -0.28197631957383101 0 -0.1557014375071277 -0.27150310645242948 0 -0.14533322258468079 -0.28197631957383101 0 -0.1557014375071277 -0.27150310645242948 0 -0.13566616298821579 -0.26361782246925408 0 -0.14533322258468079 -0.28197631957383101 0 -0.1214156893529843 -0.27880546680457202 0 -0.14533322258468079 -0.28197631957383101 0 -0.13566616298821579 -0.26361782246925408 0 -0.1214156893529843 -0.27880546680457202 0 -0.13566616298821579 -0.26361782246925408 0 -0.1515656057754648 -0.24762527439959109 0 -0.12759395261113149 -0.24410238476601001 0 -0.13566616298821579 -0.26361782246925408 0 -0.1123870700979059 -0.25769438281909107 0 -0.12759395261113149 -0.24410238476601001 0 -0.1557014375071277 -0.27150310645242948 0 -0.13566616298821579 -0.26361782246925408 0 -0.1515656057754648 -0.24762527439959109 0 -0.1557014375071277 -0.27150310645242948 0 -0.1515656057754648 -0.24762527439959109 0 -0.1700654391339366 -0.35655407039570752 0 -0.1615252775151019 -0.36783926376064169 0 -0.15260021094287701 -0.35134082888455709 0 -0.1700654391339366 -0.35655407039570752 0 -0.16567347611435601 -0.34165688079537521 0 -0.15260021094287701 -0.35134082888455709 0 -0.1737708867924512 -0.37639033043819281 0 -0.1615252775151019 -0.36783926376064169 0 -0.17495699149671601 -0.3669582251189647 0 -0.1700654391339366 -0.35655407039570752 0 -0.1615252775151019 -0.36783926376064169 0 -0.17495699149671601 -0.3669582251189647 0 -0.1700654391339366 -0.35655407039570752 0 -0.17495699149671601 -0.3669582251189647 0 -0.18426893553064599 -0.36280727811040969 0 -0.1737708867924512 -0.37639033043819281 0 -0.17495699149671601 -0.3669582251189647 0 -0.18515441851144429 -0.37120018288987189 0 -0.19283342004942289 -0.36769905933790842 0 -0.18515441851144429 -0.37120018288987189 0 -0.18426893553064599 -0.36280727811040969 0 -0.17495699149671601 -0.3669582251189647 0 -0.18515441851144429 -0.37120018288987189 0 -0.18426893553064599 -0.36280727811040969 0 -0.19023309513330111 -0.34873457553443987 0 -0.19098577195357361 -0.35775617471212762 0 -0.18074284917763411 -0.35052891075042819 0 -0.19098577195357361 -0.35775617471212762 0 -0.18426893553064599 -0.36280727811040969 0 -0.18074284917763411 -0.35052891075042819 0 -0.1700654391339366 -0.35655407039570752 0 -0.18426893553064599 -0.36280727811040969 0 -0.18074284917763411 -0.35052891075042819 0 -0.1700654391339366 -0.35655407039570752 0 -0.18074284917763411 -0.35052891075042819 0 -0.16567347611435601 -0.34165688079537521 0 -0.19023309513330111 -0.34873457553443987 0 -0.18074284917763411 -0.35052891075042819 0 -0.1832303771999915 -0.33566448495450951 0 -0.18074284917763411 -0.35052891075042819 0 -0.1832303771999915 -0.33566448495450951 0 -0.16567347611435601 -0.34165688079537521 0 -0.1832303771999915 -0.33566448495450951 0 -0.1854900263032408 -0.31710068680559522 0 -0.16397310097045359 -0.31925877055810642 0 -0.16397310097045359 -0.31925877055810642 0 -0.16567347611435601 -0.34165688079537521 0 -0.1433369859020012 -0.33444129120763522 0 -0.1832303771999915 -0.33566448495450951 0 -0.16397310097045359 -0.31925877055810642 0 -0.16567347611435601 -0.34165688079537521 0 -0.16567347611435601 -0.34165688079537521 0 -0.1433369859020012 -0.33444129120763522 0 -0.15260021094287701 -0.35134082888455709 0 -0.16397310097045359 -0.31925877055810642 0 -0.1433369859020012 -0.33444129120763522 0 -0.14590202517066261 -0.31433596975105338 0 -0.1433369859020012 -0.33444129120763522 0 -0.14590202517066261 -0.31433596975105338 0 -0.13301652316105411 -0.32358666323793039 0 -0.13108674317545299 -0.31194040830201503 0 -0.14590202517066261 -0.31433596975105338 0 -0.13301652316105411 -0.32358666323793039 0 -0.13301652316105411 -0.32358666323793039 0 -0.130067443251565 -0.33468508821632759 0 -0.1202014024431768 -0.3229718023144737 0 -0.13108674317545299 -0.31194040830201503 0 -0.13301652316105411 -0.32358666323793039 0 -0.1202014024431768 -0.3229718023144737 0 -0.130067443251565 -0.33468508821632759 0 -0.13689156899085109 -0.34566005741607042 0 -0.1197119179778527 -0.34435160623648958 0 -0.1433369859020012 -0.33444129120763522 0 -0.130067443251565 -0.33468508821632759 0 -0.13689156899085109 -0.34566005741607042 0 -0.1433369859020012 -0.33444129120763522 0 -0.13301652316105411 -0.32358666323793039 0 -0.130067443251565 -0.33468508821632759 0 -0.13874128687995971 -0.36348147253534269 0 -0.1197119179778527 -0.34435160623648958 0 -0.13874128687995971 -0.36348147253534269 0 -0.12084826746315661 -0.36008498073402417 0 -0.1197119179778527 -0.34435160623648958 0 -0.13689156899085109 -0.34566005741607042 0 -0.13874128687995971 -0.36348147253534269 0 -0.1197119179778527 -0.34435160623648958 0 -0.13689156899085109 -0.34566005741607042 0 -0.15260021094287701 -0.35134082888455709 0 -0.13874128687995971 -0.36348147253534269 0 -0.1433369859020012 -0.33444129120763522 0 -0.13689156899085109 -0.34566005741607042 0 -0.15260021094287701 -0.35134082888455709 0 -0.15777065578206681 -0.38261133883419579 0 -0.13874128687995971 -0.36348147253534269 0 -0.15777065578206681 -0.38261133883419579 0 -0.1615252775151019 -0.36783926376064169 0 -0.13874128687995971 -0.36348147253534269 0 -0.1615252775151019 -0.36783926376064169 0 -0.15260021094287701 -0.35134082888455709 0 -0.13874128687995971 -0.36348147253534269 0 -0.14221707737603989 -0.38226235982788243 0 -0.13874128687995971 -0.36348147253534269 0 -0.1189322715291658 -0.37574254512997513 0 -0.13874128687995971 -0.36348147253534269 0 -0.12084826746315661 -0.36008498073402417 0 -0.1189322715291658 -0.37574254512997513 0 -0.12084826746315661 -0.36008498073402417 0 -0.1051156734506907 -0.35893787617412681 0 -0.1189322715291658 -0.37574254512997513 0 -0.1051156734506907 -0.35893787617412681 0 -0.1189322715291658 -0.37574254512997513 0 -0.1016738955800776 -0.35475175616059551 0 -0.096439340235901991 -0.38380140492847742 0 -0.1051156734506907 -0.35893787617412681 0 -0.10393747111780779 -0.38471308335127641 0 -0.1051156734506907 -0.35893787617412681 0 -0.1189322715291658 -0.37574254512997513 0 -0.10393747111780779 -0.38471308335127641 0 -0.1016738955800776 -0.35475175616059551 0 -0.1051156734506907 -0.35893787617412681 0 -0.096439340235901991 -0.38380140492847742 0 -0.1016738955800776 -0.35475175616059551 0 -0.1059381470286173 -0.34094484876522402 0 -0.1050643737955033 -0.33593598388628698 0 -0.1051156734506907 -0.35893787617412681 0 -0.1129035014800793 -0.35107982797746612 0 -0.1059381470286173 -0.34094484876522402 0 -0.1051156734506907 -0.35893787617412681 0 -0.1059381470286173 -0.34094484876522402 0 -0.1016738955800776 -0.35475175616059551 0 -0.1051156734506907 -0.35893787617412681 0 -0.1059381470286173 -0.34094484876522402 0 -0.1016738955800776 -0.35475175616059551 0 -0.1050643737955033 -0.33593598388628698 0 -0.1016738955800776 -0.35475175616059551 0 -0.089203904300488857 -0.33958492029075332 0 -0.1016738955800776 -0.35475175616059551 0 -0.1051156734506907 -0.35893787617412681 0 -0.12084826746315661 -0.36008498073402417 0 -0.1051156734506907 -0.35893787617412681 0 -0.1129035014800793 -0.35107982797746612 0 -0.12084826746315661 -0.36008498073402417 0 -0.1129035014800793 -0.35107982797746612 0 -0.1197119179778527 -0.34435160623648958 0 -0.1129035014800793 -0.35107982797746612 0 -0.1197119179778527 -0.34435160623648958 0 -0.1059381470286173 -0.34094484876522402 0 -0.1197119179778527 -0.34435160623648958 0 -0.1202014024431768 -0.3229718023144737 0 -0.1006825490757456 -0.32522173993763642 0 -0.130067443251565 -0.33468508821632759 0 -0.1197119179778527 -0.34435160623648958 0 -0.1202014024431768 -0.3229718023144737 0 -0.1197119179778527 -0.34435160623648958 0 -0.1006825490757456 -0.32522173993763642 0 -0.1197119179778527 -0.34435160623648958 0 -0.1059381470286173 -0.34094484876522402 0 -0.1050643737955033 -0.33593598388628698 0 -0.1202014024431768 -0.3229718023144737 0 -0.11838082969964039 -0.30732429362681168 0 -0.1056869944675273 -0.31147037635563868 0 -0.13108674317545299 -0.31194040830201503 0 -0.1202014024431768 -0.3229718023144737 0 -0.11838082969964039 -0.30732429362681168 0 -0.1202014024431768 -0.3229718023144737 0 -0.1006825490757456 -0.32522173993763642 0 -0.1056869944675273 -0.31147037635563868 0 -0.1006825490757456 -0.32522173993763642 0 -0.1056869944675273 -0.31147037635563868 0 -0.081653180173638526 -0.30609187363878321 0 -0.1197119179778527 -0.34435160623648958 0 -0.1006825490757456 -0.32522173993763642 0 -0.1050643737955033 -0.33593598388628698 0 -0.1006825490757456 -0.32522173993763642 0 -0.1050643737955033 -0.33593598388628698 0 -0.089203904300488857 -0.33958492029075332 0 -0.1016738955800776 -0.35475175616059551 0 -0.1050643737955033 -0.33593598388628698 0 -0.089203904300488857 -0.33958492029075332 0 -0.089203904300488857 -0.33958492029075332 0 -0.075323457481210637 -0.32807912484967972 0 -0.072567238669347126 -0.34701928557436418 0 -0.1006825490757456 -0.32522173993763642 0 -0.089203904300488857 -0.33958492029075332 0 -0.086715772757770898 -0.32474441467921311 0 -0.089203904300488857 -0.33958492029075332 0 -0.086715772757770898 -0.32474441467921311 0 -0.075323457481210637 -0.32807912484967972 0 -0.1006825490757456 -0.32522173993763642 0 -0.081653180173638526 -0.30609187363878321 0 -0.086715772757770898 -0.32474441467921311 0 -0.075323457481210637 -0.32807912484967972 0 -0.081653180173638526 -0.30609187363878321 0 -0.1006825490757456 -0.32522173993763642 0 -0.086715772757770898 -0.32474441467921311 0 -0.081653180173638526 -0.30609187363878321 0 -0.075323457481210637 -0.32807912484967972 0 -0.063031255160024932 -0.31510241460583688 0 -0.058200994957894797 -0.3324420697873568 0 -0.075323457481210637 -0.32807912484967972 0 -0.063031255160024932 -0.31510241460583688 0 -0.081653180173638526 -0.30609187363878321 0 -0.075323457481210637 -0.32807912484967972 0 -0.072567238669347126 -0.34701928557436418 0 -0.058200994957894797 -0.3324420697873568 0 -0.072567238669347126 -0.34701928557436418 0 -0.082761741444743214 -0.36295512927130358 0 -0.061714337629732149 -0.36679772600628691 0 -0.082761741444743214 -0.36295512927130358 0 -0.061714337629732149 -0.36679772600628691 0 -0.076602173866185466 -0.37899516807196509 0 -0.1016738955800776 -0.35475175616059551 0 -0.082761741444743214 -0.36295512927130358 0 -0.096439340235901991 -0.38380140492847742 0 -0.1016738955800776 -0.35475175616059551 0 -0.082761741444743214 -0.36295512927130358 0 -0.086551694998664178 -0.35107777282425412 0 -0.072567238669347126 -0.34701928557436418 0 -0.082761741444743214 -0.36295512927130358 0 -0.086551694998664178 -0.35107777282425412 0 -0.089203904300488857 -0.33958492029075332 0 -0.072567238669347126 -0.34701928557436418 0 -0.086551694998664178 -0.35107777282425412 0 -0.1016738955800776 -0.35475175616059551 0 -0.089203904300488857 -0.33958492029075332 0 -0.086551694998664178 -0.35107777282425412 0 -0.098055206064172618 -0.26091787411015521 0 -0.1123870700979059 -0.25769438281909107 0 -0.097498156121287829 -0.27563461403531297 0 -0.1022294825648509 -0.25202223524138101 0 -0.1123870700979059 -0.25769438281909107 0 -0.1078107689007117 -0.24129756560076071 0 -0.098055206064172618 -0.26091787411015521 0 -0.1022294825648509 -0.25202223524138101 0 -0.090664885196613448 -0.24817911843551721 0 -0.098055206064172618 -0.26091787411015521 0 -0.1022294825648509 -0.25202223524138101 0 -0.1123870700979059 -0.25769438281909107 0 -0.1123870700979059 -0.25769438281909107 0 -0.1214156893529843 -0.27880546680457202 0 -0.097498156121287829 -0.27563461403531297 0 -0.1214156893529843 -0.27880546680457202 0 -0.097498156121287829 -0.27563461403531297 0 -0.13566616298821579 -0.26361782246925408 0 -0.1123870700979059 -0.25769438281909107 0 -0.1214156893529843 -0.27880546680457202 0 -0.097498156121287829 -0.27563461403531297 0 -0.1061359919682392 -0.29668268143548659 0 -0.080880923369003474 -0.28849427649815229 0 -0.1214156893529843 -0.27880546680457202 0 -0.097498156121287829 -0.27563461403531297 0 -0.1061359919682392 -0.29668268143548659 0 -0.12603097848941441 -0.29543721807643969 0 -0.1214156893529843 -0.27880546680457202 0 -0.1061359919682392 -0.29668268143548659 0 -0.12603097848941441 -0.29543721807643969 0 -0.1061359919682392 -0.29668268143548659 0 -0.11838082969964039 -0.30732429362681168 0 -0.1061359919682392 -0.29668268143548659 0 -0.11838082969964039 -0.30732429362681168 0 -0.1056869944675273 -0.31147037635563868 0 -0.1061359919682392 -0.29668268143548659 0 -0.1056869944675273 -0.31147037635563868 0 -0.081653180173638526 -0.30609187363878321 0 -0.1061359919682392 -0.29668268143548659 0 -0.081653180173638526 -0.30609187363878321 0 -0.080880923369003474 -0.28849427649815229 0 -0.081653180173638526 -0.30609187363878321 0 -0.067797351698186459 -0.30107947319126488 0 -0.080880923369003474 -0.28849427649815229 0 -0.063031255160024932 -0.31510241460583688 0 -0.081653180173638526 -0.30609187363878321 0 -0.067797351698186459 -0.30107947319126488 0 -0.067797351698186459 -0.30107947319126488 0 -0.063326565011827041 -0.28703952278563649 0 -0.080880923369003474 -0.28849427649815229 0 -0.063326565011827041 -0.28703952278563649 0 -0.080880923369003474 -0.28849427649815229 0 -0.073580622889591357 -0.27246376126605382 0 -0.097498156121287829 -0.27563461403531297 0 -0.080880923369003474 -0.28849427649815229 0 -0.073580622889591357 -0.27246376126605382 0 -0.098055206064172618 -0.26091787411015521 0 -0.097498156121287829 -0.27563461403531297 0 -0.073580622889591357 -0.27246376126605382 0 -0.097498156121287829 -0.27563461403531297 0 -0.073580622889591357 -0.27246376126605382 0 -0.063326565011827041 -0.28703952278563649 0 -0.073580622889591357 -0.27246376126605382 0 -0.073580622889591357 -0.27246376126605382 0 -0.069428953678351821 -0.25498101630413639 0 -0.090664885196613448 -0.24817911843551721 0 -0.073580622889591357 -0.27246376126605382 0 -0.069428953678351821 -0.25498101630413639 0 -0.050130684875706349 -0.26935489965520321 0 -0.073580622889591357 -0.27246376126605382 0 -0.090664885196613448 -0.24817911843551721 0 -0.098055206064172618 -0.26091787411015521 0 -0.073580622889591357 -0.27246376126605382 0 -0.090664885196613448 -0.24817911843551721 0 -0.0336587369974755 -0.25917000313253019 0 -0.033029336451522 -0.26508579101292751 0 -0.041007153744286817 -0.24523372537231169 0 -0.044187472164344523 -0.25438469026580901 0 -0.032819309226195477 -0.2670598543055766 0 -0.041007153744286817 -0.24523372537231169 0 -0.033029336451522 -0.26508579101292751 0 -0.032819309226195477 -0.2670598543055766 0 -0.041007153744286817 -0.24523372537231169 0 -0.032819309226195477 -0.2670598543055766 0 -0.041007153744286817 -0.24523372537231169 0 -0.031880318210837193 -0.25089372004459443 0 -0.0336587369974755 -0.25917000313253019 0 -0.041007153744286817 -0.24523372537231169 0 -0.031880318210837193 -0.25089372004459443 0 -0.0336587369974755 -0.25917000313253019 0 -0.028806566436616821 -0.25712076118453608 0 -0.044187472164344523 -0.25438469026580901 0 -0.032819309226195477 -0.2670598543055766 0 -0.0336587369974755 -0.25917000313253019 0 -0.033029336451522 -0.26508579101292751 0 -0.031196565964253801 -0.26139142239888857 0 -0.033029336451522 -0.26508579101292751 0 -0.031072729037309978 -0.26323928510488459 0 -0.030215101531159309 -0.26477888704019442 0 -0.033029336451522 -0.26508579101292751 0 -0.031072729037309978 -0.26323928510488459 0 -0.031196565964253801 -0.26139142239888857 0 -0.04233293337828279 -0.26378578734292413 0 -0.044187472164344523 -0.25438469026580901 0 -0.032819309226195477 -0.2670598543055766 0 -0.04233293337828279 -0.26378578734292413 0 -0.044187472164344523 -0.25438469026580901 0 -0.048365612546033339 -0.26051875747466913 0 -0.069428953678351821 -0.25498101630413639 0 -0.050130684875706349 -0.26935489965520321 0 -0.044187472164344523 -0.25438469026580901 0 -0.056811359765799707 -0.25454965263474039 0 -0.048365612546033339 -0.26051875747466913 0 -0.044187472164344523 -0.25438469026580901 0 -0.056811359765799707 -0.25454965263474039 0 -0.055158796600855681 -0.24203331188581481 0 -0.069428953678351821 -0.25498101630413639 0 -0.056811359765799707 -0.25454965263474039 0 -0.050130684875706349 -0.26935489965520321 0 -0.069428953678351821 -0.25498101630413639 0 -0.056811359765799707 -0.25454965263474039 0 -0.055158796600855681 -0.24203331188581481 0 -0.056811359765799707 -0.25454965263474039 0 -0.048365612546033339 -0.26051875747466913 0 -0.050130684875706349 -0.26935489965520321 0 -0.04233293337828279 -0.26378578734292413 0 -0.048365612546033339 -0.26051875747466913 0 -0.050130684875706349 -0.26935489965520321 0 -0.063326565011827041 -0.28703952278563649 0 -0.073580622889591357 -0.27246376126605382 0 -0.050130684875706349 -0.26935489965520321 0 -0.073580622889591357 -0.27246376126605382 0 -0.050130684875706349 -0.26935489965520321 0 -0.050130684875706349 -0.26935489965520321 0 -0.026457101151964809 -0.28698763834418561 0 -0.029613486974729569 -0.27667902698104341 0 -0.04233293337828279 -0.26378578734292413 0 -0.050130684875706349 -0.26935489965520321 0 -0.032819309226195477 -0.2670598543055766 0 -0.050130684875706349 -0.26935489965520321 0 -0.032819309226195477 -0.2670598543055766 0 -0.029613486974729569 -0.27667902698104341 0 -0.050130684875706349 -0.26935489965520321 0 -0.032819309226195477 -0.2670598543055766 0 -0.050130684875706349 -0.26935489965520321 0 -0.026457101151964809 -0.28698763834418561 0 -0.033029336451522 -0.26508579101292751 0 -0.032819309226195477 -0.2670598543055766 0 -0.030215101531159309 -0.26477888704019442 0 -0.045788652830240688 -0.28891158505377051 0 -0.053072507134062787 -0.30161528430521939 0 -0.035956405977642471 -0.29956058017860782 0 -0.050130684875706349 -0.26935489965520321 0 -0.045788652830240688 -0.28891158505377051 0 -0.026457101151964809 -0.28698763834418561 0 -0.045788652830240688 -0.28891158505377051 0 -0.035956405977642471 -0.29956058017860782 0 -0.026457101151964809 -0.28698763834418561 0 -0.063326565011827041 -0.28703952278563649 0 -0.045788652830240688 -0.28891158505377051 0 -0.053072507134062787 -0.30161528430521939 0 -0.063326565011827041 -0.28703952278563649 0 -0.050130684875706349 -0.26935489965520321 0 -0.045788652830240688 -0.28891158505377051 0 -0.063326565011827041 -0.28703952278563649 0 -0.053072507134062787 -0.30161528430521939 0 -0.067797351698186459 -0.30107947319126488 0 -0.063326565011827041 -0.28703952278563649 0 -0.053072507134062787 -0.30161528430521939 0 -0.063031255160024932 -0.31510241460583688 0 -0.053072507134062787 -0.30161528430521939 0 -0.044992351563883523 -0.31890193927927812 0 -0.063031255160024932 -0.31510241460583688 0 -0.067797351698186459 -0.30107947319126488 0 -0.053072507134062787 -0.30161528430521939 0 -0.053072507134062787 -0.30161528430521939 0 -0.035956405977642471 -0.29956058017860782 0 -0.044992351563883523 -0.31890193927927812 0 -0.035956405977642471 -0.29956058017860782 0 -0.044992351563883523 -0.31890193927927812 0 -0.0276593991479826 -0.31331556602663702 0 -0.02335083457018176 -0.30283975435221538 0 -0.015289715341740159 -0.30306342080173843 0 -0.026457101151964809 -0.28698763834418561 0 -0.035956405977642471 -0.29956058017860782 0 -0.02335083457018176 -0.30283975435221538 0 -0.0276593991479826 -0.31331556602663702 0 -0.02335083457018176 -0.30283975435221538 0 -0.016782966440239241 -0.30994556998019918 0 -0.0276593991479826 -0.31331556602663702 0 -0.02335083457018176 -0.30283975435221538 0 -0.016782966440239241 -0.30994556998019918 0 -0.015289715341740159 -0.30306342080173843 0 -0.016782966440239241 -0.30994556998019918 0 -0.0070741571180920398 -0.31092376429892371 0 -0.015289715341740159 -0.30306342080173843 0 -0.0027835174282229841 -0.30462037703316791 0 -0.015289715341740159 -0.30306342080173843 0 -0.026457101151964809 -0.28698763834418561 0 -0.0027835174282229841 -0.30462037703316791 0 -0.015491884950750859 -0.28668981965672541 0 0.001896595321517253 -0.30626555096780689 0 -0.0070741571180920398 -0.31092376429892371 0 -0.0027835174282229841 -0.30462037703316791 0 -0.015289715341740159 -0.30306342080173843 0 -0.0070741571180920398 -0.31092376429892371 0 -0.0027835174282229841 -0.30462037703316791 0 0.001896595321517253 -0.30626555096780689 0 -0.0070741571180920398 -0.31092376429892371 0 -0.0054517495712185357 -0.31972239223645271 0 0.001896595321517253 -0.30626555096780689 0 -0.0027835174282229841 -0.30462037703316791 0 -0.015491884950750859 -0.28668981965672541 0 -0.026457101151964809 -0.28698763834418561 0 -0.015491884950750859 -0.28668981965672541 0 0.001896595321517253 -0.30626555096780689 0 0.001517707357284237 -0.29753028005066512 0 -0.015491884950750859 -0.28668981965672541 0 0.001896595321517253 -0.30626555096780689 0 -0.002143095001078794 -0.290631109880501 0 -0.015491884950750859 -0.28668981965672541 0 0.001517707357284237 -0.29753028005066512 0 -0.0027835174282229841 -0.30462037703316791 0 -0.026457101151964809 -0.28698763834418561 0 -0.0071142901357906779 -0.28464715109619382 0 -0.00061854659909016591 -0.28173529456410179 0 -0.01020363399224289 -0.2795323802834469 0 -0.002143095001078794 -0.290631109880501 0 -0.0071142901357906779 -0.28464715109619382 0 -0.00061854659909016591 -0.28173529456410179 0 -0.0071142901357906779 -0.28464715109619382 0 -0.015491884950750859 -0.28668981965672541 0 -0.01020363399224289 -0.2795323802834469 0 -0.015491884950750859 -0.28668981965672541 0 -0.017724407550019781 -0.2781084902489287 0 -0.01020363399224289 -0.2795323802834469 0 -0.002143095001078794 -0.290631109880501 0 -0.0071142901357906779 -0.28464715109619382 0 -0.015491884950750859 -0.28668981965672541 0 -0.035956405977642471 -0.29956058017860782 0 -0.02335083457018176 -0.30283975435221538 0 -0.026457101151964809 -0.28698763834418561 0 -0.015491884950750859 -0.28668981965672541 0 -0.026457101151964809 -0.28698763834418561 0 -0.029613486974729569 -0.27667902698104341 0 -0.032819309226195477 -0.2670598543055766 0 -0.015491884950750859 -0.28668981965672541 0 -0.032819309226195477 -0.2670598543055766 0 -0.015491884950750859 -0.28668981965672541 0 -0.029613486974729569 -0.27667902698104341 0 -0.032819309226195477 -0.2670598543055766 0 -0.015491884950750859 -0.28668981965672541 0 -0.027014911018030791 -0.27056039004226012 0 -0.015491884950750859 -0.28668981965672541 0 -0.027014911018030791 -0.27056039004226012 0 -0.017724407550019781 -0.2781084902489287 0 -0.032819309226195477 -0.2670598543055766 0 -0.029613486974729569 -0.27667902698104341 0 -0.02981240181846536 -0.26831256848788859 0 -0.02786718631659223 -0.26629816854433541 0 -0.027014911018030791 -0.27056039004226012 0 -0.032819309226195477 -0.2670598543055766 0 -0.02981240181846536 -0.26831256848788859 0 -0.027014911018030791 -0.27056039004226012 0 -0.032819309226195477 -0.2670598543055766 0 -0.030472923208994859 -0.26651934868798938 0 -0.030215101531159309 -0.26477888704019442 0 -0.030472923208994859 -0.26651934868798938 0 -0.02981240181846536 -0.26831256848788859 0 -0.02786718631659223 -0.26629816854433541 0 -0.032819309226195477 -0.2670598543055766 0 -0.030472923208994859 -0.26651934868798938 0 -0.02981240181846536 -0.26831256848788859 0 -0.030472923208994859 -0.26651934868798938 0 -0.02786718631659223 -0.26629816854433541 0 -0.030215101531159309 -0.26477888704019442 0 -0.02786718631659223 -0.26629816854433541 0 -0.024138618959720269 -0.26725153885115888 0 -0.027014911018030791 -0.27056039004226012 0 -0.024138618959720269 -0.26725153885115888 0 -0.027014911018030791 -0.27056039004226012 0 -0.02142620416236702 -0.26927170157164471 0 -0.02786718631659223 -0.26629816854433541 0 -0.024138618959720269 -0.26725153885115888 0 -0.024914559918480711 -0.2642194624392063 0 -0.027014911018030791 -0.27056039004226012 0 -0.020220507805992421 -0.27318944605021728 0 -0.02142620416236702 -0.26927170157164471 0 -0.024138618959720269 -0.26725153885115888 0 -0.02142620416236702 -0.26927170157164471 0 -0.020604371772491019 -0.26516623723233079 0 -0.02142620416236702 -0.26927170157164471 0 -0.015152611255600631 -0.27019089568225629 0 -0.020604371772491019 -0.26516623723233079 0 -0.020220507805992421 -0.27318944605021728 0 -0.02142620416236702 -0.26927170157164471 0 -0.015152611255600631 -0.27019089568225629 0 -0.020220507805992421 -0.27318944605021728 0 -0.017724407550019781 -0.2781084902489287 0 -0.015152611255600631 -0.27019089568225629 0 -0.027014911018030791 -0.27056039004226012 0 -0.020220507805992421 -0.27318944605021728 0 -0.017724407550019781 -0.2781084902489287 0 -0.01020363399224289 -0.2795323802834469 0 -0.0047259481970078534 -0.27211653938485081 0 -0.015152611255600631 -0.27019089568225629 0 -0.017724407550019781 -0.2781084902489287 0 -0.01020363399224289 -0.2795323802834469 0 -0.015152611255600631 -0.27019089568225629 0 -0.00061854659909016591 -0.28173529456410179 0 -0.01020363399224289 -0.2795323802834469 0 -0.0047259481970078534 -0.27211653938485081 0 -0.0047259481970078534 -0.27211653938485081 0 -0.0093239057790039433 -0.26167322197863441 0 -0.00033550809608256442 -0.26383920917593712 0 -0.0047259481970078534 -0.27211653938485081 0 -0.015152611255600631 -0.27019089568225629 0 -0.0093239057790039433 -0.26167322197863441 0 -0.015152611255600631 -0.27019089568225629 0 -0.0093239057790039433 -0.26167322197863441 0 -0.01690208250329147 -0.26028505579545891 0 -0.0093239057790039433 -0.26167322197863441 0 -0.00033550809608256442 -0.26383920917593712 0 -0.001510810221741861 -0.25277351325326169 0 -0.0093239057790039433 -0.26167322197863441 0 -0.001510810221741861 -0.25277351325326169 0 -0.014031519585774321 -0.25112226938177401 0 -0.0093239057790039433 -0.26167322197863441 0 -0.014031519585774321 -0.25112226938177401 0 -0.01690208250329147 -0.26028505579545891 0 -0.014031519585774321 -0.25112226938177401 0 -0.019283381092324411 -0.2547374178184304 0 -0.01690208250329147 -0.26028505579545891 0 -0.014031519585774321 -0.25112226938177401 0 -0.019283381092324411 -0.2547374178184304 0 -0.024155395764162899 -0.24937715339561889 0 -0.019283381092324411 -0.2547374178184304 0 -0.023359022090359321 -0.2590509616858272 0 -0.024155395764162899 -0.24937715339561889 0 -0.015152611255600631 -0.27019089568225629 0 -0.01690208250329147 -0.26028505579545891 0 -0.020604371772491019 -0.26516623723233079 0 -0.024138618959720269 -0.26725153885115888 0 -0.020604371772491019 -0.26516623723233079 0 -0.024914559918480711 -0.2642194624392063 0 -0.020604371772491019 -0.26516623723233079 0 -0.023359022090359321 -0.2590509616858272 0 -0.024914559918480711 -0.2642194624392063 0 -0.01690208250329147 -0.26028505579545891 0 -0.020604371772491019 -0.26516623723233079 0 -0.023359022090359321 -0.2590509616858272 0 -0.019283381092324411 -0.2547374178184304 0 -0.01690208250329147 -0.26028505579545891 0 -0.023359022090359321 -0.2590509616858272 0 -0.023359022090359321 -0.2590509616858272 0 -0.02831865090214199 -0.26259560510935032 0 -0.028806566436616821 -0.25712076118453608 0 -0.023359022090359321 -0.2590509616858272 0 -0.024914559918480711 -0.2642194624392063 0 -0.02831865090214199 -0.26259560510935032 0 -0.02786718631659223 -0.26629816854433541 0 -0.024914559918480711 -0.2642194624392063 0 -0.02831865090214199 -0.26259560510935032 0 -0.02786718631659223 -0.26629816854433541 0 -0.02831865090214199 -0.26259560510935032 0 -0.030215101531159309 -0.26477888704019442 0 -0.02831865090214199 -0.26259560510935032 0 -0.031072729037309978 -0.26323928510488459 0 -0.031196565964253801 -0.26139142239888857 0 -0.02831865090214199 -0.26259560510935032 0 -0.031072729037309978 -0.26323928510488459 0 -0.030215101531159309 -0.26477888704019442 0 -0.0336587369974755 -0.25917000313253019 0 -0.031196565964253801 -0.26139142239888857 0 -0.028806566436616821 -0.25712076118453608 0 -0.02831865090214199 -0.26259560510935032 0 -0.031196565964253801 -0.26139142239888857 0 -0.028806566436616821 -0.25712076118453608 0 -0.023359022090359321 -0.2590509616858272 0 -0.028806566436616821 -0.25712076118453608 0 -0.024155395764162899 -0.24937715339561889 0 -0.031880318210837193 -0.25089372004459443 0 -0.028806566436616821 -0.25712076118453608 0 -0.024155395764162899 -0.24937715339561889 0 -0.050893523408247557 -0.35131785884634392 0 -0.043274061841374327 -0.33682302904008737 0 -0.029557894315415351 -0.3505239399178201 0 -0.050893523408247557 -0.35131785884634392 0 -0.029557894315415351 -0.3505239399178201 0 -0.041338359800466302 -0.37564266004082197 0 -0.061714337629732149 -0.36679772600628691 0 -0.050893523408247557 -0.35131785884634392 0 -0.041338359800466302 -0.37564266004082197 0 -0.072567238669347126 -0.34701928557436418 0 -0.061714337629732149 -0.36679772600628691 0 -0.050893523408247557 -0.35131785884634392 0 -0.050893523408247557 -0.35131785884634392 0 -0.058200994957894797 -0.3324420697873568 0 -0.043274061841374327 -0.33682302904008737 0 -0.058200994957894797 -0.3324420697873568 0 -0.044992351563883523 -0.31890193927927812 0 -0.043274061841374327 -0.33682302904008737 0 -0.072567238669347126 -0.34701928557436418 0 -0.050893523408247557 -0.35131785884634392 0 -0.058200994957894797 -0.3324420697873568 0 -0.063031255160024932 -0.31510241460583688 0 -0.058200994957894797 -0.3324420697873568 0 -0.044992351563883523 -0.31890193927927812 0 -0.044992351563883523 -0.31890193927927812 0 -0.028886411757406551 -0.32926816124124803 0 -0.0276593991479826 -0.31331556602663702 0 -0.043274061841374327 -0.33682302904008737 0 -0.028886411757406551 -0.32926816124124803 0 -0.029557894315415351 -0.3505239399178201 0 -0.044992351563883523 -0.31890193927927812 0 -0.043274061841374327 -0.33682302904008737 0 -0.028886411757406551 -0.32926816124124803 0 -0.028886411757406551 -0.32926816124124803 0 -0.010618265006350439 -0.33417493371896828 0 -0.029557894315415351 -0.3505239399178201 0 -0.028886411757406551 -0.32926816124124803 0 -0.016244304552074419 -0.32052088764158299 0 -0.010618265006350439 -0.33417493371896828 0 -0.028886411757406551 -0.32926816124124803 0 -0.0276593991479826 -0.31331556602663702 0 -0.016244304552074419 -0.32052088764158299 0 -0.016782966440239241 -0.30994556998019918 0 -0.0276593991479826 -0.31331556602663702 0 -0.016244304552074419 -0.32052088764158299 0 -0.0070741571180920398 -0.31092376429892371 0 -0.016244304552074419 -0.32052088764158299 0 -0.0054517495712185357 -0.31972239223645271 0 -0.016782966440239241 -0.30994556998019918 0 -0.0070741571180920398 -0.31092376429892371 0 -0.016244304552074419 -0.32052088764158299 0 -0.016244304552074419 -0.32052088764158299 0 -0.0054517495712185357 -0.31972239223645271 0 -0.010618265006350439 -0.33417493371896828 0 -0.0054517495712185357 -0.31972239223645271 0 -0.010618265006350439 -0.33417493371896828 0 0.0039377926388811518 -0.32867857509459741 0 -0.010618265006350439 -0.33417493371896828 0 -0.0066744630276010571 -0.35903915010010617 0 0.0088522424624832632 -0.34392834343935302 0 -0.010618265006350439 -0.33417493371896828 0 -0.0066744630276010571 -0.35903915010010617 0 -0.029557894315415351 -0.3505239399178201 0 -0.029557894315415351 -0.3505239399178201 0 -0.020702940397802509 -0.37198277830837168 0 -0.041338359800466302 -0.37564266004082197 0 -0.0066744630276010571 -0.35903915010010617 0 -0.029557894315415351 -0.3505239399178201 0 -0.020702940397802509 -0.37198277830837168 0 -0.0066744630276010571 -0.35903915010010617 0 -0.020702940397802509 -0.37198277830837168 0 -0.0033031809835240762 -0.3827111190810556 0 -0.0033031809835240762 -0.3827111190810556 0 -0.0073203970132289953 -0.40291480216420089 0 0.0098767038162855415 -0.40124885723371501 0 -0.0033031809835240762 -0.3827111190810556 0 -0.0073203970132289953 -0.40291480216420089 0 -0.023292306195520279 -0.39161388088566468 0 -0.0073203970132289953 -0.40291480216420089 0 -0.023292306195520279 -0.39161388088566468 0 -0.025812214961824301 -0.4127616490708676 0 -0.023292306195520279 -0.39161388088566468 0 -0.041773390577333279 -0.39696712914696441 0 -0.025812214961824301 -0.4127616490708676 0 -0.020702940397802509 -0.37198277830837168 0 -0.023292306195520279 -0.39161388088566468 0 -0.041338359800466302 -0.37564266004082197 0 -0.020702940397802509 -0.37198277830837168 0 -0.0033031809835240762 -0.3827111190810556 0 -0.023292306195520279 -0.39161388088566468 0 -0.023292306195520279 -0.39161388088566468 0 -0.041338359800466302 -0.37564266004082197 0 -0.041773390577333279 -0.39696712914696441 0 -0.041773390577333279 -0.39696712914696441 0 -0.061092739442380452 -0.38727667316948511 0 -0.061183064168807873 -0.40695060698576002 0 -0.041773390577333279 -0.39696712914696441 0 -0.061183064168807873 -0.40695060698576002 0 -0.046441243442474578 -0.41237504916500223 0 -0.041338359800466302 -0.37564266004082197 0 -0.041773390577333279 -0.39696712914696441 0 -0.061092739442380452 -0.38727667316948511 0 -0.061714337629732149 -0.36679772600628691 0 -0.041338359800466302 -0.37564266004082197 0 -0.061092739442380452 -0.38727667316948511 0 -0.059019796007110208 -0.42441925283403131 0 -0.042353972094622098 -0.42794704526639782 0 -0.055153233941794708 -0.44329158975634342 0 -0.059019796007110208 -0.42441925283403131 0 -0.055153233941794708 -0.44329158975634342 0 -0.072324146230539996 -0.43581348918522822 0 -0.059019796007110208 -0.42441925283403131 0 -0.046441243442474578 -0.41237504916500223 0 -0.042353972094622098 -0.42794704526639782 0 -0.059019796007110208 -0.42441925283403131 0 -0.061183064168807873 -0.40695060698576002 0 -0.046441243442474578 -0.41237504916500223 0 -0.041773390577333279 -0.39696712914696441 0 -0.046441243442474578 -0.41237504916500223 0 -0.025812214961824301 -0.4127616490708676 0 -0.046441243442474578 -0.41237504916500223 0 -0.042353972094622098 -0.42794704526639782 0 -0.025812214961824301 -0.4127616490708676 0 -0.042353972094622098 -0.42794704526639782 0 -0.017569316592489261 -0.43541512649676228 0 -0.036577041785203372 -0.44776344434227611 0 -0.042353972094622098 -0.42794704526639782 0 -0.017569316592489261 -0.43541512649676228 0 -0.025812214961824301 -0.4127616490708676 0 -0.0073203970132289953 -0.40291480216420089 0 -0.025812214961824301 -0.4127616490708676 0 -0.0019565050565652298 -0.42196811447285137 0 -0.017569316592489261 -0.43541512649676228 0 -0.0019565050565652298 -0.42196811447285137 0 0.002655025436317683 -0.44533851880689329 0 -0.017569316592489261 -0.43541512649676228 0 -0.025812214961824301 -0.4127616490708676 0 -0.0019565050565652298 -0.42196811447285137 0 -0.017569316592489261 -0.43541512649676228 0 -0.018185795031759201 -0.45514663733827859 0 0.002655025436317683 -0.44533851880689329 0 -0.003129068968718052 -0.46659805368126961 0 -0.018185795031759201 -0.45514663733827859 0 -0.019247543457565859 -0.47856702898329528 0 -0.003129068968718052 -0.46659805368126961 0 -0.018185795031759201 -0.45514663733827859 0 0.002655025436317683 -0.44533851880689329 0 -0.018185795031759201 -0.45514663733827859 0 -0.019247543457565859 -0.47856702898329528 0 -0.035207103556577968 -0.46365462102263272 0 -0.018185795031759201 -0.45514663733827859 0 -0.036577041785203372 -0.44776344434227611 0 -0.035207103556577968 -0.46365462102263272 0 -0.017569316592489261 -0.43541512649676228 0 -0.018185795031759201 -0.45514663733827859 0 -0.036577041785203372 -0.44776344434227611 0 -0.0069237393158930183 -0.5 0 -0.019247543457565859 -0.47856702898329528 0 0.0082302100783460709 -0.48347212125408712 0 -0.003129068968718052 -0.46659805368126961 0 -0.019247543457565859 -0.47856702898329528 0 0.0082302100783460709 -0.48347212125408712 0 -0.0069237393158930183 -0.5 0 -0.019247543457565859 -0.47856702898329528 0 -0.034309360616609219 -0.5 0 -0.019247543457565859 -0.47856702898329528 0 -0.034309360616609219 -0.5 0 -0.045205617044053577 -0.48147648634868551 0 -0.019247543457565859 -0.47856702898329528 0 -0.045205617044053577 -0.48147648634868551 0 -0.035207103556577968 -0.46365462102263272 0 -0.045205617044053577 -0.48147648634868551 0 -0.035207103556577968 -0.46365462102263272 0 -0.050990499746280928 -0.46150436293512809 0 -0.045205617044053577 -0.48147648634868551 0 -0.050990499746280928 -0.46150436293512809 0 -0.06523803668839688 -0.47860449639507552 0 -0.034309360616609219 -0.5 0 -0.045205617044053577 -0.48147648634868551 0 -0.061694981917325482 -0.49999999999999911 0 -0.045205617044053577 -0.48147648634868551 0 -0.061694981917325482 -0.49999999999999911 0 -0.06523803668839688 -0.47860449639507552 0 -0.042353972094622098 -0.42794704526639782 0 -0.036577041785203372 -0.44776344434227611 0 -0.055153233941794708 -0.44329158975634342 0 -0.036577041785203372 -0.44776344434227611 0 -0.035207103556577968 -0.46365462102263272 0 -0.050990499746280928 -0.46150436293512809 0 -0.050990499746280928 -0.46150436293512809 0 -0.055153233941794708 -0.44329158975634342 0 -0.068781091459468438 -0.45720899279015192 0 -0.050990499746280928 -0.46150436293512809 0 -0.068781091459468438 -0.45720899279015192 0 -0.06523803668839688 -0.47860449639507552 0 -0.036577041785203372 -0.44776344434227611 0 -0.050990499746280928 -0.46150436293512809 0 -0.055153233941794708 -0.44329158975634342 0 -0.068781091459468438 -0.45720899279015192 0 -0.085970229547550875 -0.44190070246424101 0 -0.072324146230539996 -0.43581348918522822 0 -0.068781091459468438 -0.45720899279015192 0 -0.072324146230539996 -0.43581348918522822 0 -0.055153233941794708 -0.44329158975634342 0 -0.068781091459468438 -0.45720899279015192 0 -0.072324146230539996 -0.43581348918522822 0 -0.068781091459468438 -0.45720899279015192 0 -0.06523803668839688 -0.47860449639507552 0 -0.068781091459468438 -0.45720899279015192 0 -0.085970229547550875 -0.44190070246424101 0 -0.080735674203375352 -0.47095035123212259 0 -0.091681072478313849 -0.4665432477647351 0 -0.085970229547550875 -0.44190070246424101 0 -0.080735674203375352 -0.47095035123212259 0 -0.085970229547550875 -0.44190070246424101 0 -0.080735674203375352 -0.47095035123212259 0 -0.091681072478313849 -0.4665432477647351 0 -0.085970229547550875 -0.44190070246424101 0 -0.10042385651833891 -0.46157945996112432 0 -0.075501118859199079 -0.50000000000000422 0 -0.080735674203375352 -0.47095035123212259 0 -0.061694981917325482 -0.49999999999999911 0 -0.06523803668839688 -0.47860449639507552 0 -0.061694981917325482 -0.49999999999999911 0 -0.075501118859199079 -0.50000000000000422 0 -0.06523803668839688 -0.47860449639507552 0 -0.075501118859199079 -0.50000000000000422 0 -0.06523803668839688 -0.47860449639507552 0 -0.080735674203375352 -0.47095035123212259 0 -0.068781091459468438 -0.45720899279015192 0 -0.06523803668839688 -0.47860449639507552 0 -0.080735674203375352 -0.47095035123212259 0 -0.075501118859199079 -0.50000000000000422 0 -0.080735674203375352 -0.47095035123212259 0 -0.09925167835492521 -0.48082516031177791 0 -0.091681072478313849 -0.4665432477647351 0 -0.080735674203375352 -0.47095035123212259 0 -0.09925167835492521 -0.48082516031177791 0 -0.075501118859199079 -0.50000000000000422 0 -0.1012756612019132 -0.5 0 -0.09925167835492521 -0.48082516031177791 0 -0.1012756612019132 -0.5 0 -0.09925167835492521 -0.48082516031177791 0 -0.1195753894195599 -0.48123147416630702 0 -0.091681072478313849 -0.4665432477647351 0 -0.09925167835492521 -0.48082516031177791 0 -0.1016077754378425 -0.4686758341472585 0 -0.09925167835492521 -0.48082516031177791 0 -0.1108009343901038 -0.47137875416831893 0 -0.1016077754378425 -0.4686758341472585 0 -0.09925167835492521 -0.48082516031177791 0 -0.1195753894195599 -0.48123147416630702 0 -0.1108009343901038 -0.47137875416831893 0 -0.1195753894195599 -0.48123147416630702 0 -0.1108009343901038 -0.47137875416831893 0 -0.11909264355961 -0.46496431345098987 0 -0.1270502035446272 -0.5 0 -0.1012756612019132 -0.5 0 -0.1195753894195599 -0.48123147416630702 0 -0.085970229547550875 -0.44190070246424101 0 -0.10042385651833891 -0.46157945996112432 0 -0.1015810664520411 -0.43626349770557571 0 -0.10042385651833891 -0.46157945996112432 0 -0.1015810664520411 -0.43626349770557571 0 -0.1053381758215646 -0.45020898247329139 0 -0.11771078678252581 -0.44961166302436911 0 -0.1015810664520411 -0.43626349770557571 0 -0.1053381758215646 -0.45020898247329139 0 -0.10042385651833891 -0.46157945996112432 0 -0.1015810664520411 -0.43626349770557571 0 -0.091681072478313849 -0.4665432477647351 0 -0.10042385651833891 -0.46157945996112432 0 -0.1016077754378425 -0.4686758341472585 0 -0.1108009343901038 -0.47137875416831893 0 -0.1016077754378425 -0.4686758341472585 0 -0.10552979805186211 -0.46259452135685247 0 -0.10042385651833891 -0.46157945996112432 0 -0.1016077754378425 -0.4686758341472585 0 -0.10552979805186211 -0.46259452135685247 0 -0.1053381758215646 -0.45020898247329139 0 -0.10042385651833891 -0.46157945996112432 0 -0.1052500783497919 -0.45626793954501199 0 -0.10042385651833891 -0.46157945996112432 0 -0.10552979805186211 -0.46259452135685247 0 -0.1052500783497919 -0.45626793954501199 0 -0.10552979805186211 -0.46259452135685247 0 -0.11771078678252581 -0.44961166302436911 0 -0.10552979805186211 -0.46259452135685247 0 -0.1052500783497919 -0.45626793954501199 0 -0.11771078678252581 -0.44961166302436911 0 -0.13800695393170259 -0.46640777534957861 0 -0.11909264355961 -0.46496431345098987 0 -0.11771078678252581 -0.44961166302436911 0 -0.10552979805186211 -0.46259452135685247 0 -0.11909264355961 -0.46496431345098987 0 -0.11771078678252581 -0.44961166302436911 0 -0.1108009343901038 -0.47137875416831893 0 -0.10552979805186211 -0.46259452135685247 0 -0.11909264355961 -0.46496431345098987 0 -0.11771078678252581 -0.44961166302436911 0 -0.11675307199004981 -0.42798993363277749 0 -0.1015810664520411 -0.43626349770557571 0 -0.11771078678252581 -0.44961166302436911 0 -0.1015810664520411 -0.43626349770557571 0 -0.1053381758215646 -0.45020898247329139 0 -0.1052500783497919 -0.45626793954501199 0 -0.11771078678252581 -0.44961166302436911 0 -0.13329008540230969 -0.43300678542596049 0 -0.11771078678252581 -0.44961166302436911 0 -0.11675307199004981 -0.42798993363277749 0 -0.13329008540230969 -0.43300678542596049 0 -0.11675307199004981 -0.42798993363277749 0 -0.12302216387698379 -0.41305217270374361 0 -0.11675307199004981 -0.42798993363277749 0 -0.1015810664520411 -0.43626349770557571 0 -0.102759268784925 -0.410488290528426 0 -0.1015810664520411 -0.43626349770557571 0 -0.102759268784925 -0.410488290528426 0 -0.09301394768524078 -0.42917377046530858 0 -0.1015810664520411 -0.43626349770557571 0 -0.102759268784925 -0.410488290528426 0 -0.1015810664520411 -0.43626349770557571 0 -0.09301394768524078 -0.42917377046530858 0 -0.102759268784925 -0.410488290528426 0 -0.09301394768524078 -0.42917377046530858 0 -0.09120478489172644 -0.41285105369635922 0 -0.11675307199004981 -0.42798993363277749 0 -0.102759268784925 -0.410488290528426 0 -0.12302216387698379 -0.41305217270374361 0 -0.102759268784925 -0.410488290528426 0 -0.12302216387698379 -0.41305217270374361 0 -0.11584564158171951 -0.39781525162116538 0 -0.13274886960764071 -0.39254721408582349 0 -0.12302216387698379 -0.41305217270374361 0 -0.11584564158171951 -0.39781525162116538 0 -0.13274886960764071 -0.39254721408582349 0 -0.11584564158171951 -0.39781525162116538 0 -0.1189322715291658 -0.37574254512997513 0 -0.11584564158171951 -0.39781525162116538 0 -0.1189322715291658 -0.37574254512997513 0 -0.10393747111780779 -0.38471308335127641 0 -0.1051156734506907 -0.35893787617412681 0 -0.10393747111780779 -0.38471308335127641 0 -0.096439340235901991 -0.38380140492847742 0 -0.102759268784925 -0.410488290528426 0 -0.096439340235901991 -0.38380140492847742 0 -0.09120478489172644 -0.41285105369635922 0 -0.102759268784925 -0.410488290528426 0 -0.10393747111780779 -0.38471308335127641 0 -0.096439340235901991 -0.38380140492847742 0 -0.102759268784925 -0.410488290528426 0 -0.11584564158171951 -0.39781525162116538 0 -0.10393747111780779 -0.38471308335127641 0 -0.102759268784925 -0.410488290528426 0 -0.10393747111780779 -0.38471308335127641 0 -0.096439340235901991 -0.38380140492847742 0 -0.09120478489172644 -0.41285105369635922 0 -0.096439340235901991 -0.38380140492847742 0 -0.078284729066313216 -0.39713814526901858 0 -0.09120478489172644 -0.41285105369635922 0 -0.096439340235901991 -0.38380140492847742 0 -0.078284729066313216 -0.39713814526901858 0 -0.076602173866185466 -0.37899516807196509 0 -0.082761741444743214 -0.36295512927130358 0 -0.096439340235901991 -0.38380140492847742 0 -0.076602173866185466 -0.37899516807196509 0 -0.061714337629732149 -0.36679772600628691 0 -0.061092739442380452 -0.38727667316948511 0 -0.076602173866185466 -0.37899516807196509 0 -0.061092739442380452 -0.38727667316948511 0 -0.078284729066313216 -0.39713814526901858 0 -0.076602173866185466 -0.37899516807196509 0 -0.061092739442380452 -0.38727667316948511 0 -0.061183064168807873 -0.40695060698576002 0 -0.078284729066313216 -0.39713814526901858 0 -0.059019796007110208 -0.42441925283403131 0 -0.061183064168807873 -0.40695060698576002 0 -0.075235503417459687 -0.41992902599806331 0 -0.061183064168807873 -0.40695060698576002 0 -0.078284729066313216 -0.39713814526901858 0 -0.075235503417459687 -0.41992902599806331 0 -0.059019796007110208 -0.42441925283403131 0 -0.075235503417459687 -0.41992902599806331 0 -0.072324146230539996 -0.43581348918522822 0 -0.085970229547550875 -0.44190070246424101 0 -0.075235503417459687 -0.41992902599806331 0 -0.072324146230539996 -0.43581348918522822 0 -0.085970229547550875 -0.44190070246424101 0 -0.075235503417459687 -0.41992902599806331 0 -0.09120478489172644 -0.41285105369635922 0 -0.085970229547550875 -0.44190070246424101 0 -0.09120478489172644 -0.41285105369635922 0 -0.085970229547550875 -0.44190070246424101 0 -0.09301394768524078 -0.42917377046530858 0 -0.09120478489172644 -0.41285105369635922 0 -0.085970229547550875 -0.44190070246424101 0 -0.1015810664520411 -0.43626349770557571 0 -0.09301394768524078 -0.42917377046530858 0 -0.078284729066313216 -0.39713814526901858 0 -0.075235503417459687 -0.41992902599806331 0 -0.09120478489172644 -0.41285105369635922 0 -0.089699973839013097 -0.090525838666900435 0 -0.082789126910612756 -0.073088268147026236 0 -0.097347988380157263 -0.075348721121010931 0 -0.089699973839013097 -0.090525838666900435 0 -0.082789126910612756 -0.073088268147026236 0 -0.063078842085766154 -0.078121667866603989 0 -0.082789126910612756 -0.073088268147026236 0 -0.09162783130034631 -0.061641732814608538 0 -0.07255492468005105 -0.058283613527188131 0 -0.082789126910612756 -0.073088268147026236 0 -0.097347988380157263 -0.075348721121010931 0 -0.09162783130034631 -0.061641732814608538 0 -0.082789126910612756 -0.073088268147026236 0 -0.063078842085766154 -0.078121667866603989 0 -0.07255492468005105 -0.058283613527188131 0 -0.063078842085766154 -0.078121667866603989 0 -0.07255492468005105 -0.058283613527188131 0 -0.054997724621628101 -0.059636050903891152 0 -0.089699973839013097 -0.090525838666900435 0 -0.063078842085766154 -0.078121667866603989 0 -0.067893029618389 -0.098951794120944389 0 -0.089699973839013097 -0.090525838666900435 0 -0.063078842085766154 -0.078121667866603989 0 -0.067893029618389 -0.098951794120944389 0 -0.080510441040965289 -0.1038410274760492 0 -0.062304297730065301 -0.1123017685997421 0 -0.078522510062368378 -0.1172257876245003 0 -0.080510441040965289 -0.1038410274760492 0 -0.062304297730065301 -0.1123017685997421 0 -0.078522510062368378 -0.1172257876245003 0 -0.062304297730065301 -0.1123017685997421 0 -0.078522510062368378 -0.1172257876245003 0 -0.062304297730065301 -0.1123017685997421 0 -0.065115933006631557 -0.12765339529441139 0 -0.078522510062368378 -0.1172257876245003 0 -0.080510441040965289 -0.1038410274760492 0 -0.093059202635019433 -0.1089038583307016 0 -0.078522510062368378 -0.1172257876245003 0 -0.093089417101048594 -0.12127990532557301 0 -0.093059202635019433 -0.1089038583307016 0 -0.078522510062368378 -0.1172257876245003 0 -0.093089417101048594 -0.12127990532557301 0 -0.086459263162554353 -0.1317301929237728 0 -0.089699973839013097 -0.090525838666900435 0 -0.067893029618389 -0.098951794120944389 0 -0.089699973839013097 -0.090525838666900435 0 -0.080510441040965289 -0.1038410274760492 0 -0.093059202635019433 -0.1089038583307016 0 -0.089699973839013097 -0.090525838666900435 0 -0.067893029618389 -0.098951794120944389 0 -0.080510441040965289 -0.1038410274760492 0 -0.089699973839013097 -0.090525838666900435 0 -0.093059202635019433 -0.1089038583307016 0 -0.10579678918726521 -0.098026182708272028 0 -0.093059202635019433 -0.1089038583307016 0 -0.10579678918726521 -0.098026182708272028 0 -0.1065218459736005 -0.1192078747443145 0 -0.089699973839013097 -0.090525838666900435 0 -0.10579678918726521 -0.098026182708272028 0 -0.093089417101048594 -0.12127990532557301 0 -0.1065218459736005 -0.1192078747443145 0 -0.099905664812552336 -0.1339609383297696 0 -0.093089417101048594 -0.12127990532557301 0 -0.093059202635019433 -0.1089038583307016 0 -0.1065218459736005 -0.1192078747443145 0 -0.1065218459736005 -0.1192078747443145 0 -0.11664879964201159 -0.1082148970784014 0 -0.12575745834348909 -0.118558131368756 0 -0.1065218459736005 -0.1192078747443145 0 -0.11992185854996019 -0.13699828593854549 0 -0.12575745834348909 -0.118558131368756 0 -0.11664879964201159 -0.1082148970784014 0 -0.13047512980568579 -0.10480936610769979 0 -0.12575745834348909 -0.118558131368756 0 -0.10579678918726521 -0.098026182708272028 0 -0.1065218459736005 -0.1192078747443145 0 -0.11664879964201159 -0.1082148970784014 0 -0.10579678918726521 -0.098026182708272028 0 -0.11664879964201159 -0.1082148970784014 0 -0.1192851802161416 -0.096470376226369559 0 -0.11664879964201159 -0.1082148970784014 0 -0.1192851802161416 -0.096470376226369559 0 -0.13047512980568579 -0.10480936610769979 0 -0.10579678918726521 -0.098026182708272028 0 -0.1192851802161416 -0.096470376226369559 0 -0.11155880223120621 -0.082079835758539679 0 -0.1192851802161416 -0.096470376226369559 0 -0.11155880223120621 -0.082079835758539679 0 -0.13194638021453911 -0.08922159947893489 0 -0.089699973839013097 -0.090525838666900435 0 -0.11155880223120621 -0.082079835758539679 0 -0.089699973839013097 -0.090525838666900435 0 -0.11155880223120621 -0.082079835758539679 0 -0.097347988380157263 -0.075348721121010931 0 -0.089699973839013097 -0.090525838666900435 0 -0.10579678918726521 -0.098026182708272028 0 -0.11155880223120621 -0.082079835758539679 0 -0.097347988380157263 -0.075348721121010931 0 -0.11281105113450419 -0.06211304987164766 0 -0.09162783130034631 -0.061641732814608538 0 -0.11155880223120621 -0.082079835758539679 0 -0.097347988380157263 -0.075348721121010931 0 -0.11281105113450419 -0.06211304987164766 0 -0.11155880223120621 -0.082079835758539679 0 -0.11281105113450419 -0.06211304987164766 0 -0.13341763062339579 -0.073633832850170278 0 -0.11155880223120621 -0.082079835758539679 0 -0.13341763062339579 -0.073633832850170278 0 -0.11281105113450419 -0.06211304987164766 0 -0.1204163033987028 -0.038726747159081802 0 -0.1036023937606341 -0.043424200413489301 0 -0.11281105113450419 -0.06211304987164766 0 -0.1204163033987028 -0.038726747159081802 0 -0.13545750067410081 -0.052021591920880197 0 -0.1204163033987028 -0.038726747159081802 0 -0.1036023937606341 -0.043424200413489301 0 -0.1085008046593897 -0.01953507807394407 0 -0.1036023937606341 -0.043424200413489301 0 -0.1085008046593897 -0.01953507807394407 0 -0.084655978310227309 -0.035104394148164457 0 -0.11281105113450419 -0.06211304987164766 0 -0.1036023937606341 -0.043424200413489301 0 -0.09162783130034631 -0.061641732814608538 0 -0.1085008046593897 -0.01953507807394407 0 -0.13234563100855259 -0.0039657619997244039 0 -0.1085008046593897 -0.01953507807394407 0 -0.13234563100855259 -0.0039657619997244039 0 -0.12520886773000181 -0.019079771576411109 0 -0.13234563100855259 -0.0039657619997244039 0 -0.11384095251281599 0.001129535286935791 0 -0.1085008046593897 -0.01953507807394407 0 -0.13234563100855259 -0.0039657619997244039 0 -0.11384095251281599 0.001129535286935791 0 -0.1204163033987028 -0.038726747159081802 0 -0.1085008046593897 -0.01953507807394407 0 -0.12520886773000181 -0.019079771576411109 0 -0.1085008046593897 -0.01953507807394407 0 -0.084655978310227309 -0.035104394148164457 0 -0.095494694589637247 -0.0078496957378384399 0 -0.095336274017079642 0.0062248325735965336 0 -0.11384095251281599 0.001129535286935791 0 -0.1085008046593897 -0.01953507807394407 0 -0.095494694589637247 -0.0078496957378384399 0 -0.084801390816588607 -0.017957415335288562 0 -0.1085008046593897 -0.01953507807394407 0 -0.095494694589637247 -0.0078496957378384399 0 -0.11384095251281599 0.001129535286935791 0 -0.080795590375446924 -0.0082522206099432255 0 -0.074156603845683955 -0.003592961947274779 0 -0.083932528361024786 0.0016182416830315149 0 -0.095494694589637247 -0.0078496957378384399 0 -0.080795590375446924 -0.0082522206099432255 0 -0.083932528361024786 0.0016182416830315149 0 -0.095494694589637247 -0.0078496957378384399 0 -0.095336274017079642 0.0062248325735965336 0 -0.083932528361024786 0.0016182416830315149 0 -0.095494694589637247 -0.0078496957378384399 0 -0.080795590375446924 -0.0082522206099432255 0 -0.084801390816588607 -0.017957415335288562 0 -0.080795590375446924 -0.0082522206099432255 0 -0.084801390816588607 -0.017957415335288562 0 -0.072693733308721795 -0.012917396006912029 0 -0.1085008046593897 -0.01953507807394407 0 -0.084801390816588607 -0.017957415335288562 0 -0.084655978310227309 -0.035104394148164457 0 -0.084801390816588607 -0.017957415335288562 0 -0.066667543656108691 -0.024085707434929139 0 -0.084655978310227309 -0.035104394148164457 0 -0.084801390816588607 -0.017957415335288562 0 -0.066667543656108691 -0.024085707434929139 0 -0.072693733308721795 -0.012917396006912029 0 -0.066667543656108691 -0.024085707434929139 0 -0.072693733308721795 -0.012917396006912029 0 -0.061851634605631887 -0.008042828702606683 0 -0.074156603845683955 -0.003592961947274779 0 -0.061851634605631887 -0.008042828702606683 0 -0.072455239660695892 0.009592393793938947 0 -0.080795590375446924 -0.0082522206099432255 0 -0.072693733308721795 -0.012917396006912029 0 -0.074156603845683955 -0.003592961947274779 0 -0.072693733308721795 -0.012917396006912029 0 -0.074156603845683955 -0.003592961947274779 0 -0.061851634605631887 -0.008042828702606683 0 -0.09162783130034631 -0.061641732814608538 0 -0.084655978310227309 -0.035104394148164457 0 -0.07255492468005105 -0.058283613527188131 0 -0.1036023937606341 -0.043424200413489301 0 -0.09162783130034631 -0.061641732814608538 0 -0.084655978310227309 -0.035104394148164457 0 -0.066667543656108691 -0.024085707434929139 0 -0.084655978310227309 -0.035104394148164457 0 -0.059604556448812927 -0.044172806208960372 0 -0.084655978310227309 -0.035104394148164457 0 -0.07255492468005105 -0.058283613527188131 0 -0.059604556448812927 -0.044172806208960372 0 -0.07255492468005105 -0.058283613527188131 0 -0.054997724621628101 -0.059636050903891152 0 -0.059604556448812927 -0.044172806208960372 0 -0.054997724621628101 -0.059636050903891152 0 -0.059604556448812927 -0.044172806208960372 0 -0.043292589560995992 -0.051884669850385819 0 -0.066667543656108691 -0.024085707434929139 0 -0.059604556448812927 -0.044172806208960372 0 -0.052055795522800118 -0.02991021711645786 0 -0.059604556448812927 -0.044172806208960372 0 -0.041806808144938763 -0.039066615272661379 0 -0.052055795522800118 -0.02991021711645786 0 -0.059604556448812927 -0.044172806208960372 0 -0.041806808144938763 -0.039066615272661379 0 -0.043292589560995992 -0.051884669850385819 0 -0.041806808144938763 -0.039066615272661379 0 -0.052055795522800118 -0.02991021711645786 0 -0.039243918393278163 -0.029587598214849058 0 -0.041806808144938763 -0.039066615272661379 0 -0.039243918393278163 -0.029587598214849058 0 -0.027948051601136961 -0.031959773081665997 0 -0.041806808144938763 -0.039066615272661379 0 -0.028695937342608401 -0.046884627163649148 0 -0.027948051601136961 -0.031959773081665997 0 -0.041806808144938763 -0.039066615272661379 0 -0.043292589560995992 -0.051884669850385819 0 -0.028695937342608401 -0.046884627163649148 0 -0.054997724621628101 -0.059636050903891152 0 -0.043292589560995992 -0.051884669850385819 0 -0.036457710332514402 -0.065717497066317451 0 -0.034209011324831652 -0.05600141188231407 0 -0.043292589560995992 -0.051884669850385819 0 -0.028695937342608401 -0.046884627163649148 0 -0.034209011324831652 -0.05600141188231407 0 -0.043292589560995992 -0.051884669850385819 0 -0.036457710332514402 -0.065717497066317451 0 -0.034209011324831652 -0.05600141188231407 0 -0.028082186945539291 -0.06295528312484909 0 -0.036457710332514402 -0.065717497066317451 0 -0.061851634605631887 -0.008042828702606683 0 -0.053375995904104037 -0.016299771759516839 0 -0.064187599919179245 0.0075116766041989028 0 -0.053375995904104037 -0.016299771759516839 0 -0.064187599919179245 0.0075116766041989028 0 -0.058713159124563367 0.0055012229142995736 0 -0.04821375407982418 -0.0034821883700730779 0 -0.053375995904104037 -0.016299771759516839 0 -0.058713159124563367 0.0055012229142995736 0 -0.053375995904104037 -0.016299771759516839 0 -0.064187599919179245 0.0075116766041989028 0 -0.066667543656108691 -0.024085707434929139 0 -0.061851634605631887 -0.008042828702606683 0 -0.053375995904104037 -0.016299771759516839 0 -0.053375995904104037 -0.016299771759516839 0 -0.052055795522800118 -0.02991021711645786 0 -0.044960242381696748 -0.021824076386361729 0 -0.066667543656108691 -0.024085707434929139 0 -0.053375995904104037 -0.016299771759516839 0 -0.052055795522800118 -0.02991021711645786 0 -0.052055795522800118 -0.02991021711645786 0 -0.039243918393278163 -0.029587598214849058 0 -0.044960242381696748 -0.021824076386361729 0 -0.039243918393278163 -0.029587598214849058 0 -0.044960242381696748 -0.021824076386361729 0 -0.03098133830706094 -0.022100266408476149 0 -0.039243918393278163 -0.029587598214849058 0 -0.03098133830706094 -0.022100266408476149 0 -0.027948051601136961 -0.031959773081665997 0 -0.044960242381696748 -0.021824076386361729 0 -0.038243958519376023 -0.01432511778927502 0 -0.03098133830706094 -0.022100266408476149 0 -0.053375995904104037 -0.016299771759516839 0 -0.044960242381696748 -0.021824076386361729 0 -0.038243958519376023 -0.01432511778927502 0 -0.04821375407982418 -0.0034821883700730779 0 -0.038243958519376023 -0.01432511778927502 0 -0.024617756217701899 -0.0074545701729019538 0 -0.04821375407982418 -0.0034821883700730779 0 -0.024617756217701899 -0.0074545701729019538 0 -0.043253111612289168 0.0094147574275557817 0 -0.04821375407982418 -0.0034821883700730779 0 -0.053375995904104037 -0.016299771759516839 0 -0.038243958519376023 -0.01432511778927502 0 -0.016345274944772888 -5.9837842431312287e-05 0 -0.024617756217701899 -0.0074545701729019538 0 -0.02719131736308238 0.0067143628432696709 0 -0.038243958519376023 -0.01432511778927502 0 -0.024617756217701899 -0.0074545701729019538 0 -0.03098133830706094 -0.022100266408476149 0 -0.024617756217701899 -0.0074545701729019538 0 -0.020454052079801052 -0.021836317364412411 0 -0.005813074292167866 -0.02472036588119195 0 -0.024617756217701899 -0.0074545701729019538 0 -0.020454052079801052 -0.021836317364412411 0 -0.03098133830706094 -0.022100266408476149 0 -0.020454052079801052 -0.021836317364412411 0 -0.03098133830706094 -0.022100266408476149 0 -0.027948051601136961 -0.031959773081665997 0 -0.020454052079801052 -0.021836317364412411 0 -0.01410515775171906 -0.027621227178032871 0 -0.027948051601136961 -0.031959773081665997 0 -0.024617756217701899 -0.0074545701729019538 0 -0.005813074292167866 -0.02472036588119195 0 -0.005813074292167866 -0.02472036588119195 0 -0.01725450581738782 -0.035802496522420867 0 -0.01410515775171906 -0.027621227178032871 0 -0.005813074292167866 -0.02472036588119195 0 -0.01725450581738782 -0.035802496522420867 0 -0.020454052079801052 -0.021836317364412411 0 -0.01410515775171906 -0.027621227178032871 0 -0.005813074292167866 -0.02472036588119195 0 -0.016345274944772888 -5.9837842431312287e-05 0 -0.005813074292167866 -0.02472036588119195 0 -0.016345274944772888 -5.9837842431312287e-05 0 -0.024617756217701899 -0.0074545701729019538 0 -0.005813074292167866 -0.02472036588119195 0 -0.016345274944772888 -5.9837842431312287e-05 0 -0.005813074292167866 -0.02472036588119195 0 -0.003591099751689746 -0.01018299648410826 0 -0.016345274944772888 -5.9837842431312287e-05 0 -0.003591099751689746 -0.01018299648410826 0 -0.0052482603672307157 0.002057095947941197 0 -0.023625596958835399 -0.057102663248192999 0 -0.01228945531449979 -0.058337135294586943 0 -0.017260823639655028 -0.065622261911608526 0 -0.023625596958835399 -0.057102663248192999 0 -0.017260823639655028 -0.065622261911608526 0 -0.028082186945539291 -0.06295528312484909 0 -0.018310065601960211 -0.050525674930381313 0 -0.023625596958835399 -0.057102663248192999 0 -0.01228945531449979 -0.058337135294586943 0 -0.034209011324831652 -0.05600141188231407 0 -0.023625596958835399 -0.057102663248192999 0 -0.028082186945539291 -0.06295528312484909 0 -0.034209011324831652 -0.05600141188231407 0 -0.023625596958835399 -0.057102663248192999 0 -0.028695937342608401 -0.046884627163649148 0 -0.018310065601960211 -0.050525674930381313 0 -0.023625596958835399 -0.057102663248192999 0 -0.028695937342608401 -0.046884627163649148 0 -0.028695937342608401 -0.046884627163649148 0 -0.027948051601136961 -0.031959773081665997 0 -0.01725450581738782 -0.035802496522420867 0 -0.01410515775171906 -0.027621227178032871 0 -0.027948051601136961 -0.031959773081665997 0 -0.01725450581738782 -0.035802496522420867 0 -0.018310065601960211 -0.050525674930381313 0 -0.028695937342608401 -0.046884627163649148 0 -0.01725450581738782 -0.035802496522420867 0 -0.028695937342608401 -0.046884627163649148 0 -0.01725450581738782 -0.035802496522420867 0 -0.005813074292167866 -0.02472036588119195 0 0.00046642337409628362 -0.033380920149473532 0 0.002814483829744151 -0.044921285516998553 0 -0.018310065601960211 -0.050525674930381313 0 -0.01725450581738782 -0.035802496522420867 0 -0.0087426541341255378 -0.047415474862958308 0 -0.005813074292167866 -0.02472036588119195 0 -0.0071729667198494537 -0.038293937054934717 0 0.002814483829744151 -0.044921285516998553 0 -0.01725450581738782 -0.035802496522420867 0 -0.0071729667198494537 -0.038293937054934717 0 -0.0087426541341255378 -0.047415474862958308 0 -0.005813074292167866 -0.02472036588119195 0 0.002814483829744151 -0.044921285516998553 0 -0.005813074292167866 -0.02472036588119195 0 -0.01725450581738782 -0.035802496522420867 0 -0.0071729667198494537 -0.038293937054934717 0 -0.0071729667198494537 -0.038293937054934717 0 -0.0087426541341255378 -0.047415474862958308 0 0.002814483829744151 -0.044921285516998553 0 -0.0087426541341255378 -0.047415474862958308 0 -0.01228945531449979 -0.058337135294586943 0 -0.002270358342688527 -0.056514906294131563 0 -0.0087426541341255378 -0.047415474862958308 0 -0.002270358342688527 -0.056514906294131563 0 0.002814483829744151 -0.044921285516998553 0 -0.018310065601960211 -0.050525674930381313 0 -0.0087426541341255378 -0.047415474862958308 0 -0.01228945531449979 -0.058337135294586943 0 -0.01228945531449979 -0.058337135294586943 0 -0.002270358342688527 -0.056514906294131563 0 -0.0047140835063668339 -0.066015472085641277 0 -0.0047140835063668339 -0.066015472085641277 0 -0.0043940961991456237 -0.077827853152212106 0 -0.017260823639655028 -0.065622261911608526 0 -0.01228945531449979 -0.058337135294586943 0 -0.0047140835063668339 -0.066015472085641277 0 -0.017260823639655028 -0.065622261911608526 0 -0.0043940961991456237 -0.077827853152212106 0 -0.01759959773658868 -0.08756283611457169 0 -0.024225962492739971 -0.080326674931663747 0 -0.0043940961991456237 -0.077827853152212106 0 -0.01759959773658868 -0.08756283611457169 0 -0.001486005788280897 -0.093836698563745463 0 -0.01759959773658868 -0.08756283611457169 0 -0.024225962492739971 -0.080326674931663747 0 -0.031671258492691937 -0.088164464478998353 0 -0.01759959773658868 -0.08756283611457169 0 -0.031671258492691937 -0.088164464478998353 0 -0.023786045593021599 -0.1006072240693647 0 -0.0043940961991456237 -0.077827853152212106 0 -0.024225962492739971 -0.080326674931663747 0 -0.028857792471859999 -0.070332581515812453 0 -0.0043940961991456237 -0.077827853152212106 0 -0.017260823639655028 -0.065622261911608526 0 -0.028857792471859999 -0.070332581515812453 0 -0.0043940961991456237 -0.077827853152212106 0 -0.028857792471859999 -0.070332581515812453 0 -0.024225962492739971 -0.080326674931663747 0 -0.028857792471859999 -0.070332581515812453 0 -0.038607067563413637 -0.077745639396724159 0 -0.017260823639655028 -0.065622261911608526 0 -0.028857792471859999 -0.070332581515812453 0 -0.028082186945539291 -0.06295528312484909 0 -0.028857792471859999 -0.070332581515812453 0 -0.028082186945539291 -0.06295528312484909 0 -0.036457710332514402 -0.065717497066317451 0 -0.063078842085766154 -0.078121667866603989 0 -0.036457710332514402 -0.065717497066317451 0 -0.038607067563413637 -0.077745639396724159 0 -0.028857792471859999 -0.070332581515812453 0 -0.036457710332514402 -0.065717497066317451 0 -0.038607067563413637 -0.077745639396724159 0 -0.024225962492739971 -0.080326674931663747 0 -0.038607067563413637 -0.077745639396724159 0 -0.031671258492691937 -0.088164464478998353 0 -0.038607067563413637 -0.077745639396724159 0 -0.031671258492691937 -0.088164464478998353 0 -0.044916219387846033 -0.086759685144075047 0 -0.031671258492691937 -0.088164464478998353 0 -0.044916219387846033 -0.086759685144075047 0 -0.040086728155174861 -0.095653902064004093 0 -0.044916219387846033 -0.086759685144075047 0 -0.053974031904552119 -0.095360387052599527 0 -0.040086728155174861 -0.095653902064004093 0 -0.063078842085766154 -0.078121667866603989 0 -0.044916219387846033 -0.086759685144075047 0 -0.053974031904552119 -0.095360387052599527 0 -0.063078842085766154 -0.078121667866603989 0 -0.038607067563413637 -0.077745639396724159 0 -0.044916219387846033 -0.086759685144075047 0 -0.063078842085766154 -0.078121667866603989 0 -0.067893029618389 -0.098951794120944389 0 -0.053974031904552119 -0.095360387052599527 0 -0.063078842085766154 -0.078121667866603989 0 -0.036457710332514402 -0.065717497066317451 0 -0.063078842085766154 -0.078121667866603989 0 -0.054997724621628101 -0.059636050903891152 0 -0.036457710332514402 -0.065717497066317451 0 -0.062304297730065301 -0.1123017685997421 0 -0.046086085397762593 -0.10737774957498281 0 -0.0535350164673076 -0.1202261132703745 0 -0.062304297730065301 -0.1123017685997421 0 -0.046086085397762593 -0.10737774957498281 0 -0.0535350164673076 -0.1202261132703745 0 -0.046086085397762593 -0.10737774957498281 0 -0.042290176612850228 -0.1227765648411378 0 -0.0535350164673076 -0.1202261132703745 0 -0.042290176612850228 -0.1227765648411378 0 -0.051878589589228308 -0.13102108804159829 0 -0.0535350164673076 -0.1202261132703745 0 -0.062304297730065301 -0.1123017685997421 0 -0.065115933006631557 -0.12765339529441139 0 -0.067893029618389 -0.098951794120944389 0 -0.046086085397762593 -0.10737774957498281 0 -0.067893029618389 -0.098951794120944389 0 -0.053974031904552119 -0.095360387052599527 0 -0.046086085397762593 -0.10737774957498281 0 -0.067893029618389 -0.098951794120944389 0 -0.062304297730065301 -0.1123017685997421 0 -0.046086085397762593 -0.10737774957498281 0 -0.046086085397762593 -0.10737774957498281 0 -0.040086728155174861 -0.095653902064004093 0 -0.023786045593021599 -0.1006072240693647 0 -0.046086085397762593 -0.10737774957498281 0 -0.023786045593021599 -0.1006072240693647 0 -0.031671258492691937 -0.088164464478998353 0 -0.040086728155174861 -0.095653902064004093 0 -0.023786045593021599 -0.1006072240693647 0 -0.053974031904552119 -0.095360387052599527 0 -0.046086085397762593 -0.10737774957498281 0 -0.040086728155174861 -0.095653902064004093 0 -0.046086085397762593 -0.10737774957498281 0 -0.022556403231191211 -0.1164693513958196 0 -0.046086085397762593 -0.10737774957498281 0 -0.042290176612850228 -0.1227765648411378 0 -0.022556403231191211 -0.1164693513958196 0 -0.042290176612850228 -0.1227765648411378 0 -0.022556403231191211 -0.1164693513958196 0 -0.031526621196261352 -0.1305992904869156 0 -0.046086085397762593 -0.10737774957498281 0 -0.022556403231191211 -0.1164693513958196 0 -0.023786045593021599 -0.1006072240693647 0 -0.022556403231191211 -0.1164693513958196 0 -0.023786045593021599 -0.1006072240693647 0 -0.0046917501264864738 -0.109536999488592 0 -0.001486005788280897 -0.093836698563745463 0 -0.0046917501264864738 -0.109536999488592 0 0.0035020423419337321 -0.1027647645242631 0 -0.023786045593021599 -0.1006072240693647 0 -0.001486005788280897 -0.093836698563745463 0 -0.0046917501264864738 -0.109536999488592 0 -0.01759959773658868 -0.08756283611457169 0 -0.023786045593021599 -0.1006072240693647 0 -0.001486005788280897 -0.093836698563745463 0 -0.023786045593021599 -0.1006072240693647 0 -0.001486005788280897 -0.093836698563745463 0 -0.022556403231191211 -0.1164693513958196 0 0.00097327893537976773 -0.12556095321665789 0 -0.022556403231191211 -0.1164693513958196 0 -0.0046917501264864738 -0.109536999488592 0 0.00097327893537976773 -0.12556095321665789 0 -0.016431003217589491 -0.133983200914814 0 -0.001961638116720686 -0.14592762570770251 0 0.00097327893537976773 -0.12556095321665789 0 -0.022556403231191211 -0.1164693513958196 0 -0.016431003217589491 -0.133983200914814 0 0.00097327893537976773 -0.12556095321665789 0 -0.016431003217589491 -0.133983200914814 0 -0.03306256476601839 -0.14644235916348411 0 -0.016431003217589491 -0.133983200914814 0 -0.031526621196261352 -0.1305992904869156 0 -0.03306256476601839 -0.14644235916348411 0 -0.022556403231191211 -0.1164693513958196 0 -0.016431003217589491 -0.133983200914814 0 -0.031526621196261352 -0.1305992904869156 0 -0.016431003217589491 -0.133983200914814 0 -0.015468653670210121 -0.1478238894616955 0 -0.03306256476601839 -0.14644235916348411 0 -0.015468653670210121 -0.1478238894616955 0 -0.020449169499006121 -0.15882962947088891 0 -0.03306256476601839 -0.14644235916348411 0 -0.015468653670210121 -0.1478238894616955 0 -0.001961638116720686 -0.14592762570770251 0 -0.0071662117369407511 -0.1594573083500663 0 -0.015468653670210121 -0.1478238894616955 0 -0.0071662117369407511 -0.1594573083500663 0 -0.020449169499006121 -0.15882962947088891 0 -0.016431003217589491 -0.133983200914814 0 -0.015468653670210121 -0.1478238894616955 0 -0.001961638116720686 -0.14592762570770251 0 -0.0071662117369407511 -0.1594573083500663 0 -0.0027936417271558888 -0.17160499997831419 0 -0.01593091999987329 -0.17051719069976351 0 -0.0071662117369407511 -0.1594573083500663 0 -0.020449169499006121 -0.15882962947088891 0 -0.01593091999987329 -0.17051719069976351 0 -0.0089652317347231128 -0.18364248740401021 0 0.0016359862684524481 -0.18942911992672809 0 0.0065003541806678677 -0.17804971003118211 0 -0.0027936417271558888 -0.17160499997831419 0 -0.0089652317347231128 -0.18364248740401021 0 0.0065003541806678677 -0.17804971003118211 0 -0.0027936417271558888 -0.17160499997831419 0 -0.0089652317347231128 -0.18364248740401021 0 -0.01593091999987329 -0.17051719069976351 0 -0.0089652317347231128 -0.18364248740401021 0 -0.02600105781762295 -0.18208960776635619 0 -0.019022700969370889 -0.1953989790775317 0 -0.0089652317347231128 -0.18364248740401021 0 -0.02600105781762295 -0.18208960776635619 0 -0.01593091999987329 -0.17051719069976351 0 -0.02600105781762295 -0.18208960776635619 0 -0.01593091999987329 -0.17051719069976351 0 -0.029110422873197601 -0.1662649858012708 0 -0.020449169499006121 -0.15882962947088891 0 -0.029110422873197601 -0.1662649858012708 0 -0.03306256476601839 -0.14644235916348411 0 -0.020449169499006121 -0.15882962947088891 0 -0.01593091999987329 -0.17051719069976351 0 -0.029110422873197601 -0.1662649858012708 0 -0.039404676258886738 -0.1630246251009336 0 -0.039814148897778137 -0.17668650260619881 0 -0.058689842782311832 -0.17455121098072571 0 -0.029110422873197601 -0.1662649858012708 0 -0.039404676258886738 -0.1630246251009336 0 -0.03306256476601839 -0.14644235916348411 0 -0.029110422873197601 -0.1662649858012708 0 -0.039404676258886738 -0.1630246251009336 0 -0.039814148897778137 -0.17668650260619881 0 -0.039814148897778137 -0.17668650260619881 0 -0.058689842782311832 -0.17455121098072571 0 -0.038290277728863238 -0.194153359351806 0 -0.02600105781762295 -0.18208960776635619 0 -0.029110422873197601 -0.1662649858012708 0 -0.039814148897778137 -0.17668650260619881 0 -0.02600105781762295 -0.18208960776635619 0 -0.039814148897778137 -0.17668650260619881 0 -0.038290277728863238 -0.194153359351806 0 -0.058689842782311832 -0.17455121098072571 0 -0.038290277728863238 -0.194153359351806 0 -0.051706219193169679 -0.1882579885020533 0 -0.058689842782311832 -0.17455121098072571 0 -0.038290277728863238 -0.194153359351806 0 -0.053048675863500407 -0.19749485138515011 0 -0.063253706075729707 -0.17740749642523621 0 -0.05943863871920798 -0.19436479828715311 0 -0.065165146956122147 -0.1785602480649377 0 -0.058689842782311832 -0.17455121098072571 0 -0.063253706075729707 -0.17740749642523621 0 -0.058689842782311832 -0.17455121098072571 0 -0.051706219193169679 -0.1882579885020533 0 -0.063253706075729707 -0.17740749642523621 0 -0.039404676258886738 -0.1630246251009336 0 -0.058689842782311832 -0.17455121098072571 0 -0.049694126314447327 -0.15890151741215419 0 -0.058689842782311832 -0.17455121098072571 0 -0.049694126314447327 -0.15890151741215419 0 -0.067464639236210336 -0.17221389532733569 0 -0.049694126314447327 -0.15890151741215419 0 -0.060773156201230541 -0.16022214524237641 0 -0.067464639236210336 -0.17221389532733569 0 -0.039404676258886738 -0.1630246251009336 0 -0.058689842782311832 -0.17455121098072571 0 -0.049694126314447327 -0.15890151741215419 0 -0.067464639236210336 -0.17221389532733569 0 -0.049694126314447327 -0.15890151741215419 0 -0.060773156201230541 -0.16022214524237641 0 -0.057074100018110759 -0.154654805553089 0 -0.060773156201230541 -0.16022214524237641 0 -0.057074100018110759 -0.154654805553089 0 -0.063795224677962545 -0.1543454538188242 0 -0.060848875666006247 -0.14973185145954471 0 -0.057074100018110759 -0.154654805553089 0 -0.063795224677962545 -0.1543454538188242 0 -0.060848875666006247 -0.14973185145954471 0 -0.057074100018110759 -0.154654805553089 0 -0.055029531528022382 -0.1481041506930105 0 -0.049694126314447327 -0.15890151741215419 0 -0.047929274082635309 -0.14465699972187099 0 -0.055029531528022382 -0.1481041506930105 0 -0.049694126314447327 -0.15890151741215419 0 -0.057074100018110759 -0.154654805553089 0 -0.055029531528022382 -0.1481041506930105 0 -0.047929274082635309 -0.14465699972187099 0 -0.055029531528022382 -0.1481041506930105 0 -0.058867111230580103 -0.13874569073820489 0 -0.055029531528022382 -0.1481041506930105 0 -0.062324241385059258 -0.14490399278410851 0 -0.058867111230580103 -0.13874569073820489 0 -0.060848875666006247 -0.14973185145954471 0 -0.055029531528022382 -0.1481041506930105 0 -0.062324241385059258 -0.14490399278410851 0 -0.0535350164673076 -0.1202261132703745 0 -0.051878589589228308 -0.13102108804159829 0 -0.065115933006631557 -0.12765339529441139 0 -0.058867111230580103 -0.13874569073820489 0 -0.051878589589228308 -0.13102108804159829 0 -0.065115933006631557 -0.12765339529441139 0 -0.047929274082635309 -0.14465699972187099 0 -0.058867111230580103 -0.13874569073820489 0 -0.051878589589228308 -0.13102108804159829 0 -0.047929274082635309 -0.14465699972187099 0 -0.051878589589228308 -0.13102108804159829 0 -0.04184781125051544 -0.1356260364385683 0 -0.04184781125051544 -0.1356260364385683 0 -0.031526621196261352 -0.1305992904869156 0 -0.03306256476601839 -0.14644235916348411 0 -0.042290176612850228 -0.1227765648411378 0 -0.051878589589228308 -0.13102108804159829 0 -0.04184781125051544 -0.1356260364385683 0 -0.042290176612850228 -0.1227765648411378 0 -0.04184781125051544 -0.1356260364385683 0 -0.031526621196261352 -0.1305992904869156 0 -0.049694126314447327 -0.15890151741215419 0 -0.03306256476601839 -0.14644235916348411 0 -0.039404676258886738 -0.1630246251009336 0 -0.049694126314447327 -0.15890151741215419 0 -0.03306256476601839 -0.14644235916348411 0 -0.049694126314447327 -0.15890151741215419 0 -0.047929274082635309 -0.14465699972187099 0 -0.03306256476601839 -0.14644235916348411 0 -0.047929274082635309 -0.14465699972187099 0 -0.04184781125051544 -0.1356260364385683 0 -0.03306256476601839 -0.14644235916348411 0 -0.024155395764162899 -0.24937715339561889 0 -0.026342239913678941 -0.23617634637896789 0 -0.031944671902132203 -0.24344391780457539 0 -0.031880318210837193 -0.25089372004459443 0 -0.024155395764162899 -0.24937715339561889 0 -0.031944671902132203 -0.24344391780457539 0 -0.026342239913678941 -0.23617634637896789 0 -0.017746775597147151 -0.24136888965736761 0 -0.016668235387128371 -0.22707547365749231 0 -0.014031519585774321 -0.25112226938177401 0 -0.024155395764162899 -0.24937715339561889 0 -0.017746775597147151 -0.24136888965736761 0 -0.024155395764162899 -0.24937715339561889 0 -0.026342239913678941 -0.23617634637896789 0 -0.017746775597147151 -0.24136888965736761 0 -0.014031519585774321 -0.25112226938177401 0 -0.017746775597147151 -0.24136888965736761 0 -0.0063347782460697931 -0.24023461723013581 0 -0.001510810221741861 -0.25277351325326169 0 -0.014031519585774321 -0.25112226938177401 0 -0.0063347782460697931 -0.24023461723013581 0 -0.001510810221741861 -0.25277351325326169 0 -0.0063347782460697931 -0.24023461723013581 0 0.0052747466537700453 -0.24115656626209361 0 -0.0063347782460697931 -0.24023461723013581 0 -0.003310131863981752 -0.22776613528545361 0 0.0052747466537700453 -0.24115656626209361 0 -0.017746775597147151 -0.24136888965736761 0 -0.0063347782460697931 -0.24023461723013581 0 -0.016668235387128371 -0.22707547365749231 0 -0.0063347782460697931 -0.24023461723013581 0 -0.003310131863981752 -0.22776613528545361 0 -0.016668235387128371 -0.22707547365749231 0 -0.003310131863981752 -0.22776613528545361 0 -0.01789071267541497 -0.2137555077228866 0 -0.0008570401538518773 -0.2183905809676181 0 -0.003310131863981752 -0.22776613528545361 0 -0.01789071267541497 -0.2137555077228866 0 -0.003310131863981752 -0.22776613528545361 0 -0.016668235387128371 -0.22707547365749231 0 -0.01789071267541497 -0.2137555077228866 0 -0.026342239913678941 -0.23617634637896789 0 -0.016668235387128371 -0.22707547365749231 0 -0.033344436218078193 -0.2187434449108541 0 -0.016668235387128371 -0.22707547365749231 0 -0.01789071267541497 -0.2137555077228866 0 -0.033344436218078193 -0.2187434449108541 0 -0.01789071267541497 -0.2137555077228866 0 -0.035140322563044363 -0.20956772595212561 0 -0.033344436218078193 -0.2187434449108541 0 -0.01789071267541497 -0.2137555077228866 0 -0.038290277728863238 -0.194153359351806 0 -0.01789071267541497 -0.2137555077228866 0 -0.038290277728863238 -0.194153359351806 0 -0.035140322563044363 -0.20956772595212561 0 -0.01789071267541497 -0.2137555077228866 0 -0.01165305499411653 -0.2037985572479937 0 -0.019022700969370889 -0.1953989790775317 0 -0.01789071267541497 -0.2137555077228866 0 -0.033344436218078193 -0.2187434449108541 0 -0.01789071267541497 -0.2137555077228866 0 -0.0008570401538518773 -0.2183905809676181 0 -0.0036492627563278128 -0.2077160902999064 0 -0.0036492627563278128 -0.2077160902999064 0 -0.01165305499411653 -0.2037985572479937 0 -0.0030319487190633601 -0.20154657226741399 0 -0.0036492627563278128 -0.2077160902999064 0 -0.0030319487190633601 -0.20154657226741399 0 0.0010677199834254151 -0.20298869294895081 0 -0.01789071267541497 -0.2137555077228866 0 -0.0036492627563278128 -0.2077160902999064 0 -0.01789071267541497 -0.2137555077228866 0 -0.0036492627563278128 -0.2077160902999064 0 -0.01165305499411653 -0.2037985572479937 0 -0.01165305499411653 -0.2037985572479937 0 -0.0067373522399620089 -0.19597951589770601 0 -0.019022700969370889 -0.1953989790775317 0 -0.0067373522399620089 -0.19597951589770601 0 -0.0030319487190633601 -0.20154657226741399 0 0.0020611929109856921 -0.1983331527584985 0 -0.01165305499411653 -0.2037985572479937 0 -0.0067373522399620089 -0.19597951589770601 0 -0.0030319487190633601 -0.20154657226741399 0 -0.0089652317347231128 -0.18364248740401021 0 -0.0067373522399620089 -0.19597951589770601 0 0.0016359862684524481 -0.18942911992672809 0 -0.0067373522399620089 -0.19597951589770601 0 0.0016359862684524481 -0.18942911992672809 0 0.0020611929109856921 -0.1983331527584985 0 -0.0089652317347231128 -0.18364248740401021 0 -0.0067373522399620089 -0.19597951589770601 0 -0.019022700969370889 -0.1953989790775317 0 -0.02600105781762295 -0.18208960776635619 0 -0.019022700969370889 -0.1953989790775317 0 -0.038290277728863238 -0.194153359351806 0 -0.01789071267541497 -0.2137555077228866 0 -0.019022700969370889 -0.1953989790775317 0 -0.038290277728863238 -0.194153359351806 0 -0.038290277728863238 -0.194153359351806 0 -0.043332540541594522 -0.20360411143001761 0 -0.035140322563044363 -0.20956772595212561 0 -0.038290277728863238 -0.194153359351806 0 -0.046594428331781963 -0.19587757766725669 0 -0.043332540541594522 -0.20360411143001761 0 -0.038290277728863238 -0.194153359351806 0 -0.046594428331781963 -0.19587757766725669 0 -0.051706219193169679 -0.1882579885020533 0 -0.05943863871920798 -0.19436479828715311 0 -0.053048675863500407 -0.19749485138515011 0 -0.053712130482295409 -0.21016934850936911 0 -0.051706219193169679 -0.1882579885020533 0 -0.053048675863500407 -0.19749485138515011 0 -0.063253706075729707 -0.17740749642523621 0 -0.05943863871920798 -0.19436479828715311 0 -0.053048675863500407 -0.19749485138515011 0 -0.063253706075729707 -0.17740749642523621 0 -0.046594428331781963 -0.19587757766725669 0 -0.051706219193169679 -0.1882579885020533 0 -0.053048675863500407 -0.19749485138515011 0 -0.05943863871920798 -0.19436479828715311 0 -0.053712130482295409 -0.21016934850936911 0 -0.070448875932014848 -0.2010048514171125 0 -0.05943863871920798 -0.19436479828715311 0 -0.053712130482295409 -0.21016934850936911 0 -0.046594428331781963 -0.19587757766725669 0 -0.053048675863500407 -0.19749485138515011 0 -0.043332540541594522 -0.20360411143001761 0 -0.053712130482295409 -0.21016934850936911 0 -0.070448875932014848 -0.2010048514171125 0 -0.053048675863500407 -0.19749485138515011 0 -0.042843645651271203 -0.21758220634506409 0 -0.053712130482295409 -0.21016934850936911 0 -0.048798159760741637 -0.2237313820988206 0 -0.067862482225696713 -0.21614649128114491 0 -0.053048675863500407 -0.19749485138515011 0 -0.053712130482295409 -0.21016934850936911 0 -0.042843645651271203 -0.21758220634506409 0 -0.053712130482295409 -0.21016934850936911 0 -0.048798159760741637 -0.2237313820988206 0 -0.053712130482295409 -0.21016934850936911 0 -0.042843645651271203 -0.21758220634506409 0 -0.048798159760741637 -0.2237313820988206 0 -0.053048675863500407 -0.19749485138515011 0 -0.042843645651271203 -0.21758220634506409 0 -0.043332540541594522 -0.20360411143001761 0 -0.042843645651271203 -0.21758220634506409 0 -0.043332540541594522 -0.20360411143001761 0 -0.035140322563044363 -0.20956772595212561 0 -0.042843645651271203 -0.21758220634506409 0 -0.035140322563044363 -0.20956772595212561 0 -0.033344436218078193 -0.2187434449108541 0 -0.036288474002176177 -0.2335122404547714 0 -0.048798159760741637 -0.2237313820988206 0 -0.041007153744286817 -0.24523372537231169 0 -0.026342239913678941 -0.23617634637896789 0 -0.033344436218078193 -0.2187434449108541 0 -0.036288474002176177 -0.2335122404547714 0 -0.033344436218078193 -0.2187434449108541 0 -0.036288474002176177 -0.2335122404547714 0 -0.048798159760741637 -0.2237313820988206 0 -0.033344436218078193 -0.2187434449108541 0 -0.048798159760741637 -0.2237313820988206 0 -0.042843645651271203 -0.21758220634506409 0 -0.033344436218078193 -0.2187434449108541 0 -0.048798159760741637 -0.2237313820988206 0 -0.048798159760741637 -0.2237313820988206 0 -0.071520753609240206 -0.23106546378800641 0 -0.048798159760741637 -0.2237313820988206 0 -0.055158796600855681 -0.24203331188581481 0 -0.071520753609240206 -0.23106546378800641 0 -0.048798159760741637 -0.2237313820988206 0 -0.055158796600855681 -0.24203331188581481 0 -0.041007153744286817 -0.24523372537231169 0 -0.044187472164344523 -0.25438469026580901 0 -0.055158796600855681 -0.24203331188581481 0 -0.048798159760741637 -0.2237313820988206 0 -0.041007153744286817 -0.24523372537231169 0 -0.044187472164344523 -0.25438469026580901 0 -0.055158796600855681 -0.24203331188581481 0 -0.041007153744286817 -0.24523372537231169 0 -0.036288474002176177 -0.2335122404547714 0 -0.041007153744286817 -0.24523372537231169 0 -0.031944671902132203 -0.24344391780457539 0 -0.026342239913678941 -0.23617634637896789 0 -0.036288474002176177 -0.2335122404547714 0 -0.031944671902132203 -0.24344391780457539 0 -0.031880318210837193 -0.25089372004459443 0 -0.041007153744286817 -0.24523372537231169 0 -0.031944671902132203 -0.24344391780457539 0 -0.090664885196613448 -0.24817911843551721 0 -0.077503054585202541 -0.24363796932040399 0 -0.09424334745773881 -0.23839954547719219 0 -0.071520753609240206 -0.23106546378800641 0 -0.09424334745773881 -0.23839954547719219 0 -0.069428953678351821 -0.25498101630413639 0 -0.090664885196613448 -0.24817911843551721 0 -0.077503054585202541 -0.24363796932040399 0 -0.077503054585202541 -0.24363796932040399 0 -0.071520753609240206 -0.23106546378800641 0 -0.09424334745773881 -0.23839954547719219 0 -0.069428953678351821 -0.25498101630413639 0 -0.055158796600855681 -0.24203331188581481 0 -0.077503054585202541 -0.24363796932040399 0 -0.055158796600855681 -0.24203331188581481 0 -0.077503054585202541 -0.24363796932040399 0 -0.071520753609240206 -0.23106546378800641 0 -0.071520753609240206 -0.23106546378800641 0 -0.086550299941448486 -0.22176884648362941 0 -0.067862482225696713 -0.21614649128114491 0 -0.048798159760741637 -0.2237313820988206 0 -0.071520753609240206 -0.23106546378800641 0 -0.067862482225696713 -0.21614649128114491 0 -0.086550299941448486 -0.22176884648362941 0 -0.096773204479959102 -0.2245961403503198 0 -0.09424334745773881 -0.23839954547719219 0 -0.071520753609240206 -0.23106546378800641 0 -0.086550299941448486 -0.22176884648362941 0 -0.09424334745773881 -0.23839954547719219 0 -0.086550299941448486 -0.22176884648362941 0 -0.08704857269161731 -0.20605866347812771 0 -0.067862482225696713 -0.21614649128114491 0 -0.086550299941448486 -0.22176884648362941 0 -0.08704857269161731 -0.20605866347812771 0 -0.098550023017013516 -0.214321693835477 0 -0.08704857269161731 -0.20605866347812771 0 -0.067862482225696713 -0.21614649128114491 0 -0.070448875932014848 -0.2010048514171125 0 -0.053712130482295409 -0.21016934850936911 0 -0.067862482225696713 -0.21614649128114491 0 -0.070448875932014848 -0.2010048514171125 0 -0.070448875932014848 -0.2010048514171125 0 -0.087185621381733802 -0.19184035432485519 0 -0.065165146956122147 -0.1785602480649377 0 -0.05943863871920798 -0.19436479828715311 0 -0.070448875932014848 -0.2010048514171125 0 -0.065165146956122147 -0.1785602480649377 0 -0.070448875932014848 -0.2010048514171125 0 -0.087185621381733802 -0.19184035432485519 0 -0.08704857269161731 -0.20605866347812771 0 -0.070448875932014848 -0.2010048514171125 0 -0.087185621381733802 -0.19184035432485519 0 -0.087185621381733802 -0.19184035432485519 0 -0.1002145483162732 -0.1996978387186597 0 -0.08704857269161731 -0.20605866347812771 0 -0.087185621381733802 -0.19184035432485519 0 -0.1002145483162732 -0.1996978387186597 0 -0.1002145483162732 -0.1996978387186597 0 -0.11324347525081301 -0.20755532311246361 0 -0.1083839229163166 -0.1802328543268337 0 -0.087185621381733802 -0.19184035432485519 0 -0.1002145483162732 -0.1996978387186597 0 -0.1083839229163166 -0.1802328543268337 0 -0.1083839229163166 -0.1802328543268337 0 -0.132674420312549 -0.18531373827514941 0 -0.12889223279803921 -0.19909421481034201 0 -0.1083839229163166 -0.1802328543268337 0 -0.12889223279803921 -0.19909421481034201 0 -0.11324347525081301 -0.20755532311246361 0 -0.1083839229163166 -0.1802328543268337 0 -0.12889223279803921 -0.19909421481034201 0 -0.11324347525081301 -0.20755532311246361 0 -0.1208313235145545 -0.21551011269602871 0 -0.1077491475036356 -0.22389447560498069 0 -0.11324347525081301 -0.20755532311246361 0 -0.1208313235145545 -0.21551011269602871 0 -0.12889223279803921 -0.19909421481034201 0 -0.11324347525081301 -0.20755532311246361 0 -0.098550023017013516 -0.214321693835477 0 -0.1077491475036356 -0.22389447560498069 0 -0.1002145483162732 -0.1996978387186597 0 -0.11324347525081301 -0.20755532311246361 0 -0.098550023017013516 -0.214321693835477 0 -0.1002145483162732 -0.1996978387186597 0 -0.11324347525081301 -0.20755532311246361 0 -0.08704857269161731 -0.20605866347812771 0 -0.1002145483162732 -0.1996978387186597 0 -0.098550023017013516 -0.214321693835477 0 -0.098550023017013516 -0.214321693835477 0 -0.096773204479959102 -0.2245961403503198 0 -0.1077491475036356 -0.22389447560498069 0 -0.086550299941448486 -0.22176884648362941 0 -0.098550023017013516 -0.214321693835477 0 -0.096773204479959102 -0.2245961403503198 0 -0.096773204479959102 -0.2245961403503198 0 -0.1077491475036356 -0.22389447560498069 0 -0.09424334745773881 -0.23839954547719219 0 -0.1077491475036356 -0.22389447560498069 0 -0.1223913172316107 -0.22810580316319801 0 -0.1078107689007117 -0.24129756560076071 0 -0.1208313235145545 -0.21551011269602871 0 -0.1077491475036356 -0.22389447560498069 0 -0.1223913172316107 -0.22810580316319801 0 -0.1208313235145545 -0.21551011269602871 0 -0.1223913172316107 -0.22810580316319801 0 -0.13188044478867389 -0.218900746789159 0 -0.1123870700979059 -0.25769438281909107 0 -0.1078107689007117 -0.24129756560076071 0 -0.12759395261113149 -0.24410238476601001 0 -0.1223913172316107 -0.22810580316319801 0 -0.1078107689007117 -0.24129756560076071 0 -0.12759395261113149 -0.24410238476601001 0 -0.1022294825648509 -0.25202223524138101 0 -0.090664885196613448 -0.24817911843551721 0 -0.1078107689007117 -0.24129756560076071 0 -0.090664885196613448 -0.24817911843551721 0 -0.1077491475036356 -0.22389447560498069 0 -0.09424334745773881 -0.23839954547719219 0 -0.090664885196613448 -0.24817911843551721 0 -0.1077491475036356 -0.22389447560498069 0 -0.1078107689007117 -0.24129756560076071 0 -0.090664885196613448 -0.24817911843551721 0 -0.1077491475036356 -0.22389447560498069 0 -0.090063954293986781 -0.14544299724156931 0 -0.086459263162554353 -0.1317301929237728 0 -0.07664693877252865 -0.1510445544597214 0 -0.086459263162554353 -0.1317301929237728 0 -0.07664693877252865 -0.1510445544597214 0 -0.090063954293986781 -0.14544299724156931 0 -0.07664693877252865 -0.1510445544597214 0 -0.092515430844422999 -0.1656387043932771 0 -0.078522510062368378 -0.1172257876245003 0 -0.086459263162554353 -0.1317301929237728 0 -0.075198864836327636 -0.13384448496296539 0 -0.086459263162554353 -0.1317301929237728 0 -0.075198864836327636 -0.13384448496296539 0 -0.07664693877252865 -0.1510445544597214 0 -0.090063954293986781 -0.14544299724156931 0 -0.086459263162554353 -0.1317301929237728 0 -0.099905664812552336 -0.1339609383297696 0 -0.093089417101048594 -0.12127990532557301 0 -0.086459263162554353 -0.1317301929237728 0 -0.099905664812552336 -0.1339609383297696 0 -0.078522510062368378 -0.1172257876245003 0 -0.075198864836327636 -0.13384448496296539 0 -0.065115933006631557 -0.12765339529441139 0 -0.058867111230580103 -0.13874569073820489 0 -0.065115933006631557 -0.12765339529441139 0 -0.069548969567074986 -0.14184374995563209 0 -0.075198864836327636 -0.13384448496296539 0 -0.065115933006631557 -0.12765339529441139 0 -0.069548969567074986 -0.14184374995563209 0 -0.075198864836327636 -0.13384448496296539 0 -0.069548969567074986 -0.14184374995563209 0 -0.07664693877252865 -0.1510445544597214 0 -0.062324241385059258 -0.14490399278410851 0 -0.058867111230580103 -0.13874569073820489 0 -0.069548969567074986 -0.14184374995563209 0 -0.060848875666006247 -0.14973185145954471 0 -0.062324241385059258 -0.14490399278410851 0 -0.066604631536163278 -0.1487823633867866 0 -0.062324241385059258 -0.14490399278410851 0 -0.069548969567074986 -0.14184374995563209 0 -0.066604631536163278 -0.1487823633867866 0 -0.069548969567074986 -0.14184374995563209 0 -0.071410020141835506 -0.14858024320033311 0 -0.066604631536163278 -0.1487823633867866 0 -0.069548969567074986 -0.14184374995563209 0 -0.07664693877252865 -0.1510445544597214 0 -0.071410020141835506 -0.14858024320033311 0 -0.07664693877252865 -0.1510445544597214 0 -0.073002459351990415 -0.15361081426761861 0 -0.071374995136282093 -0.1614217312977711 0 -0.07664693877252865 -0.1510445544597214 0 -0.072945914391563532 -0.15120393102314211 0 -0.073002459351990415 -0.15361081426761861 0 -0.07664693877252865 -0.1510445544597214 0 -0.072945914391563532 -0.15120393102314211 0 -0.071410020141835506 -0.14858024320033311 0 -0.072945914391563532 -0.15120393102314211 0 -0.070787396814391265 -0.15173684251931849 0 -0.073002459351990415 -0.15361081426761861 0 -0.072945914391563532 -0.15120393102314211 0 -0.071410020141835506 -0.14858024320033311 0 -0.070787396814391265 -0.15173684251931849 0 -0.070787396814391265 -0.15173684251931849 0 -0.073002459351990415 -0.15361081426761861 0 -0.06971512173525303 -0.15412300003042079 0 -0.073002459351990415 -0.15361081426761861 0 -0.06971512173525303 -0.15412300003042079 0 -0.06962390911317326 -0.15675496254766541 0 -0.06971512173525303 -0.15412300003042079 0 -0.067331895568114475 -0.15562878049871151 0 -0.06962390911317326 -0.15675496254766541 0 -0.070787396814391265 -0.15173684251931849 0 -0.06971512173525303 -0.15412300003042079 0 -0.067829947828595721 -0.15288360031879 0 -0.06971512173525303 -0.15412300003042079 0 -0.067829947828595721 -0.15288360031879 0 -0.067331895568114475 -0.15562878049871151 0 -0.070787396814391265 -0.15173684251931849 0 -0.067829947828595721 -0.15288360031879 0 -0.066604631536163278 -0.1487823633867866 0 -0.071410020141835506 -0.14858024320033311 0 -0.070787396814391265 -0.15173684251931849 0 -0.066604631536163278 -0.1487823633867866 0 -0.067829947828595721 -0.15288360031879 0 -0.066604631536163278 -0.1487823633867866 0 -0.063795224677962545 -0.1543454538188242 0 -0.060848875666006247 -0.14973185145954471 0 -0.066604631536163278 -0.1487823633867866 0 -0.063795224677962545 -0.1543454538188242 0 -0.067331895568114475 -0.15562878049871151 0 -0.063795224677962545 -0.1543454538188242 0 -0.066103965927516828 -0.15851463027247151 0 -0.067829947828595721 -0.15288360031879 0 -0.067331895568114475 -0.15562878049871151 0 -0.063795224677962545 -0.1543454538188242 0 -0.060773156201230541 -0.16022214524237641 0 -0.063795224677962545 -0.1543454538188242 0 -0.066103965927516828 -0.15851463027247151 0 -0.07664693877252865 -0.1510445544597214 0 -0.071374995136282093 -0.1614217312977711 0 -0.080445041155774902 -0.16968177985320451 0 -0.069314407220094368 -0.15988307902673651 0 -0.06962390911317326 -0.15675496254766541 0 -0.071374995136282093 -0.1614217312977711 0 -0.067331895568114475 -0.15562878049871151 0 -0.066103965927516828 -0.15851463027247151 0 -0.06962390911317326 -0.15675496254766541 0 -0.066103965927516828 -0.15851463027247151 0 -0.069314407220094368 -0.15988307902673651 0 -0.06962390911317326 -0.15675496254766541 0 -0.066103965927516828 -0.15851463027247151 0 -0.069314407220094368 -0.15988307902673651 0 -0.066279122784482364 -0.1635077112524968 0 -0.069314407220094368 -0.15988307902673651 0 -0.066279122784482364 -0.1635077112524968 0 -0.071374995136282093 -0.1614217312977711 0 -0.060773156201230541 -0.16022214524237641 0 -0.066103965927516828 -0.15851463027247151 0 -0.066279122784482364 -0.1635077112524968 0 -0.066279122784482364 -0.1635077112524968 0 -0.071374995136282093 -0.1614217312977711 0 -0.067464639236210336 -0.17221389532733569 0 -0.071374995136282093 -0.1614217312977711 0 -0.067464639236210336 -0.17221389532733569 0 -0.060773156201230541 -0.16022214524237641 0 -0.066279122784482364 -0.1635077112524968 0 -0.067464639236210336 -0.17221389532733569 0 -0.071374995136282093 -0.1614217312977711 0 -0.067464639236210336 -0.17221389532733569 0 -0.080445041155774902 -0.16968177985320451 0 -0.07664693877252865 -0.1510445544597214 0 -0.071374995136282093 -0.1614217312977711 0 -0.073002459351990415 -0.15361081426761861 0 -0.06962390911317326 -0.15675496254766541 0 -0.071374995136282093 -0.1614217312977711 0 -0.087185621381733802 -0.19184035432485519 0 -0.065165146956122147 -0.1785602480649377 0 -0.082085724377560676 -0.18316695063804209 0 -0.05943863871920798 -0.19436479828715311 0 -0.065165146956122147 -0.1785602480649377 0 -0.063253706075729707 -0.17740749642523621 0 -0.087185621381733802 -0.19184035432485519 0 -0.065165146956122147 -0.1785602480649377 0 -0.065165146956122147 -0.1785602480649377 0 -0.067464639236210336 -0.17221389532733569 0 -0.082085724377560676 -0.18316695063804209 0 -0.058689842782311832 -0.17455121098072571 0 -0.063253706075729707 -0.17740749642523621 0 -0.067464639236210336 -0.17221389532733569 0 -0.065165146956122147 -0.1785602480649377 0 -0.063253706075729707 -0.17740749642523621 0 -0.067464639236210336 -0.17221389532733569 0 -0.065165146956122147 -0.1785602480649377 0 -0.063253706075729707 -0.17740749642523621 0 -0.063253706075729707 -0.17740749642523621 0 -0.067464639236210336 -0.17221389532733569 0 -0.065165146956122147 -0.1785602480649377 0 -0.067464639236210336 -0.17221389532733569 0 -0.067464639236210336 -0.17221389532733569 0 -0.082085724377560676 -0.18316695063804209 0 -0.080445041155774902 -0.16968177985320451 0 -0.067464639236210336 -0.17221389532733569 0 -0.082085724377560676 -0.18316695063804209 0 -0.082085724377560676 -0.18316695063804209 0 -0.090123148135161771 -0.17811212870724241 0 -0.080445041155774902 -0.16968177985320451 0 -0.087185621381733802 -0.19184035432485519 0 -0.082085724377560676 -0.18316695063804209 0 -0.090123148135161771 -0.17811212870724241 0 -0.07664693877252865 -0.1510445544597214 0 -0.080445041155774902 -0.16968177985320451 0 -0.092515430844422999 -0.1656387043932771 0 -0.07664693877252865 -0.1510445544597214 0 -0.092515430844422999 -0.1656387043932771 0 -0.090123148135161771 -0.17811212870724241 0 -0.080445041155774902 -0.16968177985320451 0 -0.092515430844422999 -0.1656387043932771 0 -0.092515430844422999 -0.1656387043932771 0 -0.1078627834236195 -0.16515642503499389 0 -0.10337764979416381 -0.1491063738048426 0 -0.092515430844422999 -0.1656387043932771 0 -0.1078627834236195 -0.16515642503499389 0 -0.1083839229163166 -0.1802328543268337 0 -0.092515430844422999 -0.1656387043932771 0 -0.1083839229163166 -0.1802328543268337 0 -0.087185621381733802 -0.19184035432485519 0 -0.090123148135161771 -0.17811212870724241 0 -0.1083839229163166 -0.1802328543268337 0 -0.087185621381733802 -0.19184035432485519 0 -0.1083839229163166 -0.1802328543268337 0 -0.090123148135161771 -0.17811212870724241 0 -0.092515430844422999 -0.1656387043932771 0 -0.1083839229163166 -0.1802328543268337 0 -0.1083839229163166 -0.1802328543268337 0 -0.12674553091097629 -0.17017863538792649 0 -0.132674420312549 -0.18531373827514941 0 -0.1083839229163166 -0.1802328543268337 0 -0.12674553091097629 -0.17017863538792649 0 -0.1078627834236195 -0.16515642503499389 0 -0.1083839229163166 -0.1802328543268337 0 -0.12674553091097629 -0.17017863538792649 0 -0.1078627834236195 -0.16515642503499389 0 -0.1172934607395259 -0.15483065908555649 0 -0.12674553091097629 -0.17017863538792649 0 -0.1078627834236195 -0.16515642503499389 0 -0.1172934607395259 -0.15483065908555649 0 -0.10337764979416381 -0.1491063738048426 0 -0.1172934607395259 -0.15483065908555649 0 -0.13020391862702169 -0.153095347453333 0 -0.12674553091097629 -0.17017863538792649 0 -0.1172934607395259 -0.15483065908555649 0 -0.10337764979416381 -0.1491063738048426 0 -0.11992185854996019 -0.13699828593854549 0 -0.1172934607395259 -0.15483065908555649 0 -0.11992185854996019 -0.13699828593854549 0 -0.13020391862702169 -0.153095347453333 0 -0.090063954293986781 -0.14544299724156931 0 -0.092515430844422999 -0.1656387043932771 0 -0.10337764979416381 -0.1491063738048426 0 -0.090063954293986781 -0.14544299724156931 0 -0.10337764979416381 -0.1491063738048426 0 -0.099905664812552336 -0.1339609383297696 0 -0.1065218459736005 -0.1192078747443145 0 -0.099905664812552336 -0.1339609383297696 0 -0.11992185854996019 -0.13699828593854549 0 -0.10337764979416381 -0.1491063738048426 0 -0.099905664812552336 -0.1339609383297696 0 -0.11992185854996019 -0.13699828593854549 0 -0.11992185854996019 -0.13699828593854549 0 -0.14104273216777999 -0.12609842535192839 0 -0.12575745834348909 -0.118558131368756 0 -0.11992185854996019 -0.13699828593854549 0 -0.14104273216777999 -0.12609842535192839 0 -0.14195160402901011 -0.14334474040561729 0 -0.15325263306181949 -0.13392621432458271 0 -0.14104273216777999 -0.12609842535192839 0 -0.15261349834235621 -0.1181140474543052 0 -0.15325263306181949 -0.13392621432458271 0 -0.14104273216777999 -0.12609842535192839 0 -0.14195160402901011 -0.14334474040561729 0 -0.14195160402901011 -0.14334474040561729 0 -0.1451071389056359 -0.1601244164490192 0 -0.1611260179864063 -0.14610676315753629 0 -0.15325263306181949 -0.13392621432458271 0 -0.14195160402901011 -0.14334474040561729 0 -0.1611260179864063 -0.14610676315753629 0 -0.14195160402901011 -0.14334474040561729 0 -0.13020391862702169 -0.153095347453333 0 -0.1451071389056359 -0.1601244164490192 0 -0.11992185854996019 -0.13699828593854549 0 -0.14195160402901011 -0.14334474040561729 0 -0.13020391862702169 -0.153095347453333 0 -0.12674553091097629 -0.17017863538792649 0 -0.1451071389056359 -0.1601244164490192 0 -0.12674553091097629 -0.17017863538792649 0 -0.1459624361743482 -0.1782099606540144 0 -0.1451071389056359 -0.1601244164490192 0 -0.13020391862702169 -0.153095347453333 0 -0.12674553091097629 -0.17017863538792649 0 -0.1451071389056359 -0.1601244164490192 0 -0.12674553091097629 -0.17017863538792649 0 -0.132674420312549 -0.18531373827514941 0 -0.1459624361743482 -0.1782099606540144 0 -0.132674420312549 -0.18531373827514941 0 -0.1459624361743482 -0.1782099606540144 0 -0.14138914254630619 -0.19663893550611911 0 -0.1459624361743482 -0.1782099606540144 0 -0.16190476017733249 -0.181397231571752 0 -0.1538179949631158 -0.1927229808734176 0 -0.1451071389056359 -0.1601244164490192 0 -0.16175065557537649 -0.16312568748654849 0 -0.1611260179864063 -0.14610676315753629 0 -0.1459624361743482 -0.1782099606540144 0 -0.1451071389056359 -0.1601244164490192 0 -0.16175065557537649 -0.16312568748654849 0 -0.16175065557537649 -0.16312568748654849 0 -0.17836942486919341 -0.15973694969014679 0 -0.17258591947152399 -0.17154754109633161 0 -0.16175065557537649 -0.16312568748654849 0 -0.17836942486919341 -0.15973694969014679 0 -0.17182614392158699 -0.15044627250816781 0 -0.16175065557537649 -0.16312568748654849 0 -0.16190476017733249 -0.181397231571752 0 -0.17258591947152399 -0.17154754109633161 0 -0.1459624361743482 -0.1782099606540144 0 -0.16175065557537649 -0.16312568748654849 0 -0.16190476017733249 -0.181397231571752 0 -0.16190476017733249 -0.181397231571752 0 -0.17603613156608619 -0.18494870870683741 0 -0.17258591947152399 -0.17154754109633161 0 -0.16190476017733249 -0.181397231571752 0 -0.17603613156608619 -0.18494870870683741 0 -0.1661535801816815 -0.19519617967192249 0 -0.17603613156608619 -0.18494870870683741 0 -0.1868030557880086 -0.17242734728717091 0 -0.17258591947152399 -0.17154754109633161 0 -0.17603613156608619 -0.18494870870683741 0 -0.18347542517882379 -0.19128017824889629 0 -0.18883502265712029 -0.18495997271983339 0 -0.17603613156608619 -0.18494870870683741 0 -0.1868030557880086 -0.17242734728717091 0 -0.18883502265712029 -0.18495997271983339 0 -0.1868030557880086 -0.17242734728717091 0 -0.17836942486919341 -0.15973694969014679 0 -0.19434849543140059 -0.15719127964756541 0 -0.1868030557880086 -0.17242734728717091 0 -0.17836942486919341 -0.15973694969014679 0 -0.17258591947152399 -0.17154754109633161 0 -0.17836942486919341 -0.15973694969014679 0 -0.18455486919811831 -0.1457154710869277 0 -0.19434849543140059 -0.15719127964756541 0 -0.17836942486919341 -0.15973694969014679 0 -0.18455486919811831 -0.1457154710869277 0 -0.17182614392158699 -0.15044627250816781 0 -0.18455486919811831 -0.1457154710869277 0 -0.17485421947159599 -0.13706550287934849 0 -0.17182614392158699 -0.15044627250816781 0 -0.18455486919811831 -0.1457154710869277 0 -0.17485421947159599 -0.13706550287934849 0 -0.1889412217266091 -0.13120540566079911 0 -0.1774759808757832 -0.12514075164181029 0 -0.17485421947159599 -0.13706550287934849 0 -0.1889412217266091 -0.13120540566079911 0 -0.1774759808757832 -0.12514075164181029 0 -0.17485421947159599 -0.13706550287934849 0 -0.16479092854468161 -0.12513851283939079 0 -0.17485421947159599 -0.13706550287934849 0 -0.16479092854468161 -0.12513851283939079 0 -0.1611260179864063 -0.14610676315753629 0 -0.15325263306181949 -0.13392621432458271 0 -0.16479092854468161 -0.12513851283939079 0 -0.15261349834235621 -0.1181140474543052 0 -0.15325263306181949 -0.13392621432458271 0 -0.16479092854468161 -0.12513851283939079 0 -0.1611260179864063 -0.14610676315753629 0 -0.16175065557537649 -0.16312568748654849 0 -0.1611260179864063 -0.14610676315753629 0 -0.17182614392158699 -0.15044627250816781 0 -0.17485421947159599 -0.13706550287934849 0 -0.1611260179864063 -0.14610676315753629 0 -0.17182614392158699 -0.15044627250816781 0 -0.1515656057754648 -0.24762527439959109 0 -0.14742977404380181 -0.22374744234675259 0 -0.1515656057754648 -0.24762527439959109 0 -0.12759395261113149 -0.24410238476601001 0 -0.13698907969853 -0.23088676529694849 0 -0.1223913172316107 -0.22810580316319801 0 -0.12759395261113149 -0.24410238476601001 0 -0.13698907969853 -0.23088676529694849 0 -0.1223913172316107 -0.22810580316319801 0 -0.13698907969853 -0.23088676529694849 0 -0.13188044478867389 -0.218900746789159 0 -0.13698907969853 -0.23088676529694849 0 -0.13188044478867389 -0.218900746789159 0 -0.13950567753075099 -0.22331270648914819 0 -0.13188044478867389 -0.218900746789159 0 -0.13950567753075099 -0.22331270648914819 0 -0.13967747628196031 -0.21694810763228189 0 -0.14742977404380181 -0.22374744234675259 0 -0.14940054267976161 -0.21795557529385071 0 -0.13967747628196031 -0.21694810763228189 0 -0.13950567753075099 -0.22331270648914819 0 -0.14742977404380181 -0.22374744234675259 0 -0.13967747628196031 -0.21694810763228189 0 -0.13698907969853 -0.23088676529694849 0 -0.13950567753075099 -0.22331270648914819 0 -0.14742977404380181 -0.22374744234675259 0 -0.1515656057754648 -0.24762527439959109 0 -0.13698907969853 -0.23088676529694849 0 -0.14742977404380181 -0.22374744234675259 0 -0.1515656057754648 -0.24762527439959109 0 -0.14742977404380181 -0.22374744234675259 0 -0.15457619376512799 -0.2315363069543884 0 -0.14742977404380181 -0.22374744234675259 0 -0.15457619376512799 -0.2315363069543884 0 -0.14940054267976161 -0.21795557529385071 0 -0.14940054267976161 -0.21795557529385071 0 -0.14550302921431871 -0.20573201466564489 0 -0.12889223279803921 -0.19909421481034201 0 -0.14940054267976161 -0.21795557529385071 0 -0.1560429697356088 -0.21225212707337701 0 -0.14550302921431871 -0.20573201466564489 0 -0.1560429697356088 -0.21225212707337701 0 -0.14550302921431871 -0.20573201466564489 0 -0.15179025831187781 -0.2027192206445359 0 -0.1560429697356088 -0.21225212707337701 0 -0.15179025831187781 -0.2027192206445359 0 -0.1582224875354058 -0.20205126958071301 0 -0.1208313235145545 -0.21551011269602871 0 -0.13188044478867389 -0.218900746789159 0 -0.12889223279803921 -0.19909421481034201 0 -0.13188044478867389 -0.218900746789159 0 -0.13967747628196031 -0.21694810763228189 0 -0.12889223279803921 -0.19909421481034201 0 -0.14940054267976161 -0.21795557529385071 0 -0.12889223279803921 -0.19909421481034201 0 -0.14940054267976161 -0.21795557529385071 0 -0.13967747628196031 -0.21694810763228189 0 -0.12889223279803921 -0.19909421481034201 0 -0.14550302921431871 -0.20573201466564489 0 -0.12889223279803921 -0.19909421481034201 0 -0.14138914254630619 -0.19663893550611911 0 -0.132674420312549 -0.18531373827514941 0 -0.12889223279803921 -0.19909421481034201 0 -0.14138914254630619 -0.19663893550611911 0 -0.1459624361743482 -0.1782099606540144 0 -0.14138914254630619 -0.19663893550611911 0 -0.1538179949631158 -0.1927229808734176 0 -0.14550302921431871 -0.20573201466564489 0 -0.14138914254630619 -0.19663893550611911 0 -0.15179025831187781 -0.2027192206445359 0 -0.15179025831187781 -0.2027192206445359 0 -0.1538179949631158 -0.1927229808734176 0 -0.1582224875354058 -0.20205126958071301 0 -0.14138914254630619 -0.19663893550611911 0 -0.15179025831187781 -0.2027192206445359 0 -0.1538179949631158 -0.1927229808734176 0 -0.16190476017733249 -0.181397231571752 0 -0.1538179949631158 -0.1927229808734176 0 -0.1661535801816815 -0.19519617967192249 0 -0.1538179949631158 -0.1927229808734176 0 -0.1582224875354058 -0.20205126958071301 0 -0.1661535801816815 -0.19519617967192249 0 -0.1582224875354058 -0.20205126958071301 0 -0.1661535801816815 -0.19519617967192249 0 -0.16330763448474531 -0.20736583964031211 0 -0.1661535801816815 -0.19519617967192249 0 -0.17271139971612401 -0.20610199311426111 0 -0.16330763448474531 -0.20736583964031211 0 -0.17603613156608619 -0.18494870870683741 0 -0.1661535801816815 -0.19519617967192249 0 -0.17835921983915079 -0.19847767436264549 0 -0.17603613156608619 -0.18494870870683741 0 -0.18347542517882379 -0.19128017824889629 0 -0.17835921983915079 -0.19847767436264549 0 -0.18347542517882379 -0.19128017824889629 0 -0.17835921983915079 -0.19847767436264549 0 -0.19067132665293779 -0.19673435720626881 0 -0.17835921983915079 -0.19847767436264549 0 -0.18318473746006569 -0.2066892893616453 0 -0.19067132665293779 -0.19673435720626881 0 -0.1661535801816815 -0.19519617967192249 0 -0.17835921983915079 -0.19847767436264549 0 -0.17271139971612401 -0.20610199311426111 0 -0.17835921983915079 -0.19847767436264549 0 -0.17271139971612401 -0.20610199311426111 0 -0.18318473746006569 -0.2066892893616453 0 -0.17271139971612401 -0.20610199311426111 0 -0.18318473746006569 -0.2066892893616453 0 -0.17826644286784091 -0.21370872957446219 0 -0.18318473746006569 -0.2066892893616453 0 -0.18694394664448191 -0.21698280996748609 0 -0.19239289246190869 -0.20884853948602211 0 -0.18318473746006569 -0.2066892893616453 0 -0.18694394664448191 -0.21698280996748609 0 -0.17826644286784091 -0.21370872957446219 0 -0.18694394664448191 -0.21698280996748609 0 -0.17826644286784091 -0.21370872957446219 0 -0.17746135951276551 -0.22365687024142561 0 -0.17271139971612401 -0.20610199311426111 0 -0.17826644286784091 -0.21370872957446219 0 -0.16975433032991741 -0.2141078011560438 0 -0.17826644286784091 -0.21370872957446219 0 -0.16975433032991741 -0.2141078011560438 0 -0.17746135951276551 -0.22365687024142561 0 -0.16975433032991741 -0.2141078011560438 0 -0.16337043113696131 -0.21341893132176931 0 -0.16437678999757371 -0.21994995741734441 0 -0.16975433032991741 -0.2141078011560438 0 -0.16330763448474531 -0.20736583964031211 0 -0.16337043113696131 -0.21341893132176931 0 -0.17271139971612401 -0.20610199311426111 0 -0.16975433032991741 -0.2141078011560438 0 -0.16330763448474531 -0.20736583964031211 0 -0.1560429697356088 -0.21225212707337701 0 -0.1582224875354058 -0.20205126958071301 0 -0.16330763448474531 -0.20736583964031211 0 -0.1560429697356088 -0.21225212707337701 0 -0.16337043113696131 -0.21341893132176931 0 -0.16437678999757371 -0.21994995741734441 0 -0.14940054267976161 -0.21795557529385071 0 -0.1560429697356088 -0.21225212707337701 0 -0.16437678999757371 -0.21994995741734441 0 -0.1560429697356088 -0.21225212707337701 0 -0.16330763448474531 -0.20736583964031211 0 -0.16337043113696131 -0.21341893132176931 0 -0.15457619376512799 -0.2315363069543884 0 -0.14940054267976161 -0.21795557529385071 0 -0.16990885256148389 -0.23681693577735929 0 -0.14940054267976161 -0.21795557529385071 0 -0.16990885256148389 -0.23681693577735929 0 -0.14940054267976161 -0.21795557529385071 0 -0.16437678999757371 -0.21994995741734441 0 -0.16990885256148389 -0.23681693577735929 0 -0.16437678999757371 -0.21994995741734441 0 -0.17746135951276551 -0.22365687024142561 0 -0.16990885256148389 -0.23681693577735929 0 -0.16975433032991741 -0.2141078011560438 0 -0.16437678999757371 -0.21994995741734441 0 -0.17746135951276551 -0.22365687024142561 0 -0.17746135951276551 -0.22365687024142561 0 -0.1856415271613307 -0.23681537698761829 0 -0.16990885256148389 -0.23681693577735929 0 -0.18694394664448191 -0.21698280996748609 0 -0.17746135951276551 -0.22365687024142561 0 -0.19035977922786229 -0.22633980603493409 0 -0.17746135951276551 -0.22365687024142561 0 -0.1856415271613307 -0.23681537698761829 0 -0.19035977922786229 -0.22633980603493409 0 -0.19041716244320731 -0.25567829626086669 0 -0.1856415271613307 -0.23681537698761829 0 -0.16990885256148389 -0.23681693577735929 0 -0.19041716244320731 -0.25567829626086669 0 -0.16990885256148389 -0.23681693577735929 0 -0.1515656057754648 -0.24762527439959109 0 -0.15457619376512799 -0.2315363069543884 0 -0.16990885256148389 -0.23681693577735929 0 -0.16950490137503291 -0.25772797401075798 0 -0.1515656057754648 -0.24762527439959109 0 -0.16990885256148389 -0.23681693577735929 0 -0.2190775644290763 -0.25142079191296962 0 -0.2097038016794639 -0.22749165698614229 0 -0.2190775644290763 -0.25142079191296962 0 -0.20006048206133589 -0.2415849766235047 0 -0.2097038016794639 -0.22749165698614229 0 -0.2190775644290763 -0.25142079191296962 0 -0.2097038016794639 -0.22749165698614229 0 -0.22301620101341341 -0.24302674165157989 0 -0.2190775644290763 -0.25142079191296962 0 -0.20637389757624119 -0.25653967376115039 0 -0.20006048206133589 -0.2415849766235047 0 -0.20006048206133589 -0.2415849766235047 0 -0.2097038016794639 -0.22749165698614229 0 -0.19041716244320731 -0.25567829626086669 0 -0.1856415271613307 -0.23681537698761829 0 -0.20006048206133589 -0.2415849766235047 0 -0.19041716244320731 -0.25567829626086669 0 -0.20006048206133589 -0.2415849766235047 0 -0.1856415271613307 -0.23681537698761829 0 -0.20006048206133589 -0.2415849766235047 0 -0.19035977922786229 -0.22633980603493409 0 -0.20006048206133589 -0.2415849766235047 0 -0.19035977922786229 -0.22633980603493409 0 -0.2003789686734892 -0.226354877796347 0 -0.18694394664448191 -0.21698280996748609 0 -0.19035977922786229 -0.22633980603493409 0 -0.19670772245122761 -0.21770810217237629 0 -0.2003789686734892 -0.226354877796347 0 -0.20645056075175919 -0.21918685525516729 0 -0.19670772245122761 -0.21770810217237629 0 -0.19035977922786229 -0.22633980603493409 0 -0.2003789686734892 -0.226354877796347 0 -0.19670772245122761 -0.21770810217237629 0 -0.2003789686734892 -0.226354877796347 0 -0.20645056075175919 -0.21918685525516729 0 -0.2097038016794639 -0.22749165698614229 0 -0.20645056075175919 -0.21918685525516729 0 -0.2097038016794639 -0.22749165698614229 0 -0.20645056075175919 -0.21918685525516729 0 -0.2097038016794639 -0.22749165698614229 0 -0.21069899822817509 -0.21281332413491871 0 -0.20006048206133589 -0.2415849766235047 0 -0.2003789686734892 -0.226354877796347 0 -0.2097038016794639 -0.22749165698614229 0 -0.2097038016794639 -0.22749165698614229 0 -0.21069899822817509 -0.21281332413491871 0 -0.22595521881646749 -0.2037408714328113 0 -0.2097038016794639 -0.22749165698614229 0 -0.22595521881646749 -0.2037408714328113 0 -0.2119577795935258 -0.20433143474044849 0 -0.21069899822817509 -0.21281332413491871 0 -0.22595521881646749 -0.2037408714328113 0 -0.2119577795935258 -0.20433143474044849 0 -0.21069899822817509 -0.21281332413491871 0 -0.2028739211204427 -0.20969903947263771 0 -0.2119577795935258 -0.20433143474044849 0 -0.2028739211204427 -0.20969903947263771 0 -0.20525029724468241 -0.20156773453126089 0 -0.20645056075175919 -0.21918685525516729 0 -0.21069899822817509 -0.21281332413491871 0 -0.2028739211204427 -0.20969903947263771 0 -0.19670772245122761 -0.21770810217237629 0 -0.19239289246190869 -0.20884853948602211 0 -0.2028739211204427 -0.20969903947263771 0 -0.20645056075175919 -0.21918685525516729 0 -0.19670772245122761 -0.21770810217237629 0 -0.2028739211204427 -0.20969903947263771 0 -0.18694394664448191 -0.21698280996748609 0 -0.19670772245122761 -0.21770810217237629 0 -0.19239289246190869 -0.20884853948602211 0 -0.18318473746006569 -0.2066892893616453 0 -0.19239289246190869 -0.20884853948602211 0 -0.19067132665293779 -0.19673435720626881 0 -0.19239289246190869 -0.20884853948602211 0 -0.2028739211204427 -0.20969903947263771 0 -0.19851727848040029 -0.2024783307205579 0 -0.2028739211204427 -0.20969903947263771 0 -0.19851727848040029 -0.2024783307205579 0 -0.20525029724468241 -0.20156773453126089 0 -0.19851727848040029 -0.2024783307205579 0 -0.19067132665293779 -0.19673435720626881 0 -0.20194069666820241 -0.19461758644099289 0 -0.19851727848040029 -0.2024783307205579 0 -0.20194069666820241 -0.19461758644099289 0 -0.20525029724468241 -0.20156773453126089 0 -0.19239289246190869 -0.20884853948602211 0 -0.19851727848040029 -0.2024783307205579 0 -0.19067132665293779 -0.19673435720626881 0 -0.19067132665293779 -0.19673435720626881 0 -0.1967093618614911 -0.18793097890057031 0 -0.18883502265712029 -0.18495997271983339 0 -0.18347542517882379 -0.19128017824889629 0 -0.19067132665293779 -0.19673435720626881 0 -0.18883502265712029 -0.18495997271983339 0 -0.19067132665293779 -0.19673435720626881 0 -0.20194069666820241 -0.19461758644099289 0 -0.1967093618614911 -0.18793097890057031 0 -0.20194069666820241 -0.19461758644099289 0 -0.1967093618614911 -0.18793097890057031 0 -0.20665692440613009 -0.1847329372060959 0 -0.20194069666820241 -0.19461758644099289 0 -0.210078779364648 -0.19589682132379951 0 -0.20665692440613009 -0.1847329372060959 0 -0.2119577795935258 -0.20433143474044849 0 -0.20525029724468241 -0.20156773453126089 0 -0.210078779364648 -0.19589682132379951 0 -0.20194069666820241 -0.19461758644099289 0 -0.20525029724468241 -0.20156773453126089 0 -0.210078779364648 -0.19589682132379951 0 -0.2119577795935258 -0.20433143474044849 0 -0.210078779364648 -0.19589682132379951 0 -0.21773724105379841 -0.19822494811710401 0 -0.2119577795935258 -0.20433143474044849 0 -0.21773724105379841 -0.19822494811710401 0 -0.22595521881646749 -0.2037408714328113 0 -0.210078779364648 -0.19589682132379951 0 -0.21773724105379841 -0.19822494811710401 0 -0.21692973722154929 -0.19190628690689471 0 -0.210078779364648 -0.19589682132379951 0 -0.21692973722154929 -0.19190628690689471 0 -0.20665692440613009 -0.1847329372060959 0 -0.24411240467052719 -0.189163691631557 0 -0.22900702856887781 -0.21451543163629161 0 -0.22595521881646749 -0.2037408714328113 0 -0.22595521881646749 -0.2037408714328113 0 -0.24220663595347991 -0.17999008587948631 0 -0.23065552714491741 -0.18952165688918479 0 -0.22595521881646749 -0.2037408714328113 0 -0.24220663595347991 -0.17999008587948631 0 -0.22288165927660869 -0.19443386622369799 0 -0.23065552714491741 -0.18952165688918479 0 -0.22308322984630499 -0.18680061340837409 0 -0.21692973722154929 -0.19190628690689471 0 -0.22288165927660869 -0.19443386622369799 0 -0.22308322984630499 -0.18680061340837409 0 -0.21773724105379841 -0.19822494811710401 0 -0.21692973722154929 -0.19190628690689471 0 -0.22288165927660869 -0.19443386622369799 0 -0.21773724105379841 -0.19822494811710401 0 -0.22288165927660869 -0.19443386622369799 0 -0.22595521881646749 -0.2037408714328113 0 -0.22288165927660869 -0.19443386622369799 0 -0.23065552714491741 -0.18952165688918479 0 -0.22595521881646749 -0.2037408714328113 0 -0.24411240467052719 -0.189163691631557 0 -0.22595521881646749 -0.2037408714328113 0 -0.24220663595347991 -0.17999008587948631 0 -0.24411240467052719 -0.189163691631557 0 -0.24862493598769481 -0.19852958057999959 0 -0.2420911206124477 -0.20555766733483391 0 -0.24411240467052719 -0.189163691631557 0 -0.22900702856887781 -0.21451543163629161 0 -0.24411240467052719 -0.189163691631557 0 -0.2420911206124477 -0.20555766733483391 0 -0.22900702856887781 -0.21451543163629161 0 -0.24411240467052719 -0.189163691631557 0 -0.24862493598769481 -0.19852958057999959 0 -0.25553144154411628 -0.1898259975185905 0 -0.24862493598769481 -0.19852958057999959 0 -0.2420911206124477 -0.20555766733483391 0 -0.25051797872981219 -0.21011174819722969 0 -0.2420911206124477 -0.20555766733483391 0 -0.24414880553829979 -0.21966279062445071 0 -0.25051797872981219 -0.21011174819722969 0 -0.24414880553829979 -0.21966279062445071 0 -0.25353522381878291 -0.22227814381025701 0 -0.25051797872981219 -0.21011174819722969 0 -0.2420911206124477 -0.20555766733483391 0 -0.22900702856887781 -0.21451543163629161 0 -0.24414880553829979 -0.21966279062445071 0 -0.2097038016794639 -0.22749165698614229 0 -0.22900702856887781 -0.21451543163629161 0 -0.22595521881646749 -0.2037408714328113 0 -0.2097038016794639 -0.22749165698614229 0 -0.22900702856887781 -0.21451543163629161 0 -0.22434102661051461 -0.22842006083344191 0 -0.2097038016794639 -0.22749165698614229 0 -0.22434102661051461 -0.22842006083344191 0 -0.22301620101341341 -0.24302674165157989 0 -0.22900702856887781 -0.21451543163629161 0 -0.22434102661051461 -0.22842006083344191 0 -0.2354589471866454 -0.22456317856952621 0 -0.22434102661051461 -0.22842006083344191 0 -0.2354589471866454 -0.22456317856952621 0 -0.24433892802888951 -0.2356544311839206 0 -0.2354589471866454 -0.22456317856952621 0 -0.24414880553829979 -0.21966279062445071 0 -0.24433892802888951 -0.2356544311839206 0 -0.24414880553829979 -0.21966279062445071 0 -0.24433892802888951 -0.2356544311839206 0 -0.25353522381878291 -0.22227814381025701 0 -0.22900702856887781 -0.21451543163629161 0 -0.2354589471866454 -0.22456317856952621 0 -0.24414880553829979 -0.21966279062445071 0 -0.2393768668894786 -0.25582451898022163 0 -0.24433892802888951 -0.2356544311839206 0 -0.2581986285306509 -0.2447208203320011 0 -0.2393768668894786 -0.25582451898022163 0 -0.24433892802888951 -0.2356544311839206 0 -0.22301620101341341 -0.24302674165157989 0 -0.22434102661051461 -0.22842006083344191 0 -0.24433892802888951 -0.2356544311839206 0 -0.22301620101341341 -0.24302674165157989 0 -0.24433892802888951 -0.2356544311839206 0 -0.22301620101341341 -0.24302674165157989 0 -0.2074223795182851 -0.151128387214605 0 -0.20932219269730579 -0.1395203473545904 0 -0.19814680916927349 -0.1422439088177376 0 -0.2074223795182851 -0.151128387214605 0 -0.21345864434356179 -0.1644559886749033 0 -0.2191800206062568 -0.15296143636476339 0 -0.2074223795182851 -0.151128387214605 0 -0.2191800206062568 -0.15296143636476339 0 -0.22104184242881911 -0.14059420947700529 0 -0.2074223795182851 -0.151128387214605 0 -0.20932219269730579 -0.1395203473545904 0 -0.22104184242881911 -0.14059420947700529 0 -0.21466316611427011 -0.1324749324172462 0 -0.20932219269730579 -0.1395203473545904 0 -0.22104184242881911 -0.14059420947700529 0 -0.21466316611427011 -0.1324749324172462 0 -0.2228640423866417 -0.12684013191474561 0 -0.21333118572893789 -0.1235463782347794 0 -0.21466316611427011 -0.1324749324172462 0 -0.20391696518211661 -0.13044700258760619 0 -0.21333118572893789 -0.1235463782347794 0 -0.21466316611427011 -0.1324749324172462 0 -0.20391696518211661 -0.13044700258760619 0 -0.20932219269730579 -0.1395203473545904 0 -0.20391696518211661 -0.13044700258760619 0 -0.20932219269730579 -0.1395203473545904 0 -0.19814680916927349 -0.1422439088177376 0 -0.20391696518211661 -0.13044700258760619 0 -0.1889412217266091 -0.13120540566079911 0 -0.19814680916927349 -0.1422439088177376 0 -0.20391696518211661 -0.13044700258760619 0 -0.1889412217266091 -0.13120540566079911 0 -0.19627823335375791 -0.1226835761769634 0 -0.18455486919811831 -0.1457154710869277 0 -0.1889412217266091 -0.13120540566079911 0 -0.19814680916927349 -0.1422439088177376 0 -0.18455486919811831 -0.1457154710869277 0 -0.19814680916927349 -0.1422439088177376 0 -0.19434849543140059 -0.15719127964756541 0 -0.2074223795182851 -0.151128387214605 0 -0.19814680916927349 -0.1422439088177376 0 -0.19434849543140059 -0.15719127964756541 0 -0.1868030557880086 -0.17242734728717091 0 -0.19434849543140059 -0.15719127964756541 0 -0.20092733650370331 -0.1706119468355512 0 -0.19434849543140059 -0.15719127964756541 0 -0.20092733650370331 -0.1706119468355512 0 -0.2040392139492378 -0.16084690059315621 0 -0.2074223795182851 -0.151128387214605 0 -0.19434849543140059 -0.15719127964756541 0 -0.2040392139492378 -0.16084690059315621 0 -0.1967093618614911 -0.18793097890057031 0 -0.18883502265712029 -0.18495997271983339 0 -0.19583105415179769 -0.17969760925836331 0 -0.1868030557880086 -0.17242734728717091 0 -0.20092733650370331 -0.1706119468355512 0 -0.19583105415179769 -0.17969760925836331 0 -0.1868030557880086 -0.17242734728717091 0 -0.18883502265712029 -0.18495997271983339 0 -0.19583105415179769 -0.17969760925836331 0 -0.20092733650370331 -0.1706119468355512 0 -0.19583105415179769 -0.17969760925836331 0 -0.20665692440613009 -0.1847329372060959 0 -0.1967093618614911 -0.18793097890057031 0 -0.19583105415179769 -0.17969760925836331 0 -0.20665692440613009 -0.1847329372060959 0 -0.20092733650370331 -0.1706119468355512 0 -0.20665692440613009 -0.1847329372060959 0 -0.21368330336717689 -0.17547864458011031 0 -0.21368330336717689 -0.17547864458011031 0 -0.2165495866507956 -0.18360242934640869 0 -0.2223947384128164 -0.17909366463056831 0 -0.20665692440613009 -0.1847329372060959 0 -0.21368330336717689 -0.17547864458011031 0 -0.2165495866507956 -0.18360242934640869 0 -0.21692973722154929 -0.19190628690689471 0 -0.20665692440613009 -0.1847329372060959 0 -0.2165495866507956 -0.18360242934640869 0 -0.2074223795182851 -0.151128387214605 0 -0.2040392139492378 -0.16084690059315621 0 -0.21345864434356179 -0.1644559886749033 0 -0.20092733650370331 -0.1706119468355512 0 -0.21368330336717689 -0.17547864458011031 0 -0.21345864434356179 -0.1644559886749033 0 -0.20092733650370331 -0.1706119468355512 0 -0.2040392139492378 -0.16084690059315621 0 -0.21345864434356179 -0.1644559886749033 0 -0.21368330336717689 -0.17547864458011031 0 -0.21345864434356179 -0.1644559886749033 0 -0.2230477378739297 -0.16964182425690311 0 -0.21345864434356179 -0.1644559886749033 0 -0.22573601412725461 -0.16004800141025299 0 -0.2191800206062568 -0.15296143636476339 0 -0.21345864434356179 -0.1644559886749033 0 -0.22573601412725461 -0.16004800141025299 0 -0.2230477378739297 -0.16964182425690311 0 -0.2230477378739297 -0.16964182425690311 0 -0.23345972956525521 -0.16851885827492311 0 -0.22992873237045369 -0.17653330907366199 0 -0.22573601412725461 -0.16004800141025299 0 -0.2230477378739297 -0.16964182425690311 0 -0.23345972956525521 -0.16851885827492311 0 -0.22573601412725461 -0.16004800141025299 0 -0.23345972956525521 -0.16851885827492311 0 -0.23497267870965269 -0.15812838631607151 0 -0.21692973722154929 -0.19190628690689471 0 -0.2165495866507956 -0.18360242934640869 0 -0.22308322984630499 -0.18680061340837409 0 -0.2165495866507956 -0.18360242934640869 0 -0.22308322984630499 -0.18680061340837409 0 -0.2223947384128164 -0.17909366463056831 0 -0.22308322984630499 -0.18680061340837409 0 -0.2223947384128164 -0.17909366463056831 0 -0.22792491024502751 -0.18261596032501329 0 -0.21368330336717689 -0.17547864458011031 0 -0.2230477378739297 -0.16964182425690311 0 -0.2223947384128164 -0.17909366463056831 0 -0.2230477378739297 -0.16964182425690311 0 -0.2223947384128164 -0.17909366463056831 0 -0.22992873237045369 -0.17653330907366199 0 -0.23345972956525521 -0.16851885827492311 0 -0.22992873237045369 -0.17653330907366199 0 -0.23643288866912959 -0.17641523714343671 0 -0.22992873237045369 -0.17653330907366199 0 -0.23356232345064479 -0.18113055762327709 0 -0.23643288866912959 -0.17641523714343671 0 -0.2223947384128164 -0.17909366463056831 0 -0.22992873237045369 -0.17653330907366199 0 -0.22792491024502751 -0.18261596032501329 0 -0.23065552714491741 -0.18952165688918479 0 -0.22792491024502751 -0.18261596032501329 0 -0.23356232345064479 -0.18113055762327709 0 -0.22992873237045369 -0.17653330907366199 0 -0.22792491024502751 -0.18261596032501329 0 -0.23356232345064479 -0.18113055762327709 0 -0.23065552714491741 -0.18952165688918479 0 -0.22308322984630499 -0.18680061340837409 0 -0.22792491024502751 -0.18261596032501329 0 -0.24220663595347991 -0.17999008587948631 0 -0.24162495277933749 -0.1732425798384282 0 -0.25921778077217728 -0.1638119516268228 0 -0.24411240467052719 -0.189163691631557 0 -0.24220663595347991 -0.17999008587948631 0 -0.25921778077217728 -0.1638119516268228 0 -0.23065552714491741 -0.18952165688918479 0 -0.23356232345064479 -0.18113055762327709 0 -0.24220663595347991 -0.17999008587948631 0 -0.23345972956525521 -0.16851885827492311 0 -0.23643288866912959 -0.17641523714343671 0 -0.24162495277933749 -0.1732425798384282 0 -0.23356232345064479 -0.18113055762327709 0 -0.24220663595347991 -0.17999008587948631 0 -0.23643288866912959 -0.17641523714343671 0 -0.24220663595347991 -0.17999008587948631 0 -0.23643288866912959 -0.17641523714343671 0 -0.24162495277933749 -0.1732425798384282 0 -0.24162495277933749 -0.1732425798384282 0 -0.248782105131127 -0.16161515126540901 0 -0.25921778077217728 -0.1638119516268228 0 -0.24084925389485951 -0.16403368226899431 0 -0.23497267870965269 -0.15812838631607151 0 -0.2438449058079161 -0.15625888402858651 0 -0.23345972956525521 -0.16851885827492311 0 -0.24084925389485951 -0.16403368226899431 0 -0.23497267870965269 -0.15812838631607151 0 -0.23345972956525521 -0.16851885827492311 0 -0.24162495277933749 -0.1732425798384282 0 -0.24084925389485951 -0.16403368226899431 0 -0.24162495277933749 -0.1732425798384282 0 -0.24084925389485951 -0.16403368226899431 0 -0.248782105131127 -0.16161515126540901 0 -0.24084925389485951 -0.16403368226899431 0 -0.248782105131127 -0.16161515126540901 0 -0.2438449058079161 -0.15625888402858651 0 -0.2438449058079161 -0.15625888402858651 0 -0.24379637703047641 -0.14069965914005991 0 -0.25545790984005162 -0.1486314068883241 0 -0.248782105131127 -0.16161515126540901 0 -0.2438449058079161 -0.15625888402858651 0 -0.25545790984005162 -0.1486314068883241 0 -0.24379637703047641 -0.14069965914005991 0 -0.23707657056689441 -0.14935266637796091 0 -0.23416037335436221 -0.14155441377206929 0 -0.2438449058079161 -0.15625888402858651 0 -0.24379637703047641 -0.14069965914005991 0 -0.23707657056689441 -0.14935266637796091 0 -0.23497267870965269 -0.15812838631607151 0 -0.2438449058079161 -0.15625888402858651 0 -0.23707657056689441 -0.14935266637796091 0 -0.23497267870965269 -0.15812838631607151 0 -0.23707657056689441 -0.14935266637796091 0 -0.22860851793206491 -0.15012198863301751 0 -0.22573601412725461 -0.16004800141025299 0 -0.23497267870965269 -0.15812838631607151 0 -0.22860851793206491 -0.15012198863301751 0 -0.23707657056689441 -0.14935266637796091 0 -0.22860851793206491 -0.15012198863301751 0 -0.23416037335436221 -0.14155441377206929 0 -0.22860851793206491 -0.15012198863301751 0 -0.23416037335436221 -0.14155441377206929 0 -0.22104184242881911 -0.14059420947700529 0 -0.22860851793206491 -0.15012198863301751 0 -0.2191800206062568 -0.15296143636476339 0 -0.22104184242881911 -0.14059420947700529 0 -0.22573601412725461 -0.16004800141025299 0 -0.22860851793206491 -0.15012198863301751 0 -0.2191800206062568 -0.15296143636476339 0 -0.21466316611427011 -0.1324749324172462 0 -0.2228640423866417 -0.12684013191474561 0 -0.22104184242881911 -0.14059420947700529 0 -0.2228640423866417 -0.12684013191474561 0 -0.22104184242881911 -0.14059420947700529 0 -0.23240775294905511 -0.13190156784492041 0 -0.23416037335436221 -0.14155441377206929 0 -0.22104184242881911 -0.14059420947700529 0 -0.23240775294905511 -0.13190156784492041 0 -0.2228640423866417 -0.12684013191474561 0 -0.23240775294905511 -0.13190156784492041 0 -0.23190762254846439 -0.1212547634537285 0 -0.23240775294905511 -0.13190156784492041 0 -0.24237050106513761 -0.12657614542635451 0 -0.23190762254846439 -0.1212547634537285 0 -0.24379637703047641 -0.14069965914005991 0 -0.23416037335436221 -0.14155441377206929 0 -0.23240775294905511 -0.13190156784492041 0 -0.24379637703047641 -0.14069965914005991 0 -0.23240775294905511 -0.13190156784492041 0 -0.24237050106513761 -0.12657614542635451 0 -0.24379637703047641 -0.14069965914005991 0 -0.24237050106513761 -0.12657614542635451 0 -0.25403199653450548 -0.13253089301491691 0 -0.24237050106513761 -0.12657614542635451 0 -0.25118326724822809 -0.12205150868743141 0 -0.25403199653450548 -0.13253089301491691 0 -0.24237050106513761 -0.12657614542635451 0 -0.24224001887755781 -0.115546481050691 0 -0.25118326724822809 -0.12205150868743141 0 -0.24237050106513761 -0.12657614542635451 0 -0.24224001887755781 -0.115546481050691 0 -0.23190762254846439 -0.1212547634537285 0 -0.24224001887755781 -0.115546481050691 0 -0.23190762254846439 -0.1212547634537285 0 -0.23037457764526889 -0.10974363271517459 0 -0.24224001887755781 -0.115546481050691 0 -0.2431237657023104 -0.10251237741398581 0 -0.25554336938408723 -0.1122676618860588 0 -0.24224001887755781 -0.115546481050691 0 -0.25118326724822809 -0.12205150868743141 0 -0.25554336938408723 -0.1122676618860588 0 -0.2431237657023104 -0.10251237741398581 0 -0.226941628864961 -0.09892912321362643 0 -0.2356226422062648 -0.089606882961114104 0 -0.2431237657023104 -0.10251237741398581 0 -0.24747250104950519 -0.092854501526460187 0 -0.25819269595518829 -0.097816648605460771 0 -0.2431237657023104 -0.10251237741398581 0 -0.24747250104950519 -0.092854501526460187 0 -0.2356226422062648 -0.089606882961114104 0 -0.24224001887755781 -0.115546481050691 0 -0.2431237657023104 -0.10251237741398581 0 -0.23037457764526889 -0.10974363271517459 0 -0.2431237657023104 -0.10251237741398581 0 -0.226941628864961 -0.09892912321362643 0 -0.23037457764526889 -0.10974363271517459 0 -0.226941628864961 -0.09892912321362643 0 -0.21925306640283071 -0.1070475964493345 0 -0.2166870905728624 -0.098045274197586046 0 -0.226941628864961 -0.09892912321362643 0 -0.21977874434366229 -0.08909749290709347 0 -0.2166870905728624 -0.098045274197586046 0 -0.226941628864961 -0.09892912321362643 0 -0.21925306640283071 -0.1070475964493345 0 -0.23037457764526889 -0.10974363271517459 0 -0.21925306640283071 -0.1070475964493345 0 -0.22118884236712541 -0.1169206217704848 0 -0.23037457764526889 -0.10974363271517459 0 -0.2228640423866417 -0.12684013191474561 0 -0.22118884236712541 -0.1169206217704848 0 -0.23190762254846439 -0.1212547634537285 0 -0.2228640423866417 -0.12684013191474561 0 -0.22118884236712541 -0.1169206217704848 0 -0.21333118572893789 -0.1235463782347794 0 -0.22118884236712541 -0.1169206217704848 0 -0.23190762254846439 -0.1212547634537285 0 -0.23037457764526889 -0.10974363271517459 0 -0.2347585841931345 -0.064789979965574326 0 -0.22433193750601671 -0.076273037731325447 0 -0.25295090033425732 -0.081482097125280067 0 -0.2347585841931345 -0.064789979965574326 0 -0.26384823674953622 -0.06105654635743811 0 -0.2356226422062648 -0.089606882961114104 0 -0.22433193750601671 -0.076273037731325447 0 -0.25295090033425732 -0.081482097125280067 0 -0.22433193750601671 -0.076273037731325447 0 -0.25295090033425732 -0.081482097125280067 0 -0.24747250104950519 -0.092854501526460187 0 -0.2356226422062648 -0.089606882961114104 0 -0.25295090033425732 -0.081482097125280067 0 -0.2356226422062648 -0.089606882961114104 0 -0.21977874434366229 -0.08909749290709347 0 -0.22433193750601671 -0.076273037731325447 0 -0.226941628864961 -0.09892912321362643 0 -0.2356226422062648 -0.089606882961114104 0 -0.21977874434366229 -0.08909749290709347 0 -0.2347585841931345 -0.064789979965574326 0 -0.20566893163673269 -0.068523413573710557 0 -0.2347585841931345 -0.064789979965574326 0 -0.22433193750601671 -0.076273037731325447 0 -0.20566893163673269 -0.068523413573710557 0 -0.2347585841931345 -0.064789979965574326 0 -0.20566893163673269 -0.068523413573710557 0 -0.2165657103293433 -0.057585604375704008 0 -0.22433193750601671 -0.076273037731325447 0 -0.20814351545991219 -0.08399154872872619 0 -0.1957129746777761 -0.071063978337370826 0 -0.22433193750601671 -0.076273037731325447 0 -0.1957129746777761 -0.071063978337370826 0 -0.22433193750601671 -0.076273037731325447 0 -0.20566893163673269 -0.068523413573710557 0 -0.1957129746777761 -0.071063978337370826 0 -0.21977874434366229 -0.08909749290709347 0 -0.22433193750601671 -0.076273037731325447 0 -0.20814351545991219 -0.08399154872872619 0 -0.21977874434366229 -0.08909749290709347 0 -0.20814351545991219 -0.08399154872872619 0 -0.20825255854391711 -0.094538876164920072 0 -0.20814351545991219 -0.08399154872872619 0 -0.1978959035131827 -0.091821362572602289 0 -0.20825255854391711 -0.094538876164920072 0 -0.20814351545991219 -0.08399154872872619 0 -0.1978959035131827 -0.091821362572602289 0 -0.19499687832739471 -0.082447787826683216 0 -0.1978959035131827 -0.091821362572602289 0 -0.19499687832739471 -0.082447787826683216 0 -0.18714201719631049 -0.087634559680344878 0 -0.1978959035131827 -0.091821362572602289 0 -0.18874068045991921 -0.10076976842742801 0 -0.18714201719631049 -0.087634559680344878 0 -0.19499687832739471 -0.082447787826683216 0 -0.18714201719631049 -0.087634559680344878 0 -0.18674276976344009 -0.079048281394804229 0 -0.20814351545991219 -0.08399154872872619 0 -0.19499687832739471 -0.082447787826683216 0 -0.1957129746777761 -0.071063978337370826 0 -0.20566893163673269 -0.068523413573710557 0 -0.19348315190670801 -0.062565311742150312 0 -0.176579279080331 -0.072256847181847383 0 -0.20566893163673269 -0.068523413573710557 0 -0.176579279080331 -0.072256847181847383 0 -0.20566893163673269 -0.068523413573710557 0 -0.1957129746777761 -0.071063978337370826 0 -0.176579279080331 -0.072256847181847383 0 -0.19499687832739471 -0.082447787826683216 0 -0.1957129746777761 -0.071063978337370826 0 -0.18674276976344009 -0.079048281394804229 0 -0.20566893163673269 -0.068523413573710557 0 -0.19348315190670801 -0.062565311742150312 0 -0.20264485336403479 -0.057338828482974918 0 -0.21097523465834031 -0.1142191900677087 0 -0.20935102430842609 -0.10442773673142659 0 -0.19934656578649609 -0.1122800137521484 0 -0.21097523465834031 -0.1142191900677087 0 -0.204590909002275 -0.12061084131571841 0 -0.19934656578649609 -0.1122800137521484 0 -0.21097523465834031 -0.1142191900677087 0 -0.204590909002275 -0.12061084131571841 0 -0.21333118572893789 -0.1235463782347794 0 -0.20391696518211661 -0.13044700258760619 0 -0.204590909002275 -0.12061084131571841 0 -0.21333118572893789 -0.1235463782347794 0 -0.22118884236712541 -0.1169206217704848 0 -0.21097523465834031 -0.1142191900677087 0 -0.21333118572893789 -0.1235463782347794 0 -0.21925306640283071 -0.1070475964493345 0 -0.22118884236712541 -0.1169206217704848 0 -0.21097523465834031 -0.1142191900677087 0 -0.21925306640283071 -0.1070475964493345 0 -0.2166870905728624 -0.098045274197586046 0 -0.20935102430842609 -0.10442773673142659 0 -0.21925306640283071 -0.1070475964493345 0 -0.21097523465834031 -0.1142191900677087 0 -0.20935102430842609 -0.10442773673142659 0 -0.2166870905728624 -0.098045274197586046 0 -0.20825255854391711 -0.094538876164920072 0 -0.20935102430842609 -0.10442773673142659 0 -0.21977874434366229 -0.08909749290709347 0 -0.2166870905728624 -0.098045274197586046 0 -0.20825255854391711 -0.094538876164920072 0 -0.20825255854391711 -0.094538876164920072 0 -0.20935102430842609 -0.10442773673142659 0 -0.20009977109164251 -0.1015456346075115 0 -0.20935102430842609 -0.10442773673142659 0 -0.20009977109164251 -0.1015456346075115 0 -0.19934656578649609 -0.1122800137521484 0 -0.20009977109164251 -0.1015456346075115 0 -0.18874068045991921 -0.10076976842742801 0 -0.19934656578649609 -0.1122800137521484 0 -0.1978959035131827 -0.091821362572602289 0 -0.20009977109164251 -0.1015456346075115 0 -0.18874068045991921 -0.10076976842742801 0 -0.1978959035131827 -0.091821362572602289 0 -0.20825255854391711 -0.094538876164920072 0 -0.20009977109164251 -0.1015456346075115 0 -0.18874068045991921 -0.10076976842742801 0 -0.19934656578649609 -0.1122800137521484 0 -0.1858257880709947 -0.11715068750397289 0 -0.204590909002275 -0.12061084131571841 0 -0.19934656578649609 -0.1122800137521484 0 -0.19627823335375791 -0.1226835761769634 0 -0.20391696518211661 -0.13044700258760619 0 -0.204590909002275 -0.12061084131571841 0 -0.19627823335375791 -0.1226835761769634 0 -0.19934656578649609 -0.1122800137521484 0 -0.19627823335375791 -0.1226835761769634 0 -0.1858257880709947 -0.11715068750397289 0 -0.1889412217266091 -0.13120540566079911 0 -0.19627823335375791 -0.1226835761769634 0 -0.1858257880709947 -0.11715068750397289 0 -0.1774759808757832 -0.12514075164181029 0 -0.1889412217266091 -0.13120540566079911 0 -0.1858257880709947 -0.11715068750397289 0 -0.1858257880709947 -0.11715068750397289 0 -0.17296774656503469 -0.1151436493255406 0 -0.17566766888307289 -0.10347161409397269 0 -0.1774759808757832 -0.12514075164181029 0 -0.1858257880709947 -0.11715068750397289 0 -0.17296774656503469 -0.1151436493255406 0 -0.1774759808757832 -0.12514075164181029 0 -0.16479092854468161 -0.12513851283939079 0 -0.17296774656503469 -0.1151436493255406 0 -0.17296774656503469 -0.1151436493255406 0 -0.16275883012803399 -0.11114913687698399 0 -0.17566766888307289 -0.10347161409397269 0 -0.16479092854468161 -0.12513851283939079 0 -0.17296774656503469 -0.1151436493255406 0 -0.16275883012803399 -0.11114913687698399 0 -0.16479092854468161 -0.12513851283939079 0 -0.16275883012803399 -0.11114913687698399 0 -0.15261349834235621 -0.1181140474543052 0 -0.16275883012803399 -0.11114913687698399 0 -0.16310187233754911 -0.096027681446269095 0 -0.1517354615842309 -0.10399820050064169 0 -0.16275883012803399 -0.11114913687698399 0 -0.16310187233754911 -0.096027681446269095 0 -0.17566766888307289 -0.10347161409397269 0 -0.16310187233754911 -0.096027681446269095 0 -0.17566766888307289 -0.10347161409397269 0 -0.17710274205501311 -0.092199483598396248 0 -0.18874068045991921 -0.10076976842742801 0 -0.1858257880709947 -0.11715068750397289 0 -0.17566766888307289 -0.10347161409397269 0 -0.18874068045991921 -0.10076976842742801 0 -0.17566766888307289 -0.10347161409397269 0 -0.17710274205501311 -0.092199483598396248 0 -0.18874068045991921 -0.10076976842742801 0 -0.18714201719631049 -0.087634559680344878 0 -0.17710274205501311 -0.092199483598396248 0 -0.18714201719631049 -0.087634559680344878 0 -0.17919852357483221 -0.083311643968011551 0 -0.17710274205501311 -0.092199483598396248 0 -0.18714201719631049 -0.087634559680344878 0 -0.18674276976344009 -0.079048281394804229 0 -0.17919852357483221 -0.083311643968011551 0 -0.18674276976344009 -0.079048281394804229 0 -0.17919852357483221 -0.083311643968011551 0 -0.176579279080331 -0.072256847181847383 0 -0.176579279080331 -0.072256847181847383 0 -0.16842580977906599 -0.085419047984665014 0 -0.17919852357483221 -0.083311643968011551 0 -0.176579279080331 -0.072256847181847383 0 -0.16842580977906599 -0.085419047984665014 0 -0.17919852357483221 -0.083311643968011551 0 -0.17710274205501311 -0.092199483598396248 0 -0.16842580977906599 -0.085419047984665014 0 -0.1957129746777761 -0.071063978337370826 0 -0.18674276976344009 -0.079048281394804229 0 -0.176579279080331 -0.072256847181847383 0 -0.176579279080331 -0.072256847181847383 0 -0.15717554328636929 -0.074747167724387234 0 -0.161228587084565 -0.062887995290120124 0 -0.176579279080331 -0.072256847181847383 0 -0.15717554328636929 -0.074747167724387234 0 -0.16842580977906599 -0.085419047984665014 0 -0.176579279080331 -0.072256847181847383 0 -0.15717554328636929 -0.074747167724387234 0 -0.16310187233754911 -0.096027681446269095 0 -0.17710274205501311 -0.092199483598396248 0 -0.16842580977906599 -0.085419047984665014 0 -0.15717554328636929 -0.074747167724387234 0 -0.16842580977906599 -0.085419047984665014 0 -0.1571826414846865 -0.085047268486171557 0 -0.16310187233754911 -0.096027681446269095 0 -0.16842580977906599 -0.085419047984665014 0 -0.1571826414846865 -0.085047268486171557 0 -0.14857884123583509 -0.090855108791807207 0 -0.1468205483741967 -0.078179345382349746 0 -0.13194638021453911 -0.08922159947893489 0 -0.16310187233754911 -0.096027681446269095 0 -0.1571826414846865 -0.085047268486171557 0 -0.14857884123583509 -0.090855108791807207 0 -0.15717554328636929 -0.074747167724387234 0 -0.1571826414846865 -0.085047268486171557 0 -0.1468205483741967 -0.078179345382349746 0 -0.1571826414846865 -0.085047268486171557 0 -0.14857884123583509 -0.090855108791807207 0 -0.1468205483741967 -0.078179345382349746 0 -0.161228587084565 -0.062887995290120124 0 -0.13341763062339579 -0.073633832850170278 0 -0.161228587084565 -0.062887995290120124 0 -0.13341763062339579 -0.073633832850170278 0 -0.14563137517464639 -0.058832338449906478 0 -0.161228587084565 -0.062887995290120124 0 -0.1468205483741967 -0.078179345382349746 0 -0.13341763062339579 -0.073633832850170278 0 -0.15717554328636929 -0.074747167724387234 0 -0.161228587084565 -0.062887995290120124 0 -0.1468205483741967 -0.078179345382349746 0 -0.13341763062339579 -0.073633832850170278 0 -0.13545750067410081 -0.052021591920880197 0 -0.11281105113450419 -0.06211304987164766 0 -0.13341763062339579 -0.073633832850170278 0 -0.13545750067410081 -0.052021591920880197 0 -0.14857884123583509 -0.090855108791807207 0 -0.13194638021453911 -0.08922159947893489 0 -0.14059781583638589 -0.099488160078095966 0 -0.11155880223120621 -0.082079835758539679 0 -0.13341763062339579 -0.073633832850170278 0 -0.13194638021453911 -0.08922159947893489 0 -0.1468205483741967 -0.078179345382349746 0 -0.13341763062339579 -0.073633832850170278 0 -0.13194638021453911 -0.08922159947893489 0 -0.13341763062339579 -0.073633832850170278 0 -0.13194638021453911 -0.08922159947893489 0 -0.13194638021453911 -0.08922159947893489 0 -0.13047512980568579 -0.10480936610769979 0 -0.1192851802161416 -0.096470376226369559 0 -0.13194638021453911 -0.08922159947893489 0 -0.13047512980568579 -0.10480936610769979 0 -0.13194638021453911 -0.08922159947893489 0 -0.14059781583638589 -0.099488160078095966 0 -0.13047512980568579 -0.10480936610769979 0 -0.14059781583638589 -0.099488160078095966 0 -0.13047512980568579 -0.10480936610769979 0 -0.1403613429616534 -0.1115914759410962 0 -0.13047512980568579 -0.10480936610769979 0 -0.12575745834348909 -0.118558131368756 0 -0.1403613429616534 -0.1115914759410962 0 -0.14104273216777999 -0.12609842535192839 0 -0.12575745834348909 -0.118558131368756 0 -0.1403613429616534 -0.1115914759410962 0 -0.1403613429616534 -0.1115914759410962 0 -0.15261349834235621 -0.1181140474543052 0 -0.1517354615842309 -0.10399820050064169 0 -0.14104273216777999 -0.12609842535192839 0 -0.1403613429616534 -0.1115914759410962 0 -0.15261349834235621 -0.1181140474543052 0 -0.16275883012803399 -0.11114913687698399 0 -0.15261349834235621 -0.1181140474543052 0 -0.1517354615842309 -0.10399820050064169 0 -0.16310187233754911 -0.096027681446269095 0 -0.14857884123583509 -0.090855108791807207 0 -0.1517354615842309 -0.10399820050064169 0 -0.14857884123583509 -0.090855108791807207 0 -0.14059781583638589 -0.099488160078095966 0 -0.1517354615842309 -0.10399820050064169 0 -0.14059781583638589 -0.099488160078095966 0 -0.1403613429616534 -0.1115914759410962 0 -0.1517354615842309 -0.10399820050064169 0 -0.1500369048858278 -0.020331351256751139 0 -0.1395372407755178 -0.0087971100623008003 0 -0.1374973707248093 -0.030409350991590509 0 -0.1500369048858278 -0.020331351256751139 0 -0.1374973707248093 -0.030409350991590509 0 -0.16309090654955169 -0.030532414879356349 0 -0.13234563100855259 -0.0039657619997244039 0 -0.16002210149343241 -0.011586529093756881 0 -0.13234563100855259 -0.0039657619997244039 0 -0.16002210149343241 -0.011586529093756881 0 -0.1497751813872662 0.0074147435616967981 0 -0.1395372407755178 -0.0087971100623008003 0 -0.13234563100855259 -0.0039657619997244039 0 -0.16002210149343241 -0.011586529093756881 0 -0.1500369048858278 -0.020331351256751139 0 -0.1395372407755178 -0.0087971100623008003 0 -0.16002210149343241 -0.011586529093756881 0 -0.1395372407755178 -0.0087971100623008003 0 -0.13234563100855259 -0.0039657619997244039 0 -0.13212844903641191 -0.0135582869875003 0 -0.13234563100855259 -0.0039657619997244039 0 -0.13204674266974001 0.0023344024861769448 0 -0.11384095251281599 0.001129535286935791 0 -0.13234563100855259 -0.0039657619997244039 0 -0.13212844903641191 -0.0135582869875003 0 -0.12520886773000181 -0.019079771576411109 0 -0.13212844903641191 -0.0135582869875003 0 -0.12520886773000181 -0.019079771576411109 0 -0.1374973707248093 -0.030409350991590509 0 -0.1395372407755178 -0.0087971100623008003 0 -0.13212844903641191 -0.0135582869875003 0 -0.1374973707248093 -0.030409350991590509 0 -0.1395372407755178 -0.0087971100623008003 0 -0.1374973707248093 -0.030409350991590509 0 -0.1204163033987028 -0.038726747159081802 0 -0.12520886773000181 -0.019079771576411109 0 -0.1374973707248093 -0.030409350991590509 0 -0.1374973707248093 -0.030409350991590509 0 -0.13545750067410081 -0.052021591920880197 0 -0.1204163033987028 -0.038726747159081802 0 -0.1374973707248093 -0.030409350991590509 0 -0.13545750067410081 -0.052021591920880197 0 -0.13341763062339579 -0.073633832850170278 0 -0.13545750067410081 -0.052021591920880197 0 -0.14563137517464639 -0.058832338449906478 0 -0.161228587084565 -0.062887995290120124 0 -0.14563137517464639 -0.058832338449906478 0 -0.15242178231652409 -0.046785933738455299 0 -0.13545750067410081 -0.052021591920880197 0 -0.14563137517464639 -0.058832338449906478 0 -0.15242178231652409 -0.046785933738455299 0 -0.1374973707248093 -0.030409350991590509 0 -0.13545750067410081 -0.052021591920880197 0 -0.15242178231652409 -0.046785933738455299 0 -0.1374973707248093 -0.030409350991590509 0 -0.15242178231652409 -0.046785933738455299 0 -0.16309090654955169 -0.030532414879356349 0 -0.15242178231652409 -0.046785933738455299 0 -0.16986583821487439 -0.045150352089803197 0 -0.16309090654955169 -0.030532414879356349 0 -0.161228587084565 -0.062887995290120124 0 -0.15242178231652409 -0.046785933738455299 0 -0.16986583821487439 -0.045150352089803197 0 -0.161228587084565 -0.062887995290120124 0 -0.1890395435457308 -0.052142157730061291 0 -0.19348315190670801 -0.062565311742150312 0 -0.176579279080331 -0.072256847181847383 0 -0.1890395435457308 -0.052142157730061291 0 -0.176579279080331 -0.072256847181847383 0 -0.1890395435457308 -0.052142157730061291 0 -0.176579279080331 -0.072256847181847383 0 -0.161228587084565 -0.062887995290120124 0 -0.1890395435457308 -0.052142157730061291 0 -0.161228587084565 -0.062887995290120124 0 -0.16986583821487439 -0.045150352089803197 0 -0.1890395435457308 -0.052142157730061291 0 -0.16986583821487439 -0.045150352089803197 0 -0.18306359234107791 -0.033557373604392073 0 -0.1890395435457308 -0.052142157730061291 0 -0.16986583821487439 -0.045150352089803197 0 -0.18306359234107791 -0.033557373604392073 0 -0.16309090654955169 -0.030532414879356349 0 -0.18306359234107791 -0.033557373604392073 0 -0.17734366765231629 -0.01635605422062782 0 -0.19538841992843631 -0.01545000486389159 0 -0.18306359234107791 -0.033557373604392073 0 -0.17734366765231629 -0.01635605422062782 0 -0.16309090654955169 -0.030532414879356349 0 -0.17734366765231629 -0.01635605422062782 0 -0.16309090654955169 -0.030532414879356349 0 -0.16002210149343241 -0.011586529093756881 0 -0.1500369048858278 -0.020331351256751139 0 -0.16309090654955169 -0.030532414879356349 0 -0.16002210149343241 -0.011586529093756881 0 -0.16309090654955169 -0.030532414879356349 0 -0.16002210149343241 -0.011586529093756881 0 -0.17734366765231629 -0.01635605422062782 0 -0.16002210149343241 -0.011586529093756881 0 -0.17391542676335689 0.001812315109509761 0 -0.17734366765231629 -0.01635605422062782 0 -0.16002210149343241 -0.011586529093756881 0 -0.16002210149343241 -0.011586529093756881 0 -0.15642954840536669 0.01059282060117113 0 -0.16002210149343241 -0.011586529093756881 0 -0.1646578652215766 0.003337892693202899 0 -0.17391542676335689 0.001812315109509761 0 -0.17734366765231629 -0.01635605422062782 0 -0.1861272887773644 -0.0062487556756454041 0 -0.19538841992843631 -0.01545000486389159 0 -0.17734366765231629 -0.01635605422062782 0 -0.1861272887773644 -0.0062487556756454041 0 -0.17391542676335689 0.001812315109509761 0 -0.1861272887773644 -0.0062487556756454041 0 -0.19538841992843631 -0.01545000486389159 0 -0.19786164076534829 0.0049987212724280326 0 -0.19538841992843631 -0.01545000486389159 0 -0.21328857854407349 -0.01299677603673356 0 -0.19786164076534829 0.0049987212724280326 0 -0.18306359234107791 -0.033557373604392073 0 -0.19538841992843631 -0.01545000486389159 0 -0.2011640610448982 -0.032569466883395008 0 -0.21328857854407349 -0.01299677603673356 0 -0.2011640610448982 -0.032569466883395008 0 -0.19538841992843631 -0.01545000486389159 0 -0.21328857854407349 -0.01299677603673356 0 -0.2011640610448982 -0.032569466883395008 0 -0.2144257544921411 -0.03061259922294798 0 -0.21328857854407349 -0.01299677603673356 0 -0.2234866806652244 -0.02489284523154724 0 -0.2144257544921411 -0.03061259922294798 0 -0.21328857854407349 -0.01299677603673356 0 -0.2011640610448982 -0.032569466883395008 0 -0.21328857854407349 -0.01299677603673356 0 -0.21774412000384391 -0.0092794317788205093 0 -0.2234866806652244 -0.02489284523154724 0 -0.21328857854407349 -0.01299677603673356 0 -0.2234866806652244 -0.02489284523154724 0 -0.21328857854407349 -0.01299677603673356 0 -0.19786164076534829 0.0049987212724280326 0 -0.21328857854407349 -0.01299677603673356 0 -0.21774412000384391 -0.0092794317788205093 0 -0.21871044913480961 -0.0042442135623651043 0 -0.21328857854407349 -0.01299677603673356 0 -0.21871044913480961 -0.0042442135623651043 0 -0.21328857854407349 -0.01299677603673356 0 -0.21871044913480961 -0.0042442135623651043 0 -0.19786164076534829 0.0049987212724280326 0 -0.21774412000384391 -0.0092794317788205093 0 -0.21968397392266259 -0.0084529615338980665 0 -0.21774412000384391 -0.0092794317788205093 0 -0.21871044913480961 -0.0042442135623651043 0 -0.21968397392266259 -0.0084529615338980665 0 -0.20264485336403479 -0.057338828482974918 0 -0.1890395435457308 -0.052142157730061291 0 -0.20774299858408141 -0.044915355231044597 0 -0.1890395435457308 -0.052142157730061291 0 -0.20774299858408141 -0.044915355231044597 0 -0.19348315190670801 -0.062565311742150312 0 -0.20264485336403479 -0.057338828482974918 0 -0.1890395435457308 -0.052142157730061291 0 -0.1890395435457308 -0.052142157730061291 0 -0.2011640610448982 -0.032569466883395008 0 -0.20774299858408141 -0.044915355231044597 0 -0.1890395435457308 -0.052142157730061291 0 -0.2011640610448982 -0.032569466883395008 0 -0.18306359234107791 -0.033557373604392073 0 -0.1890395435457308 -0.052142157730061291 0 -0.2011640610448982 -0.032569466883395008 0 -0.2144257544921411 -0.03061259922294798 0 -0.20774299858408141 -0.044915355231044597 0 -0.22644645362242849 -0.037688552732019071 0 -0.20774299858408141 -0.044915355231044597 0 -0.2165657103293433 -0.057585604375704008 0 -0.22644645362242849 -0.037688552732019071 0 -0.20774299858408141 -0.044915355231044597 0 -0.22644645362242849 -0.037688552732019071 0 -0.2144257544921411 -0.03061259922294798 0 -0.2011640610448982 -0.032569466883395008 0 -0.20774299858408141 -0.044915355231044597 0 -0.20264485336403479 -0.057338828482974918 0 -0.20774299858408141 -0.044915355231044597 0 -0.2165657103293433 -0.057585604375704008 0 -0.20566893163673269 -0.068523413573710557 0 -0.20264485336403479 -0.057338828482974918 0 -0.2165657103293433 -0.057585604375704008 0 -0.2165657103293433 -0.057585604375704008 0 -0.23172547389701689 -0.060510843596685113 0 -0.22644645362242849 -0.037688552732019071 0 -0.23172547389701689 -0.060510843596685113 0 -0.22644645362242849 -0.037688552732019071 0 -0.2347585841931345 -0.064789979965574326 0 -0.2165657103293433 -0.057585604375704008 0 -0.23172547389701689 -0.060510843596685113 0 -0.23172547389701689 -0.060510843596685113 0 -0.22644645362242849 -0.037688552732019071 0 -0.2386917082099011 -0.045477414246343453 0 -0.22644645362242849 -0.037688552732019071 0 -0.2260280607756672 -0.027857360911521401 0 -0.24866627629982749 -0.029103065733834959 0 -0.22644645362242849 -0.037688552732019071 0 -0.2234866806652244 -0.02489284523154724 0 -0.2386917082099011 -0.045477414246343453 0 -0.24866627629982749 -0.029103065733834959 0 -0.25037152152354353 -0.046761918456208737 0 -0.22644645362242849 -0.037688552732019071 0 -0.24866627629982749 -0.029103065733834959 0 -0.22644645362242849 -0.037688552732019071 0 -0.2386917082099011 -0.045477414246343453 0 -0.24866627629982749 -0.029103065733834959 0 -0.2347585841931345 -0.064789979965574326 0 -0.24357389334630891 -0.055623474531990659 0 -0.26384823674953622 -0.06105654635743811 0 -0.23172547389701689 -0.060510843596685113 0 -0.2386917082099011 -0.045477414246343453 0 -0.24357389334630891 -0.055623474531990659 0 -0.2386917082099011 -0.045477414246343453 0 -0.24357389334630891 -0.055623474531990659 0 -0.25037152152354353 -0.046761918456208737 0 -0.2347585841931345 -0.064789979965574326 0 -0.23172547389701689 -0.060510843596685113 0 -0.24357389334630891 -0.055623474531990659 0 -0.21774412000384391 -0.0092794317788205093 0 -0.21968397392266259 -0.0084529615338980665 0 -0.2234866806652244 -0.02489284523154724 0 -0.2294338318420692 -0.01460146094671848 0 -0.21968397392266259 -0.0084529615338980665 0 -0.2395998062585549 3.2132456287619487e-05 0 -0.21968397392266259 -0.0084529615338980665 0 -0.2218097566737828 0.00075901962222443137 0 -0.2395998062585549 3.2132456287619487e-05 0 -0.21968397392266259 -0.0084529615338980665 0 -0.2395998062585549 3.2132456287619487e-05 0 -0.21871044913480961 -0.0042442135623651043 0 -0.21968397392266259 -0.0084529615338980665 0 -0.2218097566737828 0.00075901962222443137 0 -0.21871044913480961 -0.0042442135623651043 0 -0.2218097566737828 0.00075901962222443137 0 -0.21871044913480961 -0.0042442135623651043 0 -0.21968397392266259 -0.0084529615338980665 0 -0.21968397392266259 -0.0084529615338980665 0 -0.2234866806652244 -0.02489284523154724 0 -0.2294338318420692 -0.01460146094671848 0 -0.21968397392266259 -0.0084529615338980665 0 -0.2234866806652244 -0.02489284523154724 0 -0.2144257544921411 -0.03061259922294798 0 -0.22644645362242849 -0.037688552732019071 0 -0.2234866806652244 -0.02489284523154724 0 -0.22644645362242849 -0.037688552732019071 0 -0.2234866806652244 -0.02489284523154724 0 -0.2260280607756672 -0.027857360911521401 0 -0.2234866806652244 -0.02489284523154724 0 -0.2260280607756672 -0.027857360911521401 0 -0.2234866806652244 -0.02489284523154724 0 -0.2260280607756672 -0.027857360911521401 0 -0.23341706906160889 -0.0225139055571415 0 -0.2294338318420692 -0.01460146094671848 0 -0.23341706906160889 -0.0225139055571415 0 -0.23947049572525689 -0.016114794962085299 0 -0.2294338318420692 -0.01460146094671848 0 -0.2234866806652244 -0.02489284523154724 0 -0.23341706906160889 -0.0225139055571415 0 -0.23341706906160889 -0.0225139055571415 0 -0.23947049572525689 -0.016114794962085299 0 -0.24866627629982749 -0.029103065733834959 0 -0.2260280607756672 -0.027857360911521401 0 -0.23341706906160889 -0.0225139055571415 0 -0.24866627629982749 -0.029103065733834959 0 -0.23947049572525689 -0.016114794962085299 0 -0.24866627629982749 -0.029103065733834959 0 -0.25219876245754069 -0.014162947199655929 0 -0.2294338318420692 -0.01460146094671848 0 -0.23947049572525689 -0.016114794962085299 0 -0.2395998062585549 3.2132456287619487e-05 0 -0.23947049572525689 -0.016114794962085299 0 -0.25219876245754069 -0.014162947199655929 0 -0.2395998062585549 3.2132456287619487e-05 0 -0.25412876902409431 -0.0029034411103695409 0 -0.25219876245754069 -0.014162947199655929 0 -0.2395998062585549 3.2132456287619487e-05 0 -0.25219876245754069 -0.014162947199655929 0 -0.26520086878583649 -0.0060001761445883928 0 -0.27088609897722821 -0.020517578735655271 0 -0.25412876902409431 -0.0029034411103695409 0 -0.25219876245754069 -0.014162947199655929 0 -0.26520086878583649 -0.0060001761445883928 0 -0.25412876902409431 -0.0029034411103695409 0 -0.26520086878583649 -0.0060001761445883928 0 -0.25951563859444499 0.0085172264464785548 0 -0.24866627629982749 -0.029103065733834959 0 -0.25219876245754069 -0.014162947199655929 0 -0.27088609897722821 -0.020517578735655271 0 -0.24866627629982749 -0.029103065733834959 0 -0.27088609897722821 -0.020517578735655271 0 -0.24866627629982749 -0.029103065733834959 0 -0.27088609897722821 -0.020517578735655271 0 -0.26264377125621591 -0.039963298536898069 0 -0.27088609897722821 -0.020517578735655271 0 -0.28965882518237612 -0.013264010644902719 0 -0.27088609897722821 -0.020517578735655271 0 -0.28866895203700732 -0.029214526240426 0 -0.27944672273094417 -0.042377383401353233 0 -0.27088609897722821 -0.020517578735655271 0 -0.27736251579832139 -0.0096094063122444864 0 -0.28965882518237612 -0.013264010644902719 0 -0.26520086878583649 -0.0060001761445883928 0 -0.27088609897722821 -0.020517578735655271 0 -0.26520086878583649 -0.0060001761445883928 0 -0.27088609897722821 -0.020517578735655271 0 -0.27736251579832139 -0.0096094063122444864 0 -0.26520086878583649 -0.0060001761445883928 0 -0.27736251579832139 -0.0096094063122444864 0 -0.28013978120368888 0.001827391234728012 0 -0.28965882518237612 -0.013264010644902719 0 -0.28013978120368888 0.001827391234728012 0 -0.29779626154072752 0.0042823716210633614 0 -0.27736251579832139 -0.0096094063122444864 0 -0.28965882518237612 -0.013264010644902719 0 -0.28013978120368888 0.001827391234728012 0 -0.27088609897722821 -0.020517578735655271 0 -0.28965882518237612 -0.013264010644902719 0 -0.28866895203700732 -0.029214526240426 0 -0.28965882518237612 -0.013264010644902719 0 -0.28866895203700732 -0.029214526240426 0 -0.30629819486797261 -0.02546662992436436 0 -0.28965882518237612 -0.013264010644902719 0 -0.3084315513875262 -0.0060104425541563401 0 -0.30629819486797261 -0.02546662992436436 0 -0.3084315513875262 -0.0060104425541563401 0 -0.32031178730631737 -0.01324262704667321 0 -0.28965882518237612 -0.013264010644902719 0 -0.3084315513875262 -0.0060104425541563401 0 -0.29779626154072752 0.0042823716210633614 0 -0.28965882518237612 -0.013264010644902719 0 -0.30629819486797261 -0.02546662992436436 0 -0.3084315513875262 -0.0060104425541563401 0 -0.30846455523296701 -0.060827690483718402 0 -0.29705491842651538 -0.044447028495854378 0 -0.28800734648466042 -0.064237188067051268 0 -0.30846455523296701 -0.060827690483718402 0 -0.29705491842651538 -0.044447028495854378 0 -0.31636332636671011 -0.045841675905552118 0 -0.28866895203700732 -0.029214526240426 0 -0.30629819486797261 -0.02546662992436436 0 -0.29705491842651538 -0.044447028495854378 0 -0.30629819486797261 -0.02546662992436436 0 -0.29705491842651538 -0.044447028495854378 0 -0.31636332636671011 -0.045841675905552118 0 -0.28866895203700732 -0.029214526240426 0 -0.29705491842651538 -0.044447028495854378 0 -0.27944672273094417 -0.042377383401353233 0 -0.27944672273094417 -0.042377383401353233 0 -0.28800734648466042 -0.064237188067051268 0 -0.29705491842651538 -0.044447028495854378 0 -0.27944672273094417 -0.042377383401353233 0 -0.28800734648466042 -0.064237188067051268 0 -0.27944672273094417 -0.042377383401353233 0 -0.26384823674953622 -0.06105654635743811 0 -0.28800734648466042 -0.064237188067051268 0 -0.27944672273094417 -0.042377383401353233 0 -0.26264377125621591 -0.039963298536898069 0 -0.26384823674953622 -0.06105654635743811 0 -0.27088609897722821 -0.020517578735655271 0 -0.27944672273094417 -0.042377383401353233 0 -0.27088609897722821 -0.020517578735655271 0 -0.27944672273094417 -0.042377383401353233 0 -0.26264377125621591 -0.039963298536898069 0 -0.24866627629982749 -0.029103065733834959 0 -0.26264377125621591 -0.039963298536898069 0 -0.25037152152354353 -0.046761918456208737 0 -0.26264377125621591 -0.039963298536898069 0 -0.25037152152354353 -0.046761918456208737 0 -0.26384823674953622 -0.06105654635743811 0 -0.24357389334630891 -0.055623474531990659 0 -0.25037152152354353 -0.046761918456208737 0 -0.26384823674953622 -0.06105654635743811 0 -0.26384823674953622 -0.06105654635743811 0 -0.25295090033425732 -0.081482097125280067 0 -0.27159408668273788 -0.07336674701725103 0 -0.2347585841931345 -0.064789979965574326 0 -0.26384823674953622 -0.06105654635743811 0 -0.25295090033425732 -0.081482097125280067 0 -0.25295090033425732 -0.081482097125280067 0 -0.26901642932085879 -0.087025763282053484 0 -0.25819269595518829 -0.097816648605460771 0 -0.24747250104950519 -0.092854501526460187 0 -0.25295090033425732 -0.081482097125280067 0 -0.25819269595518829 -0.097816648605460771 0 -0.25295090033425732 -0.081482097125280067 0 -0.26901642932085879 -0.087025763282053484 0 -0.28156986316249788 -0.086691156519234702 0 -0.25295090033425732 -0.081482097125280067 0 -0.27159408668273788 -0.07336674701725103 0 -0.28156986316249788 -0.086691156519234702 0 -0.25295090033425732 -0.081482097125280067 0 -0.28156986316249788 -0.086691156519234702 0 -0.26384823674953622 -0.06105654635743811 0 -0.27159408668273788 -0.07336674701725103 0 -0.28800734648466042 -0.064237188067051268 0 -0.27159408668273788 -0.07336674701725103 0 -0.28800734648466042 -0.064237188067051268 0 -0.28156986316249788 -0.086691156519234702 0 -0.26431004993305302 -0.1238560188504203 0 -0.25118326724822809 -0.12205150868743141 0 -0.25554336938408723 -0.1122676618860588 0 -0.26431004993305302 -0.1238560188504203 0 -0.25554336938408723 -0.1122676618860588 0 -0.26785092170188862 -0.11024342086993991 0 -0.25554336938408723 -0.1122676618860588 0 -0.25819269595518829 -0.097816648605460771 0 -0.26785092170188862 -0.11024342086993991 0 -0.2431237657023104 -0.10251237741398581 0 -0.25554336938408723 -0.1122676618860588 0 -0.25819269595518829 -0.097816648605460771 0 -0.26901642932085879 -0.087025763282053484 0 -0.25819269595518829 -0.097816648605460771 0 -0.27168886919307922 -0.099629805625809642 0 -0.26901642932085879 -0.087025763282053484 0 -0.27168886919307922 -0.099629805625809642 0 -0.28247819805172247 -0.098451154190253062 0 -0.27168886919307922 -0.099629805625809642 0 -0.28056508306300709 -0.10837303068280781 0 -0.28247819805172247 -0.098451154190253062 0 -0.25819269595518829 -0.097816648605460771 0 -0.27168886919307922 -0.099629805625809642 0 -0.26785092170188862 -0.11024342086993991 0 -0.27168886919307922 -0.099629805625809642 0 -0.28056508306300709 -0.10837303068280781 0 -0.26785092170188862 -0.11024342086993991 0 -0.28056508306300709 -0.10837303068280781 0 -0.26785092170188862 -0.11024342086993991 0 -0.27610988139935522 -0.1193385055535808 0 -0.27610988139935522 -0.1193385055535808 0 -0.28883705529540132 -0.1208935815464123 0 -0.27759513443630268 -0.1329687677873215 0 -0.26431004993305302 -0.1238560188504203 0 -0.26785092170188862 -0.11024342086993991 0 -0.27610988139935522 -0.1193385055535808 0 -0.28056508306300709 -0.10837303068280781 0 -0.27610988139935522 -0.1193385055535808 0 -0.28883705529540132 -0.1208935815464123 0 -0.28056508306300709 -0.10837303068280781 0 -0.28883705529540132 -0.1208935815464123 0 -0.29398341614314122 -0.10551234870905821 0 -0.28883705529540132 -0.1208935815464123 0 -0.29398341614314122 -0.10551234870905821 0 -0.30371359671840292 -0.1156106415510313 0 -0.28056508306300709 -0.10837303068280781 0 -0.29398341614314122 -0.10551234870905821 0 -0.28247819805172247 -0.098451154190253062 0 -0.29398341614314122 -0.10551234870905821 0 -0.28247819805172247 -0.098451154190253062 0 -0.2971371925385265 -0.091714822651536215 0 -0.30774174638534219 -0.1047198715214947 0 -0.2971371925385265 -0.091714822651536215 0 -0.32525795575619432 -0.096403882021018322 0 -0.2971371925385265 -0.091714822651536215 0 -0.32525795575619432 -0.096403882021018322 0 -0.29398341614314122 -0.10551234870905821 0 -0.30774174638534219 -0.1047198715214947 0 -0.2971371925385265 -0.091714822651536215 0 -0.29398341614314122 -0.10551234870905821 0 -0.30774174638534219 -0.1047198715214947 0 -0.30371359671840292 -0.1156106415510313 0 -0.30774174638534219 -0.1047198715214947 0 -0.30371359671840292 -0.1156106415510313 0 -0.31861657077044631 -0.1143576626748288 0 -0.30371359671840292 -0.1156106415510313 0 -0.31369066971281012 -0.12303602612692829 0 -0.31861657077044631 -0.1143576626748288 0 -0.28800734648466042 -0.064237188067051268 0 -0.28156986316249788 -0.086691156519234702 0 -0.29193214368204562 -0.079231866445657412 0 -0.28800734648466042 -0.064237188067051268 0 -0.29193214368204562 -0.079231866445657412 0 -0.30101417254249763 -0.074284298544807517 0 -0.26901642932085879 -0.087025763282053484 0 -0.28247819805172247 -0.098451154190253062 0 -0.2971371925385265 -0.091714822651536215 0 -0.26901642932085879 -0.087025763282053484 0 -0.28156986316249788 -0.086691156519234702 0 -0.2971371925385265 -0.091714822651536215 0 -0.29193214368204562 -0.079231866445657412 0 -0.2971371925385265 -0.091714822651536215 0 -0.30101417254249763 -0.074284298544807517 0 -0.26901642932085879 -0.087025763282053484 0 -0.2971371925385265 -0.091714822651536215 0 -0.28156986316249788 -0.086691156519234702 0 -0.29193214368204562 -0.079231866445657412 0 -0.2971371925385265 -0.091714822651536215 0 -0.2971371925385265 -0.091714822651536215 0 -0.30101417254249763 -0.074284298544807517 0 -0.32010419680591318 -0.074462539229858515 0 -0.30846455523296701 -0.060827690483718402 0 -0.30101417254249763 -0.074284298544807517 0 -0.32010419680591318 -0.074462539229858515 0 -0.30846455523296701 -0.060827690483718402 0 -0.28800734648466042 -0.064237188067051268 0 -0.30101417254249763 -0.074284298544807517 0 -0.30846455523296701 -0.060827690483718402 0 -0.32010419680591318 -0.074462539229858515 0 -0.32824337077150539 -0.06169341265918668 0 -0.32010419680591318 -0.074462539229858515 0 -0.33320564722951201 -0.07567355069394105 0 -0.32824337077150539 -0.06169341265918668 0 -0.2971371925385265 -0.091714822651536215 0 -0.32010419680591318 -0.074462539229858515 0 -0.32525795575619432 -0.096403882021018322 0 -0.32010419680591318 -0.074462539229858515 0 -0.33320564722951201 -0.07567355069394105 0 -0.32525795575619432 -0.096403882021018322 0 -0.32010419680591318 -0.074462539229858515 0 -0.32525795575619432 -0.096403882021018322 0 -0.32525795575619432 -0.096403882021018322 0 -0.35236576910441758 -0.10092403480573479 0 -0.34907040726772942 -0.079344530004637981 0 -0.33320564722951201 -0.07567355069394105 0 -0.32525795575619432 -0.096403882021018322 0 -0.34907040726772942 -0.079344530004637981 0 -0.34335230554621782 -0.066463389555003111 0 -0.33320564722951201 -0.07567355069394105 0 -0.34907040726772942 -0.079344530004637981 0 -0.34335230554621782 -0.066463389555003111 0 -0.33320564722951201 -0.07567355069394105 0 -0.32824337077150539 -0.06169341265918668 0 -0.31861657077044631 -0.1143576626748288 0 -0.32525795575619432 -0.096403882021018322 0 -0.33208446876077258 -0.125466720106122 0 -0.31861657077044631 -0.1143576626748288 0 -0.32477958217333602 -0.12866757494394951 0 -0.33208446876077258 -0.125466720106122 0 -0.31369066971281012 -0.12303602612692829 0 -0.31861657077044631 -0.1143576626748288 0 -0.32477958217333602 -0.12866757494394951 0 -0.30774174638534219 -0.1047198715214947 0 -0.31861657077044631 -0.1143576626748288 0 -0.32525795575619432 -0.096403882021018322 0 -0.32525795575619432 -0.096403882021018322 0 -0.35236576910441758 -0.10092403480573479 0 -0.33208446876077258 -0.125466720106122 0 -0.32525795575619432 -0.096403882021018322 0 -0.35236576910441758 -0.10092403480573479 0 -0.32525795575619432 -0.096403882021018322 0 -0.33208446876077258 -0.125466720106122 0 -0.35236576910441758 -0.10092403480573479 0 -0.35206853499347468 -0.1268249885118754 0 -0.37238458741650737 -0.12508344370428551 0 -0.35236576910441758 -0.10092403480573479 0 -0.33208446876077258 -0.125466720106122 0 -0.35206853499347468 -0.1268249885118754 0 -0.35236576910441758 -0.10092403480573479 0 -0.36808111633498442 -0.092797506306118119 0 -0.37947358245264118 -0.1054441875904507 0 -0.35236576910441758 -0.10092403480573479 0 -0.37947358245264118 -0.1054441875904507 0 -0.36808111633498442 -0.092797506306118119 0 -0.37546006537226578 -0.093188574994236162 0 -0.37947358245264118 -0.1054441875904507 0 -0.35236576910441758 -0.10092403480573479 0 -0.37238458741650737 -0.12508344370428551 0 -0.37947358245264118 -0.1054441875904507 0 -0.35840571676151739 -0.070798670416172424 0 -0.34907040726772942 -0.079344530004637981 0 -0.36154683165336782 -0.078199466463904119 0 -0.35840571676151739 -0.070798670416172424 0 -0.35182244344686753 -0.066308047598061665 0 -0.34907040726772942 -0.079344530004637981 0 -0.35840571676151739 -0.070798670416172424 0 -0.35182244344686753 -0.066308047598061665 0 -0.35553502946189602 -0.058159897611499957 0 -0.34335230554621782 -0.066463389555003111 0 -0.35182244344686753 -0.066308047598061665 0 -0.34885837310589191 -0.060303194700265399 0 -0.34335230554621782 -0.066463389555003111 0 -0.35182244344686753 -0.066308047598061665 0 -0.34907040726772942 -0.079344530004637981 0 -0.35236576910441758 -0.10092403480573479 0 -0.34907040726772942 -0.079344530004637981 0 -0.35992394947211109 -0.086326236366481415 0 -0.34907040726772942 -0.079344530004637981 0 -0.36154683165336782 -0.078199466463904119 0 -0.35992394947211109 -0.086326236366481415 0 -0.36154683165336782 -0.078199466463904119 0 -0.36708434578410798 -0.082125726625348991 0 -0.35992394947211109 -0.086326236366481415 0 -0.36154683165336782 -0.078199466463904119 0 -0.36708434578410798 -0.082125726625348991 0 -0.37030718454947609 -0.075922333653553678 0 -0.35236576910441758 -0.10092403480573479 0 -0.35992394947211109 -0.086326236366481415 0 -0.36808111633498442 -0.092797506306118119 0 -0.36708434578410798 -0.082125726625348991 0 -0.35992394947211109 -0.086326236366481415 0 -0.36808111633498442 -0.092797506306118119 0 -0.36708434578410798 -0.082125726625348991 0 -0.36808111633498442 -0.092797506306118119 0 -0.37114003226436182 -0.088740180770153526 0 -0.37114003226436182 -0.088740180770153526 0 -0.37393460156608921 -0.086848915154910805 0 -0.37546006537226578 -0.093188574994236162 0 -0.36808111633498442 -0.092797506306118119 0 -0.37114003226436182 -0.088740180770153526 0 -0.37546006537226578 -0.093188574994236162 0 -0.36708434578410798 -0.082125726625348991 0 -0.37393460156608921 -0.086848915154910805 0 -0.37030718454947609 -0.075922333653553678 0 -0.36708434578410798 -0.082125726625348991 0 -0.37114003226436182 -0.088740180770153526 0 -0.37393460156608921 -0.086848915154910805 0 -0.35840571676151739 -0.070798670416172424 0 -0.37030718454947609 -0.075922333653553678 0 -0.35553502946189602 -0.058159897611499957 0 -0.37030718454947609 -0.075922333653553678 0 -0.37255048490822029 -0.075428045199386021 0 -0.35553502946189602 -0.058159897611499957 0 -0.37255048490822029 -0.075428045199386021 0 -0.35553502946189602 -0.058159897611499957 0 -0.37255048490822029 -0.075428045199386021 0 -0.36906180064444261 -0.065195139053692674 0 -0.35553502946189602 -0.058159897611499957 0 -0.37030718454947609 -0.075922333653553678 0 -0.35553502946189602 -0.058159897611499957 0 -0.37255048490822029 -0.075428045199386021 0 -0.37436277614400831 -0.07246088148001828 0 -0.37306841403986379 -0.069004353838333338 0 -0.37436277614400831 -0.07246088148001828 0 -0.37306841403986379 -0.069004353838333338 0 -0.37626372651338369 -0.069557783495216352 0 -0.37255048490822029 -0.075428045199386021 0 -0.37436277614400831 -0.07246088148001828 0 -0.37642728437476541 -0.073981708035062155 0 -0.35840571676151739 -0.070798670416172424 0 -0.36154683165336782 -0.078199466463904119 0 -0.37030718454947609 -0.075922333653553678 0 -0.37255048490822029 -0.075428045199386021 0 -0.36906180064444261 -0.065195139053692674 0 -0.37306841403986379 -0.069004353838333338 0 -0.37306841403986379 -0.069004353838333338 0 -0.37520111668623779 -0.063784606980190284 0 -0.37626372651338369 -0.069557783495216352 0 -0.36906180064444261 -0.065195139053692674 0 -0.37306841403986379 -0.069004353838333338 0 -0.37520111668623779 -0.063784606980190284 0 -0.36906180064444261 -0.065195139053692674 0 -0.37300425533070292 -0.057314083113719487 0 -0.37520111668623779 -0.063784606980190284 0 -0.36906180064444261 -0.065195139053692674 0 -0.37300425533070292 -0.057314083113719487 0 -0.36520313015991551 -0.056380736504740993 0 -0.37300425533070292 -0.057314083113719487 0 -0.3681235944997302 -0.051077927328716077 0 -0.36520313015991551 -0.056380736504740993 0 -0.3681235944997302 -0.051077927328716077 0 -0.36461474168549313 -0.042455091302086509 0 -0.37664525257667181 -0.048475202003900868 0 -0.37300425533070292 -0.057314083113719487 0 -0.3681235944997302 -0.051077927328716077 0 -0.37664525257667181 -0.048475202003900868 0 -0.3681235944997302 -0.051077927328716077 0 -0.36115059274586792 -0.050764523719132572 0 -0.36461474168549313 -0.042455091302086509 0 -0.3681235944997302 -0.051077927328716077 0 -0.36115059274586792 -0.050764523719132572 0 -0.36520313015991551 -0.056380736504740993 0 -0.36115059274586792 -0.050764523719132572 0 -0.36520313015991551 -0.056380736504740993 0 -0.35553502946189602 -0.058159897611499957 0 -0.36906180064444261 -0.065195139053692674 0 -0.36520313015991551 -0.056380736504740993 0 -0.35553502946189602 -0.058159897611499957 0 -0.35182244344686753 -0.066308047598061665 0 -0.35553502946189602 -0.058159897611499957 0 -0.34885837310589191 -0.060303194700265399 0 -0.35263261788630218 -0.054669959977244539 0 -0.35553502946189602 -0.058159897611499957 0 -0.34885837310589191 -0.060303194700265399 0 -0.35263261788630218 -0.054669959977244539 0 -0.35553502946189602 -0.058159897611499957 0 -0.35263261788630218 -0.054669959977244539 0 -0.35553502946189602 -0.058159897611499957 0 -0.35466210691538058 -0.046093550673093092 0 -0.36115059274586792 -0.050764523719132572 0 -0.35553502946189602 -0.058159897611499957 0 -0.35466210691538058 -0.046093550673093092 0 -0.35263261788630218 -0.054669959977244539 0 -0.34124430940283779 -0.055669474477474022 0 -0.34183076509832522 -0.041681522058430703 0 -0.35263261788630218 -0.054669959977244539 0 -0.35466210691538058 -0.046093550673093092 0 -0.34183076509832522 -0.041681522058430703 0 -0.35263261788630218 -0.054669959977244539 0 -0.34183076509832522 -0.041681522058430703 0 -0.34335230554621782 -0.066463389555003111 0 -0.34885837310589191 -0.060303194700265399 0 -0.34124430940283779 -0.055669474477474022 0 -0.35263261788630218 -0.054669959977244539 0 -0.34885837310589191 -0.060303194700265399 0 -0.34124430940283779 -0.055669474477474022 0 -0.35264374205909921 -0.034996064985740143 0 -0.34313214116202673 -0.028443444453432141 0 -0.34183076509832522 -0.041681522058430703 0 -0.35466210691538058 -0.046093550673093092 0 -0.35264374205909921 -0.034996064985740143 0 -0.34183076509832522 -0.041681522058430703 0 -0.35466210691538058 -0.046093550673093092 0 -0.35264374205909921 -0.034996064985740143 0 -0.36461474168549313 -0.042455091302086509 0 -0.36461474168549313 -0.042455091302086509 0 -0.36212138457183191 -0.026818708034394619 0 -0.37855239685131797 -0.03292539036703826 0 -0.35264374205909921 -0.034996064985740143 0 -0.36461474168549313 -0.042455091302086509 0 -0.36212138457183191 -0.026818708034394619 0 -0.36115059274586792 -0.050764523719132572 0 -0.35466210691538058 -0.046093550673093092 0 -0.36461474168549313 -0.042455091302086509 0 -0.36461474168549313 -0.042455091302086509 0 -0.37855239685131797 -0.03292539036703826 0 -0.37664525257667181 -0.048475202003900868 0 -0.36649095993019898 -0.010129922198049399 0 -0.37855239685131797 -0.03292539036703826 0 -0.36212138457183191 -0.026818708034394619 0 -0.36649095993019898 -0.010129922198049399 0 -0.35576065041658211 -0.0147768722359832 0 -0.36212138457183191 -0.026818708034394619 0 -0.36649095993019898 -0.010129922198049399 0 -0.37855239685131797 -0.03292539036703826 0 -0.36649095993019898 -0.010129922198049399 0 -0.37719377158883272 -0.01462918824783605 0 -0.37855239685131797 -0.03292539036703826 0 -0.37152077532860728 -0.0049830524157421976 0 -0.37719377158883272 -0.01462918824783605 0 -0.37576616927869799 0.0025212232452482409 0 -0.37152077532860728 -0.0049830524157421976 0 -0.36649095993019898 -0.010129922198049399 0 -0.36663220051669981 0.0023056775376684231 0 -0.37152077532860728 -0.0049830524157421976 0 -0.37576616927869799 0.0025212232452482409 0 -0.36663220051669981 0.0023056775376684231 0 -0.37152077532860728 -0.0049830524157421976 0 -0.36649095993019898 -0.010129922198049399 0 -0.37719377158883272 -0.01462918824783605 0 -0.36649095993019898 -0.010129922198049399 0 -0.35559565760404982 -0.002626203216087876 0 -0.36663220051669981 0.0023056775376684231 0 -0.35559565760404982 -0.002626203216087876 0 -0.35576065041658211 -0.0147768722359832 0 -0.34467989708479402 -0.0062913495234007376 0 -0.36649095993019898 -0.010129922198049399 0 -0.35559565760404982 -0.002626203216087876 0 -0.35576065041658211 -0.0147768722359832 0 -0.35576065041658211 -0.0147768722359832 0 -0.34467989708479402 -0.0062913495234007376 0 -0.34133512990299658 -0.015919401721400831 0 -0.35559565760404982 -0.002626203216087876 0 -0.34467989708479402 -0.0062913495234007376 0 -0.34598467737131322 0.0035373190053896442 0 -0.35264374205909921 -0.034996064985740143 0 -0.36212138457183191 -0.026818708034394619 0 -0.35172456801495811 -0.024417086996227431 0 -0.36212138457183191 -0.026818708034394619 0 -0.35576065041658211 -0.0147768722359832 0 -0.35172456801495811 -0.024417086996227431 0 -0.35172456801495811 -0.024417086996227431 0 -0.34313214116202673 -0.028443444453432141 0 -0.34133512990299658 -0.015919401721400831 0 -0.35576065041658211 -0.0147768722359832 0 -0.35172456801495811 -0.024417086996227431 0 -0.34133512990299658 -0.015919401721400831 0 -0.35264374205909921 -0.034996064985740143 0 -0.35172456801495811 -0.024417086996227431 0 -0.34313214116202673 -0.028443444453432141 0 -0.34133512990299658 -0.015919401721400831 0 -0.33272944947984529 -0.0084378917650725915 0 -0.32812650073475441 -0.025203146505361589 0 -0.34313214116202673 -0.028443444453432141 0 -0.34133512990299658 -0.015919401721400831 0 -0.32812650073475441 -0.025203146505361589 0 -0.34467989708479402 -0.0062913495234007376 0 -0.33272944947984529 -0.0084378917650725915 0 -0.3366738177339772 0.00047495279275041642 0 -0.34467989708479402 -0.0062913495234007376 0 -0.3366738177339772 0.00047495279275041642 0 -0.34598467737131322 0.0035373190053896442 0 -0.34467989708479402 -0.0062913495234007376 0 -0.34133512990299658 -0.015919401721400831 0 -0.33272944947984529 -0.0084378917650725915 0 -0.33272944947984529 -0.0084378917650725915 0 -0.3254397606762941 -0.002874705706715192 0 -0.3366738177339772 0.00047495279275041642 0 -0.3084315513875262 -0.0060104425541563401 0 -0.32720427759267651 0.001243125536590062 0 -0.3084315513875262 -0.0060104425541563401 0 -0.3254397606762941 -0.002874705706715192 0 -0.32720427759267651 0.001243125536590062 0 -0.3084315513875262 -0.0060104425541563401 0 -0.3254397606762941 -0.002874705706715192 0 -0.32031178730631737 -0.01324262704667321 0 -0.33272944947984529 -0.0084378917650725915 0 -0.3254397606762941 -0.002874705706715192 0 -0.32031178730631737 -0.01324262704667321 0 -0.33272944947984529 -0.0084378917650725915 0 -0.32031178730631737 -0.01324262704667321 0 -0.32812650073475441 -0.025203146505361589 0 -0.30629819486797261 -0.02546662992436436 0 -0.32031178730631737 -0.01324262704667321 0 -0.32812650073475441 -0.025203146505361589 0 -0.32812650073475441 -0.025203146505361589 0 -0.31636332636671011 -0.045841675905552118 0 -0.32993531110279012 -0.045991885010502977 0 -0.30629819486797261 -0.02546662992436436 0 -0.32812650073475441 -0.025203146505361589 0 -0.31636332636671011 -0.045841675905552118 0 -0.30846455523296701 -0.060827690483718402 0 -0.31636332636671011 -0.045841675905552118 0 -0.32824337077150539 -0.06169341265918668 0 -0.31636332636671011 -0.045841675905552118 0 -0.32824337077150539 -0.06169341265918668 0 -0.32993531110279012 -0.045991885010502977 0 -0.32824337077150539 -0.06169341265918668 0 -0.34124430940283779 -0.055669474477474022 0 -0.32993531110279012 -0.045991885010502977 0 -0.34335230554621782 -0.066463389555003111 0 -0.32824337077150539 -0.06169341265918668 0 -0.34124430940283779 -0.055669474477474022 0 -0.34124430940283779 -0.055669474477474022 0 -0.34183076509832522 -0.041681522058430703 0 -0.32993531110279012 -0.045991885010502977 0 -0.34313214116202673 -0.028443444453432141 0 -0.32812650073475441 -0.025203146505361589 0 -0.34183076509832522 -0.041681522058430703 0 -0.32812650073475441 -0.025203146505361589 0 -0.34183076509832522 -0.041681522058430703 0 -0.32993531110279012 -0.045991885010502977 0 -0.32812650073475441 -0.025203146505361589 0 -0.34183076509832522 -0.041681522058430703 0 -0.30066928905000129 -0.2428974283370558 0 -0.30701143818891868 -0.22826222482624919 0 -0.29419180113005722 -0.232182094035674 0 -0.31224782762896908 -0.25694043905287578 0 -0.30066928905000129 -0.2428974283370558 0 -0.31478008505819399 -0.2423777004445242 0 -0.30066928905000129 -0.2428974283370558 0 -0.30701143818891868 -0.22826222482624919 0 -0.31478008505819399 -0.2423777004445242 0 -0.30701143818891868 -0.22826222482624919 0 -0.28688087816851437 -0.22094559661030519 0 -0.30810010129266302 -0.21360907250434841 0 -0.30701143818891868 -0.22826222482624919 0 -0.30810010129266302 -0.21360907250434841 0 -0.32034024065370659 -0.22207812544340161 0 -0.29419180113005722 -0.232182094035674 0 -0.28688087816851437 -0.22094559661030519 0 -0.28421343061544602 -0.23805598157921989 0 -0.30701143818891868 -0.22826222482624919 0 -0.29419180113005722 -0.232182094035674 0 -0.28688087816851437 -0.22094559661030519 0 -0.30066928905000129 -0.2428974283370558 0 -0.29419180113005722 -0.232182094035674 0 -0.28421343061544602 -0.23805598157921989 0 -0.27411494767805761 -0.25127726478153489 0 -0.29338529096400301 -0.25771546205265577 0 -0.28421343061544602 -0.23805598157921989 0 -0.29338529096400301 -0.25771546205265577 0 -0.30066928905000129 -0.2428974283370558 0 -0.28421343061544602 -0.23805598157921989 0 -0.27411494767805761 -0.25127726478153489 0 -0.26566165504436562 -0.22828212071626119 0 -0.27411494767805761 -0.25127726478153489 0 -0.2581986285306509 -0.2447208203320011 0 -0.26566165504436562 -0.22828212071626119 0 -0.27411494767805761 -0.25127726478153489 0 -0.28421343061544602 -0.23805598157921989 0 -0.26566165504436562 -0.22828212071626119 0 -0.24433892802888951 -0.2356544311839206 0 -0.2581986285306509 -0.2447208203320011 0 -0.26566165504436562 -0.22828212071626119 0 -0.24433892802888951 -0.2356544311839206 0 -0.25353522381878291 -0.22227814381025701 0 -0.26566165504436562 -0.22828212071626119 0 -0.24433892802888951 -0.2356544311839206 0 -0.26566165504436562 -0.22828212071626119 0 -0.26566165504436562 -0.22828212071626119 0 -0.26039891391784842 -0.21396610261224211 0 -0.25353522381878291 -0.22227814381025701 0 -0.26566165504436562 -0.22828212071626119 0 -0.26039891391784842 -0.21396610261224211 0 -0.28688087816851437 -0.22094559661030519 0 -0.26566165504436562 -0.22828212071626119 0 -0.28688087816851437 -0.22094559661030519 0 -0.28421343061544602 -0.23805598157921989 0 -0.26566165504436562 -0.22828212071626119 0 -0.28688087816851437 -0.22094559661030519 0 -0.26566165504436562 -0.22828212071626119 0 -0.27596319541496223 -0.2086406645958308 0 -0.26566165504436562 -0.22828212071626119 0 -0.27596319541496223 -0.2086406645958308 0 -0.26039891391784842 -0.21396610261224211 0 -0.27596319541496223 -0.2086406645958308 0 -0.26039891391784842 -0.21396610261224211 0 -0.26487761351738298 -0.20210402521500301 0 -0.26039891391784842 -0.21396610261224211 0 -0.25513617279133111 -0.19965008450822291 0 -0.26487761351738298 -0.20210402521500301 0 -0.26039891391784842 -0.21396610261224211 0 -0.25051797872981219 -0.21011174819722969 0 -0.25513617279133111 -0.19965008450822291 0 -0.26039891391784842 -0.21396610261224211 0 -0.25513617279133111 -0.19965008450822291 0 -0.25353522381878291 -0.22227814381025701 0 -0.26039891391784842 -0.21396610261224211 0 -0.25051797872981219 -0.21011174819722969 0 -0.25553144154411628 -0.1898259975185905 0 -0.26487761351738298 -0.20210402521500301 0 -0.27364453052738119 -0.18976898014517041 0 -0.24862493598769481 -0.19852958057999959 0 -0.25051797872981219 -0.21011174819722969 0 -0.25513617279133111 -0.19965008450822291 0 -0.24862493598769481 -0.19852958057999959 0 -0.25553144154411628 -0.1898259975185905 0 -0.25513617279133111 -0.19965008450822291 0 -0.25553144154411628 -0.1898259975185905 0 -0.25513617279133111 -0.19965008450822291 0 -0.26487761351738298 -0.20210402521500301 0 -0.27596319541496223 -0.2086406645958308 0 -0.26487761351738298 -0.20210402521500301 0 -0.27364453052738119 -0.18976898014517041 0 -0.27596319541496223 -0.2086406645958308 0 -0.27364453052738119 -0.18976898014517041 0 -0.29087231591002222 -0.20168902632475921 0 -0.27364453052738119 -0.18976898014517041 0 -0.29087231591002222 -0.20168902632475921 0 -0.29087231591002222 -0.20168902632475921 0 -0.30419493161771161 -0.19865521486002061 0 -0.29085584252558039 -0.18480214573645459 0 -0.27364453052738119 -0.18976898014517041 0 -0.29087231591002222 -0.20168902632475921 0 -0.29085584252558039 -0.18480214573645459 0 -0.28688087816851437 -0.22094559661030519 0 -0.29087231591002222 -0.20168902632475921 0 -0.30810010129266302 -0.21360907250434841 0 -0.28688087816851437 -0.22094559661030519 0 -0.27596319541496223 -0.2086406645958308 0 -0.29087231591002222 -0.20168902632475921 0 -0.28688087816851437 -0.22094559661030519 0 -0.30810010129266302 -0.21360907250434841 0 -0.29087231591002222 -0.20168902632475921 0 -0.30810010129266302 -0.21360907250434841 0 -0.30419493161771161 -0.19865521486002061 0 -0.29087231591002222 -0.20168902632475921 0 -0.30810010129266302 -0.21360907250434841 0 -0.30810010129266302 -0.21360907250434841 0 -0.30419493161771161 -0.19865521486002061 0 -0.31816357393737688 -0.19327167341000001 0 -0.30419493161771161 -0.19865521486002061 0 -0.30630766625781031 -0.17845856337811741 0 -0.31816357393737688 -0.19327167341000001 0 -0.30419493161771161 -0.19865521486002061 0 -0.30630766625781031 -0.17845856337811741 0 -0.29085584252558039 -0.18480214573645459 0 -0.30630766625781031 -0.17845856337811741 0 -0.30596173682113242 -0.15768022779755739 0 -0.29244350831459393 -0.16797084394758471 0 -0.30630766625781031 -0.17845856337811741 0 -0.30596173682113242 -0.15768022779755739 0 -0.32482292759904879 -0.17277491330566391 0 -0.29244350831459393 -0.16797084394758471 0 -0.27720228565060412 -0.17076084310637341 0 -0.28107171457256391 -0.15209715939919879 0 -0.30596173682113242 -0.15768022779755739 0 -0.29244350831459393 -0.16797084394758471 0 -0.28107171457256391 -0.15209715939919879 0 -0.29244350831459393 -0.16797084394758471 0 -0.29085584252558039 -0.18480214573645459 0 -0.27720228565060412 -0.17076084310637341 0 -0.30630766625781031 -0.17845856337811741 0 -0.29244350831459393 -0.16797084394758471 0 -0.29085584252558039 -0.18480214573645459 0 -0.27364453052738119 -0.18976898014517041 0 -0.26624314794868958 -0.17328247243033809 0 -0.27720228565060412 -0.17076084310637341 0 -0.27364453052738119 -0.18976898014517041 0 -0.29085584252558039 -0.18480214573645459 0 -0.27720228565060412 -0.17076084310637341 0 -0.24411240467052719 -0.189163691631557 0 -0.25641674514474028 -0.1778489339655816 0 -0.25921778077217728 -0.1638119516268228 0 -0.27364453052738119 -0.18976898014517041 0 -0.26624314794868958 -0.17328247243033809 0 -0.25641674514474028 -0.1778489339655816 0 -0.27364453052738119 -0.18976898014517041 0 -0.25641674514474028 -0.1778489339655816 0 -0.24411240467052719 -0.189163691631557 0 -0.25921778077217728 -0.1638119516268228 0 -0.25553144154411628 -0.1898259975185905 0 -0.27364453052738119 -0.18976898014517041 0 -0.25641674514474028 -0.1778489339655816 0 -0.24411240467052719 -0.189163691631557 0 -0.25553144154411628 -0.1898259975185905 0 -0.25641674514474028 -0.1778489339655816 0 -0.24162495277933749 -0.1732425798384282 0 -0.25921778077217728 -0.1638119516268228 0 -0.248782105131127 -0.16161515126540901 0 -0.25921778077217728 -0.1638119516268228 0 -0.25545790984005162 -0.1486314068883241 0 -0.26624314794868958 -0.17328247243033809 0 -0.25641674514474028 -0.1778489339655816 0 -0.25921778077217728 -0.1638119516268228 0 -0.26624314794868958 -0.17328247243033809 0 -0.25921778077217728 -0.1638119516268228 0 -0.27720228565060412 -0.17076084310637341 0 -0.25921778077217728 -0.1638119516268228 0 -0.28107171457256391 -0.15209715939919879 0 -0.25921778077217728 -0.1638119516268228 0 -0.27720228565060412 -0.17076084310637341 0 -0.28107171457256391 -0.15209715939919879 0 -0.25921778077217728 -0.1638119516268228 0 -0.28107171457256391 -0.15209715939919879 0 -0.2684064576042397 -0.1483903597070719 0 -0.28107171457256391 -0.15209715939919879 0 -0.2684064576042397 -0.1483903597070719 0 -0.27759513443630268 -0.1329687677873215 0 -0.2684064576042397 -0.1483903597070719 0 -0.27759513443630268 -0.1329687677873215 0 -0.24379637703047641 -0.14069965914005991 0 -0.25545790984005162 -0.1486314068883241 0 -0.25403199653450548 -0.13253089301491691 0 -0.25921778077217728 -0.1638119516268228 0 -0.2684064576042397 -0.1483903597070719 0 -0.25545790984005162 -0.1486314068883241 0 -0.25921778077217728 -0.1638119516268228 0 -0.2684064576042397 -0.1483903597070719 0 -0.2684064576042397 -0.1483903597070719 0 -0.25545790984005162 -0.1486314068883241 0 -0.26396030966963052 -0.13727548924961089 0 -0.25545790984005162 -0.1486314068883241 0 -0.25403199653450548 -0.13253089301491691 0 -0.26396030966963052 -0.13727548924961089 0 -0.26431004993305302 -0.1238560188504203 0 -0.25118326724822809 -0.12205150868743141 0 -0.25403199653450548 -0.13253089301491691 0 -0.26431004993305302 -0.1238560188504203 0 -0.25403199653450548 -0.13253089301491691 0 -0.26396030966963052 -0.13727548924961089 0 -0.26431004993305302 -0.1238560188504203 0 -0.27610988139935522 -0.1193385055535808 0 -0.27759513443630268 -0.1329687677873215 0 -0.26431004993305302 -0.1238560188504203 0 -0.26396030966963052 -0.13727548924961089 0 -0.27759513443630268 -0.1329687677873215 0 -0.2684064576042397 -0.1483903597070719 0 -0.26396030966963052 -0.13727548924961089 0 -0.27759513443630268 -0.1329687677873215 0 -0.28883705529540132 -0.1208935815464123 0 -0.27759513443630268 -0.1329687677873215 0 -0.30292564837294989 -0.1403823671715741 0 -0.30596173682113242 -0.15768022779755739 0 -0.28107171457256391 -0.15209715939919879 0 -0.30292564837294989 -0.1403823671715741 0 -0.28107171457256391 -0.15209715939919879 0 -0.30292564837294989 -0.1403823671715741 0 -0.28107171457256391 -0.15209715939919879 0 -0.27759513443630268 -0.1329687677873215 0 -0.30292564837294989 -0.1403823671715741 0 -0.30596173682113242 -0.15768022779755739 0 -0.30292564837294989 -0.1403823671715741 0 -0.32086159996936869 -0.1476002253672693 0 -0.30371359671840292 -0.1156106415510313 0 -0.31369066971281012 -0.12303602612692829 0 -0.30292564837294989 -0.1403823671715741 0 -0.28883705529540132 -0.1208935815464123 0 -0.30371359671840292 -0.1156106415510313 0 -0.30292564837294989 -0.1403823671715741 0 -0.30292564837294989 -0.1403823671715741 0 -0.32477958217333602 -0.12866757494394951 0 -0.30292564837294989 -0.1403823671715741 0 -0.32477958217333602 -0.12866757494394951 0 -0.32086159996936869 -0.1476002253672693 0 -0.31369066971281012 -0.12303602612692829 0 -0.30292564837294989 -0.1403823671715741 0 -0.32477958217333602 -0.12866757494394951 0 -0.32477958217333602 -0.12866757494394951 0 -0.32086159996936869 -0.1476002253672693 0 -0.33891098176534928 -0.15452955819122599 0 -0.33891098176534928 -0.15452955819122599 0 -0.33208446876077258 -0.125466720106122 0 -0.32477958217333602 -0.12866757494394951 0 -0.33891098176534928 -0.15452955819122599 0 -0.33208446876077258 -0.125466720106122 0 -0.33891098176534928 -0.15452955819122599 0 -0.33208446876077258 -0.125466720106122 0 -0.35206853499347468 -0.1268249885118754 0 -0.37238458741650737 -0.12508344370428551 0 -0.36217332295144722 -0.1432956459146642 0 -0.38424705244385698 -0.1491313890189801 0 -0.35206853499347468 -0.1268249885118754 0 -0.37238458741650737 -0.12508344370428551 0 -0.36217332295144722 -0.1432956459146642 0 -0.36217332295144722 -0.1432956459146642 0 -0.36357967017998488 -0.16604203525980921 0 -0.36217332295144722 -0.1432956459146642 0 -0.36357967017998488 -0.16604203525980921 0 -0.38424705244385698 -0.1491313890189801 0 -0.33891098176534928 -0.15452955819122599 0 -0.36217332295144722 -0.1432956459146642 0 -0.36357967017998488 -0.16604203525980921 0 -0.33891098176534928 -0.15452955819122599 0 -0.35206853499347468 -0.1268249885118754 0 -0.36217332295144722 -0.1432956459146642 0 -0.33891098176534928 -0.15452955819122599 0 -0.36357967017998488 -0.16604203525980921 0 -0.34573749476992599 -0.18359239627633001 0 -0.36357967017998488 -0.16604203525980921 0 -0.36498601740852282 -0.1887884246049541 0 -0.36357967017998488 -0.16604203525980921 0 -0.36498601740852282 -0.1887884246049541 0 -0.38452416178539439 -0.17879989754992009 0 -0.36357967017998488 -0.16604203525980921 0 -0.34573749476992599 -0.18359239627633001 0 -0.36498601740852282 -0.1887884246049541 0 -0.34573749476992599 -0.18359239627633001 0 -0.32482292759904879 -0.17277491330566391 0 -0.33114133911417681 -0.18841413609660709 0 -0.33891098176534928 -0.15452955819122599 0 -0.34573749476992599 -0.18359239627633001 0 -0.32482292759904879 -0.17277491330566391 0 -0.33891098176534928 -0.15452955819122599 0 -0.34573749476992599 -0.18359239627633001 0 -0.32086159996936869 -0.1476002253672693 0 -0.33891098176534928 -0.15452955819122599 0 -0.32482292759904879 -0.17277491330566391 0 -0.30596173682113242 -0.15768022779755739 0 -0.32086159996936869 -0.1476002253672693 0 -0.32482292759904879 -0.17277491330566391 0 -0.32482292759904879 -0.17277491330566391 0 -0.31816357393737688 -0.19327167341000001 0 -0.33114133911417681 -0.18841413609660709 0 -0.30630766625781031 -0.17845856337811741 0 -0.32482292759904879 -0.17277491330566391 0 -0.31816357393737688 -0.19327167341000001 0 -0.30810010129266302 -0.21360907250434841 0 -0.33584136015035548 -0.20401756139443461 0 -0.32034024065370659 -0.22207812544340161 0 -0.30810010129266302 -0.21360907250434841 0 -0.31816357393737688 -0.19327167341000001 0 -0.33584136015035548 -0.20401756139443461 0 -0.30810010129266302 -0.21360907250434841 0 -0.33584136015035548 -0.20401756139443461 0 -0.30810010129266302 -0.21360907250434841 0 -0.32034024065370659 -0.22207812544340161 0 -0.33584136015035548 -0.20401756139443461 0 -0.33473147682907861 -0.22046899118991239 0 -0.32034024065370659 -0.22207812544340161 0 -0.33584136015035548 -0.20401756139443461 0 -0.35256400777450259 -0.21265523436143399 0 -0.33473147682907861 -0.22046899118991239 0 -0.34573749476992599 -0.18359239627633001 0 -0.33584136015035548 -0.20401756139443461 0 -0.33114133911417681 -0.18841413609660709 0 -0.31816357393737688 -0.19327167341000001 0 -0.33584136015035548 -0.20401756139443461 0 -0.33114133911417681 -0.18841413609660709 0 -0.34573749476992599 -0.18359239627633001 0 -0.35854707932734592 -0.20060319656860351 0 -0.35256400777450259 -0.21265523436143399 0 -0.34573749476992599 -0.18359239627633001 0 -0.33584136015035548 -0.20401756139443461 0 -0.35256400777450259 -0.21265523436143399 0 -0.34573749476992599 -0.18359239627633001 0 -0.35256400777450259 -0.21265523436143399 0 -0.34573749476992599 -0.18359239627633001 0 -0.35854707932734592 -0.20060319656860351 0 -0.36498601740852282 -0.1887884246049541 0 -0.35854707932734592 -0.20060319656860351 0 -0.36498601740852282 -0.1887884246049541 0 -0.36639236463706049 -0.21153481395009899 0 -0.36498601740852282 -0.1887884246049541 0 -0.36639236463706049 -0.21153481395009899 0 -0.36498601740852282 -0.1887884246049541 0 -0.36639236463706049 -0.21153481395009899 0 -0.38178252314225641 -0.1991666124357499 0 -0.36639236463706049 -0.21153481395009899 0 -0.37667331396643711 -0.2229284968133613 0 -0.37831513212800533 -0.2120789743948297 0 -0.35854707932734592 -0.20060319656860351 0 -0.36639236463706049 -0.21153481395009899 0 -0.35256400777450259 -0.21265523436143399 0 -0.35256400777450259 -0.21265523436143399 0 -0.35939052077907929 -0.2417180724465379 0 -0.35256400777450259 -0.21265523436143399 0 -0.35939052077907929 -0.2417180724465379 0 -0.34056548484983618 -0.23371594606682461 0 -0.36639236463706049 -0.21153481395009899 0 -0.36779871186559843 -0.23428120329524391 0 -0.35256400777450259 -0.21265523436143399 0 -0.36779871186559843 -0.23428120329524391 0 -0.35939052077907929 -0.2417180724465379 0 -0.36639236463706049 -0.21153481395009899 0 -0.36779871186559843 -0.23428120329524391 0 -0.37667331396643711 -0.2229284968133613 0 -0.36639236463706049 -0.21153481395009899 0 -0.35256400777450259 -0.21265523436143399 0 -0.36779871186559843 -0.23428120329524391 0 -0.37497438621630619 -0.25056020184208438 0 -0.36779871186559843 -0.23428120329524391 0 -0.35939052077907929 -0.2417180724465379 0 -0.35712271818797692 -0.2577499073889204 0 -0.3445951553371811 -0.24845299757837119 0 -0.35939052077907929 -0.2417180724465379 0 -0.3445951553371811 -0.24845299757837119 0 -0.35939052077907929 -0.2417180724465379 0 -0.34056548484983618 -0.23371594606682461 0 -0.3445951553371811 -0.24845299757837119 0 -0.32902662723973952 -0.24995314561344231 0 -0.34056548484983618 -0.23371594606682461 0 -0.32902662723973952 -0.24995314561344231 0 -0.34056548484983618 -0.23371594606682461 0 -0.32494524318334123 -0.23383526439299801 0 -0.35256400777450259 -0.21265523436143399 0 -0.34056548484983618 -0.23371594606682461 0 -0.33473147682907861 -0.22046899118991239 0 -0.34056548484983618 -0.23371594606682461 0 -0.33473147682907861 -0.22046899118991239 0 -0.32494524318334123 -0.23383526439299801 0 -0.30701143818891868 -0.22826222482624919 0 -0.32494524318334123 -0.23383526439299801 0 -0.32034024065370659 -0.22207812544340161 0 -0.33473147682907861 -0.22046899118991239 0 -0.32494524318334123 -0.23383526439299801 0 -0.32034024065370659 -0.22207812544340161 0 -0.32902662723973952 -0.24995314561344231 0 -0.32494524318334123 -0.23383526439299801 0 -0.31478008505819399 -0.2423777004445242 0 -0.31224782762896908 -0.25694043905287578 0 -0.32902662723973952 -0.24995314561344231 0 -0.31478008505819399 -0.2423777004445242 0 -0.30701143818891868 -0.22826222482624919 0 -0.32494524318334123 -0.23383526439299801 0 -0.31478008505819399 -0.2423777004445242 0 -0.42256252663919142 -0.22701442603687899 0 -0.41589114755914408 -0.24313452901118929 0 -0.4396934281530982 -0.23300373984161521 0 -0.43515266417079101 -0.2502256321201316 0 -0.41589114755914408 -0.24313452901118929 0 -0.4396934281530982 -0.23300373984161521 0 -0.41589114755914408 -0.24313452901118929 0 -0.4396934281530982 -0.23300373984161521 0 -0.42256252663919142 -0.22701442603687899 0 -0.41812991428901369 -0.21213579258324131 0 -0.43608206592309823 -0.21793248705378579 0 -0.42256252663919142 -0.22701442603687899 0 -0.43608206592309823 -0.21793248705378579 0 -0.4396934281530982 -0.23300373984161521 0 -0.42256252663919142 -0.22701442603687899 0 -0.40301607727160499 -0.228865581694563 0 -0.41812991428901369 -0.21213579258324131 0 -0.42256252663919142 -0.22701442603687899 0 -0.41589114755914408 -0.24313452901118929 0 -0.40301607727160499 -0.228865581694563 0 -0.39208886696519007 -0.25326531818076359 0 -0.41589114755914408 -0.24313452901118929 0 -0.40301607727160499 -0.228865581694563 0 -0.39208886696519007 -0.25326531818076359 0 -0.41589114755914408 -0.24313452901118929 0 -0.39208886696519007 -0.25326531818076359 0 -0.38308682757796542 -0.23573485454211379 0 -0.40301607727160499 -0.228865581694563 0 -0.37497438621630619 -0.25056020184208438 0 -0.36779871186559843 -0.23428120329524391 0 -0.38308682757796542 -0.23573485454211379 0 -0.39208886696519007 -0.25326531818076359 0 -0.37497438621630619 -0.25056020184208438 0 -0.38308682757796542 -0.23573485454211379 0 -0.36779871186559843 -0.23428120329524391 0 -0.38308682757796542 -0.23573485454211379 0 -0.37667331396643711 -0.2229284968133613 0 -0.38308682757796542 -0.23573485454211379 0 -0.37667331396643711 -0.2229284968133613 0 -0.38777353362355582 -0.2210126378845203 0 -0.38777353362355582 -0.2210126378845203 0 -0.40301607727160499 -0.228865581694563 0 -0.40017776265492883 -0.20633909811269791 0 -0.38308682757796542 -0.23573485454211379 0 -0.38777353362355582 -0.2210126378845203 0 -0.40301607727160499 -0.228865581694563 0 -0.40017776265492883 -0.20633909811269791 0 -0.37831513212800533 -0.2120789743948297 0 -0.38178252314225641 -0.1991666124357499 0 -0.38777353362355582 -0.2210126378845203 0 -0.40017776265492883 -0.20633909811269791 0 -0.37831513212800533 -0.2120789743948297 0 -0.36639236463706049 -0.21153481395009899 0 -0.37831513212800533 -0.2120789743948297 0 -0.38178252314225641 -0.1991666124357499 0 -0.37667331396643711 -0.2229284968133613 0 -0.38777353362355582 -0.2210126378845203 0 -0.37831513212800533 -0.2120789743948297 0 -0.38178252314225641 -0.1991666124357499 0 -0.40545293221187789 -0.1851221861932166 0 -0.38452416178539439 -0.17879989754992009 0 -0.36498601740852282 -0.1887884246049541 0 -0.38178252314225641 -0.1991666124357499 0 -0.38452416178539439 -0.17879989754992009 0 -0.40017776265492883 -0.20633909811269791 0 -0.38178252314225641 -0.1991666124357499 0 -0.40545293221187789 -0.1851221861932166 0 -0.4135698488658236 -0.19957809969090021 0 -0.41812991428901369 -0.21213579258324131 0 -0.43051878630747381 -0.19471532187444501 0 -0.40017776265492883 -0.20633909811269791 0 -0.4135698488658236 -0.19957809969090021 0 -0.40545293221187789 -0.1851221861932166 0 -0.4135698488658236 -0.19957809969090021 0 -0.43051878630747381 -0.19471532187444501 0 -0.40545293221187789 -0.1851221861932166 0 -0.40301607727160499 -0.228865581694563 0 -0.40017776265492883 -0.20633909811269791 0 -0.41812991428901369 -0.21213579258324131 0 -0.40017776265492883 -0.20633909811269791 0 -0.41812991428901369 -0.21213579258324131 0 -0.40017776265492883 -0.20633909811269791 0 -0.4135698488658236 -0.19957809969090021 0 -0.41812991428901369 -0.21213579258324131 0 -0.43608206592309823 -0.21793248705378579 0 -0.43051878630747381 -0.19471532187444501 0 -0.44592798589615551 -0.20455350187932581 0 -0.41812991428901369 -0.21213579258324131 0 -0.43608206592309823 -0.21793248705378579 0 -0.41812991428901369 -0.21213579258324131 0 -0.43608206592309823 -0.21793248705378579 0 -0.43051878630747381 -0.19471532187444501 0 -0.43608206592309823 -0.21793248705378579 0 -0.43051878630747381 -0.19471532187444501 0 -0.43051878630747381 -0.19471532187444501 0 -0.42495550669185161 -0.17149815669510371 0 -0.44120938228744261 -0.1772931651258764 0 -0.43051878630747381 -0.19471532187444501 0 -0.42495550669185161 -0.17149815669510371 0 -0.42495550669185161 -0.17149815669510371 0 -0.43963058362879293 -0.15622829198913779 0 -0.44120938228744261 -0.1772931651258764 0 -0.42495550669185161 -0.17149815669510371 0 -0.41939222707623008 -0.1482809915157621 0 -0.43963058362879293 -0.15622829198913779 0 -0.42495550669185161 -0.17149815669510371 0 -0.41939222707623008 -0.1482809915157621 0 -0.42495550669185161 -0.17149815669510371 0 -0.40195819443081249 -0.16354044453284119 0 -0.41939222707623008 -0.1482809915157621 0 -0.43051878630747381 -0.19471532187444501 0 -0.42495550669185161 -0.17149815669510371 0 -0.40545293221187789 -0.1851221861932166 0 -0.42495550669185161 -0.17149815669510371 0 -0.40545293221187789 -0.1851221861932166 0 -0.40195819443081249 -0.16354044453284119 0 -0.40545293221187789 -0.1851221861932166 0 -0.38452416178539439 -0.17879989754992009 0 -0.40195819443081249 -0.16354044453284119 0 -0.38452416178539439 -0.17879989754992009 0 -0.40195819443081249 -0.16354044453284119 0 -0.38424705244385698 -0.1491313890189801 0 -0.36357967017998488 -0.16604203525980921 0 -0.38452416178539439 -0.17879989754992009 0 -0.38424705244385698 -0.1491313890189801 0 -0.38452416178539439 -0.17879989754992009 0 -0.40195819443081249 -0.16354044453284119 0 -0.40195819443081249 -0.16354044453284119 0 -0.40207171208248882 -0.143579593029381 0 -0.38424705244385698 -0.1491313890189801 0 -0.40207171208248882 -0.143579593029381 0 -0.38424705244385698 -0.1491313890189801 0 -0.39245810532181818 -0.1291366883341927 0 -0.37238458741650737 -0.12508344370428551 0 -0.38424705244385698 -0.1491313890189801 0 -0.39245810532181818 -0.1291366883341927 0 -0.40207171208248882 -0.143579593029381 0 -0.39245810532181818 -0.1291366883341927 0 -0.41538048253884657 -0.1315388282564888 0 -0.39245810532181818 -0.1291366883341927 0 -0.41538048253884657 -0.1315388282564888 0 -0.40119121499656851 -0.12004268840557029 0 -0.41538048253884657 -0.1315388282564888 0 -0.41939222707623008 -0.1482809915157621 0 -0.40195819443081249 -0.16354044453284119 0 -0.41939222707623008 -0.1482809915157621 0 -0.40195819443081249 -0.16354044453284119 0 -0.40207171208248882 -0.143579593029381 0 -0.41939222707623008 -0.1482809915157621 0 -0.40207171208248882 -0.143579593029381 0 -0.41538048253884657 -0.1315388282564888 0 -0.41939222707623008 -0.1482809915157621 0 -0.41939222707623008 -0.1482809915157621 0 -0.43286187133286741 -0.13649144127966489 0 -0.43963058362879293 -0.15622829198913779 0 -0.41939222707623008 -0.1482809915157621 0 -0.43286187133286741 -0.13649144127966489 0 -0.41538048253884657 -0.1315388282564888 0 -0.41939222707623008 -0.1482809915157621 0 -0.43286187133286741 -0.13649144127966489 0 -0.41538048253884657 -0.1315388282564888 0 -0.43286187133286741 -0.13649144127966489 0 -0.4222110588796591 -0.12105036347331009 0 -0.43286187133286741 -0.13649144127966489 0 -0.43450131439846562 -0.1249436758912086 0 -0.4222110588796591 -0.12105036347331009 0 -0.43286187133286741 -0.13649144127966489 0 -0.44988018199569529 -0.13958397899157721 0 -0.44633151558950429 -0.12470189104356751 0 -0.44988018199569529 -0.13958397899157721 0 -0.45867225585720478 -0.1284486531364101 0 -0.44633151558950429 -0.12470189104356751 0 -0.43286187133286741 -0.13649144127966489 0 -0.44633151558950429 -0.12470189104356751 0 -0.43286187133286741 -0.13649144127966489 0 -0.43450131439846562 -0.1249436758912086 0 -0.44633151558950429 -0.12470189104356751 0 -0.44988018199569529 -0.13958397899157721 0 -0.45987406958295329 -0.1533443674603418 0 -0.43963058362879293 -0.15622829198913779 0 -0.43286187133286741 -0.13649144127966489 0 -0.44988018199569529 -0.13958397899157721 0 -0.43963058362879293 -0.15622829198913779 0 -0.44988018199569529 -0.13958397899157721 0 -0.45987406958295329 -0.1533443674603418 0 -0.46437817758998562 -0.13808431008737829 0 -0.45987406958295329 -0.1533443674603418 0 -0.46437817758998562 -0.13808431008737829 0 -0.47951265476626809 -0.14409709658744221 0 -0.46437817758998562 -0.13808431008737829 0 -0.45867225585720478 -0.1284486531364101 0 -0.47759046803694999 -0.1218049064689664 0 -0.44988018199569529 -0.13958397899157721 0 -0.46437817758998562 -0.13808431008737829 0 -0.45867225585720478 -0.1284486531364101 0 -0.46437817758998562 -0.13808431008737829 0 -0.47951265476626809 -0.14409709658744221 0 -0.47759046803694999 -0.1218049064689664 0 -0.50000000000001099 -0.1255416338473736 0 -0.47951265476626809 -0.14409709658744221 0 -0.47759046803694999 -0.1218049064689664 0 -0.50000000000001099 -0.1255416338473736 0 -0.5 -0.15304667089305529 0 -0.47951265476626809 -0.14409709658744221 0 -0.45987406958295329 -0.1533443674603418 0 -0.47951265476626809 -0.14409709658744221 0 -0.47523321338770891 -0.1727606907675393 0 -0.5 -0.15304667089305529 0 -0.47951265476626809 -0.14409709658744221 0 -0.47523321338770891 -0.1727606907675393 0 -0.5 -0.15304667089305529 0 -0.5 -0.18055170793873701 0 -0.47523321338770891 -0.1727606907675393 0 -0.5 -0.18055170793873701 0 -0.47523321338770891 -0.1727606907675393 0 -0.477565700674424 -0.19191352920025129 0 -0.47523321338770891 -0.1727606907675393 0 -0.46456336402992032 -0.1910914430555648 0 -0.477565700674424 -0.19191352920025129 0 -0.47523321338770891 -0.1727606907675393 0 -0.45742714011144647 -0.18019140213675711 0 -0.45191256739270119 -0.1667319127241961 0 -0.47523321338770891 -0.1727606907675393 0 -0.45742714011144647 -0.18019140213675711 0 -0.46456336402992032 -0.1910914430555648 0 -0.45987406958295329 -0.1533443674603418 0 -0.47523321338770891 -0.1727606907675393 0 -0.45191256739270119 -0.1667319127241961 0 -0.45191256739270119 -0.1667319127241961 0 -0.43963058362879293 -0.15622829198913779 0 -0.44120938228744261 -0.1772931651258764 0 -0.45987406958295329 -0.1533443674603418 0 -0.45191256739270119 -0.1667319127241961 0 -0.43963058362879293 -0.15622829198913779 0 -0.45742714011144647 -0.18019140213675711 0 -0.44120938228744261 -0.1772931651258764 0 -0.45043399340817541 -0.1917670796539423 0 -0.45742714011144647 -0.18019140213675711 0 -0.45191256739270119 -0.1667319127241961 0 -0.44120938228744261 -0.1772931651258764 0 -0.43051878630747381 -0.19471532187444501 0 -0.44120938228744261 -0.1772931651258764 0 -0.45043399340817541 -0.1917670796539423 0 -0.43051878630747381 -0.19471532187444501 0 -0.45043399340817541 -0.1917670796539423 0 -0.44592798589615551 -0.20455350187932581 0 -0.45043399340817541 -0.1917670796539423 0 -0.44592798589615551 -0.20455350187932581 0 -0.46011662632871347 -0.2033373855535088 0 -0.43608206592309823 -0.21793248705378579 0 -0.45248845751331629 -0.21501523526094829 0 -0.44592798589615551 -0.20455350187932581 0 -0.45248845751331629 -0.21501523526094829 0 -0.44592798589615551 -0.20455350187932581 0 -0.46011662632871347 -0.2033373855535088 0 -0.46011662632871347 -0.2033373855535088 0 -0.46341552485454551 -0.2145422696681582 0 -0.45873502403082361 -0.2252470574563197 0 -0.45248845751331629 -0.21501523526094829 0 -0.46011662632871347 -0.2033373855535088 0 -0.45873502403082361 -0.2252470574563197 0 -0.46011662632871347 -0.2033373855535088 0 -0.45873502403082361 -0.2252470574563197 0 -0.47078453652940411 -0.20728520337094039 0 -0.47001511916944511 -0.22009814208853201 0 -0.46400337238438411 -0.2226568775416293 0 -0.46341552485454551 -0.2145422696681582 0 -0.47078453652940411 -0.20728520337094039 0 -0.46400337238438411 -0.2226568775416293 0 -0.47078453652940411 -0.20728520337094039 0 -0.46400337238438411 -0.2226568775416293 0 -0.46011662632871347 -0.2033373855535088 0 -0.46341552485454551 -0.2145422696681582 0 -0.47078453652940411 -0.20728520337094039 0 -0.46011662632871347 -0.2033373855535088 0 -0.46456336402992032 -0.1910914430555648 0 -0.47078453652940411 -0.20728520337094039 0 -0.45043399340817541 -0.1917670796539423 0 -0.46011662632871347 -0.2033373855535088 0 -0.46456336402992032 -0.1910914430555648 0 -0.45742714011144647 -0.18019140213675711 0 -0.45043399340817541 -0.1917670796539423 0 -0.46456336402992032 -0.1910914430555648 0 -0.46456336402992032 -0.1910914430555648 0 -0.477565700674424 -0.19191352920025129 0 -0.47078453652940411 -0.20728520337094039 0 -0.477565700674424 -0.19191352920025129 0 -0.47078453652940411 -0.20728520337094039 0 -0.477565700674424 -0.19191352920025129 0 -0.48499652925015069 -0.2027402216679654 0 -0.47078453652940411 -0.20728520337094039 0 -0.5 -0.18055170793873701 0 -0.48499652925015069 -0.2027402216679654 0 -0.5 -0.2080567449844187 0 -0.5 -0.18055170793873701 0 -0.477565700674424 -0.19191352920025129 0 -0.48499652925015069 -0.2027402216679654 0 -0.48499652925015069 -0.2027402216679654 0 -0.5 -0.2080567449844187 0 -0.4852097833634621 -0.2145810110091021 0 -0.5 -0.2080567449844187 0 -0.4852097833634621 -0.2145810110091021 0 -0.49024429476122677 -0.22339671491419641 0 -0.4852097833634621 -0.2145810110091021 0 -0.4770270345151269 -0.2138786514182231 0 -0.47942991421396469 -0.2231671951636118 0 -0.48499652925015069 -0.2027402216679654 0 -0.4852097833634621 -0.2145810110091021 0 -0.4770270345151269 -0.2138786514182231 0 -0.48499652925015069 -0.2027402216679654 0 -0.4770270345151269 -0.2138786514182231 0 -0.47078453652940411 -0.20728520337094039 0 -0.4770270345151269 -0.2138786514182231 0 -0.47078453652940411 -0.20728520337094039 0 -0.47001511916944511 -0.22009814208853201 0 -0.48355532347727748 -0.2332614557017828 0 -0.46824130910131251 -0.2379452914767814 0 -0.46234631311346841 -0.22641313157844131 0 -0.47001511916944511 -0.22009814208853201 0 -0.47942991421396469 -0.2231671951636118 0 -0.46234631311346841 -0.22641313157844131 0 -0.48355532347727748 -0.2332614557017828 0 -0.46234631311346841 -0.22641313157844131 0 -0.4770270345151269 -0.2138786514182231 0 -0.47001511916944511 -0.22009814208853201 0 -0.47942991421396469 -0.2231671951636118 0 -0.48355532347727748 -0.2332614557017828 0 -0.47942991421396469 -0.2231671951636118 0 -0.46234631311346841 -0.22641313157844131 0 -0.48355532347727748 -0.2332614557017828 0 -0.47942991421396469 -0.2231671951636118 0 -0.49024429476122677 -0.22339671491419641 0 -0.48355532347727748 -0.2332614557017828 0 -0.49024429476122677 -0.22339671491419641 0 -0.5 -0.2355617820301005 0 -0.4852097833634621 -0.2145810110091021 0 -0.47942991421396469 -0.2231671951636118 0 -0.49024429476122677 -0.22339671491419641 0 -0.5 -0.2080567449844187 0 -0.49024429476122677 -0.22339671491419641 0 -0.5 -0.2355617820301005 0 -0.5 -0.263066819075782 0 -0.5 -0.2355617820301005 0 -0.48868092713117528 -0.2485917731294561 0 -0.48355532347727748 -0.2332614557017828 0 -0.5 -0.2355617820301005 0 -0.48868092713117528 -0.2485917731294561 0 -0.48355532347727748 -0.2332614557017828 0 -0.47363774134022202 -0.24915436340244099 0 -0.46824130910131251 -0.2379452914767814 0 -0.48355532347727748 -0.2332614557017828 0 -0.48868092713117528 -0.2485917731294561 0 -0.47363774134022202 -0.24915436340244099 0 -0.45644872850549312 -0.26150350036281661 0 -0.46421518581644988 -0.24697777112724201 0 -0.45804692315991269 -0.2361590719635204 0 -0.47363774134022202 -0.24915436340244099 0 -0.46421518581644988 -0.24697777112724201 0 -0.46824130910131251 -0.2379452914767814 0 -0.45644872850549312 -0.26150350036281661 0 -0.45804692315991269 -0.2361590719635204 0 -0.46421518581644988 -0.24697777112724201 0 -0.45804692315991269 -0.2361590719635204 0 -0.46824130910131251 -0.2379452914767814 0 -0.45804692315991269 -0.2361590719635204 0 -0.46824130910131251 -0.2379452914767814 0 -0.46234631311346841 -0.22641313157844131 0 -0.46341552485454551 -0.2145422696681582 0 -0.46400337238438411 -0.2226568775416293 0 -0.45873502403082361 -0.2252470574563197 0 -0.47001511916944511 -0.22009814208853201 0 -0.46400337238438411 -0.2226568775416293 0 -0.47001511916944511 -0.22009814208853201 0 -0.46234631311346841 -0.22641313157844131 0 -0.46400337238438411 -0.2226568775416293 0 -0.46234631311346841 -0.22641313157844131 0 -0.46400337238438411 -0.2226568775416293 0 -0.45873502403082361 -0.2252470574563197 0 -0.46400337238438411 -0.2226568775416293 0 -0.45873502403082361 -0.2252470574563197 0 -0.46234631311346841 -0.22641313157844131 0 -0.46400337238438411 -0.2226568775416293 0 -0.46234631311346841 -0.22641313157844131 0 -0.45873502403082361 -0.2252470574563197 0 -0.45804692315991269 -0.2361590719635204 0 -0.45873502403082361 -0.2252470574563197 0 -0.44848200820034112 -0.2368764741719103 0 -0.45804692315991269 -0.2361590719635204 0 -0.46234631311346841 -0.22641313157844131 0 -0.45804692315991269 -0.2361590719635204 0 -0.46234631311346841 -0.22641313157844131 0 -0.45873502403082361 -0.2252470574563197 0 -0.45804692315991269 -0.2361590719635204 0 -0.45873502403082361 -0.2252470574563197 0 -0.45873502403082361 -0.2252470574563197 0 -0.4396934281530982 -0.23300373984161521 0 -0.44848200820034112 -0.2368764741719103 0 -0.45873502403082361 -0.2252470574563197 0 -0.4396934281530982 -0.23300373984161521 0 -0.43608206592309823 -0.21793248705378579 0 -0.45248845751331629 -0.21501523526094829 0 -0.45873502403082361 -0.2252470574563197 0 -0.43608206592309823 -0.21793248705378579 0 -0.45873502403082361 -0.2252470574563197 0 -0.43608206592309823 -0.21793248705378579 0 -0.45873502403082361 -0.2252470574563197 0 -0.4396934281530982 -0.23300373984161521 0 -0.43608206592309823 -0.21793248705378579 0 -0.4396934281530982 -0.23300373984161521 0 -0.4396934281530982 -0.23300373984161521 0 -0.44192566410393769 -0.24231950219236079 0 -0.44848200820034112 -0.2368764741719103 0 -0.44700860420265759 -0.26118094708325068 0 -0.45804692315991269 -0.2361590719635204 0 -0.44447372108731381 -0.24780305591174071 0 -0.44700860420265759 -0.26118094708325068 0 -0.45804692315991269 -0.2361590719635204 0 -0.4396934281530982 -0.23300373984161521 0 -0.44192566410393769 -0.24231950219236079 0 -0.43515266417079101 -0.2502256321201316 0 -0.4396934281530982 -0.23300373984161521 0 -0.44192566410393769 -0.24231950219236079 0 -0.43515266417079101 -0.2502256321201316 0 -0.44447372108731381 -0.24780305591174071 0 -0.44192566410393769 -0.24231950219236079 0 -0.44447372108731381 -0.24780305591174071 0 -0.44192566410393769 -0.24231950219236079 0 -0.44848200820034112 -0.2368764741719103 0 -0.45804692315991269 -0.2361590719635204 0 -0.44447372108731381 -0.24780305591174071 0 -0.44848200820034112 -0.2368764741719103 0 -0.40858780957114049 -0.043834023541926719 0 -0.42385009412084651 -0.033882967294521699 0 -0.41446840276444641 -0.02304466173358646 0 -0.40858780957114049 -0.043834023541926719 0 -0.42457895046477462 -0.046804044285627823 0 -0.42385009412084651 -0.033882967294521699 0 -0.40858780957114049 -0.043834023541926719 0 -0.41446840276444641 -0.02304466173358646 0 -0.40858780957114049 -0.043834023541926719 0 -0.42457895046477462 -0.046804044285627823 0 -0.42246456164244689 -0.063432686531906549 0 -0.40542813345304701 -0.055004265702366863 0 -0.4093535025285574 -0.066519602116818274 0 -0.42246456164244689 -0.063432686531906549 0 -0.40858780957114049 -0.043834023541926719 0 -0.42246456164244689 -0.063432686531906549 0 -0.40858780957114049 -0.043834023541926719 0 -0.40542813345304701 -0.055004265702366863 0 -0.40858780957114049 -0.043834023541926719 0 -0.40542813345304701 -0.055004265702366863 0 -0.42246456164244689 -0.063432686531906549 0 -0.43630702628640861 -0.052446291435572882 0 -0.42457895046477462 -0.046804044285627823 0 -0.42246456164244689 -0.063432686531906549 0 -0.43630702628640861 -0.052446291435572882 0 -0.42457895046477462 -0.046804044285627823 0 -0.43674233206255769 -0.03881288302652601 0 -0.42457895046477462 -0.046804044285627823 0 -0.42385009412084651 -0.033882967294521699 0 -0.43674233206255769 -0.03881288302652601 0 -0.42385009412084651 -0.033882967294521699 0 -0.43674233206255769 -0.03881288302652601 0 -0.43487297574131328 -0.016919223884941478 0 -0.42385009412084651 -0.033882967294521699 0 -0.43487297574131328 -0.016919223884941478 0 -0.41446840276444641 -0.02304466173358646 0 -0.43487297574131328 -0.016919223884941478 0 -0.42034899595775099 -0.0022552999252458648 0 -0.41446840276444641 -0.02304466173358646 0 -0.43487297574131328 -0.016919223884941478 0 -0.44387098877468478 0.0070544525497037436 0 -0.4313306374062012 0.0016034976556527831 0 -0.43487297574131328 -0.016919223884941478 0 -0.42034899595775099 -0.0022552999252458648 0 -0.4313306374062012 0.0016034976556527831 0 -0.42034899595775099 -0.0022552999252458648 0 -0.40706012716313889 -0.01135766859048476 0 -0.41446840276444641 -0.02304466173358646 0 -0.42034899595775099 -0.0022552999252458648 0 -0.40706012716313889 -0.01135766859048476 0 -0.4012461205054394 0.00052568744523271641 0 -0.42034899595775099 -0.0022552999252458648 0 -0.41446840276444641 -0.02304466173358646 0 -0.40858780957114049 -0.043834023541926719 0 -0.41446840276444641 -0.02304466173358646 0 -0.39217698942491891 -0.020656400148339461 0 -0.40706012716313889 -0.01135766859048476 0 -0.41446840276444641 -0.02304466173358646 0 -0.39217698942491891 -0.020656400148339461 0 -0.39217698942491891 -0.020656400148339461 0 -0.38734634054343681 0.00324979067050595 0 -0.4012461205054394 0.00052568744523271641 0 -0.40706012716313889 -0.01135766859048476 0 -0.39217698942491891 -0.020656400148339461 0 -0.4012461205054394 0.00052568744523271641 0 -0.39217698942491891 -0.020656400148339461 0 -0.37719377158883272 -0.01462918824783605 0 -0.37576616927869799 0.0025212232452482409 0 -0.39217698942491891 -0.020656400148339461 0 -0.37576616927869799 0.0025212232452482409 0 -0.38734634054343681 0.00324979067050595 0 -0.39217698942491891 -0.020656400148339461 0 -0.37576616927869799 0.0025212232452482409 0 -0.39217698942491891 -0.020656400148339461 0 -0.37719377158883272 -0.01462918824783605 0 -0.37855239685131797 -0.03292539036703826 0 -0.39217698942491891 -0.020656400148339461 0 -0.37855239685131797 -0.03292539036703826 0 -0.39303587170780802 -0.039850639511837843 0 -0.37855239685131797 -0.03292539036703826 0 -0.39061383377243702 -0.055720858536027117 0 -0.37664525257667181 -0.048475202003900868 0 -0.37855239685131797 -0.03292539036703826 0 -0.39061383377243702 -0.055720858536027117 0 -0.37855239685131797 -0.03292539036703826 0 -0.39303587170780802 -0.039850639511837843 0 -0.39061383377243702 -0.055720858536027117 0 -0.40858780957114049 -0.043834023541926719 0 -0.39217698942491891 -0.020656400148339461 0 -0.40858780957114049 -0.043834023541926719 0 -0.39217698942491891 -0.020656400148339461 0 -0.39303587170780802 -0.039850639511837843 0 -0.40858780957114049 -0.043834023541926719 0 -0.39303587170780802 -0.039850639511837843 0 -0.39941768220115997 -0.048222608245826283 0 -0.39303587170780802 -0.039850639511837843 0 -0.39941768220115997 -0.048222608245826283 0 -0.39061383377243702 -0.055720858536027117 0 -0.40542813345304701 -0.055004265702366863 0 -0.39061383377243702 -0.055720858536027117 0 -0.39991950919138608 -0.067015741724329919 0 -0.40858780957114049 -0.043834023541926719 0 -0.40542813345304701 -0.055004265702366863 0 -0.39941768220115997 -0.048222608245826283 0 -0.40542813345304701 -0.055004265702366863 0 -0.39941768220115997 -0.048222608245826283 0 -0.39061383377243702 -0.055720858536027117 0 -0.39061383377243702 -0.055720858536027117 0 -0.38569538198858588 -0.062397701268467359 0 -0.38920278220463361 -0.06818260843327803 0 -0.39061383377243702 -0.055720858536027117 0 -0.38569538198858588 -0.062397701268467359 0 -0.38122818856641832 -0.058574114976228532 0 -0.39061383377243702 -0.055720858536027117 0 -0.37664525257667181 -0.048475202003900868 0 -0.38122818856641832 -0.058574114976228532 0 -0.37300425533070292 -0.057314083113719487 0 -0.38122818856641832 -0.058574114976228532 0 -0.37520111668623779 -0.063784606980190284 0 -0.37300425533070292 -0.057314083113719487 0 -0.37664525257667181 -0.048475202003900868 0 -0.38122818856641832 -0.058574114976228532 0 -0.38122818856641832 -0.058574114976228532 0 -0.37520111668623779 -0.063784606980190284 0 -0.38173672341085491 -0.067113223128335772 0 -0.37520111668623779 -0.063784606980190284 0 -0.37626372651338369 -0.069557783495216352 0 -0.38173672341085491 -0.067113223128335772 0 -0.37626372651338369 -0.069557783495216352 0 -0.38173672341085491 -0.067113223128335772 0 -0.37921547389572452 -0.071514517978449793 0 -0.38173672341085491 -0.067113223128335772 0 -0.38210229090957559 -0.071970934564664135 0 -0.37921547389572452 -0.071514517978449793 0 -0.38569538198858588 -0.062397701268467359 0 -0.38173672341085491 -0.067113223128335772 0 -0.38920278220463361 -0.06818260843327803 0 -0.38569538198858588 -0.062397701268467359 0 -0.38122818856641832 -0.058574114976228532 0 -0.38173672341085491 -0.067113223128335772 0 -0.38173672341085491 -0.067113223128335772 0 -0.38920278220463361 -0.06818260843327803 0 -0.38581209894477259 -0.072384520786910295 0 -0.38809299732354541 -0.077304123927099025 0 -0.38971074779165421 -0.074037756774188418 0 -0.39106083453765139 -0.078539267938246934 0 -0.38809299732354541 -0.077304123927099025 0 -0.38971074779165421 -0.074037756774188418 0 -0.38570208974557008 -0.075497826107350507 0 -0.38920278220463361 -0.06818260843327803 0 -0.38971074779165421 -0.074037756774188418 0 -0.38581209894477259 -0.072384520786910295 0 -0.38971074779165421 -0.074037756774188418 0 -0.38581209894477259 -0.072384520786910295 0 -0.38570208974557008 -0.075497826107350507 0 -0.38173672341085491 -0.067113223128335772 0 -0.38581209894477259 -0.072384520786910295 0 -0.38210229090957559 -0.071970934564664135 0 -0.38581209894477259 -0.072384520786910295 0 -0.38319570425170929 -0.074540037614807014 0 -0.38570208974557008 -0.075497826107350507 0 -0.38581209894477259 -0.072384520786910295 0 -0.38319570425170929 -0.074540037614807014 0 -0.38210229090957559 -0.071970934564664135 0 -0.38319570425170929 -0.074540037614807014 0 -0.38570208974557008 -0.075497826107350507 0 -0.3829182419734436 -0.077096756390961543 0 -0.38809299732354541 -0.077304123927099025 0 -0.38570208974557008 -0.075497826107350507 0 -0.38554884050097621 -0.07868931572130658 0 -0.38570208974557008 -0.075497826107350507 0 -0.3829182419734436 -0.077096756390961543 0 -0.38554884050097621 -0.07868931572130658 0 -0.3829182419734436 -0.077096756390961543 0 -0.38033791725678828 -0.074712843157240347 0 -0.38077408356806242 -0.077471640784151322 0 -0.38319570425170929 -0.074540037614807014 0 -0.3829182419734436 -0.077096756390961543 0 -0.38033791725678828 -0.074712843157240347 0 -0.38077408356806242 -0.077471640784151322 0 -0.37841309008238722 -0.076356967784839636 0 -0.38002276121796119 -0.079214218208120107 0 -0.38033791725678828 -0.074712843157240347 0 -0.38077408356806242 -0.077471640784151322 0 -0.37841309008238722 -0.076356967784839636 0 -0.38319570425170929 -0.074540037614807014 0 -0.38033791725678828 -0.074712843157240347 0 -0.38210229090957559 -0.071970934564664135 0 -0.38033791725678828 -0.074712843157240347 0 -0.38210229090957559 -0.071970934564664135 0 -0.37921547389572452 -0.071514517978449793 0 -0.38033791725678828 -0.074712843157240347 0 -0.37921547389572452 -0.071514517978449793 0 -0.37642728437476541 -0.073981708035062155 0 -0.37436277614400831 -0.07246088148001828 0 -0.37626372651338369 -0.069557783495216352 0 -0.37642728437476541 -0.073981708035062155 0 -0.37626372651338369 -0.069557783495216352 0 -0.37921547389572452 -0.071514517978449793 0 -0.37642728437476541 -0.073981708035062155 0 -0.37255048490822029 -0.075428045199386021 0 -0.37642728437476541 -0.073981708035062155 0 -0.37691451346587318 -0.077266070630435932 0 -0.38033791725678828 -0.074712843157240347 0 -0.37642728437476541 -0.073981708035062155 0 -0.37841309008238722 -0.076356967784839636 0 -0.37841309008238722 -0.076356967784839636 0 -0.37691451346587318 -0.077266070630435932 0 -0.38002276121796119 -0.079214218208120107 0 -0.37642728437476541 -0.073981708035062155 0 -0.37841309008238722 -0.076356967784839636 0 -0.37691451346587318 -0.077266070630435932 0 -0.37255048490822029 -0.075428045199386021 0 -0.38956594035454478 -0.09269619278727198 0 -0.38370288541600189 -0.084268741995276231 0 -0.37030718454947609 -0.075922333653553678 0 -0.3850793396370561 -0.093684769695607462 0 -0.37255048490822029 -0.075428045199386021 0 -0.37691451346587318 -0.077266070630435932 0 -0.38370288541600189 -0.084268741995276231 0 -0.37255048490822029 -0.075428045199386021 0 -0.38956594035454478 -0.09269619278727198 0 -0.37255048490822029 -0.075428045199386021 0 -0.3850793396370561 -0.093684769695607462 0 -0.38956594035454478 -0.09269619278727198 0 -0.37393460156608921 -0.086848915154910805 0 -0.37030718454947609 -0.075922333653553678 0 -0.3850793396370561 -0.093684769695607462 0 -0.37030718454947609 -0.075922333653553678 0 -0.37255048490822029 -0.075428045199386021 0 -0.3850793396370561 -0.093684769695607462 0 -0.38251264674624091 -0.080264881454046477 0 -0.38002276121796119 -0.079214218208120107 0 -0.38370288541600189 -0.084268741995276231 0 -0.37691451346587318 -0.077266070630435932 0 -0.38002276121796119 -0.079214218208120107 0 -0.38370288541600189 -0.084268741995276231 0 -0.3829182419734436 -0.077096756390961543 0 -0.38077408356806242 -0.077471640784151322 0 -0.38251264674624091 -0.080264881454046477 0 -0.38077408356806242 -0.077471640784151322 0 -0.38251264674624091 -0.080264881454046477 0 -0.38002276121796119 -0.079214218208120107 0 -0.37393460156608921 -0.086848915154910805 0 -0.37546006537226578 -0.093188574994236162 0 -0.3850793396370561 -0.093684769695607462 0 -0.38846736511281332 -0.086955180417490327 0 -0.38956594035454478 -0.09269619278727198 0 -0.38370288541600189 -0.084268741995276231 0 -0.38846736511281332 -0.086955180417490327 0 -0.38956594035454478 -0.09269619278727198 0 -0.39159233756288642 -0.088304702132444554 0 -0.38846736511281332 -0.086955180417490327 0 -0.3900990585087788 -0.084776963900618674 0 -0.39159233756288642 -0.088304702132444554 0 -0.38586262634423091 -0.081862542754875117 0 -0.38554884050097621 -0.07868931572130658 0 -0.38828852132185138 -0.080232246511751273 0 -0.3829182419734436 -0.077096756390961543 0 -0.38251264674624091 -0.080264881454046477 0 -0.38554884050097621 -0.07868931572130658 0 -0.38251264674624091 -0.080264881454046477 0 -0.38586262634423091 -0.081862542754875117 0 -0.38554884050097621 -0.07868931572130658 0 -0.38846736511281332 -0.086955180417490327 0 -0.38370288541600189 -0.084268741995276231 0 -0.38714581876944559 -0.084560493384316829 0 -0.38251264674624091 -0.080264881454046477 0 -0.38586262634423091 -0.081862542754875117 0 -0.38370288541600189 -0.084268741995276231 0 -0.38586262634423091 -0.081862542754875117 0 -0.38370288541600189 -0.084268741995276231 0 -0.38714581876944559 -0.084560493384316829 0 -0.38586262634423091 -0.081862542754875117 0 -0.38849698133700272 -0.08264364709297406 0 -0.38714581876944559 -0.084560493384316829 0 -0.38849698133700272 -0.08264364709297406 0 -0.38714581876944559 -0.084560493384316829 0 -0.3900990585087788 -0.084776963900618674 0 -0.38846736511281332 -0.086955180417490327 0 -0.38714581876944559 -0.084560493384316829 0 -0.3900990585087788 -0.084776963900618674 0 -0.38849698133700272 -0.08264364709297406 0 -0.3900990585087788 -0.084776963900618674 0 -0.39108888174070672 -0.081785988913308405 0 -0.38849698133700272 -0.08264364709297406 0 -0.38828852132185138 -0.080232246511751273 0 -0.39108888174070672 -0.081785988913308405 0 -0.38828852132185138 -0.080232246511751273 0 -0.39106083453765139 -0.078539267938246934 0 -0.39108888174070672 -0.081785988913308405 0 -0.38586262634423091 -0.081862542754875117 0 -0.38849698133700272 -0.08264364709297406 0 -0.38828852132185138 -0.080232246511751273 0 -0.38809299732354541 -0.077304123927099025 0 -0.38554884050097621 -0.07868931572130658 0 -0.38828852132185138 -0.080232246511751273 0 -0.38809299732354541 -0.077304123927099025 0 -0.38828852132185138 -0.080232246511751273 0 -0.39106083453765139 -0.078539267938246934 0 -0.40267527069355658 -0.078516326705015627 0 -0.40651857142065467 -0.094555525519386993 0 -0.39106083453765139 -0.078539267938246934 0 -0.39379343703555691 -0.0805689963887114 0 -0.39503268109229361 -0.077285548740510815 0 -0.40445289291218173 -0.081875937252762349 0 -0.40267527069355658 -0.078516326705015627 0 -0.40651857142065467 -0.094555525519386993 0 -0.40097215569105149 -0.087346299730869728 0 -0.40267527069355658 -0.078516326705015627 0 -0.40651857142065467 -0.094555525519386993 0 -0.39106083453765139 -0.078539267938246934 0 -0.39379343703555691 -0.0805689963887114 0 -0.39108888174070672 -0.081785988913308405 0 -0.3900990585087788 -0.084776963900618674 0 -0.39108888174070672 -0.081785988913308405 0 -0.39415797042412898 -0.084189244571559699 0 -0.3900990585087788 -0.084776963900618674 0 -0.39415797042412898 -0.084189244571559699 0 -0.39159233756288642 -0.088304702132444554 0 -0.39379343703555691 -0.0805689963887114 0 -0.39108888174070672 -0.081785988913308405 0 -0.39415797042412898 -0.084189244571559699 0 -0.39415797042412898 -0.084189244571559699 0 -0.39826687463639132 -0.084044091153965966 0 -0.39607223501124789 -0.088385463276563964 0 -0.39415797042412898 -0.084189244571559699 0 -0.39826687463639132 -0.084044091153965966 0 -0.39691133554240249 -0.08100303903210658 0 -0.39691133554240249 -0.08100303903210658 0 -0.40267527069355658 -0.078516326705015627 0 -0.39503268109229361 -0.077285548740510815 0 -0.39379343703555691 -0.0805689963887114 0 -0.39691133554240249 -0.08100303903210658 0 -0.39503268109229361 -0.077285548740510815 0 -0.39379343703555691 -0.0805689963887114 0 -0.39415797042412898 -0.084189244571559699 0 -0.39691133554240249 -0.08100303903210658 0 -0.38956594035454478 -0.09269619278727198 0 -0.39382746075268599 -0.090668547523480525 0 -0.39807933008206531 -0.093287831897641615 0 -0.38956594035454478 -0.09269619278727198 0 -0.39382746075268599 -0.090668547523480525 0 -0.39159233756288642 -0.088304702132444554 0 -0.39415797042412898 -0.084189244571559699 0 -0.39159233756288642 -0.088304702132444554 0 -0.39607223501124789 -0.088385463276563964 0 -0.39382746075268599 -0.090668547523480525 0 -0.39159233756288642 -0.088304702132444554 0 -0.39607223501124789 -0.088385463276563964 0 -0.39607223501124789 -0.088385463276563964 0 -0.39807933008206531 -0.093287831897641615 0 -0.40097215569105149 -0.087346299730869728 0 -0.39826687463639132 -0.084044091153965966 0 -0.39607223501124789 -0.088385463276563964 0 -0.40097215569105149 -0.087346299730869728 0 -0.39382746075268599 -0.090668547523480525 0 -0.39607223501124789 -0.088385463276563964 0 -0.39807933008206531 -0.093287831897641615 0 -0.39807933008206531 -0.093287831897641615 0 -0.40097215569105149 -0.087346299730869728 0 -0.40651857142065467 -0.094555525519386993 0 -0.39826687463639132 -0.084044091153965966 0 -0.40097215569105149 -0.087346299730869728 0 -0.40267527069355658 -0.078516326705015627 0 -0.39826687463639132 -0.084044091153965966 0 -0.39691133554240249 -0.08100303903210658 0 -0.40267527069355658 -0.078516326705015627 0 -0.40445289291218173 -0.081875937252762349 0 -0.40267527069355658 -0.078516326705015627 0 -0.40779938874224952 -0.077859954655356056 0 -0.40445289291218173 -0.081875937252762349 0 -0.40267527069355658 -0.078516326705015627 0 -0.39061383377243702 -0.055720858536027117 0 -0.40267527069355658 -0.078516326705015627 0 -0.40267527069355658 -0.078516326705015627 0 -0.39991950919138608 -0.067015741724329919 0 -0.40679189247986242 -0.073023333201312365 0 -0.39061383377243702 -0.055720858536027117 0 -0.40267527069355658 -0.078516326705015627 0 -0.39344706311091499 -0.070748619837804005 0 -0.40267527069355658 -0.078516326705015627 0 -0.39991950919138608 -0.067015741724329919 0 -0.39061383377243702 -0.055720858536027117 0 -0.40267527069355658 -0.078516326705015627 0 -0.39991950919138608 -0.067015741724329919 0 -0.40267527069355658 -0.078516326705015627 0 -0.40679189247986242 -0.073023333201312365 0 -0.40779938874224952 -0.077859954655356056 0 -0.40542813345304701 -0.055004265702366863 0 -0.39991950919138608 -0.067015741724329919 0 -0.4093535025285574 -0.066519602116818274 0 -0.39991950919138608 -0.067015741724329919 0 -0.4093535025285574 -0.066519602116818274 0 -0.40679189247986242 -0.073023333201312365 0 -0.39061383377243702 -0.055720858536027117 0 -0.38920278220463361 -0.06818260843327803 0 -0.39344706311091499 -0.070748619837804005 0 -0.38971074779165421 -0.074037756774188418 0 -0.39344706311091499 -0.070748619837804005 0 -0.39503268109229361 -0.077285548740510815 0 -0.40267527069355658 -0.078516326705015627 0 -0.39344706311091499 -0.070748619837804005 0 -0.39503268109229361 -0.077285548740510815 0 -0.38920278220463361 -0.06818260843327803 0 -0.38971074779165421 -0.074037756774188418 0 -0.39344706311091499 -0.070748619837804005 0 -0.38971074779165421 -0.074037756774188418 0 -0.39106083453765139 -0.078539267938246934 0 -0.39503268109229361 -0.077285548740510815 0 -0.37238458741650737 -0.12508344370428551 0 -0.39245810532181818 -0.1291366883341927 0 -0.37947358245264118 -0.1054441875904507 0 -0.37546006537226578 -0.093188574994236162 0 -0.3850793396370561 -0.093684769695607462 0 -0.37947358245264118 -0.1054441875904507 0 -0.3850793396370561 -0.093684769695607462 0 -0.38956594035454478 -0.09269619278727198 0 -0.37947358245264118 -0.1054441875904507 0 -0.38956594035454478 -0.09269619278727198 0 -0.40658139580086528 -0.1099643403751619 0 -0.37947358245264118 -0.1054441875904507 0 -0.40658139580086528 -0.1099643403751619 0 -0.38956594035454478 -0.09269619278727198 0 -0.37947358245264118 -0.1054441875904507 0 -0.40658139580086528 -0.1099643403751619 0 -0.39807933008206531 -0.093287831897641615 0 -0.40658139580086528 -0.1099643403751619 0 -0.40651857142065467 -0.094555525519386993 0 -0.38956594035454478 -0.09269619278727198 0 -0.39807933008206531 -0.093287831897641615 0 -0.40658139580086528 -0.1099643403751619 0 -0.37947358245264118 -0.1054441875904507 0 -0.40119121499656851 -0.12004268840557029 0 -0.40658139580086528 -0.1099643403751619 0 -0.39245810532181818 -0.1291366883341927 0 -0.37947358245264118 -0.1054441875904507 0 -0.40119121499656851 -0.12004268840557029 0 -0.41538048253884657 -0.1315388282564888 0 -0.41134792190906361 -0.11480165293358199 0 -0.41036187214776532 -0.1105947243337554 0 -0.43277140411082737 -0.1143314517121556 0 -0.4222110588796591 -0.12105036347331009 0 -0.41036187214776532 -0.1105947243337554 0 -0.43277140411082737 -0.1143314517121556 0 -0.41538048253884657 -0.1315388282564888 0 -0.41134792190906361 -0.11480165293358199 0 -0.4222110588796591 -0.12105036347331009 0 -0.41538048253884657 -0.1315388282564888 0 -0.40119121499656851 -0.12004268840557029 0 -0.41134792190906361 -0.11480165293358199 0 -0.40119121499656851 -0.12004268840557029 0 -0.41134792190906361 -0.11480165293358199 0 -0.40658139580086528 -0.1099643403751619 0 -0.41134792190906361 -0.11480165293358199 0 -0.40658139580086528 -0.1099643403751619 0 -0.41134792190906361 -0.11480165293358199 0 -0.40658139580086528 -0.1099643403751619 0 -0.41036187214776532 -0.1105947243337554 0 -0.40658139580086528 -0.1099643403751619 0 -0.41036187214776532 -0.1105947243337554 0 -0.41134792190906361 -0.11480165293358199 0 -0.41036187214776532 -0.1105947243337554 0 -0.41134792190906361 -0.11480165293358199 0 -0.41036187214776532 -0.1105947243337554 0 -0.4222110588796591 -0.12105036347331009 0 -0.41036187214776532 -0.1105947243337554 0 -0.40651857142065467 -0.094555525519386993 0 -0.40658139580086528 -0.1099643403751619 0 -0.41036187214776532 -0.1105947243337554 0 -0.40651857142065467 -0.094555525519386993 0 -0.41036187214776532 -0.1105947243337554 0 -0.40651857142065467 -0.094555525519386993 0 -0.42171094964211309 -0.098142979727625201 0 -0.41036187214776532 -0.1105947243337554 0 -0.42171094964211309 -0.098142979727625201 0 -0.43277140411082737 -0.1143314517121556 0 -0.42171094964211309 -0.098142979727625201 0 -0.43277140411082737 -0.1143314517121556 0 -0.44153611574321389 -0.095053672785164689 0 -0.43277140411082737 -0.1143314517121556 0 -0.43450131439846562 -0.1249436758912086 0 -0.4222110588796591 -0.12105036347331009 0 -0.41421179124356228 -0.075205040805041937 0 -0.42566052769249418 -0.082546466388327189 0 -0.42246456164244689 -0.063432686531906549 0 -0.41421179124356228 -0.075205040805041937 0 -0.4093535025285574 -0.066519602116818274 0 -0.42246456164244689 -0.063432686531906549 0 -0.41421179124356228 -0.075205040805041937 0 -0.4093535025285574 -0.066519602116818274 0 -0.40679189247986242 -0.073023333201312365 0 -0.41421179124356228 -0.075205040805041937 0 -0.40679189247986242 -0.073023333201312365 0 -0.40779938874224952 -0.077859954655356056 0 -0.41421179124356228 -0.075205040805041937 0 -0.41020461942694342 -0.08300506757367121 0 -0.41566129188515372 -0.086691016002810511 0 -0.40445289291218173 -0.081875937252762349 0 -0.40779938874224952 -0.077859954655356056 0 -0.41020461942694342 -0.08300506757367121 0 -0.41421179124356228 -0.075205040805041937 0 -0.40779938874224952 -0.077859954655356056 0 -0.41020461942694342 -0.08300506757367121 0 -0.40651857142065467 -0.094555525519386993 0 -0.41020461942694342 -0.08300506757367121 0 -0.41566129188515372 -0.086691016002810511 0 -0.40445289291218173 -0.081875937252762349 0 -0.40651857142065467 -0.094555525519386993 0 -0.41020461942694342 -0.08300506757367121 0 -0.40651857142065467 -0.094555525519386993 0 -0.42171094964211309 -0.098142979727625201 0 -0.41566129188515372 -0.086691016002810511 0 -0.42171094964211309 -0.098142979727625201 0 -0.41566129188515372 -0.086691016002810511 0 -0.42566052769249418 -0.082546466388327189 0 -0.41421179124356228 -0.075205040805041937 0 -0.41566129188515372 -0.086691016002810511 0 -0.42566052769249418 -0.082546466388327189 0 -0.42171094964211309 -0.098142979727625201 0 -0.42566052769249418 -0.082546466388327189 0 -0.44153611574321389 -0.095053672785164689 0 -0.42566052769249418 -0.082546466388327189 0 -0.438278289217783 -0.072080319156987191 0 -0.44153611574321389 -0.095053672785164689 0 -0.42566052769249418 -0.082546466388327189 0 -0.42246456164244689 -0.063432686531906549 0 -0.438278289217783 -0.072080319156987191 0 -0.43630702628640861 -0.052446291435572882 0 -0.42246456164244689 -0.063432686531906549 0 -0.438278289217783 -0.072080319156987191 0 -0.438278289217783 -0.072080319156987191 0 -0.45631645028987827 -0.078341465736253058 0 -0.44738505365225661 -0.060661332064698793 0 -0.438278289217783 -0.072080319156987191 0 -0.45631645028987827 -0.078341465736253058 0 -0.44153611574321389 -0.095053672785164689 0 -0.45631645028987827 -0.078341465736253058 0 -0.47098200394305889 -0.068242897286610954 0 -0.4768928102712407 -0.091196004680402495 0 -0.45631645028987827 -0.078341465736253058 0 -0.44153611574321389 -0.095053672785164689 0 -0.46274900126793561 -0.1005630458030302 0 -0.45631645028987827 -0.078341465736253058 0 -0.46274900126793561 -0.1005630458030302 0 -0.4768928102712407 -0.091196004680402495 0 -0.45631645028987827 -0.078341465736253058 0 -0.46082560209688939 -0.059718277397154358 0 -0.44738505365225661 -0.060661332064698793 0 -0.45631645028987827 -0.078341465736253058 0 -0.47098200394305889 -0.068242897286610954 0 -0.46082560209688939 -0.059718277397154358 0 -0.43277140411082737 -0.1143314517121556 0 -0.45518093607388871 -0.118068179090561 0 -0.43277140411082737 -0.1143314517121556 0 -0.44633151558950429 -0.12470189104356751 0 -0.45518093607388871 -0.118068179090561 0 -0.43277140411082737 -0.1143314517121556 0 -0.43450131439846562 -0.1249436758912086 0 -0.44633151558950429 -0.12470189104356751 0 -0.43277140411082737 -0.1143314517121556 0 -0.44153611574321389 -0.095053672785164689 0 -0.45518093607388871 -0.118068179090561 0 -0.44153611574321389 -0.095053672785164689 0 -0.46274900126793561 -0.1005630458030302 0 -0.45518093607388871 -0.118068179090561 0 -0.46274900126793561 -0.1005630458030302 0 -0.45518093607388871 -0.118068179090561 0 -0.47759046803694999 -0.1218049064689664 0 -0.45518093607388871 -0.118068179090561 0 -0.47759046803694999 -0.1218049064689664 0 -0.45867225585720478 -0.1284486531364101 0 -0.45518093607388871 -0.118068179090561 0 -0.47759046803694999 -0.1218049064689664 0 -0.45867225585720478 -0.1284486531364101 0 -0.44633151558950429 -0.12470189104356751 0 -0.45518093607388871 -0.118068179090561 0 -0.46274900126793561 -0.1005630458030302 0 -0.47759046803694999 -0.1218049064689664 0 -0.48434065573634533 -0.1063386502253216 0 -0.46274900126793561 -0.1005630458030302 0 -0.48434065573634533 -0.1063386502253216 0 -0.4768928102712407 -0.091196004680402495 0 -0.48434065573634533 -0.1063386502253216 0 -0.5 -0.1000493693917536 0 -0.4768928102712407 -0.091196004680402495 0 -0.50000000000001099 -0.1255416338473736 0 -0.47759046803694999 -0.1218049064689664 0 -0.48434065573634533 -0.1063386502253216 0 -0.50000000000001099 -0.1255416338473736 0 -0.47759046803694999 -0.1218049064689664 0 -0.50000000000001099 -0.1255416338473736 0 -0.48434065573634533 -0.1063386502253216 0 -0.5 -0.1000493693917536 0 -0.4836448760925211 -0.076208455096617306 0 -0.47098200394305889 -0.068242897286610954 0 -0.48774402864230881 -0.056736928005038087 0 -0.4836448760925211 -0.076208455096617306 0 -0.47098200394305889 -0.068242897286610954 0 -0.4768928102712407 -0.091196004680402495 0 -0.5 -0.1000493693917536 0 -0.4836448760925211 -0.076208455096617306 0 -0.4768928102712407 -0.091196004680402495 0 -0.5 -0.1000493693917536 0 -0.4836448760925211 -0.076208455096617306 0 -0.49999999999999661 -0.074557104936133559 0 -0.4836448760925211 -0.076208455096617306 0 -0.49999999999999661 -0.074557104936133559 0 -0.48774402864230881 -0.056736928005038087 0 -0.49999999999999661 -0.074557104936133559 0 -0.48774402864230881 -0.056736928005038087 0 -0.49999999999999661 -0.074557104936133559 0 -0.5 -0.047018966645715921 0 -0.48774402864230881 -0.056736928005038087 0 -0.5 -0.047018966645715921 0 -0.48774402864230881 -0.056736928005038087 0 -0.48774402864231048 -0.042967858859829053 0 -0.5 -0.047018966645715921 0 -0.48774402864231048 -0.042967858859829053 0 -0.48774402864231148 -0.029198789714620241 0 -0.5 -0.047018966645715921 0 -0.48774402864231148 -0.029198789714620241 0 -0.50000000000000078 -0.019480828355298092 0 -0.47548805728462179 -0.038916751073942019 0 -0.47287857465128891 -0.054562289061131738 0 -0.46537038760336191 -0.046939217848652057 0 -0.48774402864230881 -0.056736928005038087 0 -0.48774402864231048 -0.042967858859829053 0 -0.47548805728462179 -0.038916751073942019 0 -0.47548805728462179 -0.038916751073942019 0 -0.48774402864231148 -0.029198789714620241 0 -0.48774402864231048 -0.042967858859829053 0 -0.47548805728462179 -0.038916751073942019 0 -0.48774402864231148 -0.029198789714620241 0 -0.47548805728462179 -0.038916751073942019 0 -0.46537038760336191 -0.046939217848652057 0 -0.48774402864230881 -0.056736928005038087 0 -0.47548805728462179 -0.038916751073942019 0 -0.47287857465128891 -0.054562289061131738 0 -0.48774402864230881 -0.056736928005038087 0 -0.47548805728462179 -0.038916751073942019 0 -0.47098200394305889 -0.068242897286610954 0 -0.48774402864230881 -0.056736928005038087 0 -0.47287857465128891 -0.054562289061131738 0 -0.47098200394305889 -0.068242897286610954 0 -0.47287857465128891 -0.054562289061131738 0 -0.46082560209688939 -0.059718277397154358 0 -0.46082560209688939 -0.059718277397154358 0 -0.46537038760336191 -0.046939217848652057 0 -0.45002974559839087 -0.048433775538448479 0 -0.47287857465128891 -0.054562289061131738 0 -0.46082560209688939 -0.059718277397154358 0 -0.46537038760336191 -0.046939217848652057 0 -0.47548805728462179 -0.038916751073942019 0 -0.46537038760336191 -0.046939217848652057 0 -0.45441668069107127 -0.032923283102476428 0 -0.46537038760336191 -0.046939217848652057 0 -0.45441668069107127 -0.032923283102476428 0 -0.45002974559839087 -0.048433775538448479 0 -0.43674233206255769 -0.03881288302652601 0 -0.45441668069107127 -0.032923283102476428 0 -0.45002974559839087 -0.048433775538448479 0 -0.43630702628640861 -0.052446291435572882 0 -0.43674233206255769 -0.03881288302652601 0 -0.45002974559839087 -0.048433775538448479 0 -0.43630702628640861 -0.052446291435572882 0 -0.438278289217783 -0.072080319156987191 0 -0.44738505365225661 -0.060661332064698793 0 -0.43630702628640861 -0.052446291435572882 0 -0.44738505365225661 -0.060661332064698793 0 -0.45002974559839087 -0.048433775538448479 0 -0.46082560209688939 -0.059718277397154358 0 -0.44738505365225661 -0.060661332064698793 0 -0.45002974559839087 -0.048433775538448479 0 -0.43487297574131328 -0.016919223884941478 0 -0.45967952302965398 -0.015931149262118669 0 -0.44387098877468478 0.0070544525497037436 0 -0.45967952302965398 -0.015931149262118669 0 -0.44387098877468478 0.0070544525497037436 0 -0.43674233206255769 -0.03881288302652601 0 -0.43487297574131328 -0.016919223884941478 0 -0.45441668069107127 -0.032923283102476428 0 -0.43487297574131328 -0.016919223884941478 0 -0.45441668069107127 -0.032923283102476428 0 -0.45967952302965398 -0.015931149262118669 0 -0.47548805728462179 -0.038916751073942019 0 -0.45441668069107127 -0.032923283102476428 0 -0.45967952302965398 -0.015931149262118669 0 -0.47548805728462179 -0.038916751073942019 0 -0.45967952302965398 -0.015931149262118669 0 -0.45967952302965398 -0.015931149262118669 0 -0.48228778058750071 -0.0085861168906717217 0 -0.47013787592836209 0.01114807092990935 0 -0.47548805728462179 -0.038916751073942019 0 -0.45967952302965398 -0.015931149262118669 0 -0.48774402864231148 -0.029198789714620241 0 -0.45967952302965398 -0.015931149262118669 0 -0.48228778058750071 -0.0085861168906717217 0 -0.48774402864231148 -0.029198789714620241 0 -0.48228778058750071 -0.0085861168906717217 0 -0.48774402864231148 -0.029198789714620241 0 -0.50000000000000078 -0.019480828355298092 0 -0.48774402864231148 -0.029198789714620241 0 -0.50000000000000078 -0.019480828355298092 0 -0.48228778058750071 -0.0085861168906717217 0 -0.50000000000000078 -0.019480828355298092 0 -0.50000000000000044 0.0083019774979285477 0 -0.50000000000000044 0.0083019774979285477 0 -0.47013787592836209 0.01114807092990935 0 -0.50000000000000044 0.0083019774979285477 0 -0.48053109428957658 0.028314044828115399 0 -0.5 0.033177311036787949 0 -0.48053109428957658 0.028314044828115399 0 -0.47013787592836209 0.01114807092990935 0 -0.45611938010713748 0.022146054721962669 0 -0.50000000000000044 0.0083019774979285477 0 -0.48053109428957658 0.028314044828115399 0 -0.47013787592836209 0.01114807092990935 0 -0.48228778058750071 -0.0085861168906717217 0 -0.50000000000000044 0.0083019774979285477 0 -0.47013787592836209 0.01114807092990935 0 -0.5 0.058052644575647287 0 -0.48555705450657072 0.046132445937015702 0 -0.47467800150980988 0.068895854400337242 0 -0.5 0.058052644575647287 0 -0.5 0.033177311036787949 0 -0.48555705450657072 0.046132445937015702 0 -0.48053109428957658 0.028314044828115399 0 -0.5 0.033177311036787949 0 -0.48555705450657072 0.046132445937015702 0 -0.48053109428957658 0.028314044828115399 0 -0.48555705450657072 0.046132445937015702 0 -0.46755034929343831 0.043617309418489979 0 -0.48555705450657072 0.046132445937015702 0 -0.46755034929343831 0.043617309418489979 0 -0.47467800150980988 0.068895854400337242 0 -0.45479882322040482 0.055007306001233533 0 -0.46755034929343831 0.043617309418489979 0 -0.47467800150980988 0.068895854400337242 0 -0.46755034929343831 0.043617309418489979 0 -0.45134423811474977 0.038001644613357123 0 -0.45611938010713748 0.022146054721962669 0 -0.48053109428957658 0.028314044828115399 0 -0.46755034929343831 0.043617309418489979 0 -0.45611938010713748 0.022146054721962669 0 -0.45479882322040482 0.055007306001233533 0 -0.46755034929343831 0.043617309418489979 0 -0.45134423811474977 0.038001644613357123 0 -0.45134423811474977 0.038001644613357123 0 -0.43771214632371869 0.056679789491300703 0 -0.43916836457848368 0.027635767385417832 0 -0.43771214632371869 0.056679789491300703 0 -0.43916836457848368 0.027635767385417832 0 -0.45479882322040482 0.055007306001233533 0 -0.45134423811474977 0.038001644613357123 0 -0.43771214632371869 0.056679789491300703 0 -0.45479882322040482 0.055007306001233533 0 -0.43771214632371869 0.056679789491300703 0 -0.45290812476500769 0.072000207422029908 0 -0.47013787592836209 0.01114807092990935 0 -0.44027575185672402 0.01399416436189008 0 -0.45967952302965398 -0.015931149262118669 0 -0.47013787592836209 0.01114807092990935 0 -0.44387098877468478 0.0070544525497037436 0 -0.47013787592836209 0.01114807092990935 0 -0.45611938010713748 0.022146054721962669 0 -0.44027575185672402 0.01399416436189008 0 -0.45134423811474977 0.038001644613357123 0 -0.45611938010713748 0.022146054721962669 0 -0.44666269353013238 0.0242789627502463 0 -0.45611938010713748 0.022146054721962669 0 -0.44666269353013238 0.0242789627502463 0 -0.44027575185672402 0.01399416436189008 0 -0.45134423811474977 0.038001644613357123 0 -0.44666269353013238 0.0242789627502463 0 -0.43916836457848368 0.027635767385417832 0 -0.44666269353013238 0.0242789627502463 0 -0.43916836457848368 0.027635767385417832 0 -0.44027575185672402 0.01399416436189008 0 -0.47013787592836209 0.01114807092990935 0 -0.44387098877468478 0.0070544525497037436 0 -0.44027575185672402 0.01399416436189008 0 -0.42034899595775099 -0.0022552999252458648 0 -0.4313306374062012 0.0016034976556527831 0 -0.42622958915105569 0.01853406188309473 0 -0.42034899595775099 -0.0022552999252458648 0 -0.42622958915105569 0.01853406188309473 0 -0.44387098877468478 0.0070544525497037436 0 -0.4313306374062012 0.0016034976556527831 0 -0.42622958915105569 0.01853406188309473 0 -0.42034899595775099 -0.0022552999252458648 0 -0.40987347255783663 0.010749304063525689 0 -0.4012461205054394 0.00052568744523271641 0 -0.42034899595775099 -0.0022552999252458648 0 -0.41676995109014708 0.01817430076666289 0 -0.42622958915105569 0.01853406188309473 0 -0.42034899595775099 -0.0022552999252458648 0 -0.40987347255783663 0.010749304063525689 0 -0.41676995109014708 0.01817430076666289 0 -0.41676995109014708 0.01817430076666289 0 -0.42806245451971559 0.030040054361526219 0 -0.41218697266623222 0.032504304223229273 0 -0.41676995109014708 0.01817430076666289 0 -0.41218697266623222 0.032504304223229273 0 -0.40437901061614012 0.023518101200247891 0 -0.40987347255783663 0.010749304063525689 0 -0.41676995109014708 0.01817430076666289 0 -0.40437901061614012 0.023518101200247891 0 -0.43916836457848368 0.027635767385417832 0 -0.44027575185672402 0.01399416436189008 0 -0.42806245451971559 0.030040054361526219 0 -0.44387098877468478 0.0070544525497037436 0 -0.42806245451971559 0.030040054361526219 0 -0.44387098877468478 0.0070544525497037436 0 -0.42806245451971559 0.030040054361526219 0 -0.42622958915105569 0.01853406188309473 0 -0.44387098877468478 0.0070544525497037436 0 -0.44027575185672402 0.01399416436189008 0 -0.42806245451971559 0.030040054361526219 0 -0.41676995109014708 0.01817430076666289 0 -0.42806245451971559 0.030040054361526219 0 -0.42622958915105569 0.01853406188309473 0 -0.43771214632371869 0.056679789491300703 0 -0.43916836457848368 0.027635767385417832 0 -0.42806245451971559 0.030040054361526219 0 -0.43771214632371869 0.056679789491300703 0 -0.42806245451971559 0.030040054361526219 0 -0.41225392026474628 0.053025656173348701 0 -0.43771214632371869 0.056679789491300703 0 -0.41225392026474628 0.053025656173348701 0 -0.42570840438552648 0.069014525153441197 0 -0.42806245451971559 0.030040054361526219 0 -0.41225392026474628 0.053025656173348701 0 -0.41225392026474628 0.053025656173348701 0 -0.41218697266623222 0.032504304223229273 0 -0.39981180382927067 0.035301570151791882 0 -0.42806245451971559 0.030040054361526219 0 -0.41225392026474628 0.053025656173348701 0 -0.41218697266623222 0.032504304223229273 0 -0.41225392026474628 0.053025656173348701 0 -0.39981180382927067 0.035301570151791882 0 -0.39485194765001391 0.046695036175515819 0 -0.39981180382927067 0.035301570151791882 0 -0.39485194765001391 0.046695036175515819 0 -0.38668410507186829 0.03925009406627758 0 -0.39981180382927067 0.035301570151791882 0 -0.38668410507186829 0.03925009406627758 0 -0.38792053424349793 0.03051038602864526 0 -0.41225392026474628 0.053025656173348701 0 -0.39485194765001391 0.046695036175515819 0 -0.39372730178501558 0.057833536969721787 0 -0.41225392026474628 0.053025656173348701 0 -0.39372730178501558 0.057833536969721787 0 -0.39636111479203617 0.075953355480992857 0 -0.39372730178501558 0.057833536969721787 0 -0.38271098997085568 0.050251736966184707 0 -0.38266079029724842 0.064485457356803763 0 -0.39485194765001391 0.046695036175515819 0 -0.39372730178501558 0.057833536969721787 0 -0.38271098997085568 0.050251736966184707 0 -0.38271098997085568 0.050251736966184707 0 -0.37181203191657258 0.046414640740192858 0 -0.37263919311136651 0.058427960730028289 0 -0.38271098997085568 0.050251736966184707 0 -0.38266079029724842 0.064485457356803763 0 -0.37263919311136651 0.058427960730028289 0 -0.38668410507186829 0.03925009406627758 0 -0.37974329209495522 0.03227214272291732 0 -0.38792053424349793 0.03051038602864526 0 -0.39485194765001391 0.046695036175515819 0 -0.38271098997085568 0.050251736966184707 0 -0.38668410507186829 0.03925009406627758 0 -0.38271098997085568 0.050251736966184707 0 -0.38668410507186829 0.03925009406627758 0 -0.37725554928066413 0.040081702841281937 0 -0.38271098997085568 0.050251736966184707 0 -0.37725554928066413 0.040081702841281937 0 -0.37181203191657258 0.046414640740192858 0 -0.38668410507186829 0.03925009406627758 0 -0.37725554928066413 0.040081702841281937 0 -0.37974329209495522 0.03227214272291732 0 -0.37725554928066413 0.040081702841281937 0 -0.37974329209495522 0.03227214272291732 0 -0.37263177943124731 0.033249493843526053 0 -0.37974329209495522 0.03227214272291732 0 -0.38074046241750198 0.025084519952121642 0 -0.37441339120421929 0.026822871754168861 0 -0.37974329209495522 0.03227214272291732 0 -0.38074046241750198 0.025084519952121642 0 -0.38792053424349793 0.03051038602864526 0 -0.37974329209495522 0.03227214272291732 0 -0.37441339120421929 0.026822871754168861 0 -0.37263177943124731 0.033249493843526053 0 -0.38074046241750198 0.025084519952121642 0 -0.3754483846295848 0.020169662492656289 0 -0.37441339120421929 0.026822871754168861 0 -0.38074046241750198 0.025084519952121642 0 -0.38792053424349793 0.03051038602864526 0 -0.38908106679422533 0.022062399674912629 0 -0.38908106679422533 0.022062399674912629 0 -0.38266975889832472 0.01584883896749727 0 -0.39249514608131347 0.01229336227493423 0 -0.38074046241750198 0.025084519952121642 0 -0.38908106679422533 0.022062399674912629 0 -0.38266975889832472 0.01584883896749727 0 -0.38074046241750198 0.025084519952121642 0 -0.38266975889832472 0.01584883896749727 0 -0.3754483846295848 0.020169662492656289 0 -0.38266975889832472 0.01584883896749727 0 -0.3754483846295848 0.020169662492656289 0 -0.37610383802070929 0.01417088813385226 0 -0.37610383802070929 0.01417088813385226 0 -0.37890043656200167 0.0088647173991593456 0 -0.37241620784035762 0.0091981994654418767 0 -0.38266975889832472 0.01584883896749727 0 -0.37610383802070929 0.01417088813385226 0 -0.37890043656200167 0.0088647173991593456 0 -0.37890043656200167 0.0088647173991593456 0 -0.37576616927869799 0.0025212232452482409 0 -0.38734634054343681 0.00324979067050595 0 -0.37890043656200167 0.0088647173991593456 0 -0.37576616927869799 0.0025212232452482409 0 -0.37241620784035762 0.0091981994654418767 0 -0.38266975889832472 0.01584883896749727 0 -0.37890043656200167 0.0088647173991593456 0 -0.38734634054343681 0.00324979067050595 0 -0.38266975889832472 0.01584883896749727 0 -0.38734634054343681 0.00324979067050595 0 -0.39249514608131347 0.01229336227493423 0 -0.39249514608131347 0.01229336227493423 0 -0.40085442705224122 0.01395588207621583 0 -0.3966206624893357 0.020231116934569832 0 -0.39249514608131347 0.01229336227493423 0 -0.4012461205054394 0.00052568744523271641 0 -0.40085442705224122 0.01395588207621583 0 -0.38734634054343681 0.00324979067050595 0 -0.39249514608131347 0.01229336227493423 0 -0.4012461205054394 0.00052568744523271641 0 -0.40987347255783663 0.010749304063525689 0 -0.4012461205054394 0.00052568744523271641 0 -0.40085442705224122 0.01395588207621583 0 -0.40987347255783663 0.010749304063525689 0 -0.40085442705224122 0.01395588207621583 0 -0.40437901061614012 0.023518101200247891 0 -0.40085442705224122 0.01395588207621583 0 -0.40437901061614012 0.023518101200247891 0 -0.3966206624893357 0.020231116934569832 0 -0.40437901061614012 0.023518101200247891 0 -0.39549416019672218 0.026817082490547262 0 -0.3966206624893357 0.020231116934569832 0 -0.41218697266623222 0.032504304223229273 0 -0.39981180382927067 0.035301570151791882 0 -0.40437901061614012 0.023518101200247891 0 -0.39981180382927067 0.035301570151791882 0 -0.40437901061614012 0.023518101200247891 0 -0.39549416019672218 0.026817082490547262 0 -0.38792053424349793 0.03051038602864526 0 -0.38908106679422533 0.022062399674912629 0 -0.39549416019672218 0.026817082490547262 0 -0.39981180382927067 0.035301570151791882 0 -0.38792053424349793 0.03051038602864526 0 -0.39549416019672218 0.026817082490547262 0 -0.38908106679422533 0.022062399674912629 0 -0.39549416019672218 0.026817082490547262 0 -0.3966206624893357 0.020231116934569832 0 -0.38908106679422533 0.022062399674912629 0 -0.39249514608131347 0.01229336227493423 0 -0.3966206624893357 0.020231116934569832 0 -0.39648695652528831 0.10479260688949329 0 -0.38890767034529311 0.11373695772907511 0 -0.39375817513157552 0.089148387322879552 0 -0.39648695652528831 0.10479260688949329 0 -0.40090409782171832 0.097639075614642579 0 -0.39375817513157552 0.089148387322879552 0 -0.38890767034529311 0.11373695772907511 0 -0.39375817513157552 0.089148387322879552 0 -0.40090409782171832 0.097639075614642579 0 -0.40524132183882888 0.09319673854028325 0 -0.40812993779118117 0.10341856970591549 0 -0.39648695652528831 0.10479260688949329 0 -0.40090409782171832 0.097639075614642579 0 -0.40812993779118117 0.10341856970591549 0 -0.39648695652528831 0.10479260688949329 0 -0.40332062881630421 0.11476412144982009 0 -0.40812993779118117 0.10341856970591549 0 -0.40332062881630421 0.11476412144982009 0 -0.38890767034529311 0.11373695772907511 0 -0.40015099198154008 0.12979398768763711 0 -0.40332062881630421 0.11476412144982009 0 -0.41262360058489639 0.12366733994261921 0 -0.40015099198154008 0.12979398768763711 0 -0.39648695652528831 0.10479260688949329 0 -0.40332062881630421 0.11476412144982009 0 -0.38890767034529311 0.11373695772907511 0 -0.38890767034529311 0.11373695772907511 0 -0.38405716555900832 0.13832552813527019 0 -0.37062744037481132 0.1135505395145804 0 -0.38890767034529311 0.11373695772907511 0 -0.385664096327405 0.091687248412880548 0 -0.37062744037481132 0.1135505395145804 0 -0.38890767034529311 0.11373695772907511 0 -0.385664096327405 0.091687248412880548 0 -0.39375817513157552 0.089148387322879552 0 -0.385664096327405 0.091687248412880548 0 -0.37062744037481132 0.1135505395145804 0 -0.385664096327405 0.091687248412880548 0 -0.37890229464063752 0.076396414118949207 0 -0.39636111479203617 0.075953355480992857 0 -0.385664096327405 0.091687248412880548 0 -0.37890229464063752 0.076396414118949207 0 -0.37120381789877072 0.086152550109330484 0 -0.385664096327405 0.091687248412880548 0 -0.39375817513157552 0.089148387322879552 0 -0.38266079029724842 0.064485457356803763 0 -0.37890229464063752 0.076396414118949207 0 -0.39636111479203617 0.075953355480992857 0 -0.38266079029724842 0.064485457356803763 0 -0.37890229464063752 0.076396414118949207 0 -0.36851044086808049 0.071533944343932357 0 -0.39372730178501558 0.057833536969721787 0 -0.38266079029724842 0.064485457356803763 0 -0.39636111479203617 0.075953355480992857 0 -0.41225392026474628 0.053025656173348701 0 -0.39636111479203617 0.075953355480992857 0 -0.39636111479203617 0.075953355480992857 0 -0.39375817513157552 0.089148387322879552 0 -0.41177666752508468 0.083496545977461867 0 -0.39375817513157552 0.089148387322879552 0 -0.41177666752508468 0.083496545977461867 0 -0.385664096327405 0.091687248412880548 0 -0.39636111479203617 0.075953355480992857 0 -0.385664096327405 0.091687248412880548 0 -0.39636111479203617 0.075953355480992857 0 -0.39375817513157552 0.089148387322879552 0 -0.39375817513157552 0.089148387322879552 0 -0.40524132183882888 0.09319673854028325 0 -0.41177666752508468 0.083496545977461867 0 -0.39636111479203617 0.075953355480992857 0 -0.39375817513157552 0.089148387322879552 0 -0.40090409782171832 0.097639075614642579 0 -0.39375817513157552 0.089148387322879552 0 -0.40524132183882888 0.09319673854028325 0 -0.40524132183882888 0.09319673854028325 0 -0.41177666752508468 0.083496545977461867 0 -0.41591413448155878 0.093169815573362125 0 -0.41177666752508468 0.083496545977461867 0 -0.41591413448155878 0.093169815573362125 0 -0.42263029053480022 0.08100419994409537 0 -0.41177666752508468 0.083496545977461867 0 -0.4142207962914996 0.071127478275261835 0 -0.42263029053480022 0.08100419994409537 0 -0.41591413448155878 0.093169815573362125 0 -0.42501176243114319 0.08968168998896632 0 -0.42263029053480022 0.08100419994409537 0 -0.39636111479203617 0.075953355480992857 0 -0.41177666752508468 0.083496545977461867 0 -0.4142207962914996 0.071127478275261835 0 -0.41225392026474628 0.053025656173348701 0 -0.39636111479203617 0.075953355480992857 0 -0.4142207962914996 0.071127478275261835 0 -0.41225392026474628 0.053025656173348701 0 -0.4142207962914996 0.071127478275261835 0 -0.42570840438552648 0.069014525153441197 0 -0.4142207962914996 0.071127478275261835 0 -0.42570840438552648 0.069014525153441197 0 -0.42263029053480022 0.08100419994409537 0 -0.43771214632371869 0.056679789491300703 0 -0.42570840438552648 0.069014525153441197 0 -0.43625592806895441 0.085723811597183605 0 -0.43771214632371869 0.056679789491300703 0 -0.43625592806895441 0.085723811597183605 0 -0.42570840438552648 0.069014525153441197 0 -0.42263029053480022 0.08100419994409537 0 -0.43625592806895441 0.085723811597183605 0 -0.42501176243114319 0.08968168998896632 0 -0.43625592806895441 0.085723811597183605 0 -0.42524669663926001 0.098828932841224182 0 -0.42263029053480022 0.08100419994409537 0 -0.43625592806895441 0.085723811597183605 0 -0.42501176243114319 0.08968168998896632 0 -0.42263029053480022 0.08100419994409537 0 -0.43625592806895441 0.085723811597183605 0 -0.43625592806895441 0.085723811597183605 0 -0.42524669663926001 0.098828932841224182 0 -0.43496657526210852 0.11143973110427551 0 -0.42524669663926001 0.098828932841224182 0 -0.41860523306393588 0.1113429531862051 0 -0.43496657526210852 0.11143973110427551 0 -0.43625592806895441 0.085723811597183605 0 -0.43496657526210852 0.11143973110427551 0 -0.41591413448155878 0.093169815573362125 0 -0.42501176243114319 0.08968168998896632 0 -0.42524669663926001 0.098828932841224182 0 -0.41591413448155878 0.093169815573362125 0 -0.42524669663926001 0.098828932841224182 0 -0.416622369635195 0.10185408660447171 0 -0.416622369635195 0.10185408660447171 0 -0.40812993779118117 0.10341856970591549 0 -0.41860523306393588 0.1113429531862051 0 -0.42524669663926001 0.098828932841224182 0 -0.416622369635195 0.10185408660447171 0 -0.41860523306393588 0.1113429531862051 0 -0.40524132183882888 0.09319673854028325 0 -0.41591413448155878 0.093169815573362125 0 -0.40812993779118117 0.10341856970591549 0 -0.41591413448155878 0.093169815573362125 0 -0.416622369635195 0.10185408660447171 0 -0.40812993779118117 0.10341856970591549 0 -0.40332062881630421 0.11476412144982009 0 -0.41262360058489639 0.12366733994261921 0 -0.41860523306393588 0.1113429531862051 0 -0.40332062881630421 0.11476412144982009 0 -0.40812993779118117 0.10341856970591549 0 -0.41860523306393588 0.1113429531862051 0 -0.41262360058489639 0.12366733994261921 0 -0.41860523306393588 0.1113429531862051 0 -0.42358325522563589 0.1246704569487012 0 -0.41860523306393588 0.1113429531862051 0 -0.42358325522563589 0.1246704569487012 0 -0.43496657526210852 0.11143973110427551 0 -0.42358325522563589 0.1246704569487012 0 -0.43496657526210852 0.11143973110427551 0 -0.4343232020537891 0.1242716988560993 0 -0.43496657526210852 0.11143973110427551 0 -0.4343232020537891 0.1242716988560993 0 -0.43496657526210852 0.11143973110427551 0 -0.4343232020537891 0.1242716988560993 0 -0.45196102547808531 0.11800318919087729 0 -0.43496657526210852 0.11143973110427551 0 -0.45196102547808531 0.11800318919087729 0 -0.44745131083153278 0.1019847256655175 0 -0.43625592806895441 0.085723811597183605 0 -0.43496657526210852 0.11143973110427551 0 -0.44745131083153278 0.1019847256655175 0 -0.44745131083153278 0.1019847256655175 0 -0.46434613141226422 0.10768180751345829 0 -0.45750395204597072 0.093083644949242789 0 -0.45196102547808531 0.11800318919087729 0 -0.44745131083153278 0.1019847256655175 0 -0.46434613141226422 0.10768180751345829 0 -0.46434613141226422 0.10768180751345829 0 -0.45750395204597072 0.093083644949242789 0 -0.47875197602298619 0.10044347830130421 0 -0.45750395204597072 0.093083644949242789 0 -0.47875197602298619 0.10044347830130421 0 -0.45196102547808531 0.11800318919087729 0 -0.46434613141226422 0.10768180751345829 0 -0.47570352964768692 0.1213650151678401 0 -0.45196102547808531 0.11800318919087729 0 -0.47570352964768692 0.1213650151678401 0 -0.45657704974698288 0.13562654415373371 0 -0.43771214632371869 0.056679789491300703 0 -0.43625592806895441 0.085723811597183605 0 -0.45290812476500769 0.072000207422029908 0 -0.43625592806895441 0.085723811597183605 0 -0.45290812476500769 0.072000207422029908 0 -0.45750395204597072 0.093083644949242789 0 -0.43625592806895441 0.085723811597183605 0 -0.44745131083153278 0.1019847256655175 0 -0.45750395204597072 0.093083644949242789 0 -0.43625592806895441 0.085723811597183605 0 -0.45750395204597072 0.093083644949242789 0 -0.45290812476500769 0.072000207422029908 0 -0.45750395204597072 0.093083644949242789 0 -0.47467800150980988 0.068895854400337242 0 -0.45479882322040482 0.055007306001233533 0 -0.45290812476500769 0.072000207422029908 0 -0.47467800150980988 0.068895854400337242 0 -0.47467800150980988 0.068895854400337242 0 -0.5 0.082927978114506695 0 -0.47875197602298619 0.10044347830130421 0 -0.45750395204597072 0.093083644949242789 0 -0.47467800150980988 0.068895854400337242 0 -0.47875197602298619 0.10044347830130421 0 -0.5 0.058052644575647287 0 -0.47467800150980988 0.068895854400337242 0 -0.5 0.082927978114506695 0 -0.46434613141226422 0.10768180751345829 0 -0.47570352964768692 0.1213650151678401 0 -0.47875197602298619 0.10044347830130421 0 -0.47875197602298619 0.10044347830130421 0 -0.50000000000000155 0.1078033116533661 0 -0.5 0.082927978114506695 0 -0.47875197602298619 0.10044347830130421 0 -0.50000000000000155 0.1078033116533661 0 -0.47570352964768692 0.1213650151678401 0 -0.50000000000000155 0.1078033116533661 0 -0.5 0.13304257955597831 0 -0.47570352964768692 0.1213650151678401 0 -0.47875197602298619 0.10044347830130421 0 -0.50000000000000155 0.1078033116533661 0 -0.47570352964768692 0.1213650151678401 0 -0.5 0.13304257955597831 0 -0.47828852487349022 0.14695419580616251 0 -0.47570352964768692 0.1213650151678401 0 -0.47828852487349022 0.14695419580616251 0 -0.45657704974698288 0.13562654415373371 0 -0.47828852487349022 0.14695419580616251 0 -0.49999999999999789 0.15828184745859039 0 -0.5 0.13304257955597831 0 -0.47828852487349022 0.14695419580616251 0 -0.49999999999999789 0.15828184745859039 0 -0.47828852487349022 0.14695419580616251 0 -0.49999999999999789 0.15828184745859039 0 -0.47871547205417481 0.17384311784868919 0 -0.49999999999999789 0.15828184745859039 0 -0.5 0.1863380371762936 0 -0.47871547205417481 0.17384311784868919 0 -0.5 0.1863380371762936 0 -0.47871547205417481 0.17384311784868919 0 -0.4771798261465488 0.20085112430596949 0 -0.47871547205417481 0.17384311784868919 0 -0.45429614325121959 0.18730802171794231 0 -0.4771798261465488 0.20085112430596949 0 -0.47828852487349022 0.14695419580616251 0 -0.47871547205417481 0.17384311784868919 0 -0.46252833805379062 0.16332548062717681 0 -0.47871547205417481 0.17384311784868919 0 -0.46252833805379062 0.16332548062717681 0 -0.45429614325121959 0.18730802171794231 0 -0.46252833805379062 0.16332548062717681 0 -0.45429614325121959 0.18730802171794231 0 -0.44836708767251238 0.1708475614755324 0 -0.45429614325121959 0.18730802171794231 0 -0.43141246035589043 0.1737649191299151 0 -0.45429614325121959 0.18730802171794231 0 -0.43223485370969161 0.19001438418202671 0 -0.43141246035589043 0.1737649191299151 0 -0.45429614325121959 0.18730802171794231 0 -0.44836708767251238 0.1708475614755324 0 -0.43141246035589043 0.1737649191299151 0 -0.44645792908648207 0.15632099132395391 0 -0.44836708767251238 0.1708475614755324 0 -0.43141246035589043 0.1737649191299151 0 -0.46252833805379062 0.16332548062717681 0 -0.44645792908648207 0.15632099132395391 0 -0.44836708767251238 0.1708475614755324 0 -0.44645792908648207 0.15632099132395391 0 -0.44104310478609321 0.1460622301218327 0 -0.42746021785564459 0.15514573439827581 0 -0.44645792908648207 0.15632099132395391 0 -0.44104310478609321 0.1460622301218327 0 -0.45657704974698288 0.13562654415373371 0 -0.4343232020537891 0.1242716988560993 0 -0.45196102547808531 0.11800318919087729 0 -0.45657704974698288 0.13562654415373371 0 -0.44104310478609321 0.1460622301218327 0 -0.45657704974698288 0.13562654415373371 0 -0.4336772224552633 0.1371556506113675 0 -0.4343232020537891 0.1242716988560993 0 -0.45657704974698288 0.13562654415373371 0 -0.4336772224552633 0.1371556506113675 0 -0.4343232020537891 0.1242716988560993 0 -0.45657704974698288 0.13562654415373371 0 -0.46252833805379062 0.16332548062717681 0 -0.44645792908648207 0.15632099132395391 0 -0.45657704974698288 0.13562654415373371 0 -0.47828852487349022 0.14695419580616251 0 -0.46252833805379062 0.16332548062717681 0 -0.45657704974698288 0.13562654415373371 0 -0.47828852487349022 0.14695419580616251 0 -0.45657704974698288 0.13562654415373371 0 -0.48064652603017638 0.2486227021841052 0 -0.5 0.24172612675294039 0 -0.47361065793536528 0.2242629873469161 0 -0.5 0.24172612675294039 0 -0.47361065793536528 0.2242629873469161 0 -0.50006350904187813 0.21439422689399679 0 -0.47361065793536528 0.2242629873469161 0 -0.50006350904187813 0.21439422689399679 0 -0.4771798261465488 0.20085112430596949 0 -0.47361065793536528 0.2242629873469161 0 -0.4771798261465488 0.20085112430596949 0 -0.46001763819585739 0.20551204668772821 0 -0.50006350904187813 0.21439422689399679 0 -0.4771798261465488 0.20085112430596949 0 -0.5 0.1863380371762936 0 -0.50006350904187813 0.21439422689399679 0 -0.4771798261465488 0.20085112430596949 0 -0.45429614325121959 0.18730802171794231 0 -0.4771798261465488 0.20085112430596949 0 -0.46001763819585739 0.20551204668772821 0 -0.45429614325121959 0.18730802171794231 0 -0.4771798261465488 0.20085112430596949 0 -0.45429614325121959 0.18730802171794231 0 -0.44524321652147753 0.20187657101157541 0 -0.46001763819585739 0.20551204668772821 0 -0.45429614325121959 0.18730802171794231 0 -0.44524321652147753 0.20187657101157541 0 -0.43223485370969161 0.19001438418202671 0 -0.44524321652147753 0.20187657101157541 0 -0.46001763819585739 0.20551204668772821 0 -0.44723890690729179 0.21898287826874291 0 -0.44524321652147753 0.20187657101157541 0 -0.44723890690729179 0.21898287826874291 0 -0.43190365716470519 0.20875747195404221 0 -0.47361065793536528 0.2242629873469161 0 -0.46001763819585739 0.20551204668772821 0 -0.44723890690729179 0.21898287826874291 0 -0.47361065793536528 0.2242629873469161 0 -0.44723890690729179 0.21898287826874291 0 -0.44966682488906112 0.24094375408753541 0 -0.44723890690729179 0.21898287826874291 0 -0.44966682488906112 0.24094375408753541 0 -0.42428092472507911 0.23146588104676011 0 -0.48064652603017638 0.2486227021841052 0 -0.47361065793536528 0.2242629873469161 0 -0.44966682488906112 0.24094375408753541 0 -0.44966682488906112 0.24094375408753541 0 -0.42428092472507911 0.23146588104676011 0 -0.43013776590962011 0.26499420446988969 0 -0.42428092472507911 0.23146588104676011 0 -0.39518783510228028 0.22640289795929811 0 -0.4033433644076177 0.2537704706891048 0 -0.44723890690729179 0.21898287826874291 0 -0.42428092472507911 0.23146588104676011 0 -0.43190365716470519 0.20875747195404221 0 -0.42428092472507911 0.23146588104676011 0 -0.413711344405986 0.20820864107066239 0 -0.39518783510228028 0.22640289795929811 0 -0.42428092472507911 0.23146588104676011 0 -0.413711344405986 0.20820864107066239 0 -0.43190365716470519 0.20875747195404221 0 -0.413711344405986 0.20820864107066239 0 -0.43190365716470519 0.20875747195404221 0 -0.43223485370969161 0.19001438418202671 0 -0.413711344405986 0.20820864107066239 0 -0.43223485370969161 0.19001438418202671 0 -0.44524321652147753 0.20187657101157541 0 -0.43190365716470519 0.20875747195404221 0 -0.43223485370969161 0.19001438418202671 0 -0.413711344405986 0.20820864107066239 0 -0.43223485370969161 0.19001438418202671 0 -0.41050764118978278 0.18587186463612501 0 -0.413711344405986 0.20820864107066239 0 -0.38572420066037583 0.20472932847282951 0 -0.41050764118978278 0.18587186463612501 0 -0.38572420066037583 0.20472932847282951 0 -0.41050764118978278 0.18587186463612501 0 -0.38957171598313761 0.17837084353915181 0 -0.38572420066037583 0.20472932847282951 0 -0.38957171598313761 0.17837084353915181 0 -0.37291407591843101 0.18484957255806561 0 -0.38572420066037583 0.20472932847282951 0 -0.38180229013724148 0.22447774546910251 0 -0.3696327989877356 0.22218160059634881 0 -0.38572420066037583 0.20472932847282951 0 -0.39518783510228028 0.22640289795929811 0 -0.38180229013724148 0.22447774546910251 0 -0.413711344405986 0.20820864107066239 0 -0.38572420066037583 0.20472932847282951 0 -0.39518783510228028 0.22640289795929811 0 -0.413711344405986 0.20820864107066239 0 -0.39518783510228028 0.22640289795929811 0 -0.39518783510228028 0.22640289795929811 0 -0.38180229013724148 0.22447774546910251 0 -0.37666432579857417 0.24459715484793351 0 -0.38180229013724148 0.22447774546910251 0 -0.37666432579857417 0.24459715484793351 0 -0.3696327989877356 0.22218160059634881 0 -0.39518783510228028 0.22640289795929811 0 -0.37666432579857417 0.24459715484793351 0 -0.39518783510228028 0.22640289795929811 0 -0.37666432579857417 0.24459715484793351 0 -0.4033433644076177 0.2537704706891048 0 -0.41553208747316828 0.13960399705722831 0 -0.40852877746056132 0.16022181654188791 0 -0.39749513664940028 0.14617188559269781 0 -0.41553208747316828 0.13960399705722831 0 -0.42746021785564459 0.15514573439827581 0 -0.40852877746056132 0.16022181654188791 0 -0.41262360058489639 0.12366733994261921 0 -0.42358325522563589 0.1246704569487012 0 -0.41553208747316828 0.13960399705722831 0 -0.41262360058489639 0.12366733994261921 0 -0.41553208747316828 0.13960399705722831 0 -0.40015099198154008 0.12979398768763711 0 -0.42358325522563589 0.1246704569487012 0 -0.41553208747316828 0.13960399705722831 0 -0.4336772224552633 0.1371556506113675 0 -0.42358325522563589 0.1246704569487012 0 -0.4343232020537891 0.1242716988560993 0 -0.4336772224552633 0.1371556506113675 0 -0.4343232020537891 0.1242716988560993 0 -0.4336772224552633 0.1371556506113675 0 -0.41553208747316828 0.13960399705722831 0 -0.4336772224552633 0.1371556506113675 0 -0.42746021785564459 0.15514573439827581 0 -0.44104310478609321 0.1460622301218327 0 -0.4336772224552633 0.1371556506113675 0 -0.42746021785564459 0.15514573439827581 0 -0.42746021785564459 0.15514573439827581 0 -0.43141246035589043 0.1737649191299151 0 -0.40852877746056132 0.16022181654188791 0 -0.44645792908648207 0.15632099132395391 0 -0.42746021785564459 0.15514573439827581 0 -0.43141246035589043 0.1737649191299151 0 -0.43223485370969161 0.19001438418202671 0 -0.43141246035589043 0.1737649191299151 0 -0.41050764118978278 0.18587186463612501 0 -0.43141246035589043 0.1737649191299151 0 -0.41050764118978278 0.18587186463612501 0 -0.40852877746056132 0.16022181654188791 0 -0.43141246035589043 0.1737649191299151 0 -0.40852877746056132 0.16022181654188791 0 -0.40852877746056132 0.16022181654188791 0 -0.38957171598313761 0.17837084353915181 0 -0.37920666077272341 0.1629140985414653 0 -0.40852877746056132 0.16022181654188791 0 -0.37920666077272341 0.1629140985414653 0 -0.39749513664940028 0.14617188559269781 0 -0.41050764118978278 0.18587186463612501 0 -0.40852877746056132 0.16022181654188791 0 -0.38957171598313761 0.17837084353915181 0 -0.38957171598313761 0.17837084353915181 0 -0.37291407591843101 0.18484957255806561 0 -0.37117866885953488 0.17202366673085659 0 -0.38957171598313761 0.17837084353915181 0 -0.37920666077272341 0.1629140985414653 0 -0.37117866885953488 0.17202366673085659 0 -0.37920666077272341 0.1629140985414653 0 -0.38405716555900832 0.13832552813527019 0 -0.37018626450847453 0.15096445833262601 0 -0.37920666077272341 0.1629140985414653 0 -0.39749513664940028 0.14617188559269781 0 -0.38405716555900832 0.13832552813527019 0 -0.37920666077272341 0.1629140985414653 0 -0.38405716555900832 0.13832552813527019 0 -0.39749513664940028 0.14617188559269781 0 -0.40015099198154008 0.12979398768763711 0 -0.38405716555900832 0.13832552813527019 0 -0.38890767034529311 0.11373695772907511 0 -0.40015099198154008 0.12979398768763711 0 -0.38405716555900832 0.13832552813527019 0 -0.41553208747316828 0.13960399705722831 0 -0.39749513664940028 0.14617188559269781 0 -0.40015099198154008 0.12979398768763711 0 -0.38890767034529311 0.11373695772907511 0 -0.38405716555900832 0.13832552813527019 0 -0.38405716555900832 0.13832552813527019 0 -0.3555907844222207 0.13541383061628229 0 -0.37062744037481132 0.1135505395145804 0 -0.3555907844222207 0.13541383061628229 0 -0.33496713007716389 0.13557861822198111 0 -0.34164735892785042 0.1246113669834655 0 -0.3555907844222207 0.13541383061628229 0 -0.35205843378173363 0.1166915262502598 0 -0.34164735892785042 0.1246113669834655 0 -0.3555907844222207 0.13541383061628229 0 -0.3405541284696284 0.15727712171798311 0 -0.33889949039224448 0.14426851464531379 0 -0.3555907844222207 0.13541383061628229 0 -0.3405541284696284 0.15727712171798311 0 -0.3555907844222207 0.13541383061628229 0 -0.35774121449257951 0.15546965378809571 0 -0.3405541284696284 0.15727712171798311 0 -0.3555907844222207 0.13541383061628229 0 -0.35774121449257951 0.15546965378809571 0 -0.37018626450847453 0.15096445833262601 0 -0.38405716555900832 0.13832552813527019 0 -0.3555907844222207 0.13541383061628229 0 -0.37018626450847453 0.15096445833262601 0 -0.37920666077272341 0.1629140985414653 0 -0.37018626450847453 0.15096445833262601 0 -0.36638163454642408 0.162522490922347 0 -0.37920666077272341 0.1629140985414653 0 -0.36638163454642408 0.162522490922347 0 -0.37117866885953488 0.17202366673085659 0 -0.36638163454642408 0.162522490922347 0 -0.37117866885953488 0.17202366673085659 0 -0.35673410219402962 0.1710633471380244 0 -0.35774121449257951 0.15546965378809571 0 -0.36638163454642408 0.162522490922347 0 -0.35673410219402962 0.1710633471380244 0 -0.35774121449257951 0.15546965378809571 0 -0.37018626450847453 0.15096445833262601 0 -0.36638163454642408 0.162522490922347 0 -0.37291407591843101 0.18484957255806561 0 -0.3555697453660609 0.17735049209317891 0 -0.35673410219402962 0.1710633471380244 0 -0.37291407591843101 0.18484957255806561 0 -0.37117866885953488 0.17202366673085659 0 -0.35673410219402962 0.1710633471380244 0 -0.37291407591843101 0.18484957255806561 0 -0.3555697453660609 0.17735049209317891 0 -0.36260127217689819 0.19976604634476389 0 -0.37291407591843101 0.18484957255806561 0 -0.35673410219402962 0.1710633471380244 0 -0.3555697453660609 0.17735049209317891 0 -0.35673410219402962 0.1710633471380244 0 -0.3481088351337574 0.17188357940417581 0 -0.34619413988859382 0.18135847507283609 0 -0.3481088351337574 0.17188357940417581 0 -0.34149205975047459 0.172368460998856 0 -0.3555697453660609 0.17735049209317891 0 -0.34619413988859382 0.18135847507283609 0 -0.3481088351337574 0.17188357940417581 0 -0.3555697453660609 0.17735049209317891 0 -0.34619413988859382 0.18135847507283609 0 -0.35108699713028241 0.19205033216183681 0 -0.35673410219402962 0.1710633471380244 0 -0.3481088351337574 0.17188357940417581 0 -0.3405541284696284 0.15727712171798311 0 -0.35774121449257951 0.15546965378809571 0 -0.35673410219402962 0.1710633471380244 0 -0.3405541284696284 0.15727712171798311 0 -0.35673410219402962 0.1710633471380244 0 -0.3405541284696284 0.15727712171798311 0 -0.3405541284696284 0.15727712171798311 0 -0.32612753951186219 0.1562951819447739 0 -0.32174986418006551 0.16638745999021201 0 -0.3405541284696284 0.15727712171798311 0 -0.3252618320341486 0.1795121139686944 0 -0.32174986418006551 0.16638745999021201 0 -0.3405541284696284 0.15727712171798311 0 -0.3252618320341486 0.1795121139686944 0 -0.3405541284696284 0.15727712171798311 0 -0.34149205975047459 0.172368460998856 0 -0.3252618320341486 0.1795121139686944 0 -0.3481088351337574 0.17188357940417581 0 -0.3405541284696284 0.15727712171798311 0 -0.34149205975047459 0.172368460998856 0 -0.33612764788426752 0.18472276974472429 0 -0.3252618320341486 0.1795121139686944 0 -0.32615939245525261 0.19630980424723449 0 -0.33612764788426752 0.18472276974472429 0 -0.34149205975047459 0.172368460998856 0 -0.3252618320341486 0.1795121139686944 0 -0.34619413988859382 0.18135847507283609 0 -0.33612764788426752 0.18472276974472429 0 -0.341530815292868 0.19406499443600031 0 -0.34619413988859382 0.18135847507283609 0 -0.33612764788426752 0.18472276974472429 0 -0.34149205975047459 0.172368460998856 0 -0.3252618320341486 0.1795121139686944 0 -0.31465203273049258 0.17531894010452881 0 -0.30733920091382311 0.18585259958589409 0 -0.3252618320341486 0.1795121139686944 0 -0.31465203273049258 0.17531894010452881 0 -0.32174986418006551 0.16638745999021201 0 -0.31465203273049258 0.17531894010452881 0 -0.32174986418006551 0.16638745999021201 0 -0.30407708566990671 0.17103863135576461 0 -0.32174986418006551 0.16638745999021201 0 -0.30407708566990671 0.17103863135576461 0 -0.32174986418006551 0.16638745999021201 0 -0.31528758498741732 0.15816961609006089 0 -0.30407708566990671 0.17103863135576461 0 -0.32612753951186219 0.1562951819447739 0 -0.32174986418006551 0.16638745999021201 0 -0.31528758498741732 0.15816961609006089 0 -0.31528758498741732 0.15816961609006089 0 -0.32649808430492971 0.14530060082435869 0 -0.31154670520669508 0.14571536314965619 0 -0.32612753951186219 0.1562951819447739 0 -0.31528758498741732 0.15816961609006089 0 -0.32649808430492971 0.14530060082435869 0 -0.31528758498741732 0.15816961609006089 0 -0.32649808430492971 0.14530060082435869 0 -0.32649808430492971 0.14530060082435869 0 -0.30965658215094899 0.13095071688377299 0 -0.31154670520669508 0.14571536314965619 0 -0.32649808430492971 0.14530060082435869 0 -0.30965658215094899 0.13095071688377299 0 -0.32649808430492971 0.14530060082435869 0 -0.32400912083201139 0.1309778834931685 0 -0.30965658215094899 0.13095071688377299 0 -0.32400912083201139 0.1309778834931685 0 -0.30965658215094899 0.13095071688377299 0 -0.32025275660767177 0.1223443448645547 0 -0.32400912083201139 0.1309778834931685 0 -0.3304308193851393 0.1243365102719818 0 -0.32025275660767177 0.1223443448645547 0 -0.3555907844222207 0.13541383061628229 0 -0.33496713007716389 0.13557861822198111 0 -0.33889949039224448 0.14426851464531379 0 -0.32649808430492971 0.14530060082435869 0 -0.32400912083201139 0.1309778834931685 0 -0.33496713007716389 0.13557861822198111 0 -0.32649808430492971 0.14530060082435869 0 -0.33496713007716389 0.13557861822198111 0 -0.33496713007716389 0.13557861822198111 0 -0.34164735892785042 0.1246113669834655 0 -0.3304308193851393 0.1243365102719818 0 -0.32400912083201139 0.1309778834931685 0 -0.33496713007716389 0.13557861822198111 0 -0.3304308193851393 0.1243365102719818 0 -0.3405541284696284 0.15727712171798311 0 -0.32649808430492971 0.14530060082435869 0 -0.33889949039224448 0.14426851464531379 0 -0.3405541284696284 0.15727712171798311 0 -0.32649808430492971 0.14530060082435869 0 -0.3405541284696284 0.15727712171798311 0 -0.32612753951186219 0.1562951819447739 0 -0.32649808430492971 0.14530060082435869 0 -0.32649808430492971 0.14530060082435869 0 -0.33496713007716389 0.13557861822198111 0 -0.33889949039224448 0.14426851464531379 0 -0.3498073679347618 0.23763989950339201 0 -0.36484703261806101 0.2458252011169493 0 -0.35117221935285259 0.2524801087882575 0 -0.3498073679347618 0.23763989950339201 0 -0.36484703261806101 0.2458252011169493 0 -0.36689048239932298 0.23535247248960109 0 -0.37666432579857417 0.24459715484793351 0 -0.36484703261806101 0.2458252011169493 0 -0.37109006168154468 0.24276633889441671 0 -0.37666432579857417 0.24459715484793351 0 -0.37109006168154468 0.24276633889441671 0 -0.36689048239932298 0.23535247248960109 0 -0.36484703261806101 0.2458252011169493 0 -0.37109006168154468 0.24276633889441671 0 -0.36689048239932298 0.23535247248960109 0 -0.37666432579857417 0.24459715484793351 0 -0.36689048239932298 0.23535247248960109 0 -0.3696327989877356 0.22218160059634881 0 -0.37666432579857417 0.24459715484793351 0 -0.3696327989877356 0.22218160059634881 0 -0.3498073679347618 0.23763989950339201 0 -0.36689048239932298 0.23535247248960109 0 -0.3696327989877356 0.22218160059634881 0 -0.3498073679347618 0.23763989950339201 0 -0.3696327989877356 0.22218160059634881 0 -0.34067429588685999 0.22302305589334559 0 -0.3696327989877356 0.22218160059634881 0 -0.34953901292699108 0.20771165286240481 0 -0.34067429588685999 0.22302305589334559 0 -0.38572420066037583 0.20472932847282951 0 -0.3696327989877356 0.22218160059634881 0 -0.36260127217689819 0.19976604634476389 0 -0.3696327989877356 0.22218160059634881 0 -0.34953901292699108 0.20771165286240481 0 -0.36260127217689819 0.19976604634476389 0 -0.3696327989877356 0.22218160059634881 0 -0.36260127217689819 0.19976604634476389 0 -0.38572420066037583 0.20472932847282951 0 -0.37291407591843101 0.18484957255806561 0 -0.36260127217689819 0.19976604634476389 0 -0.3555697453660609 0.17735049209317891 0 -0.36260127217689819 0.19976604634476389 0 -0.35108699713028241 0.19205033216183681 0 -0.34953901292699108 0.20771165286240481 0 -0.35108699713028241 0.19205033216183681 0 -0.341530815292868 0.19406499443600031 0 -0.34953901292699108 0.20771165286240481 0 -0.36260127217689819 0.19976604634476389 0 -0.35108699713028241 0.19205033216183681 0 -0.3555697453660609 0.17735049209317891 0 -0.36260127217689819 0.19976604634476389 0 -0.34619413988859382 0.18135847507283609 0 -0.35108699713028241 0.19205033216183681 0 -0.341530815292868 0.19406499443600031 0 -0.341530815292868 0.19406499443600031 0 -0.32615939245525261 0.19630980424723449 0 -0.33573022670748037 0.20787686077439499 0 -0.33612764788426752 0.18472276974472429 0 -0.341530815292868 0.19406499443600031 0 -0.32615939245525261 0.19630980424723449 0 -0.3252618320341486 0.1795121139686944 0 -0.30996953559866719 0.2017471062194045 0 -0.3252618320341486 0.1795121139686944 0 -0.32615939245525261 0.19630980424723449 0 -0.30996953559866719 0.2017471062194045 0 -0.3252618320341486 0.1795121139686944 0 -0.30996953559866719 0.2017471062194045 0 -0.30733920091382311 0.18585259958589409 0 -0.32615939245525261 0.19630980424723449 0 -0.32074761697543053 0.21827479643298961 0 -0.33573022670748037 0.20787686077439499 0 -0.32615939245525261 0.19630980424723449 0 -0.32074761697543053 0.21827479643298961 0 -0.30996953559866719 0.2017471062194045 0 -0.32074761697543053 0.21827479643298961 0 -0.33573022670748037 0.20787686077439499 0 -0.34067429588685999 0.22302305589334559 0 -0.34953901292699108 0.20771165286240481 0 -0.341530815292868 0.19406499443600031 0 -0.33573022670748037 0.20787686077439499 0 -0.34953901292699108 0.20771165286240481 0 -0.33573022670748037 0.20787686077439499 0 -0.34067429588685999 0.22302305589334559 0 -0.32074761697543053 0.21827479643298961 0 -0.34067429588685999 0.22302305589334559 0 -0.32379916505428818 0.24808657348438179 0 -0.32074761697543053 0.21827479643298961 0 -0.32379916505428818 0.24808657348438179 0 -0.3026674531916953 0.2272768952065593 0 -0.32379916505428818 0.24808657348438179 0 -0.3026674531916953 0.2272768952065593 0 -0.3498073679347618 0.23763989950339201 0 -0.34067429588685999 0.22302305589334559 0 -0.32379916505428818 0.24808657348438179 0 -0.3498073679347618 0.23763989950339201 0 -0.32379916505428818 0.24808657348438179 0 -0.35117221935285259 0.2524801087882575 0 -0.28830756271764091 0.24557795487267961 0 -0.30506580912407988 0.2452115703415513 0 -0.3026674531916953 0.2272768952065593 0 -0.32379916505428818 0.24808657348438179 0 -0.30506580912407988 0.2452115703415513 0 -0.3026674531916953 0.2272768952065593 0 -0.32074761697543053 0.21827479643298961 0 -0.3026674531916953 0.2272768952065593 0 -0.30557004544464778 0.21429792781496629 0 -0.3026674531916953 0.2272768952065593 0 -0.29777725450251968 0.21539655308508421 0 -0.30557004544464778 0.21429792781496629 0 -0.28830756271764091 0.24557795487267961 0 -0.2892601763163829 0.2186462574691681 0 -0.2733193554642746 0.2294929034799833 0 -0.3026674531916953 0.2272768952065593 0 -0.2892601763163829 0.2186462574691681 0 -0.29777725450251968 0.21539655308508421 0 -0.28830756271764091 0.24557795487267961 0 -0.3026674531916953 0.2272768952065593 0 -0.2892601763163829 0.2186462574691681 0 -0.28830756271764091 0.24557795487267961 0 -0.2892601763163829 0.2186462574691681 0 -0.29412161758298361 0.20337406287019841 0 -0.2892601763163829 0.2186462574691681 0 -0.29021278991512489 0.1917145600656566 0 -0.28828505362570112 0.21510897254973979 0 -0.2892601763163829 0.2186462574691681 0 -0.29021278991512489 0.1917145600656566 0 -0.2892601763163829 0.2186462574691681 0 -0.29021278991512489 0.1917145600656566 0 -0.28828505362570112 0.21510897254973979 0 -0.2892601763163829 0.2186462574691681 0 -0.28012727146155442 0.21845335331480731 0 -0.29412161758298361 0.20337406287019841 0 -0.2892601763163829 0.2186462574691681 0 -0.29742045035449072 0.20630636473668379 0 -0.2892601763163829 0.2186462574691681 0 -0.29777725450251968 0.21539655308508421 0 -0.29742045035449072 0.20630636473668379 0 -0.29777725450251968 0.21539655308508421 0 -0.30557004544464778 0.21429792781496629 0 -0.29742045035449072 0.20630636473668379 0 -0.32074761697543053 0.21827479643298961 0 -0.30557004544464778 0.21429792781496629 0 -0.30996953559866719 0.2017471062194045 0 -0.30557004544464778 0.21429792781496629 0 -0.29742045035449072 0.20630636473668379 0 -0.30996953559866719 0.2017471062194045 0 -0.29959305374593609 0.1968290692092852 0 -0.30996953559866719 0.2017471062194045 0 -0.30733920091382311 0.18585259958589409 0 -0.29742045035449072 0.20630636473668379 0 -0.29959305374593609 0.1968290692092852 0 -0.30996953559866719 0.2017471062194045 0 -0.29412161758298361 0.20337406287019841 0 -0.29742045035449072 0.20630636473668379 0 -0.29959305374593609 0.1968290692092852 0 -0.29959305374593609 0.1968290692092852 0 -0.29021278991512489 0.1917145600656566 0 -0.30733920091382311 0.18585259958589409 0 -0.28828505362570112 0.21510897254973979 0 -0.29021278991512489 0.1917145600656566 0 -0.28375078425889189 0.20204769198344649 0 -0.29412161758298361 0.20337406287019841 0 -0.29959305374593609 0.1968290692092852 0 -0.29021278991512489 0.1917145600656566 0 -0.29021278991512489 0.1917145600656566 0 -0.28375078425889189 0.20204769198344649 0 -0.2868607930548826 0.19080195555805149 0 -0.28375078425889189 0.20204769198344649 0 -0.2868607930548826 0.19080195555805149 0 -0.26964450043985899 0.21056527976033881 0 -0.27303715048669341 0.18965015938715221 0 -0.26964450043985899 0.21056527976033881 0 -0.25827636085937339 0.1830925944401752 0 -0.2868607930548826 0.19080195555805149 0 -0.27303715048669341 0.18965015938715221 0 -0.26964450043985899 0.21056527976033881 0 -0.2868607930548826 0.19080195555805149 0 -0.26964450043985899 0.21056527976033881 0 -0.26964450043985899 0.21056527976033881 0 -0.25827636085937339 0.1830925944401752 0 -0.2416772434028289 0.20374817391205191 0 -0.26964450043985899 0.21056527976033881 0 -0.25406663564760762 0.22844778205935701 0 -0.2479927643128377 0.20791230204745789 0 -0.26964450043985899 0.21056527976033881 0 -0.2416772434028289 0.20374817391205191 0 -0.26964450043985899 0.21056527976033881 0 -0.2416772434028289 0.20374817391205191 0 -0.2479927643128377 0.20791230204745789 0 -0.28828505362570112 0.21510897254973979 0 -0.28375078425889189 0.20204769198344649 0 -0.26964450043985899 0.21056527976033881 0 -0.28828505362570112 0.21510897254973979 0 -0.26964450043985899 0.21056527976033881 0 -0.28012727146155442 0.21845335331480731 0 -0.28828505362570112 0.21510897254973979 0 -0.26964450043985899 0.21056527976033881 0 -0.2892601763163829 0.2186462574691681 0 -0.28012727146155442 0.21845335331480731 0 -0.2733193554642746 0.2294929034799833 0 -0.26964450043985899 0.21056527976033881 0 -0.2733193554642746 0.2294929034799833 0 -0.25406663564760762 0.22844778205935701 0 -0.26964450043985899 0.21056527976033881 0 -0.28012727146155442 0.21845335331480731 0 -0.2733193554642746 0.2294929034799833 0 -0.26964450043985899 0.21056527976033881 0 -0.25406663564760762 0.22844778205935701 0 -0.2733193554642746 0.2294929034799833 0 -0.25406663564760762 0.22844778205935701 0 -0.2585424856742547 0.24272475909532731 0 -0.2585424856742547 0.24272475909532731 0 -0.26292185998712631 0.25941996831728192 0 -0.23848877085535369 0.2463302843583732 0 -0.25406663564760762 0.22844778205935701 0 -0.2585424856742547 0.24272475909532731 0 -0.23848877085535369 0.2463302843583732 0 -0.28830756271764091 0.24557795487267961 0 -0.2733193554642746 0.2294929034799833 0 -0.27408924259243911 0.24994504760829259 0 -0.2733193554642746 0.2294929034799833 0 -0.2585424856742547 0.24272475909532731 0 -0.27408924259243911 0.24994504760829259 0 -0.29787535584117281 0.14130702044549801 0 -0.30583124773385528 0.1532853735875338 0 -0.27638796344731442 0.15153661035345181 0 -0.30583124773385528 0.1532853735875338 0 -0.27638796344731442 0.15153661035345181 0 -0.28603808421416549 0.1371803909648944 0 -0.29787535584117281 0.14130702044549801 0 -0.27638796344731442 0.15153661035345181 0 -0.30583124773385528 0.1532853735875338 0 -0.28657022628340911 0.1638238600572377 0 -0.27638796344731442 0.15153661035345181 0 -0.28603808421416549 0.1371803909648944 0 -0.28299091854797759 0.12699181272699131 0 -0.2936223559799373 0.13061018841299299 0 -0.28603808421416549 0.1371803909648944 0 -0.2936223559799373 0.13061018841299299 0 -0.29787535584117281 0.14130702044549801 0 -0.2936223559799373 0.13061018841299299 0 -0.30965658215094899 0.13095071688377299 0 -0.29281507999696849 0.1166008329431874 0 -0.2936223559799373 0.13061018841299299 0 -0.30965658215094899 0.13095071688377299 0 -0.29787535584117281 0.14130702044549801 0 -0.30965658215094899 0.13095071688377299 0 -0.31154670520669508 0.14571536314965619 0 -0.29787535584117281 0.14130702044549801 0 -0.31154670520669508 0.14571536314965619 0 -0.29787535584117281 0.14130702044549801 0 -0.30583124773385528 0.1532853735875338 0 -0.31528758498741732 0.15816961609006089 0 -0.31154670520669508 0.14571536314965619 0 -0.30583124773385528 0.1532853735875338 0 -0.31528758498741732 0.15816961609006089 0 -0.30583124773385528 0.1532853735875338 0 -0.30407708566990671 0.17103863135576461 0 -0.30583124773385528 0.1532853735875338 0 -0.30407708566990671 0.17103863135576461 0 -0.28657022628340911 0.1638238600572377 0 -0.31528758498741732 0.15816961609006089 0 -0.30407708566990671 0.17103863135576461 0 -0.29021278991512489 0.1917145600656566 0 -0.30407708566990671 0.17103863135576461 0 -0.30733920091382311 0.18585259958589409 0 -0.31465203273049258 0.17531894010452881 0 -0.30407708566990671 0.17103863135576461 0 -0.30733920091382311 0.18585259958589409 0 -0.2868607930548826 0.19080195555805149 0 -0.30407708566990671 0.17103863135576461 0 -0.30407708566990671 0.17103863135576461 0 -0.28117672326464033 0.17706561289797071 0 -0.2868607930548826 0.19080195555805149 0 -0.30407708566990671 0.17103863135576461 0 -0.28117672326464033 0.17706561289797071 0 -0.29021278991512489 0.1917145600656566 0 -0.2868607930548826 0.19080195555805149 0 -0.30407708566990671 0.17103863135576461 0 -0.30407708566990671 0.17103863135576461 0 -0.28657022628340911 0.1638238600572377 0 -0.28117672326464033 0.17706561289797071 0 -0.28657022628340911 0.1638238600572377 0 -0.28117672326464033 0.17706561289797071 0 -0.2653781113013286 0.16619307209146589 0 -0.28657022628340911 0.1638238600572377 0 -0.2653781113013286 0.16619307209146589 0 -0.27638796344731442 0.15153661035345181 0 -0.27303715048669341 0.18965015938715221 0 -0.28117672326464033 0.17706561289797071 0 -0.25827636085937339 0.1830925944401752 0 -0.28117672326464033 0.17706561289797071 0 -0.25827636085937339 0.1830925944401752 0 -0.28117672326464033 0.17706561289797071 0 -0.25827636085937339 0.1830925944401752 0 -0.2653781113013286 0.16619307209146589 0 -0.2868607930548826 0.19080195555805149 0 -0.27303715048669341 0.18965015938715221 0 -0.28117672326464033 0.17706561289797071 0 -0.25827636085937339 0.1830925944401752 0 -0.2653781113013286 0.16619307209146589 0 -0.2451331807401034 0.16958755419389371 0 -0.2653781113013286 0.16619307209146589 0 -0.24694467916077331 0.14978784711936979 0 -0.2451331807401034 0.16958755419389371 0 -0.2653781113013286 0.16619307209146589 0 -0.27638796344731442 0.15153661035345181 0 -0.24694467916077331 0.14978784711936979 0 -0.27638796344731442 0.15153661035345181 0 -0.25994915888458059 0.13710235015300901 0 -0.24694467916077331 0.14978784711936979 0 -0.27638796344731442 0.15153661035345181 0 -0.24694467916077331 0.14978784711936979 0 -0.27638796344731442 0.15153661035345181 0 -0.27433219621254301 0.13637580691796591 0 -0.25994915888458059 0.13710235015300901 0 -0.28603808421416549 0.1371803909648944 0 -0.27638796344731442 0.15153661035345181 0 -0.27433219621254301 0.13637580691796591 0 -0.28299091854797759 0.12699181272699131 0 -0.27433219621254301 0.13637580691796591 0 -0.26999747491226528 0.1245674752706618 0 -0.28603808421416549 0.1371803909648944 0 -0.28299091854797759 0.12699181272699131 0 -0.27433219621254301 0.13637580691796591 0 -0.27433219621254301 0.13637580691796591 0 -0.25994915888458059 0.13710235015300901 0 -0.26999747491226528 0.1245674752706618 0 -0.25994915888458059 0.13710235015300901 0 -0.2485103830577845 0.13360273470286391 0 -0.24694467916077331 0.14978784711936979 0 -0.25994915888458059 0.13710235015300901 0 -0.25765129815171239 0.12695443554106281 0 -0.26999747491226528 0.1245674752706618 0 -0.25994915888458059 0.13710235015300901 0 -0.25765129815171239 0.12695443554106281 0 -0.2485103830577845 0.13360273470286391 0 -0.25765129815171239 0.12695443554106281 0 -0.25021589487386009 0.1217627967739804 0 -0.2485103830577845 0.13360273470286391 0 -0.25021589487386009 0.1217627967739804 0 -0.25958357903007179 0.11773682080479909 0 -0.24730766349430119 0.11776489044562111 0 -0.25765129815171239 0.12695443554106281 0 -0.25021589487386009 0.1217627967739804 0 -0.25958357903007179 0.11773682080479909 0 -0.25486013107866828 0.1087134975906747 0 -0.25832574523197749 0.10647479314312019 0 -0.24730766349430119 0.11776489044562111 0 -0.25958357903007179 0.11773682080479909 0 -0.25832574523197749 0.10647479314312019 0 -0.24730766349430119 0.11776489044562111 0 -0.25832574523197749 0.10647479314312019 0 -0.24730766349430119 0.11776489044562111 0 -0.25486013107866828 0.1087134975906747 0 -0.24997009747084009 0.1096221427284915 0 -0.24730766349430119 0.11776489044562111 0 -0.25958357903007179 0.11773682080479909 0 -0.25832574523197749 0.10647479314312019 0 -0.27327358887368108 0.1085114129392019 0 -0.25765129815171239 0.12695443554106281 0 -0.25958357903007179 0.11773682080479909 0 -0.26999747491226528 0.1245674752706618 0 -0.25121874698990321 0.099274658180543388 0 -0.25832574523197749 0.10647479314312019 0 -0.25990685410508302 0.096280189135135197 0 -0.25121874698990321 0.099274658180543388 0 -0.25990685410508302 0.096280189135135197 0 -0.25523928785414762 0.089221309932465798 0 -0.25121874698990321 0.099274658180543388 0 -0.25177912818774689 0.1056966606388251 0 -0.25832574523197749 0.10647479314312019 0 -0.25177912818774689 0.1056966606388251 0 -0.25486013107866828 0.1087134975906747 0 -0.24997009747084009 0.1096221427284915 0 -0.25177912818774689 0.1056966606388251 0 -0.25486013107866828 0.1087134975906747 0 -0.25832574523197749 0.10647479314312019 0 -0.25486013107866828 0.1087134975906747 0 -0.25832574523197749 0.10647479314312019 0 -0.25832574523197749 0.10647479314312019 0 -0.27275119032105921 0.091693211143174524 0 -0.25832574523197749 0.10647479314312019 0 -0.25990685410508302 0.096280189135135197 0 -0.27275119032105921 0.091693211143174524 0 -0.25832574523197749 0.10647479314312019 0 -0.27327358887368108 0.1085114129392019 0 -0.27972012263807422 0.092654533375896908 0 -0.27327358887368108 0.1085114129392019 0 -0.28497866629942947 0.1073357733350612 0 -0.27972012263807422 0.092654533375896908 0 -0.25832574523197749 0.10647479314312019 0 -0.27972012263807422 0.092654533375896908 0 -0.27275119032105921 0.091693211143174524 0 -0.25832574523197749 0.10647479314312019 0 -0.27972012263807422 0.092654533375896908 0 -0.27327358887368108 0.1085114129392019 0 -0.26999747491226528 0.1245674752706618 0 -0.28114031997198607 0.1166161818522455 0 -0.25958357903007179 0.11773682080479909 0 -0.27327358887368108 0.1085114129392019 0 -0.26999747491226528 0.1245674752706618 0 -0.27327358887368108 0.1085114129392019 0 -0.28114031997198607 0.1166161818522455 0 -0.28497866629942947 0.1073357733350612 0 -0.28299091854797759 0.12699181272699131 0 -0.26999747491226528 0.1245674752706618 0 -0.28114031997198607 0.1166161818522455 0 -0.28299091854797759 0.12699181272699131 0 -0.28114031997198607 0.1166161818522455 0 -0.29281507999696849 0.1166008329431874 0 -0.28299091854797759 0.12699181272699131 0 -0.2936223559799373 0.13061018841299299 0 -0.29281507999696849 0.1166008329431874 0 -0.28114031997198607 0.1166161818522455 0 -0.29281507999696849 0.1166008329431874 0 -0.28497866629942947 0.1073357733350612 0 -0.28497866629942947 0.1073357733350612 0 -0.29794422001643728 0.1022959055647743 0 -0.27972012263807422 0.092654533375896908 0 -0.29281507999696849 0.1166008329431874 0 -0.28497866629942947 0.1073357733350612 0 -0.29794422001643728 0.1022959055647743 0 -0.29794422001643728 0.1022959055647743 0 -0.31064312232641378 0.083809903670110319 0 -0.3157870619368035 0.1009482541566013 0 -0.29794422001643728 0.1022959055647743 0 -0.30516753713667422 0.1169365185217331 0 -0.3157870619368035 0.1009482541566013 0 -0.30965658215094899 0.13095071688377299 0 -0.29281507999696849 0.1166008329431874 0 -0.30516753713667422 0.1169365185217331 0 -0.30965658215094899 0.13095071688377299 0 -0.29281507999696849 0.1166008329431874 0 -0.30965658215094899 0.13095071688377299 0 -0.30516753713667422 0.1169365185217331 0 -0.32025275660767177 0.1223443448645547 0 -0.29281507999696849 0.1166008329431874 0 -0.29794422001643728 0.1022959055647743 0 -0.30516753713667422 0.1169365185217331 0 -0.30111450004417101 0.07883427360867401 0 -0.31064312232641378 0.083809903670110319 0 -0.32250887745026868 0.065014013841452403 0 -0.30111450004417101 0.07883427360867401 0 -0.30160208049922199 0.062130047143282553 0 -0.32250887745026868 0.065014013841452403 0 -0.30111450004417101 0.07883427360867401 0 -0.32250887745026868 0.065014013841452403 0 -0.29794422001643728 0.1022959055647743 0 -0.30111450004417101 0.07883427360867401 0 -0.31064312232641378 0.083809903670110319 0 -0.29794422001643728 0.1022959055647743 0 -0.31064312232641378 0.083809903670110319 0 -0.30111450004417101 0.07883427360867401 0 -0.27972012263807422 0.092654533375896908 0 -0.30111450004417101 0.07883427360867401 0 -0.2871766354101406 0.076911629143228549 0 -0.27972012263807422 0.092654533375896908 0 -0.29794422001643728 0.1022959055647743 0 -0.30111450004417101 0.07883427360867401 0 -0.27972012263807422 0.092654533375896908 0 -0.30111450004417101 0.07883427360867401 0 -0.2871766354101406 0.076911629143228549 0 -0.30160208049922199 0.062130047143282553 0 -0.2871766354101406 0.076911629143228549 0 -0.29019440429867721 0.06319036118200437 0 -0.30160208049922199 0.062130047143282553 0 -0.2871766354101406 0.076911629143228549 0 -0.30160208049922199 0.062130047143282553 0 -0.2871766354101406 0.076911629143228549 0 -0.29019440429867721 0.06319036118200437 0 -0.27708196836312121 0.066291360240838551 0 -0.2871766354101406 0.076911629143228549 0 -0.27708196836312121 0.066291360240838551 0 -0.27405117025635939 0.078718314363711961 0 -0.26694497845289228 0.072128062880567612 0 -0.27405117025635939 0.078718314363711961 0 -0.26497703576619591 0.083201982263543112 0 -0.27708196836312121 0.066291360240838551 0 -0.26694497845289228 0.072128062880567612 0 -0.27405117025635939 0.078718314363711961 0 -0.27708196836312121 0.066291360240838551 0 -0.26694497845289228 0.072128062880567612 0 -0.26243605140907061 0.056968836332360717 0 -0.2871766354101406 0.076911629143228549 0 -0.27972012263807422 0.092654533375896908 0 -0.27275119032105921 0.091693211143174524 0 -0.2871766354101406 0.076911629143228549 0 -0.27275119032105921 0.091693211143174524 0 -0.2871766354101406 0.076911629143228549 0 -0.27405117025635939 0.078718314363711961 0 -0.27275119032105921 0.091693211143174524 0 -0.27405117025635939 0.078718314363711961 0 -0.27275119032105921 0.091693211143174524 0 -0.26497703576619591 0.083201982263543112 0 -0.27275119032105921 0.091693211143174524 0 -0.26308311513569987 0.090614484247223293 0 -0.26497703576619591 0.083201982263543112 0 -0.25990685410508302 0.096280189135135197 0 -0.27275119032105921 0.091693211143174524 0 -0.26308311513569987 0.090614484247223293 0 -0.25990685410508302 0.096280189135135197 0 -0.26308311513569987 0.090614484247223293 0 -0.25523928785414762 0.089221309932465798 0 -0.26308311513569987 0.090614484247223293 0 -0.26497703576619591 0.083201982263543112 0 -0.25523928785414762 0.089221309932465798 0 -0.26497703576619591 0.083201982263543112 0 -0.25523928785414762 0.089221309932465798 0 -0.25324543335959387 0.075417011431584843 0 -0.25121874698990321 0.099274658180543388 0 -0.25523928785414762 0.089221309932465798 0 -0.2450665584409219 0.09255505516060239 0 -0.26694497845289228 0.072128062880567612 0 -0.25324543335959387 0.075417011431584843 0 -0.26243605140907061 0.056968836332360717 0 -0.25324543335959387 0.075417011431584843 0 -0.26243605140907061 0.056968836332360717 0 -0.2381268274028103 0.063134185225640488 0 -0.26694497845289228 0.072128062880567612 0 -0.26497703576619591 0.083201982263543112 0 -0.25324543335959387 0.075417011431584843 0 -0.26243605140907061 0.056968836332360717 0 -0.27117169318528211 0.034018892511723881 0 -0.2488212329986276 0.035825705836059457 0 -0.26243605140907061 0.056968836332360717 0 -0.2488212329986276 0.035825705836059457 0 -0.2444732076528876 0.046928516504279913 0 -0.27708196836312121 0.066291360240838551 0 -0.26243605140907061 0.056968836332360717 0 -0.28168857035158701 0.049830957543158118 0 -0.26243605140907061 0.056968836332360717 0 -0.27117169318528211 0.034018892511723881 0 -0.28168857035158701 0.049830957543158118 0 -0.25412876902409431 -0.0029034411103695409 0 -0.25951563859444499 0.0085172264464785548 0 -0.2395998062585549 3.2132456287619487e-05 0 -0.26520086878583649 -0.0060001761445883928 0 -0.25951563859444499 0.0085172264464785548 0 -0.25951563859444499 0.0085172264464785548 0 -0.2488212329986276 0.035825705836059457 0 -0.27117169318528211 0.034018892511723881 0 -0.25951563859444499 0.0085172264464785548 0 -0.2488212329986276 0.035825705836059457 0 -0.25951563859444499 0.0085172264464785548 0 -0.24509883809478239 0.01481825845038178 0 -0.2488212329986276 0.035825705836059457 0 -0.27117169318528211 0.034018892511723881 0 -0.25951563859444499 0.0085172264464785548 0 -0.28603681494027161 0.019816511870723721 0 -0.25951563859444499 0.0085172264464785548 0 -0.28603681494027161 0.019816511870723721 0 -0.25951563859444499 0.0085172264464785548 0 -0.28013978120368888 0.001827391234728012 0 -0.28603681494027161 0.019816511870723721 0 -0.26520086878583649 -0.0060001761445883928 0 -0.25951563859444499 0.0085172264464785548 0 -0.28013978120368888 0.001827391234728012 0 -0.28603681494027161 0.019816511870723721 0 -0.30605116750538269 0.015841283414128479 0 -0.29779626154072752 0.0042823716210633614 0 -0.28013978120368888 0.001827391234728012 0 -0.28603681494027161 0.019816511870723721 0 -0.29779626154072752 0.0042823716210633614 0 -0.28603681494027161 0.019816511870723721 0 -0.30605116750538269 0.015841283414128479 0 -0.31255799128609701 0.031115797294971291 0 -0.28603681494027161 0.019816511870723721 0 -0.31255799128609701 0.031115797294971291 0 -0.28603681494027161 0.019816511870723721 0 -0.29632160119802259 0.040236886585433777 0 -0.31255799128609701 0.031115797294971291 0 -0.30605116750538269 0.015841283414128479 0 -0.29779626154072752 0.0042823716210633614 0 -0.3148125425607311 0.006281449036354257 0 -0.3084315513875262 -0.0060104425541563401 0 -0.29779626154072752 0.0042823716210633614 0 -0.3148125425607311 0.006281449036354257 0 -0.28168857035158701 0.049830957543158118 0 -0.29632160119802259 0.040236886585433777 0 -0.30209872390092729 0.057422485692306499 0 -0.29019440429867721 0.06319036118200437 0 -0.27708196836312121 0.066291360240838551 0 -0.28168857035158701 0.049830957543158118 0 -0.29019440429867721 0.06319036118200437 0 -0.28168857035158701 0.049830957543158118 0 -0.30209872390092729 0.057422485692306499 0 -0.28168857035158701 0.049830957543158118 0 -0.30209872390092729 0.057422485692306499 0 -0.27117169318528211 0.034018892511723881 0 -0.28168857035158701 0.049830957543158118 0 -0.29632160119802259 0.040236886585433777 0 -0.27117169318528211 0.034018892511723881 0 -0.28603681494027161 0.019816511870723721 0 -0.29632160119802259 0.040236886585433777 0 -0.29632160119802259 0.040236886585433777 0 -0.31562370662679029 0.052292538249778371 0 -0.31255799128609701 0.031115797294971291 0 -0.30209872390092729 0.057422485692306499 0 -0.30160208049922199 0.062130047143282553 0 -0.32250887745026868 0.065014013841452403 0 -0.30209872390092729 0.057422485692306499 0 -0.32250887745026868 0.065014013841452403 0 -0.29632160119802259 0.040236886585433777 0 -0.30209872390092729 0.057422485692306499 0 -0.31562370662679029 0.052292538249778371 0 -0.29019440429867721 0.06319036118200437 0 -0.30209872390092729 0.057422485692306499 0 -0.30160208049922199 0.062130047143282553 0 -0.31562370662679029 0.052292538249778371 0 -0.3390791676319227 0.042415082719218573 0 -0.32438937434350651 0.063799257503246221 0 -0.30209872390092729 0.057422485692306499 0 -0.31562370662679029 0.052292538249778371 0 -0.32250887745026868 0.065014013841452403 0 -0.31562370662679029 0.052292538249778371 0 -0.32250887745026868 0.065014013841452403 0 -0.32438937434350651 0.063799257503246221 0 -0.31562370662679029 0.052292538249778371 0 -0.3390791676319227 0.042415082719218573 0 -0.31255799128609701 0.031115797294971291 0 -0.3390791676319227 0.042415082719218573 0 -0.31255799128609701 0.031115797294971291 0 -0.33186984878225012 0.02468697933672807 0 -0.3390791676319227 0.042415082719218573 0 -0.31255799128609701 0.031115797294971291 0 -0.3390791676319227 0.042415082719218573 0 -0.33186984878225012 0.02468697933672807 0 -0.34908996430616229 0.027842200609419911 0 -0.3390791676319227 0.042415082719218573 0 -0.34187828809062459 0.043607641472545262 0 -0.33943274181077648 0.054081599343573573 0 -0.3390791676319227 0.042415082719218573 0 -0.34187828809062459 0.043607641472545262 0 -0.34725699648823583 0.03790815975036993 0 -0.3390791676319227 0.042415082719218573 0 -0.34187828809062459 0.043607641472545262 0 -0.3390791676319227 0.042415082719218573 0 -0.32438937434350651 0.063799257503246221 0 -0.33943274181077648 0.054081599343573573 0 -0.34906672711246628 0.05755566250203311 0 -0.34108900133092218 0.071924865007452626 0 -0.3390791676319227 0.042415082719218573 0 -0.33943274181077648 0.054081599343573573 0 -0.32438937434350651 0.063799257503246221 0 -0.33943274181077648 0.054081599343573573 0 -0.32438937434350651 0.063799257503246221 0 -0.3084315513875262 -0.0060104425541563401 0 -0.32720427759267651 0.001243125536590062 0 -0.3148125425607311 0.006281449036354257 0 -0.32720427759267651 0.001243125536590062 0 -0.3148125425607311 0.006281449036354257 0 -0.32714288792072788 0.011458395421717451 0 -0.3148125425607311 0.006281449036354257 0 -0.32714288792072788 0.011458395421717451 0 -0.3190522271990866 0.01771028724752978 0 -0.30605116750538269 0.015841283414128479 0 -0.3148125425607311 0.006281449036354257 0 -0.3190522271990866 0.01771028724752978 0 -0.3190522271990866 0.01771028724752978 0 -0.31255799128609701 0.031115797294971291 0 -0.33186984878225012 0.02468697933672807 0 -0.32714288792072788 0.011458395421717451 0 -0.3190522271990866 0.01771028724752978 0 -0.33186984878225012 0.02468697933672807 0 -0.30605116750538269 0.015841283414128479 0 -0.3190522271990866 0.01771028724752978 0 -0.31255799128609701 0.031115797294971291 0 -0.33186984878225012 0.02468697933672807 0 -0.33726486249122822 0.01248374745135236 0 -0.34908996430616229 0.027842200609419911 0 -0.33726486249122822 0.01248374745135236 0 -0.34908996430616229 0.027842200609419911 0 -0.32714288792072788 0.011458395421717451 0 -0.33186984878225012 0.02468697933672807 0 -0.33726486249122822 0.01248374745135236 0 -0.32720427759267651 0.001243125536590062 0 -0.32714288792072788 0.011458395421717451 0 -0.33726486249122822 0.01248374745135236 0 -0.33726486249122822 0.01248374745135236 0 -0.3366738177339772 0.00047495279275041642 0 -0.34598467737131322 0.0035373190053896442 0 -0.3254397606762941 -0.002874705706715192 0 -0.33726486249122822 0.01248374745135236 0 -0.3254397606762941 -0.002874705706715192 0 -0.32720427759267651 0.001243125536590062 0 -0.33726486249122822 0.01248374745135236 0 -0.3254397606762941 -0.002874705706715192 0 -0.33726486249122822 0.01248374745135236 0 -0.3366738177339772 0.00047495279275041642 0 -0.33726486249122822 0.01248374745135236 0 -0.34598467737131322 0.0035373190053896442 0 -0.35058664137600798 0.02566346307183788 0 -0.34598467737131322 0.0035373190053896442 0 -0.35058664137600798 0.02566346307183788 0 -0.35469979421701792 0.0072200640997019706 0 -0.34598467737131322 0.0035373190053896442 0 -0.35058664137600798 0.02566346307183788 0 -0.35469979421701792 0.0072200640997019706 0 -0.35058664137600798 0.02566346307183788 0 -0.36663220051669981 0.0023056775376684231 0 -0.35058664137600798 0.02566346307183788 0 -0.36663220051669981 0.0023056775376684231 0 -0.35559565760404982 -0.002626203216087876 0 -0.35469979421701792 0.0072200640997019706 0 -0.36663220051669981 0.0023056775376684231 0 -0.35559565760404982 -0.002626203216087876 0 -0.35469979421701792 0.0072200640997019706 0 -0.34598467737131322 0.0035373190053896442 0 -0.35058664137600798 0.02566346307183788 0 -0.35767165533239131 0.024911961056320781 0 -0.36150426894303189 0.017452711053197359 0 -0.33726486249122822 0.01248374745135236 0 -0.35058664137600798 0.02566346307183788 0 -0.34908996430616229 0.027842200609419911 0 -0.35058664137600798 0.02566346307183788 0 -0.34908996430616229 0.027842200609419911 0 -0.35058664137600798 0.02566346307183788 0 -0.34908996430616229 0.027842200609419911 0 -0.35176145313442458 0.03131193276676545 0 -0.35058664137600798 0.02566346307183788 0 -0.35176145313442458 0.03131193276676545 0 -0.34908996430616229 0.027842200609419911 0 -0.35176145313442458 0.03131193276676545 0 -0.35431593940061717 0.027812852432652631 0 -0.35724400775964421 0.0293640528356864 0 -0.35176145313442458 0.03131193276676545 0 -0.35058664137600798 0.02566346307183788 0 -0.35431593940061717 0.027812852432652631 0 -0.35176145313442458 0.03131193276676545 0 -0.35058664137600798 0.02566346307183788 0 -0.35431593940061717 0.027812852432652631 0 -0.35767165533239131 0.024911961056320781 0 -0.35431593940061717 0.027812852432652631 0 -0.35767165533239131 0.024911961056320781 0 -0.35724400775964421 0.0293640528356864 0 -0.35724400775964421 0.0293640528356864 0 -0.36229417248555201 0.029611558778278931 0 -0.35784717372157271 0.034192701757999079 0 -0.35767165533239131 0.024911961056320781 0 -0.35724400775964421 0.0293640528356864 0 -0.36229417248555201 0.029611558778278931 0 -0.35767165533239131 0.024911961056320781 0 -0.36229417248555201 0.029611558778278931 0 -0.363203522599159 0.02277009143356289 0 -0.36229417248555201 0.029611558778278931 0 -0.36863773567475477 0.028208248799502889 0 -0.363203522599159 0.02277009143356289 0 -0.36863773567475477 0.028208248799502889 0 -0.36927869297727212 0.021953162714289012 0 -0.363203522599159 0.02277009143356289 0 -0.36229417248555201 0.029611558778278931 0 -0.36863773567475477 0.028208248799502889 0 -0.36722395113021061 0.033577167777973607 0 -0.36863773567475477 0.028208248799502889 0 -0.37441339120421929 0.026822871754168861 0 -0.37263177943124731 0.033249493843526053 0 -0.36863773567475477 0.028208248799502889 0 -0.37441339120421929 0.026822871754168861 0 -0.36927869297727212 0.021953162714289012 0 -0.3754483846295848 0.020169662492656289 0 -0.37441339120421929 0.026822871754168861 0 -0.36927869297727212 0.021953162714289012 0 -0.3754483846295848 0.020169662492656289 0 -0.36927869297727212 0.021953162714289012 0 -0.3710593831183267 0.016021958648373372 0 -0.3754483846295848 0.020169662492656289 0 -0.37610383802070929 0.01417088813385226 0 -0.3710593831183267 0.016021958648373372 0 -0.36927869297727212 0.021953162714289012 0 -0.3710593831183267 0.016021958648373372 0 -0.36612028068702868 0.01821990080919391 0 -0.36612028068702868 0.01821990080919391 0 -0.36150426894303189 0.017452711053197359 0 -0.36698889455500788 0.012419938274806889 0 -0.36612028068702868 0.01821990080919391 0 -0.363203522599159 0.02277009143356289 0 -0.36150426894303189 0.017452711053197359 0 -0.36927869297727212 0.021953162714289012 0 -0.36612028068702868 0.01821990080919391 0 -0.363203522599159 0.02277009143356289 0 -0.35767165533239131 0.024911961056320781 0 -0.363203522599159 0.02277009143356289 0 -0.36150426894303189 0.017452711053197359 0 -0.35058664137600798 0.02566346307183788 0 -0.36150426894303189 0.017452711053197359 0 -0.36663220051669981 0.0023056775376684231 0 -0.36150426894303189 0.017452711053197359 0 -0.36698889455500788 0.012419938274806889 0 -0.36663220051669981 0.0023056775376684231 0 -0.36698889455500788 0.012419938274806889 0 -0.37241620784035762 0.0091981994654418767 0 -0.36663220051669981 0.0023056775376684231 0 -0.3710593831183267 0.016021958648373372 0 -0.36612028068702868 0.01821990080919391 0 -0.36698889455500788 0.012419938274806889 0 -0.3710593831183267 0.016021958648373372 0 -0.36698889455500788 0.012419938274806889 0 -0.37241620784035762 0.0091981994654418767 0 -0.37610383802070929 0.01417088813385226 0 -0.3710593831183267 0.016021958648373372 0 -0.37241620784035762 0.0091981994654418767 0 -0.37576616927869799 0.0025212232452482409 0 -0.37241620784035762 0.0091981994654418767 0 -0.36663220051669981 0.0023056775376684231 0 -0.35447610927804668 0.044363941183901308 0 -0.35848638921040549 0.063645280942234636 0 -0.35447610927804668 0.044363941183901308 0 -0.36217926009603801 0.052531910991645947 0 -0.35848638921040549 0.063645280942234636 0 -0.34906672711246628 0.05755566250203311 0 -0.35447610927804668 0.044363941183901308 0 -0.35848638921040549 0.063645280942234636 0 -0.34187828809062459 0.043607641472545262 0 -0.33943274181077648 0.054081599343573573 0 -0.35447610927804668 0.044363941183901308 0 -0.33943274181077648 0.054081599343573573 0 -0.35447610927804668 0.044363941183901308 0 -0.33943274181077648 0.054081599343573573 0 -0.34906672711246628 0.05755566250203311 0 -0.35447610927804668 0.044363941183901308 0 -0.34187828809062459 0.043607641472545262 0 -0.34725699648823583 0.03790815975036993 0 -0.35447610927804668 0.044363941183901308 0 -0.34725699648823583 0.03790815975036993 0 -0.35176145313442458 0.03131193276676545 0 -0.35447610927804668 0.044363941183901308 0 -0.34908996430616229 0.027842200609419911 0 -0.34725699648823583 0.03790815975036993 0 -0.35176145313442458 0.03131193276676545 0 -0.3390791676319227 0.042415082719218573 0 -0.34908996430616229 0.027842200609419911 0 -0.34725699648823583 0.03790815975036993 0 -0.3390791676319227 0.042415082719218573 0 -0.34908996430616229 0.027842200609419911 0 -0.35176145313442458 0.03131193276676545 0 -0.35937446504971549 0.041199719673185781 0 -0.35176145313442458 0.03131193276676545 0 -0.35447610927804668 0.044363941183901308 0 -0.35937446504971549 0.041199719673185781 0 -0.35176145313442458 0.03131193276676545 0 -0.35447610927804668 0.044363941183901308 0 -0.35176145313442458 0.03131193276676545 0 -0.35784717372157271 0.034192701757999079 0 -0.35937446504971549 0.041199719673185781 0 -0.35724400775964421 0.0293640528356864 0 -0.35176145313442458 0.03131193276676545 0 -0.35784717372157271 0.034192701757999079 0 -0.35447610927804668 0.044363941183901308 0 -0.35937446504971549 0.041199719673185781 0 -0.36217926009603801 0.052531910991645947 0 -0.35447610927804668 0.044363941183901308 0 -0.35937446504971549 0.041199719673185781 0 -0.35937446504971549 0.041199719673185781 0 -0.36558167755732568 0.04070689858620169 0 -0.37181203191657258 0.046414640740192858 0 -0.35937446504971549 0.041199719673185781 0 -0.36191066453086618 0.039561395033693748 0 -0.36110203037623351 0.037063497233621519 0 -0.35937446504971549 0.041199719673185781 0 -0.36191066453086618 0.039561395033693748 0 -0.36558167755732568 0.04070689858620169 0 -0.35937446504971549 0.041199719673185781 0 -0.36191066453086618 0.039561395033693748 0 -0.36191066453086618 0.039561395033693748 0 -0.36558167755732568 0.04070689858620169 0 -0.36475842109075929 0.037482550750697091 0 -0.35784717372157271 0.034192701757999079 0 -0.36272248766454451 0.034233908159682858 0 -0.36110203037623351 0.037063497233621519 0 -0.36229417248555201 0.029611558778278931 0 -0.35784717372157271 0.034192701757999079 0 -0.36272248766454451 0.034233908159682858 0 -0.35784717372157271 0.034192701757999079 0 -0.35937446504971549 0.041199719673185781 0 -0.36110203037623351 0.037063497233621519 0 -0.36272248766454451 0.034233908159682858 0 -0.36110203037623351 0.037063497233621519 0 -0.36475842109075929 0.037482550750697091 0 -0.36191066453086618 0.039561395033693748 0 -0.36110203037623351 0.037063497233621519 0 -0.36475842109075929 0.037482550750697091 0 -0.36558167755732568 0.04070689858620169 0 -0.36475842109075929 0.037482550750697091 0 -0.37005280519871508 0.038876186733238997 0 -0.36272248766454451 0.034233908159682858 0 -0.36475842109075929 0.037482550750697091 0 -0.36722395113021061 0.033577167777973607 0 -0.36229417248555201 0.029611558778278931 0 -0.36272248766454451 0.034233908159682858 0 -0.36722395113021061 0.033577167777973607 0 -0.36863773567475477 0.028208248799502889 0 -0.36722395113021061 0.033577167777973607 0 -0.37263177943124731 0.033249493843526053 0 -0.36475842109075929 0.037482550750697091 0 -0.36722395113021061 0.033577167777973607 0 -0.37005280519871508 0.038876186733238997 0 -0.36722395113021061 0.033577167777973607 0 -0.37005280519871508 0.038876186733238997 0 -0.37263177943124731 0.033249493843526053 0 -0.37725554928066413 0.040081702841281937 0 -0.37005280519871508 0.038876186733238997 0 -0.37263177943124731 0.033249493843526053 0 -0.36558167755732568 0.04070689858620169 0 -0.37005280519871508 0.038876186733238997 0 -0.37181203191657258 0.046414640740192858 0 -0.37725554928066413 0.040081702841281937 0 -0.37005280519871508 0.038876186733238997 0 -0.37181203191657258 0.046414640740192858 0 -0.35937446504971549 0.041199719673185781 0 -0.37181203191657258 0.046414640740192858 0 -0.37263919311136651 0.058427960730028289 0 -0.35937446504971549 0.041199719673185781 0 -0.36217926009603801 0.052531910991645947 0 -0.37263919311136651 0.058427960730028289 0 -0.35937446504971549 0.041199719673185781 0 -0.37263919311136651 0.058427960730028289 0 -0.36217926009603801 0.052531910991645947 0 -0.37263919311136651 0.058427960730028289 0 -0.35848638921040549 0.063645280942234636 0 -0.35848638921040549 0.063645280942234636 0 -0.36249666914276429 0.082926620700568027 0 -0.38266079029724842 0.064485457356803763 0 -0.37263919311136651 0.058427960730028289 0 -0.36851044086808049 0.071533944343932357 0 -0.36851044086808049 0.071533944343932357 0 -0.35848638921040549 0.063645280942234636 0 -0.36249666914276429 0.082926620700568027 0 -0.35848638921040549 0.063645280942234636 0 -0.3588359780254558 0.078525828239460541 0 -0.36249666914276429 0.082926620700568027 0 -0.37890229464063752 0.076396414118949207 0 -0.36851044086808049 0.071533944343932357 0 -0.37027830563756331 0.079252382318195022 0 -0.36851044086808049 0.071533944343932357 0 -0.36249666914276429 0.082926620700568027 0 -0.37027830563756331 0.079252382318195022 0 -0.37263919311136651 0.058427960730028289 0 -0.36851044086808049 0.071533944343932357 0 -0.35848638921040549 0.063645280942234636 0 -0.35848638921040549 0.063645280942234636 0 -0.3588359780254558 0.078525828239460541 0 -0.34108900133092218 0.071924865007452626 0 -0.34906672711246628 0.05755566250203311 0 -0.35848638921040549 0.063645280942234636 0 -0.34108900133092218 0.071924865007452626 0 -0.3588359780254558 0.078525828239460541 0 -0.34108900133092218 0.071924865007452626 0 -0.35145639959466252 0.085497139119470059 0 -0.3588359780254558 0.078525828239460541 0 -0.34108900133092218 0.071924865007452626 0 -0.35145639959466252 0.085497139119470059 0 -0.36249666914276429 0.082926620700568027 0 -0.35883190993049568 0.100103671782501 0 -0.35145639959466252 0.085497139119470059 0 -0.35883190993049568 0.100103671782501 0 -0.33602843954367412 0.094004709867368155 0 -0.35145639959466252 0.085497139119470059 0 -0.3588359780254558 0.078525828239460541 0 -0.36249666914276429 0.082926620700568027 0 -0.36249666914276429 0.082926620700568027 0 -0.37120381789877072 0.086152550109330484 0 -0.35883190993049568 0.100103671782501 0 -0.385664096327405 0.091687248412880548 0 -0.37120381789877072 0.086152550109330484 0 -0.35883190993049568 0.100103671782501 0 -0.36249666914276429 0.082926620700568027 0 -0.37027830563756331 0.079252382318195022 0 -0.37120381789877072 0.086152550109330484 0 -0.37890229464063752 0.076396414118949207 0 -0.37027830563756331 0.079252382318195022 0 -0.37120381789877072 0.086152550109330484 0 -0.385664096327405 0.091687248412880548 0 -0.37062744037481132 0.1135505395145804 0 -0.35883190993049568 0.100103671782501 0 -0.385664096327405 0.091687248412880548 0 -0.35883190993049568 0.100103671782501 0 -0.3555907844222207 0.13541383061628229 0 -0.37062744037481132 0.1135505395145804 0 -0.37062744037481132 0.1135505395145804 0 -0.35205843378173363 0.1166915262502598 0 -0.35883190993049568 0.100103671782501 0 -0.3555907844222207 0.13541383061628229 0 -0.37062744037481132 0.1135505395145804 0 -0.35205843378173363 0.1166915262502598 0 -0.35205843378173363 0.1166915262502598 0 -0.35883190993049568 0.100103671782501 0 -0.33199972353358509 0.108520095152117 0 -0.35883190993049568 0.100103671782501 0 -0.33199972353358509 0.108520095152117 0 -0.35883190993049568 0.100103671782501 0 -0.33602843954367412 0.094004709867368155 0 -0.33199972353358509 0.108520095152117 0 -0.33199972353358509 0.108520095152117 0 -0.34164735892785042 0.1246113669834655 0 -0.3304308193851393 0.1243365102719818 0 -0.35205843378173363 0.1166915262502598 0 -0.33199972353358509 0.108520095152117 0 -0.34164735892785042 0.1246113669834655 0 -0.30516753713667422 0.1169365185217331 0 -0.33199972353358509 0.108520095152117 0 -0.32025275660767177 0.1223443448645547 0 -0.30516753713667422 0.1169365185217331 0 -0.33199972353358509 0.108520095152117 0 -0.33199972353358509 0.108520095152117 0 -0.3304308193851393 0.1243365102719818 0 -0.32025275660767177 0.1223443448645547 0 -0.33602843954367412 0.094004709867368155 0 -0.3157870619368035 0.1009482541566013 0 -0.3224539054397505 0.090112395005531379 0 -0.33602843954367412 0.094004709867368155 0 -0.33199972353358509 0.108520095152117 0 -0.3157870619368035 0.1009482541566013 0 -0.30516753713667422 0.1169365185217331 0 -0.33199972353358509 0.108520095152117 0 -0.3157870619368035 0.1009482541566013 0 -0.31064312232641378 0.083809903670110319 0 -0.3224539054397505 0.090112395005531379 0 -0.32735699795211048 0.081686712328045821 0 -0.31064312232641378 0.083809903670110319 0 -0.3157870619368035 0.1009482541566013 0 -0.3224539054397505 0.090112395005531379 0 -0.31064312232641378 0.083809903670110319 0 -0.32735699795211048 0.081686712328045821 0 -0.32250887745026868 0.065014013841452403 0 -0.31064312232641378 0.083809903670110319 0 -0.32250887745026868 0.065014013841452403 0 -0.32250887745026868 0.065014013841452403 0 -0.32438937434350651 0.063799257503246221 0 -0.32735699795211048 0.081686712328045821 0 -0.32250887745026868 0.065014013841452403 0 -0.34108900133092218 0.071924865007452626 0 -0.32250887745026868 0.065014013841452403 0 -0.32438937434350651 0.063799257503246221 0 -0.34108900133092218 0.071924865007452626 0 -0.33943274181077648 0.054081599343573573 0 -0.32438937434350651 0.063799257503246221 0 -0.34108900133092218 0.071924865007452626 0 -0.32250887745026868 0.065014013841452403 0 -0.34108900133092218 0.071924865007452626 0 -0.35145639959466252 0.085497139119470059 0 -0.33602843954367412 0.094004709867368155 0 -0.34108900133092218 0.071924865007452626 0 -0.33602843954367412 0.094004709867368155 0 -0.32735699795211048 0.081686712328045821 0 -0.34108900133092218 0.071924865007452626 0 -0.33602843954367412 0.094004709867368155 0 -0.3224539054397505 0.090112395005531379 0 -0.32735699795211048 0.081686712328045821 0 -0.39960166763298932 0.47350328215519938 0 -0.37718483160402932 0.5 0 -0.4297676361559094 0.5 0 -0.39960166763298932 0.47350328215519938 0 -0.37718483160402932 0.5 0 -0.37339273248599281 0.47576386728528902 0 -0.39960166763298932 0.47350328215519938 0 -0.38729888651629302 0.45683535036774542 0 -0.37339273248599281 0.47576386728528902 0 -0.38729888651629302 0.45683535036774542 0 -0.3785934402040424 0.44484573310708808 0 -0.39316748917573541 0.44417702172791462 0 -0.403976916638012 0.44630343682356061 0 -0.39316748917573541 0.44417702172791462 0 -0.402800713344595 0.42872356661326261 0 -0.38729888651629302 0.45683535036774542 0 -0.403976916638012 0.44630343682356061 0 -0.39316748917573541 0.44417702172791462 0 -0.3785934402040424 0.44484573310708808 0 -0.39316748917573541 0.44417702172791462 0 -0.402800713344595 0.42872356661326261 0 -0.38729888651629302 0.45683535036774542 0 -0.403976916638012 0.44630343682356061 0 -0.39960166763298932 0.47350328215519938 0 -0.38729888651629302 0.45683535036774542 0 -0.403976916638012 0.44630343682356061 0 -0.39960166763298932 0.47350328215519938 0 -0.403976916638012 0.44630343682356061 0 -0.42636001813454671 0.46162363325653782 0 -0.403976916638012 0.44630343682356061 0 -0.42636001813454671 0.46162363325653782 0 -0.42065494675973231 0.43577152327937763 0 -0.403976916638012 0.44630343682356061 0 -0.42065494675973231 0.43577152327937763 0 -0.42636001813454671 0.46162363325653782 0 -0.44710329783982011 0.44621200694330337 0 -0.42065494675973231 0.43577152327937763 0 -0.44710329783982011 0.44621200694330337 0 -0.42065494675973231 0.43577152327937763 0 -0.39960166763298932 0.47350328215519938 0 -0.42636001813454671 0.46162363325653782 0 -0.4297676361559094 0.5 0 -0.42636001813454671 0.46162363325653782 0 -0.4297676361559094 0.5 0 -0.45100054264813028 0.46960692358852951 0 -0.4297676361559094 0.5 0 -0.45100054264813028 0.46960692358852951 0 -0.47086396554478882 0.478670477693382 0 -0.4297676361559094 0.5 0 -0.5 0.5 0 -0.47086396554478882 0.478670477693382 0 -0.5 0.5 0 -0.47086396554478882 0.478670477693382 0 -0.49999999999999689 0.46709297427115148 0 -0.5 0.44663449148296808 0 -0.4735516489199082 0.4566524906072279 0 -0.48802745618025117 0.43612928732099671 0 -0.5 0.44663449148296808 0 -0.49999999999999689 0.46709297427115148 0 -0.4735516489199082 0.4566524906072279 0 -0.49999999999999689 0.46709297427115148 0 -0.4735516489199082 0.4566524906072279 0 -0.47086396554478882 0.478670477693382 0 -0.49999999999999689 0.46709297427115148 0 -0.4735516489199082 0.4566524906072279 0 -0.4735516489199082 0.4566524906072279 0 -0.47432138843108618 0.43060593858864687 0 -0.48802745618025117 0.43612928732099671 0 -0.4735516489199082 0.4566524906072279 0 -0.45705885291148712 0.43203702656976739 0 -0.47432138843108618 0.43060593858864687 0 -0.4735516489199082 0.4566524906072279 0 -0.44710329783982011 0.44621200694330337 0 -0.45705885291148712 0.43203702656976739 0 -0.4735516489199082 0.4566524906072279 0 -0.44710329783982011 0.44621200694330337 0 -0.45100054264813028 0.46960692358852951 0 -0.4735516489199082 0.4566524906072279 0 -0.44710329783982011 0.44621200694330337 0 -0.45100054264813028 0.46960692358852951 0 -0.47086396554478882 0.478670477693382 0 -0.4735516489199082 0.4566524906072279 0 -0.42636001813454671 0.46162363325653782 0 -0.45100054264813028 0.46960692358852951 0 -0.44710329783982011 0.44621200694330337 0 -0.45336966432342041 0.41511269399986078 0 -0.45705885291148712 0.43203702656976739 0 -0.43701230554157577 0.42544210863961829 0 -0.44710329783982011 0.44621200694330337 0 -0.45705885291148712 0.43203702656976739 0 -0.43701230554157577 0.42544210863961829 0 -0.45336966432342041 0.41511269399986078 0 -0.43696067153341722 0.40288061689754662 0 -0.43701230554157577 0.42544210863961829 0 -0.45336966432342041 0.41511269399986078 0 -0.43701230554157577 0.42544210863961829 0 -0.45336966432342041 0.41511269399986078 0 -0.45705885291148712 0.43203702656976739 0 -0.46918177942791528 0.41838339619110942 0 -0.45336966432342041 0.41511269399986078 0 -0.46918177942791528 0.41838339619110942 0 -0.47622346181259501 0.39750469357194529 0 -0.45705885291148712 0.43203702656976739 0 -0.47432138843108618 0.43060593858864687 0 -0.46918177942791528 0.41838339619110942 0 -0.47432138843108618 0.43060593858864687 0 -0.48493552966098769 0.41665662822532651 0 -0.48802745618025117 0.43612928732099671 0 -0.46918177942791528 0.41838339619110942 0 -0.48493552966098769 0.41665662822532651 0 -0.47622346181259501 0.39750469357194529 0 -0.47432138843108618 0.43060593858864687 0 -0.46918177942791528 0.41838339619110942 0 -0.48493552966098769 0.41665662822532651 0 -0.48493552966098769 0.41665662822532651 0 -0.5 0.42617600869478489 0 -0.49999999999999861 0.40571752590660171 0 -0.48493552966098769 0.41665662822532651 0 -0.49999999999999861 0.40571752590660171 0 -0.47622346181259501 0.39750469357194529 0 -0.48493552966098769 0.41665662822532651 0 -0.5 0.42617600869478489 0 -0.48802745618025117 0.43612928732099671 0 -0.5 0.44663449148296808 0 -0.5 0.42617600869478489 0 -0.48802745618025117 0.43612928732099671 0 -0.5 0.37838562604765807 0 -0.49999999999999861 0.40571752590660171 0 -0.47622346181259501 0.39750469357194529 0 -0.49999999999999861 0.40571752590660171 0 -0.47622346181259501 0.39750469357194529 0 -0.5 0.37838562604765807 0 -0.47622346181259501 0.39750469357194529 0 -0.47311830144693978 0.36775422850239758 0 -0.45244692362519151 0.38929186123728837 0 -0.44901831408264209 0.3681914845402145 0 -0.47311830144693978 0.36775422850239758 0 -0.47622346181259501 0.39750469357194529 0 -0.45244692362519151 0.38929186123728837 0 -0.47311830144693978 0.36775422850239758 0 -0.45336966432342041 0.41511269399986078 0 -0.47622346181259501 0.39750469357194529 0 -0.45244692362519151 0.38929186123728837 0 -0.47622346181259501 0.39750469357194529 0 -0.45244692362519151 0.38929186123728837 0 -0.45336966432342041 0.41511269399986078 0 -0.45244692362519151 0.38929186123728837 0 -0.43696067153341722 0.40288061689754662 0 -0.45244692362519151 0.38929186123728837 0 -0.4286703854377879 0.38107902890263162 0 -0.43696067153341722 0.40288061689754662 0 -0.45244692362519151 0.38929186123728837 0 -0.4286703854377879 0.38107902890263162 0 -0.45244692362519151 0.38929186123728837 0 -0.4286703854377879 0.38107902890263162 0 -0.44901831408264209 0.3681914845402145 0 -0.41907532962984861 0.39444964090007811 0 -0.40232646152573281 0.38643921777387191 0 -0.41150578656856479 0.373104468666143 0 -0.4286703854377879 0.38107902890263162 0 -0.41907532962984861 0.39444964090007811 0 -0.41150578656856479 0.373104468666143 0 -0.41907532962984861 0.39444964090007811 0 -0.40232646152573281 0.38643921777387191 0 -0.40493109500713581 0.4028970370678272 0 -0.41907532962984861 0.39444964090007811 0 -0.4218084676239553 0.41124545728871092 0 -0.40493109500713581 0.4028970370678272 0 -0.4286703854377879 0.38107902890263162 0 -0.41907532962984861 0.39444964090007811 0 -0.43696067153341722 0.40288061689754662 0 -0.41907532962984861 0.39444964090007811 0 -0.43696067153341722 0.40288061689754662 0 -0.4218084676239553 0.41124545728871092 0 -0.43701230554157577 0.42544210863961829 0 -0.41894501430933628 0.42376180282987869 0 -0.4218084676239553 0.41124545728871092 0 -0.43696067153341722 0.40288061689754662 0 -0.43701230554157577 0.42544210863961829 0 -0.4218084676239553 0.41124545728871092 0 -0.43701230554157577 0.42544210863961829 0 -0.42065494675973231 0.43577152327937763 0 -0.41894501430933628 0.42376180282987869 0 -0.43701230554157577 0.42544210863961829 0 -0.42065494675973231 0.43577152327937763 0 -0.44710329783982011 0.44621200694330337 0 -0.43701230554157577 0.42544210863961829 0 -0.42065494675973231 0.43577152327937763 0 -0.42065494675973231 0.43577152327937763 0 -0.40699113212208832 0.42593272648775732 0 -0.402800713344595 0.42872356661326261 0 -0.403976916638012 0.44630343682356061 0 -0.42065494675973231 0.43577152327937763 0 -0.402800713344595 0.42872356661326261 0 -0.42065494675973231 0.43577152327937763 0 -0.402800713344595 0.42872356661326261 0 -0.42065494675973231 0.43577152327937763 0 -0.41894501430933628 0.42376180282987869 0 -0.40699113212208832 0.42593272648775732 0 -0.41894501430933628 0.42376180282987869 0 -0.40699113212208832 0.42593272648775732 0 -0.4114842019152129 0.41613689218010652 0 -0.4218084676239553 0.41124545728871092 0 -0.4114842019152129 0.41613689218010652 0 -0.40493109500713581 0.4028970370678272 0 -0.41894501430933628 0.42376180282987869 0 -0.4218084676239553 0.41124545728871092 0 -0.4114842019152129 0.41613689218010652 0 -0.38411326391858958 0.42134669801900693 0 -0.40493109500713581 0.4028970370678272 0 -0.4114842019152129 0.41613689218010652 0 -0.38411326391858958 0.42134669801900693 0 -0.40493109500713581 0.4028970370678272 0 -0.40699113212208832 0.42593272648775732 0 -0.4114842019152129 0.41613689218010652 0 -0.38411326391858958 0.42134669801900693 0 -0.402800713344595 0.42872356661326261 0 -0.38411326391858958 0.42134669801900693 0 -0.40699113212208832 0.42593272648775732 0 -0.402800713344595 0.42872356661326261 0 -0.38411326391858958 0.42134669801900693 0 -0.3785934402040424 0.44484573310708808 0 -0.402800713344595 0.42872356661326261 0 -0.40699113212208832 0.42593272648775732 0 -0.402800713344595 0.42872356661326261 0 -0.3785934402040424 0.44484573310708808 0 -0.38411326391858958 0.42134669801900693 0 -0.36273211952709972 0.44029559154655168 0 -0.3785934402040424 0.44484573310708808 0 -0.402800713344595 0.42872356661326261 0 -0.38411326391858958 0.42134669801900693 0 -0.38411326391858958 0.42134669801900693 0 -0.38140417663694509 0.39666361527351879 0 -0.40493109500713581 0.4028970370678272 0 -0.38411326391858958 0.42134669801900693 0 -0.38140417663694509 0.39666361527351879 0 -0.36051548735737521 0.41203147833116482 0 -0.38140417663694509 0.39666361527351879 0 -0.38995032872260288 0.3752823692795958 0 -0.37308192128755968 0.37697964105510451 0 -0.38995032872260288 0.3752823692795958 0 -0.40232646152573281 0.38643921777387191 0 -0.41150578656856479 0.373104468666143 0 -0.38140417663694509 0.39666361527351879 0 -0.38995032872260288 0.3752823692795958 0 -0.40232646152573281 0.38643921777387191 0 -0.38140417663694509 0.39666361527351879 0 -0.40232646152573281 0.38643921777387191 0 -0.40493109500713581 0.4028970370678272 0 -0.39557200151156702 0.36076716082044391 0 -0.38577013882049799 0.34234764835718978 0 -0.41009711242777719 0.35117634634209932 0 -0.39557200151156702 0.36076716082044391 0 -0.41009711242777719 0.35117634634209932 0 -0.41150578656856479 0.373104468666143 0 -0.38995032872260288 0.3752823692795958 0 -0.39557200151156702 0.36076716082044391 0 -0.41150578656856479 0.373104468666143 0 -0.38995032872260288 0.3752823692795958 0 -0.39557200151156702 0.36076716082044391 0 -0.38053664101839191 0.36192497145719149 0 -0.38995032872260288 0.3752823692795958 0 -0.38053664101839191 0.36192497145719149 0 -0.37308192128755968 0.37697964105510451 0 -0.38053664101839191 0.36192497145719149 0 -0.38577013882049799 0.34234764835718978 0 -0.36872453066584288 0.35212079048237599 0 -0.39557200151156702 0.36076716082044391 0 -0.38053664101839191 0.36192497145719149 0 -0.38577013882049799 0.34234764835718978 0 -0.38577013882049799 0.34234764835718978 0 -0.38610161189013442 0.32144924605895941 0 -0.37214106851808199 0.32593184072275072 0 -0.38577013882049799 0.34234764835718978 0 -0.37214106851808199 0.32593184072275072 0 -0.36840613925911869 0.33927986123385312 0 -0.38610161189013442 0.32144924605895941 0 -0.37561790996601591 0.31062122265366471 0 -0.37214106851808199 0.32593184072275072 0 -0.40285450012793128 0.32808788016712809 0 -0.39412444201814439 0.30025763839406361 0 -0.38610161189013442 0.32144924605895941 0 -0.40285450012793128 0.32808788016712809 0 -0.39412444201814439 0.30025763839406361 0 -0.38577013882049799 0.34234764835718978 0 -0.40285450012793128 0.32808788016712809 0 -0.38577013882049799 0.34234764835718978 0 -0.38610161189013442 0.32144924605895941 0 -0.40285450012793128 0.32808788016712809 0 -0.38577013882049799 0.34234764835718978 0 -0.40285450012793128 0.32808788016712809 0 -0.41009711242777719 0.35117634634209932 0 -0.40285450012793128 0.32808788016712809 0 -0.41009711242777719 0.35117634634209932 0 -0.40285450012793128 0.32808788016712809 0 -0.42842685025109217 0.33472921989481302 0 -0.41009711242777719 0.35117634634209932 0 -0.40285450012793128 0.32808788016712809 0 -0.42593172765449883 0.30882605883964193 0 -0.40285450012793128 0.32808788016712809 0 -0.42842685025109217 0.33472921989481302 0 -0.42593172765449883 0.30882605883964193 0 -0.42842685025109217 0.33472921989481302 0 -0.44638184840210909 0.3204365204258568 0 -0.42593172765449883 0.30882605883964193 0 -0.42842685025109217 0.33472921989481302 0 -0.43065684418194372 0.35853402340556217 0 -0.41009711242777719 0.35117634634209932 0 -0.43065684418194372 0.35853402340556217 0 -0.41009711242777719 0.35117634634209932 0 -0.41150578656856479 0.373104468666143 0 -0.4286703854377879 0.38107902890263162 0 -0.43065684418194372 0.35853402340556217 0 -0.41150578656856479 0.373104468666143 0 -0.4286703854377879 0.38107902890263162 0 -0.43065684418194372 0.35853402340556217 0 -0.44901831408264209 0.3681914845402145 0 -0.42842685025109217 0.33472921989481302 0 -0.43065684418194372 0.35853402340556217 0 -0.45472359948954733 0.34417725922200171 0 -0.43065684418194372 0.35853402340556217 0 -0.44901831408264209 0.3681914845402145 0 -0.45472359948954733 0.34417725922200171 0 -0.44901831408264209 0.3681914845402145 0 -0.45472359948954733 0.34417725922200171 0 -0.47311830144693978 0.36775422850239758 0 -0.45472359948954733 0.34417725922200171 0 -0.47311830144693978 0.36775422850239758 0 -0.47883518981237522 0.33791431924931331 0 -0.47311830144693978 0.36775422850239758 0 -0.5 0.35105372618871472 0 -0.47883518981237522 0.33791431924931331 0 -0.5 0.37838562604765807 0 -0.47311830144693978 0.36775422850239758 0 -0.5 0.35105372618871472 0 -0.5 0.35105372618871472 0 -0.5 0.32372182632977109 0 -0.47883518981237522 0.33791431924931331 0 -0.5 0.32372182632977109 0 -0.47883518981237522 0.33791431924931331 0 -0.47051228905654402 0.31501570654739769 0 -0.45472359948954733 0.34417725922200171 0 -0.47051228905654402 0.31501570654739769 0 -0.44638184840210909 0.3204365204258568 0 -0.45472359948954733 0.34417725922200171 0 -0.47883518981237522 0.33791431924931331 0 -0.47051228905654402 0.31501570654739769 0 -0.42842685025109217 0.33472921989481302 0 -0.45472359948954733 0.34417725922200171 0 -0.44638184840210909 0.3204365204258568 0 -0.44638184840210909 0.3204365204258568 0 -0.44900895518106432 0.28956423751215332 0 -0.42593172765449883 0.30882605883964193 0 -0.44900895518106432 0.28956423751215332 0 -0.4751640768141186 0.29032140810786938 0 -0.46895811738769588 0.26551947142513932 0 -0.47051228905654402 0.31501570654739769 0 -0.44900895518106432 0.28956423751215332 0 -0.4751640768141186 0.29032140810786938 0 -0.47051228905654402 0.31501570654739769 0 -0.44638184840210909 0.3204365204258568 0 -0.44900895518106432 0.28956423751215332 0 -0.47051228905654402 0.31501570654739769 0 -0.4751640768141186 0.29032140810786938 0 -0.5 0.29638992647082751 0 -0.4751640768141186 0.29032140810786938 0 -0.5 0.29638992647082751 0 -0.5 0.26905802661188388 0 -0.5 0.32372182632977109 0 -0.47051228905654402 0.31501570654739769 0 -0.5 0.29638992647082751 0 -0.48064652603017638 0.2486227021841052 0 -0.5 0.24172612675294039 0 -0.5 0.26905802661188388 0 -0.4751640768141186 0.29032140810786938 0 -0.5 0.26905802661188388 0 -0.46895811738769588 0.26551947142513932 0 -0.48064652603017638 0.2486227021841052 0 -0.5 0.26905802661188388 0 -0.46895811738769588 0.26551947142513932 0 -0.44966682488906112 0.24094375408753541 0 -0.46895811738769588 0.26551947142513932 0 -0.44948996083656811 0.26399664136422812 0 -0.48064652603017638 0.2486227021841052 0 -0.44966682488906112 0.24094375408753541 0 -0.46895811738769588 0.26551947142513932 0 -0.44900895518106432 0.28956423751215332 0 -0.46895811738769588 0.26551947142513932 0 -0.44948996083656811 0.26399664136422812 0 -0.44900895518106432 0.28956423751215332 0 -0.44948996083656811 0.26399664136422812 0 -0.43013776590962011 0.26499420446988969 0 -0.44966682488906112 0.24094375408753541 0 -0.44948996083656811 0.26399664136422812 0 -0.43013776590962011 0.26499420446988969 0 -0.42428092472507911 0.23146588104676011 0 -0.43013776590962011 0.26499420446988969 0 -0.4033433644076177 0.2537704706891048 0 -0.44900895518106432 0.28956423751215332 0 -0.43013776590962011 0.26499420446988969 0 -0.41465677317988392 0.28164000108764198 0 -0.43013776590962011 0.26499420446988969 0 -0.41465677317988392 0.28164000108764198 0 -0.4033433644076177 0.2537704706891048 0 -0.44900895518106432 0.28956423751215332 0 -0.42593172765449883 0.30882605883964193 0 -0.41465677317988392 0.28164000108764198 0 -0.40285450012793128 0.32808788016712809 0 -0.42593172765449883 0.30882605883964193 0 -0.39412444201814439 0.30025763839406361 0 -0.42593172765449883 0.30882605883964193 0 -0.41465677317988392 0.28164000108764198 0 -0.39412444201814439 0.30025763839406361 0 -0.44900895518106432 0.28956423751215332 0 -0.42593172765449883 0.30882605883964193 0 -0.41465677317988392 0.28164000108764198 0 -0.39412444201814439 0.30025763839406361 0 -0.38539438390835867 0.2724273966209988 0 -0.39412444201814439 0.30025763839406361 0 -0.37561790996601591 0.31062122265366471 0 -0.36606258877947367 0.2897059300400267 0 -0.38610161189013442 0.32144924605895941 0 -0.39412444201814439 0.30025763839406361 0 -0.37561790996601591 0.31062122265366471 0 -0.39412444201814439 0.30025763839406361 0 -0.38539438390835867 0.2724273966209988 0 -0.39412444201814439 0.30025763839406361 0 -0.38539438390835867 0.2724273966209988 0 -0.36606258877947367 0.2897059300400267 0 -0.37666432579857417 0.24459715484793351 0 -0.38539438390835867 0.2724273966209988 0 -0.4033433644076177 0.2537704706891048 0 -0.37666432579857417 0.24459715484793351 0 -0.38539438390835867 0.2724273966209988 0 -0.3701446455157591 0.26201951237180071 0 -0.37666432579857417 0.24459715484793351 0 -0.38539438390835867 0.2724273966209988 0 -0.41465677317988392 0.28164000108764198 0 -0.38539438390835867 0.2724273966209988 0 -0.4033433644076177 0.2537704706891048 0 -0.34493087691688112 0.26889625176220427 0 -0.36606258877947367 0.2897059300400267 0 -0.34493087691688112 0.26889625176220427 0 -0.35117221935285259 0.2524801087882575 0 -0.3701446455157591 0.26201951237180071 0 -0.36484703261806101 0.2458252011169493 0 -0.35117221935285259 0.2524801087882575 0 -0.3701446455157591 0.26201951237180071 0 -0.37666432579857417 0.24459715484793351 0 -0.36484703261806101 0.2458252011169493 0 -0.3701446455157591 0.26201951237180071 0 -0.38539438390835867 0.2724273966209988 0 -0.3701446455157591 0.26201951237180071 0 -0.36606258877947367 0.2897059300400267 0 -0.34493087691688112 0.26889625176220427 0 -0.3701446455157591 0.26201951237180071 0 -0.36606258877947367 0.2897059300400267 0 -0.37561790996601591 0.31062122265366471 0 -0.36606258877947367 0.2897059300400267 0 -0.35877804075186731 0.31077356936836159 0 -0.35877804075186731 0.31077356936836159 0 -0.33497034354087768 0.29801893033763799 0 -0.34188639403676901 0.31720854293731271 0 -0.35877804075186731 0.31077356936836159 0 -0.33497034354087768 0.29801893033763799 0 -0.36606258877947367 0.2897059300400267 0 -0.35877804075186731 0.31077356936836159 0 -0.33497034354087768 0.29801893033763799 0 -0.34493087691688112 0.26889625176220427 0 -0.36606258877947367 0.2897059300400267 0 -0.33497034354087768 0.29801893033763799 0 -0.33497034354087768 0.29801893033763799 0 -0.32311423163464692 0.31995092211256632 0 -0.34188639403676901 0.31720854293731271 0 -0.33497034354087768 0.29801893033763799 0 -0.31116264632988833 0.28526429130691461 0 -0.30728712213562548 0.30848323977430309 0 -0.33497034354087768 0.29801893033763799 0 -0.30728712213562548 0.30848323977430309 0 -0.32311423163464692 0.31995092211256632 0 -0.33497034354087768 0.29801893033763799 0 -0.32382114399493928 0.26964235045162438 0 -0.31116264632988833 0.28526429130691461 0 -0.33497034354087768 0.29801893033763799 0 -0.31116264632988833 0.28526429130691461 0 -0.32382114399493928 0.26964235045162438 0 -0.30548905553269529 0.25990485780258449 0 -0.31116264632988833 0.28526429130691461 0 -0.34493087691688112 0.26889625176220427 0 -0.33497034354087768 0.29801893033763799 0 -0.32382114399493928 0.26964235045162438 0 -0.32379916505428818 0.24808657348438179 0 -0.34493087691688112 0.26889625176220427 0 -0.32382114399493928 0.26964235045162438 0 -0.32379916505428818 0.24808657348438179 0 -0.34493087691688112 0.26889625176220427 0 -0.32379916505428818 0.24808657348438179 0 -0.34493087691688112 0.26889625176220427 0 -0.35117221935285259 0.2524801087882575 0 -0.32379916505428818 0.24808657348438179 0 -0.32382114399493928 0.26964235045162438 0 -0.30548905553269529 0.25990485780258449 0 -0.32379916505428818 0.24808657348438179 0 -0.30506580912407988 0.2452115703415513 0 -0.30548905553269529 0.25990485780258449 0 -0.28830756271764091 0.24557795487267961 0 -0.30506580912407988 0.2452115703415513 0 -0.30548905553269529 0.25990485780258449 0 -0.28735494911889892 0.27250965227619101 0 -0.31116264632988833 0.28526429130691461 0 -0.30548905553269529 0.25990485780258449 0 -0.28735494911889892 0.27250965227619101 0 -0.31116264632988833 0.28526429130691461 0 -0.28830756271764091 0.24557795487267961 0 -0.30548905553269529 0.25990485780258449 0 -0.28735494911889892 0.27250965227619101 0 -0.28830756271764091 0.24557795487267961 0 -0.27408924259243911 0.24994504760829259 0 -0.28735494911889892 0.27250965227619101 0 -0.28830756271764091 0.24557795487267961 0 -0.28735494911889892 0.27250965227619101 0 -0.27408924259243911 0.24994504760829259 0 -0.28735494911889892 0.27250965227619101 0 -0.26292185998712631 0.25941996831728192 0 -0.28735494911889892 0.27250965227619101 0 -0.26292185998712631 0.25941996831728192 0 -0.28735494911889892 0.27250965227619101 0 -0.26292185998712631 0.25941996831728192 0 -0.26412386844609292 0.28600713087235557 0 -0.26292185998712631 0.25941996831728192 0 -0.26412386844609292 0.28600713087235557 0 -0.24558079483977169 0.27374289218359499 0 -0.26292185998712631 0.25941996831728192 0 -0.24269823368249191 0.25990187884213117 0 -0.24558079483977169 0.27374289218359499 0 -0.26292185998712631 0.25941996831728192 0 -0.23848877085535369 0.2463302843583732 0 -0.2585424856742547 0.24272475909532731 0 -0.27408924259243911 0.24994504760829259 0 -0.26292185998712631 0.25941996831728192 0 -0.26964383496036698 0.30662366644199041 0 -0.26344642021158782 0.31963645363845072 0 -0.2487026013327101 0.30432428835627789 0 -0.26412386844609292 0.28600713087235557 0 -0.26964383496036698 0.30662366644199041 0 -0.2487026013327101 0.30432428835627789 0 -0.26412386844609292 0.28600713087235557 0 -0.24163358300240251 0.28930517342151751 0 -0.2487026013327101 0.30432428835627789 0 -0.26412386844609292 0.28600713087235557 0 -0.24163358300240251 0.28930517342151751 0 -0.24558079483977169 0.27374289218359499 0 -0.28735494911889892 0.27250965227619101 0 -0.26412386844609292 0.28600713087235557 0 -0.28643374464344767 0.29855337053968622 0 -0.26412386844609292 0.28600713087235557 0 -0.26964383496036698 0.30662366644199041 0 -0.28643374464344767 0.29855337053968622 0 -0.26964383496036698 0.30662366644199041 0 -0.28643374464344767 0.29855337053968622 0 -0.2855125401679966 0.3245970888031815 0 -0.28643374464344767 0.29855337053968622 0 -0.2855125401679966 0.3245970888031815 0 -0.28643374464344767 0.29855337053968622 0 -0.30728712213562548 0.30848323977430309 0 -0.2855125401679966 0.3245970888031815 0 -0.28735494911889892 0.27250965227619101 0 -0.28643374464344767 0.29855337053968622 0 -0.31116264632988833 0.28526429130691461 0 -0.28735494911889892 0.27250965227619101 0 -0.28643374464344767 0.29855337053968622 0 -0.28643374464344767 0.29855337053968622 0 -0.31116264632988833 0.28526429130691461 0 -0.30728712213562548 0.30848323977430309 0 -0.30728712213562548 0.30848323977430309 0 -0.30542008362082251 0.32533946422366988 0 -0.2855125401679966 0.3245970888031815 0 -0.30728712213562548 0.30848323977430309 0 -0.30542008362082251 0.32533946422366988 0 -0.32311423163464692 0.31995092211256632 0 -0.30542008362082251 0.32533946422366988 0 -0.29707509991866038 0.33884467611174618 0 -0.31411142424718319 0.33482139431655222 0 -0.29707509991866038 0.33884467611174618 0 -0.30451243221496532 0.34568098359385607 0 -0.31411142424718319 0.33482139431655222 0 -0.30451243221496532 0.34568098359385607 0 -0.31346003334067712 0.34915357717690199 0 -0.31411142424718319 0.33482139431655222 0 -0.2855125401679966 0.3245970888031815 0 -0.28459133569254541 0.35064080706667677 0 -0.29707509991866038 0.33884467611174618 0 -0.2855125401679966 0.3245970888031815 0 -0.28459133569254541 0.35064080706667677 0 -0.2855125401679966 0.3245970888031815 0 -0.27630283876348799 0.34268806770638638 0 -0.28459133569254541 0.35064080706667677 0 -0.30542008362082251 0.32533946422366988 0 -0.29707509991866038 0.33884467611174618 0 -0.2855125401679966 0.3245970888031815 0 -0.2855125401679966 0.3245970888031815 0 -0.2710942794869477 0.33130699570093552 0 -0.26344642021158782 0.31963645363845072 0 -0.26964383496036698 0.30662366644199041 0 -0.2855125401679966 0.3245970888031815 0 -0.26344642021158782 0.31963645363845072 0 -0.2855125401679966 0.3245970888031815 0 -0.27630283876348799 0.34268806770638638 0 -0.2710942794869477 0.33130699570093552 0 -0.27630283876348799 0.34268806770638638 0 -0.2710942794869477 0.33130699570093552 0 -0.26500855592244787 0.34353919525505849 0 -0.2710942794869477 0.33130699570093552 0 -0.2595126058785624 0.33179323393453131 0 -0.26500855592244787 0.34353919525505849 0 -0.2595126058785624 0.33179323393453131 0 -0.26500855592244787 0.34353919525505849 0 -0.25446648375608161 0.34080472638544701 0 -0.2595126058785624 0.33179323393453131 0 -0.25446648375608161 0.34080472638544701 0 -0.2460336656789357 0.3337283287742524 0 -0.2595126058785624 0.33179323393453131 0 -0.24874910864909841 0.32206925242336931 0 -0.2460336656789357 0.3337283287742524 0 -0.26344642021158782 0.31963645363845072 0 -0.24874910864909841 0.32206925242336931 0 -0.2487026013327101 0.30432428835627789 0 -0.2595126058785624 0.33179323393453131 0 -0.26344642021158782 0.31963645363845072 0 -0.24874910864909841 0.32206925242336931 0 -0.2710942794869477 0.33130699570093552 0 -0.2595126058785624 0.33179323393453131 0 -0.26344642021158782 0.31963645363845072 0 -0.25894153914192092 0.36614976586578679 0 -0.26467452554321769 0.36283952152193327 0 -0.26386537326800541 0.37091178662154062 0 -0.25894153914192092 0.36614976586578679 0 -0.25855354497887439 0.36000290950605801 0 -0.26467452554321769 0.36283952152193327 0 -0.26386537326800541 0.37091178662154062 0 -0.25732574761791338 0.3727848793944793 0 -0.26163059906557168 0.37839599218038023 0 -0.25894153914192092 0.36614976586578679 0 -0.26386537326800541 0.37091178662154062 0 -0.25732574761791338 0.3727848793944793 0 -0.25732574761791338 0.3727848793944793 0 -0.25135861017078309 0.36458230349300091 0 -0.25091287677097768 0.37673746352190368 0 -0.25894153914192092 0.36614976586578679 0 -0.25732574761791338 0.3727848793944793 0 -0.25135861017078309 0.36458230349300091 0 -0.25894153914192092 0.36614976586578679 0 -0.25855354497887439 0.36000290950605801 0 -0.25135861017078309 0.36458230349300091 0 -0.25855354497887439 0.36000290950605801 0 -0.25135861017078309 0.36458230349300091 0 -0.25379026269596222 0.35183812540250081 0 -0.26500855592244787 0.34353919525505849 0 -0.25446648375608161 0.34080472638544701 0 -0.25379026269596222 0.35183812540250081 0 -0.25446648375608161 0.34080472638544701 0 -0.25379026269596222 0.35183812540250081 0 -0.24387546729111939 0.3448630346860822 0 -0.26500855592244787 0.34353919525505849 0 -0.25379026269596222 0.35183812540250081 0 -0.264002787342488 0.35460483124706799 0 -0.25855354497887439 0.36000290950605801 0 -0.25379026269596222 0.35183812540250081 0 -0.264002787342488 0.35460483124706799 0 -0.25855354497887439 0.36000290950605801 0 -0.26467452554321769 0.36283952152193327 0 -0.264002787342488 0.35460483124706799 0 -0.26467452554321769 0.36283952152193327 0 -0.264002787342488 0.35460483124706799 0 -0.2712870802502676 0.35876005338655698 0 -0.264002787342488 0.35460483124706799 0 -0.2712870802502676 0.35876005338655698 0 -0.27164719767140227 0.35133205993476191 0 -0.2712870802502676 0.35876005338655698 0 -0.27164719767140227 0.35133205993476191 0 -0.2770575876904004 0.35360823930241841 0 -0.27630283876348799 0.34268806770638638 0 -0.26500855592244787 0.34353919525505849 0 -0.27164719767140227 0.35133205993476191 0 -0.26500855592244787 0.34353919525505849 0 -0.264002787342488 0.35460483124706799 0 -0.27164719767140227 0.35133205993476191 0 -0.27630283876348799 0.34268806770638638 0 -0.27164719767140227 0.35133205993476191 0 -0.2770575876904004 0.35360823930241841 0 -0.27630283876348799 0.34268806770638638 0 -0.2770575876904004 0.35360823930241841 0 -0.28459133569254541 0.35064080706667677 0 -0.2712870802502676 0.35876005338655698 0 -0.2770575876904004 0.35360823930241841 0 -0.27875553649682488 0.36342690355038582 0 -0.2770575876904004 0.35360823930241841 0 -0.27875553649682488 0.36342690355038582 0 -0.28459133569254541 0.35064080706667677 0 -0.2712870802502676 0.35876005338655698 0 -0.27875553649682488 0.36342690355038582 0 -0.27158484675727262 0.36674876476277501 0 -0.26467452554321769 0.36283952152193327 0 -0.2712870802502676 0.35876005338655698 0 -0.27158484675727262 0.36674876476277501 0 -0.26467452554321769 0.36283952152193327 0 -0.26386537326800541 0.37091178662154062 0 -0.27158484675727262 0.36674876476277501 0 -0.26386537326800541 0.37091178662154062 0 -0.27055524767236178 0.3740667518285905 0 -0.26599387380891859 0.37588532433855648 0 -0.26386537326800541 0.37091178662154062 0 -0.27158484675727262 0.36674876476277501 0 -0.27055524767236178 0.3740667518285905 0 -0.27158484675727262 0.36674876476277501 0 -0.27055524767236178 0.3740667518285905 0 -0.27616536711970008 0.37225187755713018 0 -0.27875553649682488 0.36342690355038582 0 -0.27616536711970008 0.37225187755713018 0 -0.28367013121709428 0.3766845253301721 0 -0.27875553649682488 0.36342690355038582 0 -0.27158484675727262 0.36674876476277501 0 -0.27616536711970008 0.37225187755713018 0 -0.28459133569254541 0.35064080706667677 0 -0.28367013121709428 0.3766845253301721 0 -0.28459133569254541 0.35064080706667677 0 -0.28790636077075987 0.35895628946959612 0 -0.28367013121709428 0.3766845253301721 0 -0.291855491410693 0.36628078166111022 0 -0.28790636077075987 0.35895628946959612 0 -0.28367013121709428 0.3766845253301721 0 -0.291855491410693 0.36628078166111022 0 -0.28790636077075987 0.35895628946959612 0 -0.30461276727517628 0.35754328265578972 0 -0.291855491410693 0.36628078166111022 0 -0.29089111649843452 0.37291924787615061 0 -0.28367013121709428 0.3766845253301721 0 -0.27875553649682488 0.36342690355038582 0 -0.28459133569254541 0.35064080706667677 0 -0.28367013121709428 0.3766845253301721 0 -0.291855491410693 0.36628078166111022 0 -0.29089111649843452 0.37291924787615061 0 -0.29783278761840098 0.36910154298605707 0 -0.29089111649843452 0.37291924787615061 0 -0.29783278761840098 0.36910154298605707 0 -0.29138016123221661 0.38040201236314081 0 -0.28790636077075987 0.35895628946959612 0 -0.30461276727517628 0.35754328265578972 0 -0.28459133569254541 0.35064080706667677 0 -0.28790636077075987 0.35895628946959612 0 -0.29483182615806358 0.35014893490878329 0 -0.28790636077075987 0.35895628946959612 0 -0.29483182615806358 0.35014893490878329 0 -0.30308377741024212 0.35543633545529668 0 -0.29707509991866038 0.33884467611174618 0 -0.28459133569254541 0.35064080706667677 0 -0.29483182615806358 0.35014893490878329 0 -0.28790636077075987 0.35895628946959612 0 -0.30308377741024212 0.35543633545529668 0 -0.30461276727517628 0.35754328265578972 0 -0.29483182615806358 0.35014893490878329 0 -0.30451243221496532 0.34568098359385607 0 -0.30308377741024212 0.35543633545529668 0 -0.29707509991866038 0.33884467611174618 0 -0.29483182615806358 0.35014893490878329 0 -0.30451243221496532 0.34568098359385607 0 -0.30308377741024212 0.35543633545529668 0 -0.30461276727517628 0.35754328265578972 0 -0.30308377741024212 0.35543633545529668 0 -0.30461276727517628 0.35754328265578972 0 -0.31346003334067712 0.34915357717690199 0 -0.30451243221496532 0.34568098359385607 0 -0.30308377741024212 0.35543633545529668 0 -0.31346003334067712 0.34915357717690199 0 -0.30461276727517628 0.35754328265578972 0 -0.29783278761840098 0.36910154298605707 0 -0.31549298678804882 0.3725362192141819 0 -0.29783278761840098 0.36910154298605707 0 -0.31549298678804882 0.3725362192141819 0 -0.29138016123221661 0.38040201236314081 0 -0.291855491410693 0.36628078166111022 0 -0.30461276727517628 0.35754328265578972 0 -0.29783278761840098 0.36910154298605707 0 -0.30461276727517628 0.35754328265578972 0 -0.31549298678804882 0.3725362192141819 0 -0.31549298678804882 0.3725362192141819 0 -0.31797238493267088 0.37172742005896231 0 -0.32654453833529251 0.37635933615731149 0 -0.31549298678804882 0.3725362192141819 0 -0.31797238493267088 0.37172742005896231 0 -0.31866593274111138 0.3646529983220862 0 -0.31549298678804882 0.3725362192141819 0 -0.31797238493267088 0.37172742005896231 0 -0.30461276727517628 0.35754328265578972 0 -0.31549298678804882 0.3725362192141819 0 -0.31866593274111138 0.3646529983220862 0 -0.31866593274111138 0.3646529983220862 0 -0.33098786372833022 0.36557683485728643 0 -0.32426366098133058 0.3558812348242108 0 -0.31797238493267088 0.37172742005896231 0 -0.31866593274111138 0.3646529983220862 0 -0.33098786372833022 0.36557683485728643 0 -0.31797238493267088 0.37172742005896231 0 -0.33098786372833022 0.36557683485728643 0 -0.32654453833529251 0.37635933615731149 0 -0.33098786372833022 0.36557683485728643 0 -0.33711340478422552 0.37558421607498932 0 -0.32654453833529251 0.37635933615731149 0 -0.33098786372833022 0.36557683485728643 0 -0.34581150585822229 0.36082526726043163 0 -0.34391455468748489 0.35421918699263011 0 -0.34581150585822229 0.36082526726043163 0 -0.33711340478422552 0.37558421607498932 0 -0.33098786372833022 0.36557683485728643 0 -0.34581150585822229 0.36082526726043163 0 -0.33711340478422552 0.37558421607498932 0 -0.32980596366267279 0.34463247423300303 0 -0.32426366098133058 0.3558812348242108 0 -0.34391455468748489 0.35421918699263011 0 -0.33098786372833022 0.36557683485728643 0 -0.32426366098133058 0.3558812348242108 0 -0.34391455468748489 0.35421918699263011 0 -0.32426366098133058 0.3558812348242108 0 -0.34391455468748489 0.35421918699263011 0 -0.30461276727517628 0.35754328265578972 0 -0.32426366098133058 0.3558812348242108 0 -0.31346003334067712 0.34915357717690199 0 -0.32980596366267279 0.34463247423300303 0 -0.32426366098133058 0.3558812348242108 0 -0.31346003334067712 0.34915357717690199 0 -0.30461276727517628 0.35754328265578972 0 -0.31866593274111138 0.3646529983220862 0 -0.32426366098133058 0.3558812348242108 0 -0.30461276727517628 0.35754328265578972 0 -0.32426366098133058 0.3558812348242108 0 -0.32980596366267279 0.34463247423300303 0 -0.31411142424718319 0.33482139431655222 0 -0.33705590760382281 0.33033413720211341 0 -0.31411142424718319 0.33482139431655222 0 -0.32311423163464692 0.31995092211256632 0 -0.33705590760382281 0.33033413720211341 0 -0.32980596366267279 0.34463247423300303 0 -0.31346003334067712 0.34915357717690199 0 -0.31411142424718319 0.33482139431655222 0 -0.30542008362082251 0.32533946422366988 0 -0.31411142424718319 0.33482139431655222 0 -0.32311423163464692 0.31995092211256632 0 -0.32311423163464692 0.31995092211256632 0 -0.34188639403676901 0.31720854293731271 0 -0.33705590760382281 0.33033413720211341 0 -0.32980596366267279 0.34463247423300303 0 -0.33705590760382281 0.33033413720211341 0 -0.34391455468748489 0.35421918699263011 0 -0.33705590760382281 0.33033413720211341 0 -0.34391455468748489 0.35421918699263011 0 -0.33705590760382281 0.33033413720211341 0 -0.35657860870015379 0.3425556336503689 0 -0.35551344665263018 0.32696515566588402 0 -0.33705590760382281 0.33033413720211341 0 -0.35657860870015379 0.3425556336503689 0 -0.34391455468748489 0.35421918699263011 0 -0.34188639403676901 0.31720854293731271 0 -0.33705590760382281 0.33033413720211341 0 -0.35551344665263018 0.32696515566588402 0 -0.35877804075186731 0.31077356936836159 0 -0.34188639403676901 0.31720854293731271 0 -0.35551344665263018 0.32696515566588402 0 -0.35877804075186731 0.31077356936836159 0 -0.35551344665263018 0.32696515566588402 0 -0.37214106851808199 0.32593184072275072 0 -0.37561790996601591 0.31062122265366471 0 -0.35877804075186731 0.31077356936836159 0 -0.37214106851808199 0.32593184072275072 0 -0.35551344665263018 0.32696515566588402 0 -0.37214106851808199 0.32593184072275072 0 -0.36840613925911869 0.33927986123385312 0 -0.35657860870015379 0.3425556336503689 0 -0.35551344665263018 0.32696515566588402 0 -0.36840613925911869 0.33927986123385312 0 -0.38577013882049799 0.34234764835718978 0 -0.36840613925911869 0.33927986123385312 0 -0.36872453066584288 0.35212079048237599 0 -0.36872453066584288 0.35212079048237599 0 -0.36035496345206169 0.36459887646941752 0 -0.35000852081566453 0.3537037670152744 0 -0.35657860870015379 0.3425556336503689 0 -0.36840613925911869 0.33927986123385312 0 -0.36872453066584288 0.35212079048237599 0 -0.38053664101839191 0.36192497145719149 0 -0.36872453066584288 0.35212079048237599 0 -0.36035496345206169 0.36459887646941752 0 -0.38053664101839191 0.36192497145719149 0 -0.36035496345206169 0.36459887646941752 0 -0.37308192128755968 0.37697964105510451 0 -0.36035496345206169 0.36459887646941752 0 -0.34581150585822229 0.36082526726043163 0 -0.35316349660779672 0.38642837279579878 0 -0.34581150585822229 0.36082526726043163 0 -0.35316349660779672 0.38642837279579878 0 -0.33711340478422552 0.37558421607498932 0 -0.34581150585822229 0.36082526726043163 0 -0.35316349660779672 0.38642837279579878 0 -0.36035496345206169 0.36459887646941752 0 -0.34581150585822229 0.36082526726043163 0 -0.35000852081566453 0.3537037670152744 0 -0.34581150585822229 0.36082526726043163 0 -0.34391455468748489 0.35421918699263011 0 -0.35657860870015379 0.3425556336503689 0 -0.36872453066584288 0.35212079048237599 0 -0.35000852081566453 0.3537037670152744 0 -0.36872453066584288 0.35212079048237599 0 -0.35000852081566453 0.3537037670152744 0 -0.34581150585822229 0.36082526726043163 0 -0.35000852081566453 0.3537037670152744 0 -0.34391455468748489 0.35421918699263011 0 -0.34581150585822229 0.36082526726043163 0 -0.35000852081566453 0.3537037670152744 0 -0.35000852081566453 0.3537037670152744 0 -0.34391455468748489 0.35421918699263011 0 -0.35657860870015379 0.3425556336503689 0 -0.35000852081566453 0.3537037670152744 0 -0.34391455468748489 0.35421918699263011 0 -0.35657860870015379 0.3425556336503689 0 -0.35000852081566453 0.3537037670152744 0 -0.35316349660779672 0.38642837279579878 0 -0.36051548735737521 0.41203147833116482 0 -0.34371758288025878 0.40540050739650979 0 -0.35316349660779672 0.38642837279579878 0 -0.34043510433909852 0.39343211041710058 0 -0.34371758288025878 0.40540050739650979 0 -0.35316349660779672 0.38642837279579878 0 -0.36051548735737521 0.41203147833116482 0 -0.38140417663694509 0.39666361527351879 0 -0.35316349660779672 0.38642837279579878 0 -0.37308192128755968 0.37697964105510451 0 -0.36035496345206169 0.36459887646941752 0 -0.35316349660779672 0.38642837279579878 0 -0.37308192128755968 0.37697964105510451 0 -0.38140417663694509 0.39666361527351879 0 -0.35316349660779672 0.38642837279579878 0 -0.36051548735737521 0.41203147833116482 0 -0.38411326391858958 0.42134669801900693 0 -0.36111162496301602 0.41410751114335198 0 -0.36316028445023868 0.42336831983417772 0 -0.38411326391858958 0.42134669801900693 0 -0.36051548735737521 0.41203147833116482 0 -0.38411326391858958 0.42134669801900693 0 -0.36111162496301602 0.41410751114335198 0 -0.36051548735737521 0.41203147833116482 0 -0.3595661592327532 0.4192393763204012 0 -0.36111162496301602 0.41410751114335198 0 -0.36316028445023868 0.42336831983417772 0 -0.36111162496301602 0.41410751114335198 0 -0.36051548735737521 0.41203147833116482 0 -0.38411326391858958 0.42134669801900693 0 -0.36273211952709972 0.44029559154655168 0 -0.36316028445023868 0.42336831983417772 0 -0.3564845335565815 0.4290225483184727 0 -0.36273211952709972 0.44029559154655168 0 -0.38411326391858958 0.42134669801900693 0 -0.36316028445023868 0.42336831983417772 0 -0.36273211952709972 0.44029559154655168 0 -0.3595661592327532 0.4192393763204012 0 -0.36316028445023868 0.42336831983417772 0 -0.3564845335565815 0.4290225483184727 0 -0.3564845335565815 0.4290225483184727 0 -0.3459903929534579 0.43935321507684449 0 -0.36273211952709972 0.44029559154655168 0 -0.3564845335565815 0.4290225483184727 0 -0.35087411795249818 0.42129139867404558 0 -0.3459903929534579 0.43935321507684449 0 -0.3595661592327532 0.4192393763204012 0 -0.3564845335565815 0.4290225483184727 0 -0.35517009810727951 0.41769325154718251 0 -0.3564845335565815 0.4290225483184727 0 -0.35517009810727951 0.41769325154718251 0 -0.35087411795249818 0.42129139867404558 0 -0.3564845335565815 0.4290225483184727 0 -0.35087411795249818 0.42129139867404558 0 -0.35087411795249818 0.42129139867404558 0 -0.34371758288025878 0.40540050739650979 0 -0.33964471083136571 0.40581728178179621 0 -0.36051548735737521 0.41203147833116482 0 -0.34371758288025878 0.40540050739650979 0 -0.35517009810727951 0.41769325154718251 0 -0.35087411795249818 0.42129139867404558 0 -0.34371758288025878 0.40540050739650979 0 -0.36051548735737521 0.41203147833116482 0 -0.35517009810727951 0.41769325154718251 0 -0.34371758288025878 0.40540050739650979 0 -0.36111162496301602 0.41410751114335198 0 -0.36051548735737521 0.41203147833116482 0 -0.35517009810727951 0.41769325154718251 0 -0.3595661592327532 0.4192393763204012 0 -0.36111162496301602 0.41410751114335198 0 -0.35517009810727951 0.41769325154718251 0 -0.35517009810727951 0.41769325154718251 0 -0.35087411795249818 0.42129139867404558 0 -0.35087411795249818 0.42129139867404558 0 -0.33964471083136571 0.40581728178179621 0 -0.35087411795249818 0.42129139867404558 0 -0.3251826359379294 0.42261380445516028 0 -0.33964471083136571 0.40581728178179621 0 -0.35087411795249818 0.42129139867404558 0 -0.33281576374009347 0.43641637900081098 0 -0.3251826359379294 0.42261380445516028 0 -0.35087411795249818 0.42129139867404558 0 -0.33281576374009347 0.43641637900081098 0 -0.35087411795249818 0.42129139867404558 0 -0.33281576374009347 0.43641637900081098 0 -0.3459903929534579 0.43935321507684449 0 -0.3251826359379294 0.42261380445516028 0 -0.3199450734187258 0.43019021739162261 0 -0.30860579447516628 0.42614397422754169 0 -0.33281576374009347 0.43641637900081098 0 -0.3199450734187258 0.43019021739162261 0 -0.31317609952171388 0.43558671188297748 0 -0.33281576374009347 0.43641637900081098 0 -0.3251826359379294 0.42261380445516028 0 -0.3199450734187258 0.43019021739162261 0 -0.3199450734187258 0.43019021739162261 0 -0.31317609952171388 0.43558671188297748 0 -0.30860579447516628 0.42614397422754169 0 -0.3251826359379294 0.42261380445516028 0 -0.31775162710097699 0.40843730473824502 0 -0.33964471083136571 0.40581728178179621 0 -0.3251826359379294 0.42261380445516028 0 -0.31775162710097699 0.40843730473824502 0 -0.30860579447516628 0.42614397422754169 0 -0.31775162710097699 0.40843730473824502 0 -0.32841530371023098 0.39034316488954829 0 -0.30886072066142101 0.39100814250577071 0 -0.31775162710097699 0.40843730473824502 0 -0.32841530371023098 0.39034316488954829 0 -0.31775162710097699 0.40843730473824502 0 -0.33964471083136571 0.40581728178179621 0 -0.32841530371023098 0.39034316488954829 0 -0.33964471083136571 0.40581728178179621 0 -0.32841530371023098 0.39034316488954829 0 -0.34043510433909852 0.39343211041710058 0 -0.33964471083136571 0.40581728178179621 0 -0.32841530371023098 0.39034316488954829 0 -0.34043510433909852 0.39343211041710058 0 -0.34371758288025878 0.40540050739650979 0 -0.33964471083136571 0.40581728178179621 0 -0.35316349660779672 0.38642837279579878 0 -0.34043510433909852 0.39343211041710058 0 -0.33711340478422552 0.37558421607498932 0 -0.34043510433909852 0.39343211041710058 0 -0.33711340478422552 0.37558421607498932 0 -0.32841530371023098 0.39034316488954829 0 -0.33711340478422552 0.37558421607498932 0 -0.32841530371023098 0.39034316488954829 0 -0.33711340478422552 0.37558421607498932 0 -0.32841530371023098 0.39034316488954829 0 -0.32654453833529251 0.37635933615731149 0 -0.31549298678804882 0.3725362192141819 0 -0.32841530371023098 0.39034316488954829 0 -0.30886072066142101 0.39100814250577071 0 -0.31549298678804882 0.3725362192141819 0 -0.32841530371023098 0.39034316488954829 0 -0.32654453833529251 0.37635933615731149 0 -0.31549298678804882 0.3725362192141819 0 -0.32841530371023098 0.39034316488954829 0 -0.31549298678804882 0.3725362192141819 0 -0.29138016123221661 0.38040201236314081 0 -0.31549298678804882 0.3725362192141819 0 -0.30886072066142101 0.39100814250577071 0 -0.29138016123221661 0.38040201236314081 0 -0.30886072066142101 0.39100814250577071 0 -0.30176975838319597 0.40614034444945851 0 -0.28850180653355068 0.39589245962026409 0 -0.31775162710097699 0.40843730473824502 0 -0.30886072066142101 0.39100814250577071 0 -0.30176975838319597 0.40614034444945851 0 -0.30176975838319597 0.40614034444945851 0 -0.28850180653355068 0.39589245962026409 0 -0.28794375856830778 0.40988084241051581 0 -0.28850180653355068 0.39589245962026409 0 -0.2750541955962118 0.40470051900661158 0 -0.28794375856830778 0.40988084241051581 0 -0.30886072066142101 0.39100814250577071 0 -0.28850180653355068 0.39589245962026409 0 -0.29138016123221661 0.38040201236314081 0 -0.28850180653355068 0.39589245962026409 0 -0.29138016123221661 0.38040201236314081 0 -0.26726733567638428 0.38826780551209977 0 -0.29138016123221661 0.38040201236314081 0 -0.28367013121709428 0.3766845253301721 0 -0.27626107345494672 0.38033244231372743 0 -0.29089111649843452 0.37291924787615061 0 -0.29138016123221661 0.38040201236314081 0 -0.28367013121709428 0.3766845253301721 0 -0.29138016123221661 0.38040201236314081 0 -0.27626107345494672 0.38033244231372743 0 -0.26726733567638428 0.38826780551209977 0 -0.27055524767236178 0.3740667518285905 0 -0.27616536711970008 0.37225187755713018 0 -0.27626107345494672 0.38033244231372743 0 -0.27616536711970008 0.37225187755713018 0 -0.28367013121709428 0.3766845253301721 0 -0.27626107345494672 0.38033244231372743 0 -0.29138016123221661 0.38040201236314081 0 -0.26726733567638428 0.38826780551209977 0 -0.27055524767236178 0.3740667518285905 0 -0.27626107345494672 0.38033244231372743 0 -0.26792427522973572 0.38016676672371491 0 -0.27055524767236178 0.3740667518285905 0 -0.26792427522973572 0.38016676672371491 0 -0.26599387380891859 0.37588532433855648 0 -0.27626107345494672 0.38033244231372743 0 -0.26792427522973572 0.38016676672371491 0 -0.26726733567638428 0.38826780551209977 0 -0.26792427522973572 0.38016676672371491 0 -0.26726733567638428 0.38826780551209977 0 -0.26437520833431249 0.38251847541194389 0 -0.26726733567638428 0.38826780551209977 0 -0.26664664193402909 0.39827721789696968 0 -0.27317121789450249 0.41097514049203943 0 -0.28850180653355068 0.39589245962026409 0 -0.26726733567638428 0.38826780551209977 0 -0.2750541955962118 0.40470051900661158 0 -0.26726733567638428 0.38826780551209977 0 -0.27317121789450249 0.41097514049203943 0 -0.26726733567638428 0.38826780551209977 0 -0.2750541955962118 0.40470051900661158 0 -0.27317121789450249 0.41097514049203943 0 -0.26726733567638428 0.38826780551209977 0 -0.26664664193402909 0.39827721789696968 0 -0.25505961061694071 0.40004559139494289 0 -0.26664664193402909 0.39827721789696968 0 -0.25505961061694071 0.40004559139494289 0 -0.24731120580234131 0.41492324013528398 0 -0.26726733567638428 0.38826780551209977 0 -0.25505961061694071 0.40004559139494289 0 -0.2481375357009743 0.39450809656547009 0 -0.26726733567638428 0.38826780551209977 0 -0.2481375357009743 0.39450809656547009 0 -0.26726733567638428 0.38826780551209977 0 -0.25509250894188418 0.38662660351746281 0 -0.2481375357009743 0.39450809656547009 0 -0.25509250894188418 0.38662660351746281 0 -0.25724548729022118 0.37993196468426382 0 -0.2610418684181256 0.38464043947443022 0 -0.25509250894188418 0.38662660351746281 0 -0.25091287677097768 0.37673746352190368 0 -0.25724548729022118 0.37993196468426382 0 -0.25732574761791338 0.3727848793944793 0 -0.25091287677097768 0.37673746352190368 0 -0.25724548729022118 0.37993196468426382 0 -0.25724548729022118 0.37993196468426382 0 -0.26163059906557168 0.37839599218038023 0 -0.2610418684181256 0.38464043947443022 0 -0.25732574761791338 0.3727848793944793 0 -0.25724548729022118 0.37993196468426382 0 -0.26163059906557168 0.37839599218038023 0 -0.26386537326800541 0.37091178662154062 0 -0.26599387380891859 0.37588532433855648 0 -0.26163059906557168 0.37839599218038023 0 -0.26792427522973572 0.38016676672371491 0 -0.26599387380891859 0.37588532433855648 0 -0.26163059906557168 0.37839599218038023 0 -0.26163059906557168 0.37839599218038023 0 -0.26437520833431249 0.38251847541194389 0 -0.2610418684181256 0.38464043947443022 0 -0.26792427522973572 0.38016676672371491 0 -0.26163059906557168 0.37839599218038023 0 -0.26437520833431249 0.38251847541194389 0 -0.26726733567638428 0.38826780551209977 0 -0.26437520833431249 0.38251847541194389 0 -0.2610418684181256 0.38464043947443022 0 -0.26726733567638428 0.38826780551209977 0 -0.25509250894188418 0.38662660351746281 0 -0.2610418684181256 0.38464043947443022 0 -0.26330684902596407 0.42566103453547632 0 -0.25331280556017471 0.44025899166082599 0 -0.2431553579901076 0.42999901293818088 0 -0.26330684902596407 0.42566103453547632 0 -0.24731120580234131 0.41492324013528398 0 -0.2431553579901076 0.42999901293818088 0 -0.26330684902596407 0.42566103453547632 0 -0.27907510011262088 0.43368247547197891 0 -0.25331280556017471 0.44025899166082599 0 -0.26330684902596407 0.42566103453547632 0 -0.26260897866420929 0.41245915826494228 0 -0.24731120580234131 0.41492324013528398 0 -0.26664664193402909 0.39827721789696968 0 -0.24731120580234131 0.41492324013528398 0 -0.26664664193402909 0.39827721789696968 0 -0.26260897866420929 0.41245915826494228 0 -0.24731120580234131 0.41492324013528398 0 -0.2750541955962118 0.40470051900661158 0 -0.28467807423216501 0.43225216615198431 0 -0.26330684902596407 0.42566103453547632 0 -0.26260897866420929 0.41245915826494228 0 -0.27317121789450249 0.41097514049203943 0 -0.2750541955962118 0.40470051900661158 0 -0.27317121789450249 0.41097514049203943 0 -0.28467807423216501 0.43225216615198431 0 -0.26664664193402909 0.39827721789696968 0 -0.26260897866420929 0.41245915826494228 0 -0.27317121789450249 0.41097514049203943 0 -0.27317121789450249 0.41097514049203943 0 -0.27907510011262088 0.43368247547197891 0 -0.28467807423216501 0.43225216615198431 0 -0.27907510011262088 0.43368247547197891 0 -0.25331280556017471 0.44025899166082599 0 -0.27317121789450249 0.41097514049203943 0 -0.27907510011262088 0.43368247547197891 0 -0.26330684902596407 0.42566103453547632 0 -0.27317121789450249 0.41097514049203943 0 -0.27907510011262088 0.43368247547197891 0 -0.28467807423216501 0.43225216615198431 0 -0.30708795049172433 0.42653144458694248 0 -0.28467807423216501 0.43225216615198431 0 -0.30708795049172433 0.42653144458694248 0 -0.29806814438587742 0.44183626290314099 0 -0.28467807423216501 0.43225216615198431 0 -0.29505361268973967 0.4174399722682216 0 -0.30708795049172433 0.42653144458694248 0 -0.27907510011262088 0.43368247547197891 0 -0.28467807423216501 0.43225216615198431 0 -0.28467807423216501 0.43225216615198431 0 -0.28794375856830778 0.40988084241051581 0 -0.29505361268973967 0.4174399722682216 0 -0.2750541955962118 0.40470051900661158 0 -0.28467807423216501 0.43225216615198431 0 -0.28794375856830778 0.40988084241051581 0 -0.30176975838319597 0.40614034444945851 0 -0.28794375856830778 0.40988084241051581 0 -0.29505361268973967 0.4174399722682216 0 -0.31775162710097699 0.40843730473824502 0 -0.30708795049172433 0.42653144458694248 0 -0.30176975838319597 0.40614034444945851 0 -0.29505361268973967 0.4174399722682216 0 -0.30708795049172433 0.42653144458694248 0 -0.31775162710097699 0.40843730473824502 0 -0.30708795049172433 0.42653144458694248 0 -0.30860579447516628 0.42614397422754169 0 -0.31775162710097699 0.40843730473824502 0 -0.30176975838319597 0.40614034444945851 0 -0.30708795049172433 0.42653144458694248 0 -0.30708795049172433 0.42653144458694248 0 -0.29806814438587742 0.44183626290314099 0 -0.31317609952171388 0.43558671188297748 0 -0.30708795049172433 0.42653144458694248 0 -0.30860579447516628 0.42614397422754169 0 -0.30708795049172433 0.42653144458694248 0 -0.30860579447516628 0.42614397422754169 0 -0.31317609952171388 0.43558671188297748 0 -0.30708795049172433 0.42653144458694248 0 -0.29806814438587742 0.44183626290314099 0 -0.29806814438587742 0.44183626290314099 0 -0.29068856477372462 0.44945925290316302 0 -0.31475740952768888 0.45154135932757622 0 -0.31317609952171388 0.43558671188297748 0 -0.29806814438587742 0.44183626290314099 0 -0.31475740952768888 0.45154135932757622 0 -0.29669905531528429 0.46666633965434162 0 -0.31285130167923919 0.47376574235416591 0 -0.31475740952768888 0.45154135932757622 0 -0.29669905531528429 0.46666633965434162 0 -0.29068856477372462 0.44945925290316302 0 -0.31475740952768888 0.45154135932757622 0 -0.29669905531528429 0.46666633965434162 0 -0.31475740952768888 0.45154135932757622 0 -0.28392789749485031 0.46019307462928971 0 -0.28699656134937518 0.46414976245164968 0 -0.28340535885816098 0.47780062658985101 0 -0.29669905531528429 0.46666633965434162 0 -0.29068856477372462 0.44945925290316302 0 -0.29669905531528429 0.46666633965434162 0 -0.28699656134937518 0.46414976245164968 0 -0.29068856477372462 0.44945925290316302 0 -0.28699656134937518 0.46414976245164968 0 -0.28303583073099808 0.44891611896181433 0 -0.28392789749485031 0.46019307462928971 0 -0.28699656134937518 0.46414976245164968 0 -0.28303583073099808 0.44891611896181433 0 -0.28699656134937518 0.46414976245164968 0 -0.29068856477372462 0.44945925290316302 0 -0.28303583073099808 0.44891611896181433 0 -0.27907510011262088 0.43368247547197891 0 -0.28467807423216501 0.43225216615198431 0 -0.28303583073099808 0.44891611896181433 0 -0.28467807423216501 0.43225216615198431 0 -0.29068856477372462 0.44945925290316302 0 -0.28467807423216501 0.43225216615198431 0 -0.29068856477372462 0.44945925290316302 0 -0.28303583073099808 0.44891611896181433 0 -0.28467807423216501 0.43225216615198431 0 -0.29806814438587742 0.44183626290314099 0 -0.29068856477372462 0.44945925290316302 0 -0.27907510011262088 0.43368247547197891 0 -0.28303583073099808 0.44891611896181433 0 -0.27907510011262088 0.43368247547197891 0 -0.28303583073099808 0.44891611896181433 0 -0.27070857180740437 0.44691355687595657 0 -0.27907510011262088 0.43368247547197891 0 -0.27070857180740437 0.44691355687595657 0 -0.25331280556017471 0.44025899166082599 0 -0.28303583073099808 0.44891611896181433 0 -0.27070857180740437 0.44691355687595657 0 -0.2724535562513587 0.45852101768821057 0 -0.28392789749485031 0.46019307462928971 0 -0.28303583073099808 0.44891611896181433 0 -0.2724535562513587 0.45852101768821057 0 -0.28392789749485031 0.46019307462928971 0 -0.2724535562513587 0.45852101768821057 0 -0.2614910153427481 0.48009653731464541 0 -0.2724535562513587 0.45852101768821057 0 -0.26310446588079273 0.45648580065934741 0 -0.2614910153427481 0.48009653731464541 0 -0.27070857180740437 0.44691355687595657 0 -0.2724535562513587 0.45852101768821057 0 -0.26310446588079273 0.45648580065934741 0 -0.26310446588079273 0.45648580065934741 0 -0.25269346093040262 0.46687103503289329 0 -0.2614910153427481 0.48009653731464541 0 -0.26310446588079273 0.45648580065934741 0 -0.25269346093040262 0.46687103503289329 0 -0.25163548073391828 0.45481593471092191 0 -0.26310446588079273 0.45648580065934741 0 -0.25163548073391828 0.45481593471092191 0 -0.25331280556017471 0.44025899166082599 0 -0.27070857180740437 0.44691355687595657 0 -0.26310446588079273 0.45648580065934741 0 -0.25331280556017471 0.44025899166082599 0 -0.2614910153427481 0.48009653731464541 0 -0.23905413319064581 0.50000000000000067 0 -0.2614910153427481 0.48009653731464541 0 -0.26741699425246312 0.5 0 -0.23905413319064581 0.50000000000000067 0 -0.25269346093040262 0.46687103503289329 0 -0.2614910153427481 0.48009653731464541 0 -0.2373209964795541 0.47867397727431937 0 -0.2614910153427481 0.48009653731464541 0 -0.28018571054228691 0.48984091033655769 0 -0.28340535885816098 0.47780062658985101 0 -0.28392789749485031 0.46019307462928971 0 -0.2614910153427481 0.48009653731464541 0 -0.28340535885816098 0.47780062658985101 0 -0.28392789749485031 0.46019307462928971 0 -0.2614910153427481 0.48009653731464541 0 -0.28018571054228691 0.48984091033655769 0 -0.26741699425246312 0.5 0 -0.29577985531428053 0.49999999999999978 0 -0.2614910153427481 0.48009653731464541 0 -0.28018571054228691 0.48984091033655769 0 -0.26741699425246312 0.5 0 -0.28018571054228691 0.48984091033655769 0 -0.29244713914259862 0.48603160055608519 0 -0.28340535885816098 0.47780062658985101 0 -0.28018571054228691 0.48984091033655769 0 -0.29244713914259862 0.48603160055608519 0 -0.29577985531428053 0.49999999999999978 0 -0.29669905531528429 0.46666633965434162 0 -0.29244713914259862 0.48603160055608519 0 -0.28340535885816098 0.47780062658985101 0 -0.29669905531528429 0.46666633965434162 0 -0.28699656134937518 0.46414976245164968 0 -0.28340535885816098 0.47780062658985101 0 -0.29669905531528429 0.46666633965434162 0 -0.28340535885816098 0.47780062658985101 0 -0.29669905531528429 0.46666633965434162 0 -0.30597162078238949 0.49321223258857172 0 -0.29669905531528429 0.46666633965434162 0 -0.30597162078238949 0.49321223258857172 0 -0.31285130167923919 0.47376574235416591 0 -0.29669905531528429 0.46666633965434162 0 -0.29244713914259862 0.48603160055608519 0 -0.30597162078238949 0.49321223258857172 0 -0.29244713914259862 0.48603160055608519 0 -0.29577985531428053 0.49999999999999978 0 -0.30597162078238949 0.49321223258857172 0 -0.29577985531428053 0.49999999999999978 0 -0.30597162078238949 0.49321223258857172 0 -0.29577985531428053 0.49999999999999978 0 -0.30597162078238949 0.49321223258857172 0 -0.30834260969030969 0.49999999999999811 0 -0.30597162078238949 0.49321223258857172 0 -0.30834260969030969 0.49999999999999811 0 -0.30597162078238949 0.49321223258857172 0 -0.3301788939229412 0.47709006609474502 0 -0.37718483160402932 0.5 0 -0.30834260969030969 0.49999999999999811 0 -0.34869704695335307 0.48276436659618971 0 -0.30834260969030969 0.49999999999999811 0 -0.3301788939229412 0.47709006609474502 0 -0.34869704695335307 0.48276436659618971 0 -0.30597162078238949 0.49321223258857172 0 -0.30834260969030969 0.49999999999999811 0 -0.3301788939229412 0.47709006609474502 0 -0.3301788939229412 0.47709006609474502 0 -0.3543861670634918 0.46096789960091661 0 -0.3301788939229412 0.47709006609474502 0 -0.31285130167923919 0.47376574235416591 0 -0.32616468561486889 0.4622981081395347 0 -0.30597162078238949 0.49321223258857172 0 -0.3301788939229412 0.47709006609474502 0 -0.31285130167923919 0.47376574235416591 0 -0.31285130167923919 0.47376574235416591 0 -0.32616468561486889 0.4622981081395347 0 -0.31475740952768888 0.45154135932757622 0 -0.32616468561486889 0.4622981081395347 0 -0.31475740952768888 0.45154135932757622 0 -0.33168484780886609 0.44984888784709048 0 -0.33281576374009347 0.43641637900081098 0 -0.31475740952768888 0.45154135932757622 0 -0.33168484780886609 0.44984888784709048 0 -0.33281576374009347 0.43641637900081098 0 -0.31475740952768888 0.45154135932757622 0 -0.33281576374009347 0.43641637900081098 0 -0.31317609952171388 0.43558671188297748 0 -0.31475740952768888 0.45154135932757622 0 -0.33168484780886609 0.44984888784709048 0 -0.34135097513560902 0.45924448507409571 0 -0.3459903929534579 0.43935321507684449 0 -0.33281576374009347 0.43641637900081098 0 -0.33168484780886609 0.44984888784709048 0 -0.3459903929534579 0.43935321507684449 0 -0.3301788939229412 0.47709006609474502 0 -0.34135097513560902 0.45924448507409571 0 -0.3543861670634918 0.46096789960091661 0 -0.3301788939229412 0.47709006609474502 0 -0.32616468561486889 0.4622981081395347 0 -0.34135097513560902 0.45924448507409571 0 -0.32616468561486889 0.4622981081395347 0 -0.33168484780886609 0.44984888784709048 0 -0.34135097513560902 0.45924448507409571 0 -0.38729888651629302 0.45683535036774542 0 -0.3785934402040424 0.44484573310708808 0 -0.3543861670634918 0.46096789960091661 0 -0.34135097513560902 0.45924448507409571 0 -0.3543861670634918 0.46096789960091661 0 -0.36273211952709972 0.44029559154655168 0 -0.38729888651629302 0.45683535036774542 0 -0.3543861670634918 0.46096789960091661 0 -0.37339273248599281 0.47576386728528902 0 -0.34135097513560902 0.45924448507409571 0 -0.36273211952709972 0.44029559154655168 0 -0.34135097513560902 0.45924448507409571 0 -0.3459903929534579 0.43935321507684449 0 -0.36273211952709972 0.44029559154655168 0 -0.3785934402040424 0.44484573310708808 0 -0.3543861670634918 0.46096789960091661 0 -0.36273211952709972 0.44029559154655168 0 -0.3785934402040424 0.44484573310708808 0 -0.3543861670634918 0.46096789960091661 0 -0.37718483160402932 0.5 0 -0.37339273248599281 0.47576386728528902 0 -0.34869704695335307 0.48276436659618971 0 -0.3301788939229412 0.47709006609474502 0 -0.3543861670634918 0.46096789960091661 0 -0.34869704695335307 0.48276436659618971 0 -0.3543861670634918 0.46096789960091661 0 -0.37339273248599281 0.47576386728528902 0 -0.34869704695335307 0.48276436659618971 0 -0.14935927993560361 0.482123924481344 0 -0.1488412748393807 0.46534047473873269 0 -0.16521342107828049 0.47057054110123508 0 -0.14935927993560361 0.482123924481344 0 -0.13500126002409349 0.47081655493691549 0 -0.1488412748393807 0.46534047473873269 0 -0.14935927993560361 0.482123924481344 0 -0.14698242994402999 0.50000000000000155 0 -0.13347674227911799 0.48601597611118108 0 -0.14935927993560361 0.482123924481344 0 -0.14698242994402999 0.50000000000000155 0 -0.1666405514487197 0.499999999999997 0 -0.13347674227911799 0.48601597611118108 0 -0.13280886143312329 0.49267473905830189 0 -0.14698242994402999 0.50000000000000155 0 -0.13347674227911799 0.48601597611118108 0 -0.13280886143312329 0.49267473905830189 0 -0.14698242994402999 0.50000000000000155 0 -0.13465231946070799 0.499999999999999 0 -0.13280886143312329 0.49267473905830189 0 -0.14698242994402999 0.50000000000000155 0 -0.13347674227911799 0.48601597611118108 0 -0.13465231946070799 0.499999999999999 0 -0.13280886143312329 0.49267473905830189 0 -0.13465231946070799 0.499999999999999 0 -0.13207413014539041 0.500000000000006 0 -0.13280886143312329 0.49267473905830189 0 -0.13207413014539041 0.500000000000006 0 -0.12696377206690171 0.49566061645915188 0 -0.11877045042250441 0.50000000000000377 0 -0.13280886143312329 0.49267473905830189 0 -0.12696377206690171 0.49566061645915188 0 -0.12420164626658579 0.48996772677829548 0 -0.13207413014539041 0.500000000000006 0 -0.13280886143312329 0.49267473905830189 0 -0.13207413014539041 0.500000000000006 0 -0.13280886143312329 0.49267473905830189 0 -0.12696377206690171 0.49566061645915188 0 -0.13280886143312329 0.49267473905830189 0 -0.1303072579155207 0.48273423687987022 0 -0.13347674227911799 0.48601597611118108 0 -0.13280886143312329 0.49267473905830189 0 -0.1303072579155207 0.48273423687987022 0 -0.13280886143312329 0.49267473905830189 0 -0.1303072579155207 0.48273423687987022 0 -0.12420164626658579 0.48996772677829548 0 -0.1303072579155207 0.48273423687987022 0 -0.1241918952771781 0.45843391302733461 0 -0.14935927993560361 0.482123924481344 0 -0.13347674227911799 0.48601597611118108 0 -0.13500126002409349 0.47081655493691549 0 -0.1303072579155207 0.48273423687987022 0 -0.13500126002409349 0.47081655493691549 0 -0.1241918952771781 0.45843391302733461 0 -0.13347674227911799 0.48601597611118108 0 -0.1303072579155207 0.48273423687987022 0 -0.13347674227911799 0.48601597611118108 0 -0.13500126002409349 0.47081655493691549 0 -0.13347674227911799 0.48601597611118108 0 -0.1303072579155207 0.48273423687987022 0 -0.13500126002409349 0.47081655493691549 0 -0.13500126002409349 0.47081655493691549 0 -0.1365257777690716 0.45561713376265017 0 -0.1241918952771781 0.45843391302733461 0 -0.1365257777690716 0.45561713376265017 0 -0.1278319557291811 0.44992854849024039 0 -0.1241918952771781 0.45843391302733461 0 -0.1365257777690716 0.45561713376265017 0 -0.1241918952771781 0.45843391302733461 0 -0.13500126002409349 0.47081655493691549 0 -0.1365257777690716 0.45561713376265017 0 -0.1488412748393807 0.46534047473873269 0 -0.13500126002409349 0.47081655493691549 0 -0.1365257777690716 0.45561713376265017 0 -0.1365257777690716 0.45561713376265017 0 -0.1306959818988441 0.44422743441813822 0 -0.1385849076200201 0.4350876371659167 0 -0.1365257777690716 0.45561713376265017 0 -0.1385849076200201 0.4350876371659167 0 -0.1306959818988441 0.44422743441813822 0 -0.1291728855482859 0.43635421317304851 0 -0.11991416797163031 0.44143571275283788 0 -0.1306959818988441 0.44422743441813822 0 -0.1278319557291811 0.44992854849024039 0 -0.11991416797163031 0.44143571275283788 0 -0.1306959818988441 0.44422743441813822 0 -0.1385849076200201 0.4350876371659167 0 -0.1291728855482859 0.43635421317304851 0 -0.1365257777690716 0.45561713376265017 0 -0.1306959818988441 0.44422743441813822 0 -0.1278319557291811 0.44992854849024039 0 -0.1365257777690716 0.45561713376265017 0 -0.1511110733117324 0.43936625953420522 0 -0.1385849076200201 0.4350876371659167 0 -0.1365257777690716 0.45561713376265017 0 -0.15613024939206041 0.45113991669827569 0 -0.1511110733117324 0.43936625953420522 0 -0.1365257777690716 0.45561713376265017 0 -0.15613024939206041 0.45113991669827569 0 -0.1488412748393807 0.46534047473873269 0 -0.1365257777690716 0.45561713376265017 0 -0.15613024939206041 0.45113991669827569 0 -0.1637862907078412 0.44114108220247322 0 -0.16521342107828049 0.47057054110123508 0 -0.15613024939206041 0.45113991669827569 0 -0.1488412748393807 0.46534047473873269 0 -0.16521342107828049 0.47057054110123508 0 -0.15613024939206041 0.45113991669827569 0 -0.1637862907078412 0.44114108220247322 0 -0.16521342107828049 0.47057054110123508 0 -0.1637862907078412 0.44114108220247322 0 -0.18284635934875729 0.45637045440085522 0 -0.16521342107828049 0.47057054110123508 0 -0.15613024939206041 0.45113991669827569 0 -0.1511110733117324 0.43936625953420522 0 -0.1637862907078412 0.44114108220247322 0 -0.1637862907078412 0.44114108220247322 0 -0.18693263735845669 0.4391234174244229 0 -0.18284635934875729 0.45637045440085522 0 -0.18284635934875729 0.45637045440085522 0 -0.16521342107828049 0.47057054110123508 0 -0.18976736553875551 0.47129652384998272 0 -0.16521342107828049 0.47057054110123508 0 -0.1797643476492774 0.48476570115886392 0 -0.18976736553875551 0.47129652384998272 0 -0.14935927993560361 0.482123924481344 0 -0.16521342107828049 0.47057054110123508 0 -0.1666405514487197 0.499999999999997 0 -0.16521342107828049 0.47057054110123508 0 -0.1666405514487197 0.499999999999997 0 -0.16521342107828049 0.47057054110123508 0 -0.1666405514487197 0.499999999999997 0 -0.1797643476492774 0.48476570115886392 0 -0.1666405514487197 0.499999999999997 0 -0.1797643476492774 0.48476570115886392 0 -0.19077841202936169 0.5 0 -0.19077841202936169 0.5 0 -0.20140952300388551 0.4833864388960385 0 -0.21491627261000371 0.5 0 -0.1797643476492774 0.48476570115886392 0 -0.19077841202936169 0.5 0 -0.20140952300388551 0.4833864388960385 0 -0.1797643476492774 0.48476570115886392 0 -0.20140952300388551 0.4833864388960385 0 -0.18976736553875551 0.47129652384998272 0 -0.20140952300388551 0.4833864388960385 0 -0.18976736553875551 0.47129652384998272 0 -0.20545960732411631 0.46532248650808472 0 -0.20140952300388551 0.4833864388960385 0 -0.218324134615762 0.47833456514041589 0 -0.20545960732411631 0.46532248650808472 0 -0.20140952300388551 0.4833864388960385 0 -0.218324134615762 0.47833456514041589 0 -0.21491627261000371 0.5 0 -0.21491627261000371 0.5 0 -0.2373209964795541 0.47867397727431937 0 -0.23905413319064581 0.50000000000000067 0 -0.218324134615762 0.47833456514041589 0 -0.21491627261000371 0.5 0 -0.2373209964795541 0.47867397727431937 0 -0.218324134615762 0.47833456514041589 0 -0.2373209964795541 0.47867397727431937 0 -0.22652317059566529 0.46173427076032059 0 -0.25269346093040262 0.46687103503289329 0 -0.2373209964795541 0.47867397727431937 0 -0.24223180573297701 0.46374582104756379 0 -0.2614910153427481 0.48009653731464541 0 -0.2373209964795541 0.47867397727431937 0 -0.23905413319064581 0.50000000000000067 0 -0.25331280556017471 0.44025899166082599 0 -0.24025075472609281 0.45347810520586118 0 -0.22755051100772861 0.44683550784967307 0 -0.25331280556017471 0.44025899166082599 0 -0.22755051100772861 0.44683550784967307 0 -0.2431553579901076 0.42999901293818088 0 -0.25331280556017471 0.44025899166082599 0 -0.22755051100772861 0.44683550784967307 0 -0.25163548073391828 0.45481593471092191 0 -0.25331280556017471 0.44025899166082599 0 -0.24025075472609281 0.45347810520586118 0 -0.25163548073391828 0.45481593471092191 0 -0.24223180573297701 0.46374582104756379 0 -0.24025075472609281 0.45347810520586118 0 -0.2373209964795541 0.47867397727431937 0 -0.24223180573297701 0.46374582104756379 0 -0.22652317059566529 0.46173427076032059 0 -0.24223180573297701 0.46374582104756379 0 -0.24025075472609281 0.45347810520586118 0 -0.22652317059566529 0.46173427076032059 0 -0.25269346093040262 0.46687103503289329 0 -0.25163548073391828 0.45481593471092191 0 -0.24223180573297701 0.46374582104756379 0 -0.24025075472609281 0.45347810520586118 0 -0.22652317059566529 0.46173427076032059 0 -0.22755051100772861 0.44683550784967307 0 -0.22652317059566529 0.46173427076032059 0 -0.22755051100772861 0.44683550784967307 0 -0.20864033353896561 0.44821528461191279 0 -0.22755051100772861 0.44683550784967307 0 -0.20864033353896561 0.44821528461191279 0 -0.2279757696706535 0.43156926237359838 0 -0.20864033353896561 0.44821528461191279 0 -0.2279757696706535 0.43156926237359838 0 -0.22652317059566529 0.46173427076032059 0 -0.20864033353896561 0.44821528461191279 0 -0.20545960732411631 0.46532248650808472 0 -0.218324134615762 0.47833456514041589 0 -0.22652317059566529 0.46173427076032059 0 -0.20545960732411631 0.46532248650808472 0 -0.18284635934875729 0.45637045440085522 0 -0.20864033353896561 0.44821528461191279 0 -0.20545960732411631 0.46532248650808472 0 -0.18284635934875729 0.45637045440085522 0 -0.18976736553875551 0.47129652384998272 0 -0.20545960732411631 0.46532248650808472 0 -0.18693263735845669 0.4391234174244229 0 -0.20864033353896561 0.44821528461191279 0 -0.20636008534223049 0.42601393455590603 0 -0.18693263735845669 0.4391234174244229 0 -0.18284635934875729 0.45637045440085522 0 -0.20864033353896561 0.44821528461191279 0 -0.18693263735845669 0.4391234174244229 0 -0.20636008534223049 0.42601393455590603 0 -0.17697482262078609 0.42343303435322049 0 -0.18807560316879601 0.40834059478241458 0 -0.2137920460001905 0.40496956626112007 0 -0.18807560316879601 0.40834059478241458 0 -0.20636008534223049 0.42601393455590603 0 -0.2137920460001905 0.40496956626112007 0 -0.18807560316879601 0.40834059478241458 0 -0.20636008534223049 0.42601393455590603 0 -0.17697482262078609 0.42343303435322049 0 -0.20636008534223049 0.42601393455590603 0 -0.21885005422095319 0.42031177852292839 0 -0.2137920460001905 0.40496956626112007 0 -0.20636008534223049 0.42601393455590603 0 -0.2279757696706535 0.43156926237359838 0 -0.21885005422095319 0.42031177852292839 0 -0.20864033353896561 0.44821528461191279 0 -0.20636008534223049 0.42601393455590603 0 -0.2279757696706535 0.43156926237359838 0 -0.2279757696706535 0.43156926237359838 0 -0.21885005422095319 0.42031177852292839 0 -0.2275492034655601 0.41452147562068248 0 -0.22755051100772861 0.44683550784967307 0 -0.2279757696706535 0.43156926237359838 0 -0.2431553579901076 0.42999901293818088 0 -0.2279757696706535 0.43156926237359838 0 -0.2275492034655601 0.41452147562068248 0 -0.23779271335118141 0.411550186155686 0 -0.2275492034655601 0.41452147562068248 0 -0.23950848883158499 0.40159853773982568 0 -0.2137920460001905 0.40496956626112007 0 -0.21885005422095319 0.42031177852292839 0 -0.2275492034655601 0.41452147562068248 0 -0.2137920460001905 0.40496956626112007 0 -0.2279757696706535 0.43156926237359838 0 -0.23779271335118141 0.411550186155686 0 -0.24731120580234131 0.41492324013528398 0 -0.2275492034655601 0.41452147562068248 0 -0.23779271335118141 0.411550186155686 0 -0.23950848883158499 0.40159853773982568 0 -0.25505961061694071 0.40004559139494289 0 -0.24731120580234131 0.41492324013528398 0 -0.24593533397097461 0.40425159686489082 0 -0.23779271335118141 0.411550186155686 0 -0.24731120580234131 0.41492324013528398 0 -0.24593533397097461 0.40425159686489082 0 -0.2279757696706535 0.43156926237359838 0 -0.24731120580234131 0.41492324013528398 0 -0.2279757696706535 0.43156926237359838 0 -0.24731120580234131 0.41492324013528398 0 -0.2431553579901076 0.42999901293818088 0 -0.24388873083217039 0.38393798207464852 0 -0.235305036286487 0.39080571692183841 0 -0.23214585750550251 0.38216553093651151 0 -0.24388873083217039 0.38393798207464852 0 -0.23214585750550251 0.38216553093651151 0 -0.24001945356167789 0.37070887765699118 0 -0.25091287677097768 0.37673746352190368 0 -0.24388873083217039 0.38393798207464852 0 -0.24001945356167789 0.37070887765699118 0 -0.25509250894188418 0.38662660351746281 0 -0.25091287677097768 0.37673746352190368 0 -0.24388873083217039 0.38393798207464852 0 -0.25509250894188418 0.38662660351746281 0 -0.24388873083217039 0.38393798207464852 0 -0.2481375357009743 0.39450809656547009 0 -0.24388873083217039 0.38393798207464852 0 -0.2481375357009743 0.39450809656547009 0 -0.235305036286487 0.39080571692183841 0 -0.2481375357009743 0.39450809656547009 0 -0.235305036286487 0.39080571692183841 0 -0.22900773572556429 0.40074838761884041 0 -0.2481375357009743 0.39450809656547009 0 -0.22900773572556429 0.40074838761884041 0 -0.2481375357009743 0.39450809656547009 0 -0.23950848883158499 0.40159853773982568 0 -0.22900773572556429 0.40074838761884041 0 -0.25505961061694071 0.40004559139494289 0 -0.2481375357009743 0.39450809656547009 0 -0.24593533397097461 0.40425159686489082 0 -0.2481375357009743 0.39450809656547009 0 -0.24593533397097461 0.40425159686489082 0 -0.23950848883158499 0.40159853773982568 0 -0.23779271335118141 0.411550186155686 0 -0.24593533397097461 0.40425159686489082 0 -0.23950848883158499 0.40159853773982568 0 -0.23950848883158499 0.40159853773982568 0 -0.2137920460001905 0.40496956626112007 0 -0.22900773572556429 0.40074838761884041 0 -0.21990708921718499 0.38851738075829501 0 -0.2137920460001905 0.40496956626112007 0 -0.235305036286487 0.39080571692183841 0 -0.22900773572556429 0.40074838761884041 0 -0.21990708921718499 0.38851738075829501 0 -0.23950848883158499 0.40159853773982568 0 -0.22900773572556429 0.40074838761884041 0 -0.2137920460001905 0.40496956626112007 0 -0.235305036286487 0.39080571692183841 0 -0.21990708921718499 0.38851738075829501 0 -0.23214585750550251 0.38216553093651151 0 -0.23214585750550251 0.38216553093651151 0 -0.22472739676719611 0.37443965331661011 0 -0.24001945356167789 0.37070887765699118 0 -0.21990708921718499 0.38851738075829501 0 -0.23214585750550251 0.38216553093651151 0 -0.22472739676719611 0.37443965331661011 0 -0.1846508010622733 0.38767806252359621 0 -0.17438384246743671 0.37006763361412831 0 -0.2065701693010345 0.37105859557956922 0 -0.21990708921718499 0.38851738075829501 0 -0.20169903748741799 0.39231936916346438 0 -0.2065701693010345 0.37105859557956922 0 -0.21990708921718499 0.38851738075829501 0 -0.2065701693010345 0.37105859557956922 0 -0.22472739676719611 0.37443965331661011 0 -0.21990708921718499 0.38851738075829501 0 -0.2137920460001905 0.40496956626112007 0 -0.20169903748741799 0.39231936916346438 0 -0.18807560316879601 0.40834059478241458 0 -0.2137920460001905 0.40496956626112007 0 -0.20169903748741799 0.39231936916346438 0 -0.18807560316879601 0.40834059478241458 0 -0.20169903748741799 0.39231936916346438 0 -0.1846508010622733 0.38767806252359621 0 -0.20169903748741799 0.39231936916346438 0 -0.1846508010622733 0.38767806252359621 0 -0.2065701693010345 0.37105859557956922 0 -0.1846508010622733 0.38767806252359621 0 -0.16152639551145939 0.39453882765374998 0 -0.17438384246743671 0.37006763361412831 0 -0.16152639551145939 0.39453882765374998 0 -0.15472588850446101 0.38209793038606987 0 -0.17438384246743671 0.37006763361412831 0 -0.16152639551145939 0.39453882765374998 0 -0.16235916033740169 0.41171162330371119 0 -0.18807560316879601 0.40834059478241458 0 -0.16152639551145939 0.39453882765374998 0 -0.16235916033740169 0.41171162330371119 0 -0.16152639551145939 0.39453882765374998 0 -0.16235916033740169 0.41171162330371119 0 -0.15134689792984721 0.40353011948942569 0 -0.18807560316879601 0.40834059478241458 0 -0.1846508010622733 0.38767806252359621 0 -0.16152639551145939 0.39453882765374998 0 -0.18807560316879601 0.40834059478241458 0 -0.17697482262078609 0.42343303435322049 0 -0.16235916033740169 0.41171162330371119 0 -0.18807560316879601 0.40834059478241458 0 -0.16235916033740169 0.41171162330371119 0 -0.1637862907078412 0.44114108220247322 0 -0.18693263735845669 0.4391234174244229 0 -0.17697482262078609 0.42343303435322049 0 -0.1637862907078412 0.44114108220247322 0 -0.16235916033740169 0.41171162330371119 0 -0.1637862907078412 0.44114108220247322 0 -0.17697482262078609 0.42343303435322049 0 -0.16235916033740169 0.41171162330371119 0 -0.1637862907078412 0.44114108220247322 0 -0.16235916033740169 0.41171162330371119 0 -0.1512970938895935 0.42837294855509789 0 -0.16235916033740169 0.41171162330371119 0 -0.1512970938895935 0.42837294855509789 0 -0.14064403747097179 0.41455814056918339 0 -0.16235916033740169 0.41171162330371119 0 -0.14064403747097179 0.41455814056918339 0 -0.15134689792984721 0.40353011948942569 0 -0.16235916033740169 0.41171162330371119 0 -0.14064403747097179 0.41455814056918339 0 -0.1512970938895935 0.42837294855509789 0 -0.1385849076200201 0.4350876371659167 0 -0.14064403747097179 0.41455814056918339 0 -0.1511110733117324 0.43936625953420522 0 -0.1637862907078412 0.44114108220247322 0 -0.1512970938895935 0.42837294855509789 0 -0.1511110733117324 0.43936625953420522 0 -0.1512970938895935 0.42837294855509789 0 -0.1385849076200201 0.4350876371659167 0 -0.1385849076200201 0.4350876371659167 0 -0.13296840214681341 0.42910864185691849 0 -0.14064403747097179 0.41455814056918339 0 -0.1385849076200201 0.4350876371659167 0 -0.14064403747097179 0.41455814056918339 0 -0.1385849076200201 0.4350876371659167 0 -0.13296840214681341 0.42910864185691849 0 -0.1291728855482859 0.43635421317304851 0 -0.13296840214681341 0.42910864185691849 0 -0.13253099784171141 0.4156216347765242 0 -0.13296840214681341 0.42910864185691849 0 -0.12903479920957539 0.42629795108223228 0 -0.1237634657142843 0.43059473016910937 0 -0.13296840214681341 0.42910864185691849 0 -0.12903479920957539 0.42629795108223228 0 -0.13253099784171141 0.4156216347765242 0 -0.12903479920957539 0.42629795108223228 0 -0.12746200712738129 0.42172634963799549 0 -0.12389896432104849 0.42524252526554379 0 -0.12903479920957539 0.42629795108223228 0 -0.1237634657142843 0.43059473016910937 0 -0.12389896432104849 0.42524252526554379 0 -0.13296840214681341 0.42910864185691849 0 -0.1291728855482859 0.43635421317304851 0 -0.1237634657142843 0.43059473016910937 0 -0.14064403747097179 0.41455814056918339 0 -0.13253099784171141 0.4156216347765242 0 -0.13179910882033979 0.39305443025164849 0 -0.13253099784171141 0.4156216347765242 0 -0.12749629121599021 0.4162816070651868 0 -0.1276403685902934 0.39340031590433988 0 -0.13296840214681341 0.42910864185691849 0 -0.14064403747097179 0.41455814056918339 0 -0.13253099784171141 0.4156216347765242 0 -0.14064403747097179 0.41455814056918339 0 -0.13253099784171141 0.4156216347765242 0 -0.12903479920957539 0.42629795108223228 0 -0.13253099784171141 0.4156216347765242 0 -0.12746200712738129 0.42172634963799549 0 -0.13253099784171141 0.4156216347765242 0 -0.12746200712738129 0.42172634963799549 0 -0.12749629121599021 0.4162816070651868 0 -0.13253099784171141 0.4156216347765242 0 -0.12749629121599021 0.4162816070651868 0 -0.12746200712738129 0.42172634963799549 0 -0.12749629121599021 0.4162816070651868 0 -0.12746200712738129 0.42172634963799549 0 -0.12749629121599021 0.4162816070651868 0 -0.1219308753491178 0.42128676145898958 0 -0.12749629121599021 0.4162816070651868 0 -0.1276403685902934 0.39340031590433988 0 -0.12007515546669791 0.40585573689239302 0 -0.14064403747097179 0.41455814056918339 0 -0.13179910882033979 0.39305443025164849 0 -0.14286102305298029 0.39245482448165819 0 -0.12749629121599021 0.4162816070651868 0 -0.1276403685902934 0.39340031590433988 0 -0.13253099784171141 0.4156216347765242 0 -0.13179910882033979 0.39305443025164849 0 -0.13253099784171141 0.4156216347765242 0 -0.13179910882033979 0.39305443025164849 0 -0.1276403685902934 0.39340031590433988 0 -0.1276403685902934 0.39340031590433988 0 -0.12778444596459629 0.37051902474349302 0 -0.13179910882033979 0.39305443025164849 0 -0.1310672197989694 0.37048722572677278 0 -0.13179910882033979 0.39305443025164849 0 -0.1276403685902934 0.39340031590433988 0 -0.12778444596459629 0.37051902474349302 0 -0.13179910882033979 0.39305443025164849 0 -0.1310672197989694 0.37048722572677278 0 -0.12778444596459629 0.37051902474349302 0 -0.13179910882033979 0.39305443025164849 0 -0.14227153903274911 0.38140581209693958 0 -0.1310672197989694 0.37048722572677278 0 -0.1276403685902934 0.39340031590433988 0 -0.12778444596459629 0.37051902474349302 0 -0.12566660637393731 0.37140256080148998 0 -0.14227153903274911 0.38140581209693958 0 -0.1365189017948594 0.37043441729838611 0 -0.13179910882033979 0.39305443025164849 0 -0.14227153903274911 0.38140581209693958 0 -0.14286102305298029 0.39245482448165819 0 -0.14286102305298029 0.39245482448165819 0 -0.1450780086349896 0.370351508394133 0 -0.15472588850446101 0.38209793038606987 0 -0.14286102305298029 0.39245482448165819 0 -0.1450780086349896 0.370351508394133 0 -0.14227153903274911 0.38140581209693958 0 -0.14286102305298029 0.39245482448165819 0 -0.1450780086349896 0.370351508394133 0 -0.16152639551145939 0.39453882765374998 0 -0.15472588850446101 0.38209793038606987 0 -0.14286102305298029 0.39245482448165819 0 -0.14064403747097179 0.41455814056918339 0 -0.14286102305298029 0.39245482448165819 0 -0.16152639551145939 0.39453882765374998 0 -0.15134689792984721 0.40353011948942569 0 -0.14286102305298029 0.39245482448165819 0 -0.14064403747097179 0.41455814056918339 0 -0.15134689792984721 0.40353011948942569 0 -0.14286102305298029 0.39245482448165819 0 -0.14687391915407971 0.35244630495459522 0 -0.16539319896281821 0.33589275996782109 0 -0.14687391915407971 0.35244630495459522 0 -0.1450780086349896 0.370351508394133 0 -0.16240610111026901 0.35463205222075528 0 -0.14687391915407971 0.35244630495459522 0 -0.1389315943192819 0.34870914064421737 0 -0.13975298650236209 0.33997001965033058 0 -0.14687391915407971 0.35244630495459522 0 -0.1450780086349896 0.370351508394133 0 -0.14687391915407971 0.35244630495459522 0 -0.1450780086349896 0.370351508394133 0 -0.13340141516724749 0.36448876573783201 0 -0.1450780086349896 0.370351508394133 0 -0.1365189017948594 0.37043441729838611 0 -0.14227153903274911 0.38140581209693958 0 -0.1450780086349896 0.370351508394133 0 -0.1365189017948594 0.37043441729838611 0 -0.12778444596459629 0.37051902474349302 0 -0.12788862054246969 0.35397479731419712 0 -0.12778444596459629 0.37051902474349302 0 -0.12788862054246969 0.35397479731419712 0 -0.13070595783121311 0.35934800587876953 0 -0.12778444596459629 0.37051902474349302 0 -0.12788862054246969 0.35397479731419712 0 -0.12008441417418871 0.36271820918391012 0 -0.13340141516724749 0.36448876573783201 0 -0.13070595783121311 0.35934800587876953 0 -0.1360080323966521 0.35494806890086322 0 -0.13340141516724749 0.36448876573783201 0 -0.1365189017948594 0.37043441729838611 0 -0.13094392103691729 0.36668540837519531 0 -0.14227153903274911 0.38140581209693958 0 -0.1365189017948594 0.37043441729838611 0 -0.1310672197989694 0.37048722572677278 0 -0.1450780086349896 0.370351508394133 0 -0.13340141516724749 0.36448876573783201 0 -0.1365189017948594 0.37043441729838611 0 -0.1365189017948594 0.37043441729838611 0 -0.1310672197989694 0.37048722572677278 0 -0.13340141516724749 0.36448876573783201 0 -0.1365189017948594 0.37043441729838611 0 -0.1365189017948594 0.37043441729838611 0 -0.1310672197989694 0.37048722572677278 0 -0.13094392103691729 0.36668540837519531 0 -0.1310672197989694 0.37048722572677278 0 -0.12778444596459629 0.37051902474349302 0 -0.13094392103691729 0.36668540837519531 0 -0.1310672197989694 0.37048722572677278 0 -0.12778444596459629 0.37051902474349302 0 -0.1310672197989694 0.37048722572677278 0 -0.13094392103691729 0.36668540837519531 0 -0.12778444596459629 0.37051902474349302 0 -0.13094392103691729 0.36668540837519531 0 -0.12778444596459629 0.37051902474349302 0 -0.12566660637393731 0.37140256080148998 0 -0.12778444596459629 0.37051902474349302 0 -0.13094392103691729 0.36668540837519531 0 -0.13070595783121311 0.35934800587876953 0 -0.13094392103691729 0.36668540837519531 0 -0.13070595783121311 0.35934800587876953 0 -0.13340141516724749 0.36448876573783201 0 -0.13070595783121311 0.35934800587876953 0 -0.13340141516724749 0.36448876573783201 0 -0.13094392103691729 0.36668540837519531 0 -0.13070595783121311 0.35934800587876953 0 -0.13340141516724749 0.36448876573783201 0 -0.13094392103691729 0.36668540837519531 0 -0.13070595783121311 0.35934800587876953 0 -0.1360080323966521 0.35494806890086322 0 -0.13043200606833061 0.35090092540292578 0 -0.12788862054246969 0.35397479731419712 0 -0.13070595783121311 0.35934800587876953 0 -0.13043200606833061 0.35090092540292578 0 -0.12788862054246969 0.35397479731419712 0 -0.13043200606833061 0.35090092540292578 0 -0.12805831269605539 0.32702555845781112 0 -0.13070595783121311 0.35934800587876953 0 -0.13043200606833061 0.35090092540292578 0 -0.12788862054246969 0.35397479731419712 0 -0.13070595783121311 0.35934800587876953 0 -0.14687391915407971 0.35244630495459522 0 -0.13340141516724749 0.36448876573783201 0 -0.1360080323966521 0.35494806890086322 0 -0.14687391915407971 0.35244630495459522 0 -0.1360080323966521 0.35494806890086322 0 -0.1389315943192819 0.34870914064421737 0 -0.14687391915407971 0.35244630495459522 0 -0.13340141516724749 0.36448876573783201 0 -0.1389315943192819 0.34870914064421737 0 -0.13043200606833061 0.35090092540292578 0 -0.13975298650236209 0.33997001965033058 0 -0.1360080323966521 0.35494806890086322 0 -0.1389315943192819 0.34870914064421737 0 -0.13043200606833061 0.35090092540292578 0 -0.13043200606833061 0.35090092540292578 0 -0.13975298650236209 0.33997001965033058 0 -0.12805831269605539 0.32702555845781112 0 -0.12788862054246969 0.35397479731419712 0 -0.12805831269605539 0.32702555845781112 0 -0.13975298650236209 0.33997001965033058 0 -0.12805831269605539 0.32702555845781112 0 -0.14920990974708201 0.32915651052668399 0 -0.12805831269605539 0.32702555845781112 0 -0.13926053190821441 0.31553127617117332 0 -0.14920990974708201 0.32915651052668399 0 -0.12805831269605539 0.32702555845781112 0 -0.13926053190821441 0.31553127617117332 0 -0.12822800484964031 0.30007631960142489 0 -0.12805831269605539 0.32702555845781112 0 -0.12822800484964031 0.30007631960142489 0 -0.12805831269605539 0.32702555845781112 0 -0.12822800484964031 0.30007631960142489 0 -0.1223272277487793 0.31341771335827351 0 -0.14920990974708201 0.32915651052668399 0 -0.1515459003400797 0.30586671609877258 0 -0.13926053190821441 0.31553127617117332 0 -0.14920990974708201 0.32915651052668399 0 -0.1515459003400797 0.30586671609877258 0 -0.14687391915407971 0.35244630495459522 0 -0.13975298650236209 0.33997001965033058 0 -0.14920990974708201 0.32915651052668399 0 -0.14687391915407971 0.35244630495459522 0 -0.14920990974708201 0.32915651052668399 0 -0.14687391915407971 0.35244630495459522 0 -0.14920990974708201 0.32915651052668399 0 -0.16539319896281821 0.33589275996782109 0 -0.14920990974708201 0.32915651052668399 0 -0.16539319896281821 0.33589275996782109 0 -0.16931523243027419 0.32233515453520561 0 -0.16931523243027419 0.32233515453520561 0 -0.18020165371944799 0.31298263160087131 0 -0.1515459003400797 0.30586671609877258 0 -0.14920990974708201 0.32915651052668399 0 -0.16931523243027419 0.32233515453520561 0 -0.1515459003400797 0.30586671609877258 0 -0.16539319896281821 0.33589275996782109 0 -0.16931523243027419 0.32233515453520561 0 -0.1839124787715567 0.31933921498104689 0 -0.16539319896281821 0.33589275996782109 0 -0.1839124787715567 0.31933921498104689 0 -0.16931523243027419 0.32233515453520561 0 -0.1839124787715567 0.31933921498104689 0 -0.18020165371944799 0.31298263160087131 0 -0.1839124787715567 0.31933921498104689 0 -0.17994238034222171 0.33415974876928362 0 -0.18843589386148429 0.3295988083961533 0 -0.1839124787715567 0.31933921498104689 0 -0.18020165371944799 0.31298263160087131 0 -0.1923194432066071 0.32186421988007169 0 -0.16539319896281821 0.33589275996782109 0 -0.1839124787715567 0.31933921498104689 0 -0.17994238034222171 0.33415974876928362 0 -0.17994238034222171 0.33415974876928362 0 -0.1901247293585763 0.34544910545163943 0 -0.18843589386148429 0.3295988083961533 0 -0.17994238034222171 0.33415974876928362 0 -0.17445005044826439 0.34804026000472549 0 -0.1901247293585763 0.34544910545163943 0 -0.16539319896281821 0.33589275996782109 0 -0.17994238034222171 0.33415974876928362 0 -0.17445005044826439 0.34804026000472549 0 -0.17445005044826439 0.34804026000472549 0 -0.17438384246743671 0.37006763361412831 0 -0.1901247293585763 0.34544910545163943 0 -0.16539319896281821 0.33589275996782109 0 -0.17445005044826439 0.34804026000472549 0 -0.16240610111026901 0.35463205222075528 0 -0.14687391915407971 0.35244630495459522 0 -0.16539319896281821 0.33589275996782109 0 -0.16240610111026901 0.35463205222075528 0 -0.17445005044826439 0.34804026000472549 0 -0.16240610111026901 0.35463205222075528 0 -0.17438384246743671 0.37006763361412831 0 -0.1450780086349896 0.370351508394133 0 -0.16240610111026901 0.35463205222075528 0 -0.17438384246743671 0.37006763361412831 0 -0.15472588850446101 0.38209793038606987 0 -0.1450780086349896 0.370351508394133 0 -0.17438384246743671 0.37006763361412831 0 -0.1450780086349896 0.370351508394133 0 -0.17438384246743671 0.37006763361412831 0 -0.17438384246743671 0.37006763361412831 0 -0.1901247293585763 0.34544910545163943 0 -0.2065701693010345 0.37105859557956922 0 -0.1901247293585763 0.34544910545163943 0 -0.2065701693010345 0.37105859557956922 0 -0.21280150364312539 0.3418834851050101 0 -0.2065701693010345 0.37105859557956922 0 -0.21280150364312539 0.3418834851050101 0 -0.2065701693010345 0.37105859557956922 0 -0.22499441425058081 0.35974788165168381 0 -0.21280150364312539 0.3418834851050101 0 -0.2065701693010345 0.37105859557956922 0 -0.22472739676719611 0.37443965331661011 0 -0.22499441425058081 0.35974788165168381 0 -0.22472739676719611 0.37443965331661011 0 -0.22499441425058081 0.35974788165168381 0 -0.24001945356167789 0.37070887765699118 0 -0.22499441425058081 0.35974788165168381 0 -0.23229369300795191 0.34206704114122588 0 -0.21280150364312539 0.3418834851050101 0 -0.22499441425058081 0.35974788165168381 0 -0.24079631860767159 0.35581636071620598 0 -0.23229369300795191 0.34206704114122588 0 -0.24079631860767159 0.35581636071620598 0 -0.24387546729111939 0.3448630346860822 0 -0.23229369300795191 0.34206704114122588 0 -0.25379026269596222 0.35183812540250081 0 -0.24079631860767159 0.35581636071620598 0 -0.24387546729111939 0.3448630346860822 0 -0.25135861017078309 0.36458230349300091 0 -0.25379026269596222 0.35183812540250081 0 -0.24079631860767159 0.35581636071620598 0 -0.25135861017078309 0.36458230349300091 0 -0.24079631860767159 0.35581636071620598 0 -0.24001945356167789 0.37070887765699118 0 -0.22499441425058081 0.35974788165168381 0 -0.24079631860767159 0.35581636071620598 0 -0.24001945356167789 0.37070887765699118 0 -0.25135861017078309 0.36458230349300091 0 -0.25091287677097768 0.37673746352190368 0 -0.24001945356167789 0.37070887765699118 0 -0.2352763000549028 0.31680824933994012 0 -0.24874910864909841 0.32206925242336931 0 -0.2487026013327101 0.30432428835627789 0 -0.2352763000549028 0.31680824933994012 0 -0.24874910864909841 0.32206925242336931 0 -0.23662847026470399 0.32906269993283072 0 -0.24874910864909841 0.32206925242336931 0 -0.2460336656789357 0.3337283287742524 0 -0.23662847026470399 0.32906269993283072 0 -0.25446648375608161 0.34080472638544701 0 -0.24387546729111939 0.3448630346860822 0 -0.2460336656789357 0.3337283287742524 0 -0.24387546729111939 0.3448630346860822 0 -0.2460336656789357 0.3337283287742524 0 -0.23229369300795191 0.34206704114122588 0 -0.2460336656789357 0.3337283287742524 0 -0.23662847026470399 0.32906269993283072 0 -0.23229369300795191 0.34206704114122588 0 -0.23662847026470399 0.32906269993283072 0 -0.22694988190883811 0.32859135634811049 0 -0.23229369300795191 0.34206704114122588 0 -0.22694988190883811 0.32859135634811049 0 -0.23229369300795191 0.34206704114122588 0 -0.21280150364312539 0.3418834851050101 0 -0.22694988190883811 0.32859135634811049 0 -0.21903283798521639 0.31270837463045098 0 -0.21280150364312539 0.3418834851050101 0 -0.2352763000549028 0.31680824933994012 0 -0.22694988190883811 0.32859135634811049 0 -0.21903283798521639 0.31270837463045098 0 -0.2352763000549028 0.31680824933994012 0 -0.23662847026470399 0.32906269993283072 0 -0.22694988190883811 0.32859135634811049 0 -0.21903283798521639 0.31270837463045098 0 -0.20885740709881639 0.32009854710296931 0 -0.20759250911494001 0.30765663132847998 0 -0.21903283798521639 0.31270837463045098 0 -0.20885740709881639 0.32009854710296931 0 -0.21280150364312539 0.3418834851050101 0 -0.21903283798521639 0.31270837463045098 0 -0.21280150364312539 0.3418834851050101 0 -0.20885740709881639 0.32009854710296931 0 -0.21280150364312539 0.3418834851050101 0 -0.19830464803005551 0.33128547033861161 0 -0.1901247293585763 0.34544910545163943 0 -0.19830464803005551 0.33128547033861161 0 -0.18843589386148429 0.3295988083961533 0 -0.1901247293585763 0.34544910545163943 0 -0.21280150364312539 0.3418834851050101 0 -0.19830464803005551 0.33128547033861161 0 -0.18020165371944799 0.31298263160087131 0 -0.20885740709881639 0.32009854710296931 0 -0.19663957273835439 0.30774273028745741 0 -0.18020165371944799 0.31298263160087131 0 -0.20885740709881639 0.32009854710296931 0 -0.1923194432066071 0.32186421988007169 0 -0.18020165371944799 0.31298263160087131 0 -0.20885740709881639 0.32009854710296931 0 -0.20885740709881639 0.32009854710296931 0 -0.19830464803005551 0.33128547033861161 0 -0.1923194432066071 0.32186421988007169 0 -0.1839124787715567 0.31933921498104689 0 -0.18843589386148429 0.3295988083961533 0 -0.1923194432066071 0.32186421988007169 0 -0.19830464803005551 0.33128547033861161 0 -0.18843589386148429 0.3295988083961533 0 -0.1923194432066071 0.32186421988007169 0 -0.18020165371944799 0.31298263160087131 0 -0.19663957273835439 0.30774273028745741 0 -0.1863584632691615 0.29884682916076788 0 -0.19663957273835439 0.30774273028745741 0 -0.19950191949094939 0.296516805315585 0 -0.1863584632691615 0.29884682916076788 0 -0.19663957273835439 0.30774273028745741 0 -0.19950191949094939 0.296516805315585 0 -0.20759250911494001 0.30765663132847998 0 -0.19109355721209739 0.28490557629901031 0 -0.19950191949094939 0.296516805315585 0 -0.1863584632691615 0.29884682916076788 0 -0.19109355721209739 0.28490557629901031 0 -0.19950191949094939 0.296516805315585 0 -0.20669342317157871 0.28508790648840132 0 -0.20669342317157871 0.28508790648840132 0 -0.21183764163351401 0.29730763320819398 0 -0.22526417232730719 0.28353326415589208 0 -0.19950191949094939 0.296516805315585 0 -0.20669342317157871 0.28508790648840132 0 -0.21183764163351401 0.29730763320819398 0 -0.21903283798521639 0.31270837463045098 0 -0.21183764163351401 0.29730763320819398 0 -0.22526417232730719 0.28353326415589208 0 -0.20885740709881639 0.32009854710296931 0 -0.19663957273835439 0.30774273028745741 0 -0.20759250911494001 0.30765663132847998 0 -0.19950191949094939 0.296516805315585 0 -0.20759250911494001 0.30765663132847998 0 -0.21183764163351401 0.29730763320819398 0 -0.21903283798521639 0.31270837463045098 0 -0.20759250911494001 0.30765663132847998 0 -0.21183764163351401 0.29730763320819398 0 -0.2352763000549028 0.31680824933994012 0 -0.21903283798521639 0.31270837463045098 0 -0.23376922134242761 0.30128166418616659 0 -0.21903283798521639 0.31270837463045098 0 -0.23376922134242761 0.30128166418616659 0 -0.22526417232730719 0.28353326415589208 0 -0.21903283798521639 0.31270837463045098 0 -0.22526417232730719 0.28353326415589208 0 -0.23376922134242761 0.30128166418616659 0 -0.22526417232730719 0.28353326415589208 0 -0.24163358300240251 0.28930517342151751 0 -0.22526417232730719 0.28353326415589208 0 -0.24163358300240251 0.28930517342151751 0 -0.24558079483977169 0.27374289218359499 0 -0.2352763000549028 0.31680824933994012 0 -0.23376922134242761 0.30128166418616659 0 -0.2487026013327101 0.30432428835627789 0 -0.23376922134242761 0.30128166418616659 0 -0.24163358300240251 0.28930517342151751 0 -0.2487026013327101 0.30432428835627789 0 -0.26292185998712631 0.25941996831728192 0 -0.24269823368249191 0.25990187884213117 0 -0.23848877085535369 0.2463302843583732 0 -0.24269823368249191 0.25990187884213117 0 -0.2362596768797427 0.26788404721573789 0 -0.2314955066694 0.25435815368133358 0 -0.2314955066694 0.25435815368133358 0 -0.23848877085535369 0.2463302843583732 0 -0.24269823368249191 0.25990187884213117 0 -0.2314955066694 0.25435815368133358 0 -0.23848877085535369 0.2463302843583732 0 -0.22526417232730719 0.28353326415589208 0 -0.24558079483977169 0.27374289218359499 0 -0.2362596768797427 0.26788404721573789 0 -0.24269823368249191 0.25990187884213117 0 -0.24558079483977169 0.27374289218359499 0 -0.2362596768797427 0.26788404721573789 0 -0.22526417232730719 0.28353326415589208 0 -0.2362596768797427 0.26788404721573789 0 -0.2314955066694 0.25435815368133358 0 -0.22526417232730719 0.28353326415589208 0 -0.22152769387123111 0.2658006355398313 0 -0.2314955066694 0.25435815368133358 0 -0.22526417232730719 0.28353326415589208 0 -0.2314955066694 0.25435815368133358 0 -0.22526417232730719 0.28353326415589208 0 -0.22152769387123111 0.2658006355398313 0 -0.21099460664212069 0.27199400174057092 0 -0.22152769387123111 0.2658006355398313 0 -0.2314955066694 0.25435815368133358 0 -0.21988544593222009 0.25554112322436839 0 -0.22152769387123111 0.2658006355398313 0 -0.2314955066694 0.25435815368133358 0 -0.2314955066694 0.25435815368133358 0 -0.23314897563164741 0.24661661118151479 0 -0.2314955066694 0.25435815368133358 0 -0.21988544593222009 0.25554112322436839 0 -0.21969346928946179 0.24779007988428181 0 -0.21988544593222009 0.25554112322436839 0 -0.20261199663408169 0.25251976098724788 0 -0.21969346928946179 0.24779007988428181 0 -0.22152769387123111 0.2658006355398313 0 -0.21099460664212069 0.27199400174057092 0 -0.20261199663408169 0.25251976098724788 0 -0.22152769387123111 0.2658006355398313 0 -0.21988544593222009 0.25554112322436839 0 -0.20261199663408169 0.25251976098724788 0 -0.20669342317157871 0.28508790648840132 0 -0.22526417232730719 0.28353326415589208 0 -0.21099460664212069 0.27199400174057092 0 -0.21099460664212069 0.27199400174057092 0 -0.19887574720640441 0.27302844153148192 0 -0.20261199663408169 0.25251976098724788 0 -0.20669342317157871 0.28508790648840132 0 -0.21099460664212069 0.27199400174057092 0 -0.19887574720640441 0.27302844153148192 0 -0.19109355721209739 0.28490557629901031 0 -0.19887574720640441 0.27302844153148192 0 -0.1797017890722318 0.26652180148741711 0 -0.19109355721209739 0.28490557629901031 0 -0.20669342317157871 0.28508790648840132 0 -0.19887574720640441 0.27302844153148192 0 -0.19887574720640441 0.27302844153148192 0 -0.20261199663408169 0.25251976098724788 0 -0.1797017890722318 0.26652180148741711 0 -0.20261199663408169 0.25251976098724788 0 -0.1797017890722318 0.26652180148741711 0 -0.18065622936835921 0.24352779683045819 0 -0.15631560818178461 0.25831279381537031 0 -0.1797017890722318 0.26652180148741711 0 -0.18065622936835921 0.24352779683045819 0 -0.15631560818178461 0.25831279381537031 0 -0.16821342808595929 0.27661861701577978 0 -0.1797017890722318 0.26652180148741711 0 -0.15631560818178461 0.25831279381537031 0 -0.16821342808595929 0.27661861701577978 0 -0.15393075426093439 0.28208975495707161 0 -0.16821342808595929 0.27661861701577978 0 -0.1797017890722318 0.26652180148741711 0 -0.17670482820241909 0.28933963293538639 0 -0.19109355721209739 0.28490557629901031 0 -0.1797017890722318 0.26652180148741711 0 -0.17670482820241909 0.28933963293538639 0 -0.19109355721209739 0.28490557629901031 0 -0.17670482820241909 0.28933963293538639 0 -0.1863584632691615 0.29884682916076788 0 -0.17670482820241909 0.28933963293538639 0 -0.1863584632691615 0.29884682916076788 0 -0.1715475287979065 0.30005226799520851 0 -0.18020165371944799 0.31298263160087131 0 -0.1863584632691615 0.29884682916076788 0 -0.1715475287979065 0.30005226799520851 0 -0.1715475287979065 0.30005226799520851 0 -0.16438848793746069 0.29079339780044378 0 -0.1515459003400797 0.30586671609877258 0 -0.18020165371944799 0.31298263160087131 0 -0.1515459003400797 0.30586671609877258 0 -0.18020165371944799 0.31298263160087131 0 -0.1715475287979065 0.30005226799520851 0 -0.1515459003400797 0.30586671609877258 0 -0.16438848793746069 0.29079339780044378 0 -0.15393075426093439 0.28208975495707161 0 -0.1515459003400797 0.30586671609877258 0 -0.16821342808595929 0.27661861701577978 0 -0.17670482820241909 0.28933963293538639 0 -0.16438848793746069 0.29079339780044378 0 -0.17670482820241909 0.28933963293538639 0 -0.1715475287979065 0.30005226799520851 0 -0.16438848793746069 0.29079339780044378 0 -0.16821342808595929 0.27661861701577978 0 -0.16438848793746069 0.29079339780044378 0 -0.15393075426093439 0.28208975495707161 0 -0.15393075426093439 0.28208975495707161 0 -0.1515459003400797 0.30586671609877258 0 -0.15393075426093439 0.28208975495707161 0 -0.1515459003400797 0.30586671609877258 0 -0.13730891398400591 0.2833460588641854 0 -0.13926053190821441 0.31553127617117332 0 -0.1515459003400797 0.30586671609877258 0 -0.12822800484964031 0.30007631960142489 0 -0.1515459003400797 0.30586671609877258 0 -0.12822800484964031 0.30007631960142489 0 -0.1515459003400797 0.30586671609877258 0 -0.12822800484964031 0.30007631960142489 0 -0.1282700579439178 0.29339776164586689 0 -0.12822800484964031 0.30007631960142489 0 -0.12335304491330509 0.2988657493356997 0 -0.12822800484964031 0.30007631960142489 0 -0.1282700579439178 0.29339776164586689 0 -0.12335304491330509 0.2988657493356997 0 -0.1515459003400797 0.30586671609877258 0 -0.13730891398400591 0.2833460588641854 0 -0.1282700579439178 0.29339776164586689 0 -0.12822800484964031 0.30007631960142489 0 -0.1282700579439178 0.29339776164586689 0 -0.1282700579439178 0.29339776164586689 0 -0.12335304491330509 0.2988657493356997 0 -0.13730891398400591 0.2833460588641854 0 -0.1282700579439178 0.29339776164586689 0 -0.13730891398400591 0.2833460588641854 0 -0.1282700579439178 0.29339776164586689 0 -0.12843735108345999 0.26682951625969958 0 -0.13730891398400591 0.2833460588641854 0 -0.12843735108345999 0.26682951625969958 0 -0.14318705219948599 0.26937954435820488 0 -0.1282700579439178 0.29339776164586689 0 -0.12843735108345999 0.26682951625969958 0 -0.1365805039239788 0.25711754121745489 0 -0.12083866886468569 0.25776802945084082 0 -0.12720947456823251 0.2476316789285182 0 -0.12843735108345999 0.26682951625969958 0 -0.1365805039239788 0.25711754121745489 0 -0.12083866886468569 0.25776802945084082 0 -0.12843735108345999 0.26682951625969958 0 -0.1365805039239788 0.25711754121745489 0 -0.14318705219948599 0.26937954435820488 0 -0.15631560818178461 0.25831279381537031 0 -0.1365805039239788 0.25711754121745489 0 -0.14318705219948599 0.26937954435820488 0 -0.15631560818178461 0.25831279381537031 0 -0.1365805039239788 0.25711754121745489 0 -0.14223809415634681 0.24329665536152459 0 -0.15631560818178461 0.25831279381537031 0 -0.15393075426093439 0.28208975495707161 0 -0.15393075426093439 0.28208975495707161 0 -0.13730891398400591 0.2833460588641854 0 -0.14318705219948599 0.26937954435820488 0 -0.15631560818178461 0.25831279381537031 0 -0.15393075426093439 0.28208975495707161 0 -0.14318705219948599 0.26937954435820488 0 -0.1038052806872328 0.26976360673361532 0 -0.11567068825435881 0.28127124848414381 0 -0.1030942876579448 0.2814087192697739 0 -0.1038052806872328 0.26976360673361532 0 -0.1030942876579448 0.2814087192697739 0 -0.091525965469198958 0.27339842518110608 0 -0.1038052806872328 0.26976360673361532 0 -0.1022381897011586 0.25780264773575212 0 -0.091525965469198958 0.27339842518110608 0 -0.1038052806872328 0.26976360673361532 0 -0.1022381897011586 0.25780264773575212 0 -0.11597482135588109 0.2686762988528888 0 -0.1022381897011586 0.25780264773575212 0 -0.12083866886468569 0.25776802945084082 0 -0.1147333885237303 0.24788528680780031 0 -0.1022381897011586 0.25780264773575212 0 -0.12083866886468569 0.25776802945084082 0 -0.11597482135588109 0.2686762988528888 0 -0.12083866886468569 0.25776802945084082 0 -0.12720947456823251 0.2476316789285182 0 -0.1147333885237303 0.24788528680780031 0 -0.12843735108345999 0.26682951625969958 0 -0.12083866886468569 0.25776802945084082 0 -0.11597482135588109 0.2686762988528888 0 -0.1282700579439178 0.29339776164586689 0 -0.12843735108345999 0.26682951625969958 0 -0.11567068825435881 0.28127124848414381 0 -0.12843735108345999 0.26682951625969958 0 -0.11597482135588109 0.2686762988528888 0 -0.11567068825435881 0.28127124848414381 0 -0.1038052806872328 0.26976360673361532 0 -0.11597482135588109 0.2686762988528888 0 -0.11567068825435881 0.28127124848414381 0 -0.12335304491330509 0.2988657493356997 0 -0.10365198470618869 0.29397350037334907 0 -0.1282700579439178 0.29339776164586689 0 -0.11567068825435881 0.28127124848414381 0 -0.11921367050442951 0.29019870144624821 0 -0.11055522303683619 0.28846815812306531 0 -0.12335304491330509 0.2988657493356997 0 -0.10365198470618869 0.29397350037334907 0 -0.11921367050442951 0.29019870144624821 0 -0.11055522303683619 0.28846815812306531 0 -0.12335304491330509 0.2988657493356997 0 -0.1282700579439178 0.29339776164586689 0 -0.11921367050442951 0.29019870144624821 0 -0.12335304491330509 0.2988657493356997 0 -0.11567068825435881 0.28127124848414381 0 -0.11055522303683619 0.28846815812306531 0 -0.1030942876579448 0.2814087192697739 0 -0.11567068825435881 0.28127124848414381 0 -0.11921367050442951 0.29019870144624821 0 -0.11055522303683619 0.28846815812306531 0 -0.12335304491330509 0.2988657493356997 0 -0.10252860487176139 0.30560832946388589 0 -0.10365198470618869 0.29397350037334907 0 -0.12335304491330509 0.2988657493356997 0 -0.10796549963493129 0.31597754213247659 0 -0.12335304491330509 0.2988657493356997 0 -0.10252860487176139 0.30560832946388589 0 -0.10796549963493129 0.31597754213247659 0 -0.12335304491330509 0.2988657493356997 0 -0.10796549963493129 0.31597754213247659 0 -0.1223272277487793 0.31341771335827351 0 -0.12822800484964031 0.30007631960142489 0 -0.12335304491330509 0.2988657493356997 0 -0.1223272277487793 0.31341771335827351 0 -0.10252860487176139 0.30560832946388589 0 -0.086007563820818811 0.30899778903531722 0 -0.094905767114372347 0.31693358757448908 0 -0.10252860487176139 0.30560832946388589 0 -0.10796549963493129 0.31597754213247659 0 -0.10252860487176139 0.30560832946388589 0 -0.10365198470618869 0.29397350037334907 0 -0.092517455567889553 0.29877007359115249 0 -0.1030942876579448 0.2814087192697739 0 -0.10365198470618869 0.29397350037334907 0 -0.083950924499072294 0.28908125141099872 0 -0.10365198470618869 0.29397350037334907 0 -0.083950924499072294 0.28908125141099872 0 -0.11055522303683619 0.28846815812306531 0 -0.1030942876579448 0.2814087192697739 0 -0.10365198470618869 0.29397350037334907 0 -0.10365198470618869 0.29397350037334907 0 -0.083950924499072294 0.28908125141099872 0 -0.092517455567889553 0.29877007359115249 0 -0.083950924499072294 0.28908125141099872 0 -0.086007563820818811 0.30899778903531722 0 -0.07288919499827276 0.3019718244516913 0 -0.10252860487176139 0.30560832946388589 0 -0.086007563820818811 0.30899778903531722 0 -0.092517455567889553 0.29877007359115249 0 -0.083950924499072294 0.28908125141099872 0 -0.086007563820818811 0.30899778903531722 0 -0.092517455567889553 0.29877007359115249 0 -0.086007563820818811 0.30899778903531722 0 -0.07288919499827276 0.3019718244516913 0 -0.070536132068810639 0.31578840665344832 0 -0.07288919499827276 0.3019718244516913 0 -0.063405367888896266 0.30450188298560787 0 -0.061550611810425308 0.29253695808539859 0 -0.07288919499827276 0.3019718244516913 0 -0.063405367888896266 0.30450188298560787 0 -0.070536132068810639 0.31578840665344832 0 -0.063405367888896266 0.30450188298560787 0 -0.058240181608654011 0.31192838165565751 0 -0.070536132068810639 0.31578840665344832 0 -0.083950924499072294 0.28908125141099872 0 -0.060897111261637778 0.28160566717184521 0 -0.061550611810425308 0.29253695808539859 0 -0.083950924499072294 0.28908125141099872 0 -0.07288919499827276 0.3019718244516913 0 -0.061550611810425308 0.29253695808539859 0 -0.083950924499072294 0.28908125141099872 0 -0.076243270860186715 0.26411749629404963 0 -0.060897111261637778 0.28160566717184521 0 -0.076243270860186715 0.26411749629404963 0 -0.060897111261637778 0.28160566717184521 0 -0.076243270860186715 0.26411749629404963 0 -0.055862192927506119 0.26333603876076322 0 -0.060897111261637778 0.28160566717184521 0 -0.083950924499072294 0.28908125141099872 0 -0.091525965469198958 0.27339842518110608 0 -0.076243270860186715 0.26411749629404963 0 -0.1030942876579448 0.2814087192697739 0 -0.083950924499072294 0.28908125141099872 0 -0.091525965469198958 0.27339842518110608 0 -0.1022381897011586 0.25780264773575212 0 -0.091525965469198958 0.27339842518110608 0 -0.076243270860186715 0.26411749629404963 0 -0.076243270860186715 0.26411749629404963 0 -0.091589430458735632 0.24662932541625401 0 -0.076243270860186715 0.26411749629404963 0 -0.074440127216583662 0.24846193142452569 0 -0.091589430458735632 0.24662932541625401 0 -0.1022381897011586 0.25780264773575212 0 -0.076243270860186715 0.26411749629404963 0 -0.091589430458735632 0.24662932541625401 0 -0.076243270860186715 0.26411749629404963 0 -0.055862192927506119 0.26333603876076322 0 -0.074440127216583662 0.24846193142452569 0 -0.055862192927506119 0.26333603876076322 0 -0.074440127216583662 0.24846193142452569 0 -0.05167756311802927 0.24613586928495221 0 -0.055862192927506119 0.26333603876076322 0 -0.041815778049338052 0.28033882128805893 0 -0.060897111261637778 0.28160566717184521 0 -0.041815778049338052 0.28033882128805893 0 -0.02842585240662095 0.25929202651974598 0 -0.02478038629865098 0.28441088738513731 0 -0.055862192927506119 0.26333603876076322 0 -0.041815778049338052 0.28033882128805893 0 -0.02842585240662095 0.25929202651974598 0 -0.055862192927506119 0.26333603876076322 0 -0.02842585240662095 0.25929202651974598 0 -0.05167756311802927 0.24613586928495221 0 -0.02842585240662095 0.25929202651974598 0 -0.05167756311802927 0.24613586928495221 0 -0.02842585240662095 0.25929202651974598 0 -0.0051741416952126428 0.27244818375453972 0 -0.02478038629865098 0.28441088738513731 0 -0.02842585240662095 0.25929202651974598 0 -0.0051741416952126428 0.27244818375453972 0 -0.02842585240662095 0.25929202651974598 0 -0.0051741416952126428 0.27244818375453972 0 -0.001711322607177821 0.2476415137308719 0 -0.016508362222874901 0.31323997377024793 0 0.0091093105619211717 0.31104445313616919 0 -0.0093909515200206062 0.30166555970258729 0 -0.016508362222874901 0.31323997377024793 0 0.0091093105619211717 0.31104445313616919 0 -0.0093909515200206062 0.30166555970258729 0 -0.019391047432941681 0.30593924188343569 0 -0.016508362222874901 0.31323997377024793 0 -0.0051741416952126428 0.27244818375453972 0 -0.011155484283122611 0.28836543748723698 0 0.001037681847786531 0.29259039198356668 0 -0.0093909515200206062 0.30166555970258729 0 -0.011155484283122611 0.28836543748723698 0 0.001037681847786531 0.29259039198356668 0 -0.0051741416952126428 0.27244818375453972 0 -0.011155484283122611 0.28836543748723698 0 -0.02478038629865098 0.28441088738513731 0 -0.0093909515200206062 0.30166555970258729 0 -0.011155484283122611 0.28836543748723698 0 -0.019889460268893221 0.29816039707943592 0 -0.011155484283122611 0.28836543748723698 0 -0.02478038629865098 0.28441088738513731 0 -0.019889460268893221 0.29816039707943592 0 -0.02478038629865098 0.28441088738513731 0 -0.029635784133938019 0.2970907351327654 0 -0.036616064406959602 0.29231306164612292 0 -0.02478038629865098 0.28441088738513731 0 -0.029635784133938019 0.2970907351327654 0 -0.019889460268893221 0.29816039707943592 0 -0.027559628757618759 0.30471675540162863 0 -0.029635784133938019 0.2970907351327654 0 -0.019889460268893221 0.29816039707943592 0 -0.027559628757618759 0.30471675540162863 0 -0.019889460268893221 0.29816039707943592 0 -0.019391047432941681 0.30593924188343569 0 -0.0093909515200206062 0.30166555970258729 0 -0.019889460268893221 0.29816039707943592 0 -0.019391047432941681 0.30593924188343569 0 -0.019391047432941681 0.30593924188343569 0 -0.023606834395300889 0.31191352346327877 0 -0.016508362222874901 0.31323997377024793 0 -0.027559628757618759 0.30471675540162863 0 -0.023606834395300889 0.31191352346327877 0 -0.035380857235314242 0.31102296580774108 0 -0.027559628757618759 0.30471675540162863 0 -0.019391047432941681 0.30593924188343569 0 -0.023606834395300889 0.31191352346327877 0 -0.027559628757618759 0.30471675540162863 0 -0.035380857235314242 0.31102296580774108 0 -0.037905441757325589 0.30352020616768272 0 -0.029635784133938019 0.2970907351327654 0 -0.037905441757325589 0.30352020616768272 0 -0.036616064406959602 0.29231306164612292 0 -0.027559628757618759 0.30471675540162863 0 -0.029635784133938019 0.2970907351327654 0 -0.037905441757325589 0.30352020616768272 0 -0.037905441757325589 0.30352020616768272 0 -0.045550951663088847 0.29909383804964079 0 -0.036616064406959602 0.29231306164612292 0 -0.035380857235314242 0.31102296580774108 0 -0.037905441757325589 0.30352020616768272 0 -0.046658416926179627 0.31452115879755133 0 -0.037905441757325589 0.30352020616768272 0 -0.045550951663088847 0.29909383804964079 0 -0.046658416926179627 0.31452115879755133 0 -0.041815778049338052 0.28033882128805893 0 -0.02478038629865098 0.28441088738513731 0 -0.036616064406959602 0.29231306164612292 0 -0.041815778049338052 0.28033882128805893 0 -0.045550951663088847 0.29909383804964079 0 -0.036616064406959602 0.29231306164612292 0 -0.045550951663088847 0.29909383804964079 0 -0.060897111261637778 0.28160566717184521 0 -0.061550611810425308 0.29253695808539859 0 -0.045550951663088847 0.29909383804964079 0 -0.060897111261637778 0.28160566717184521 0 -0.041815778049338052 0.28033882128805893 0 -0.045550951663088847 0.29909383804964079 0 -0.060897111261637778 0.28160566717184521 0 -0.045550951663088847 0.29909383804964079 0 -0.061550611810425308 0.29253695808539859 0 -0.053810718958318647 0.3002838440818435 0 -0.053810718958318647 0.3002838440818435 0 -0.058240181608654011 0.31192838165565751 0 -0.046658416926179627 0.31452115879755133 0 -0.053810718958318647 0.3002838440818435 0 -0.046658416926179627 0.31452115879755133 0 -0.045550951663088847 0.29909383804964079 0 -0.053810718958318647 0.3002838440818435 0 -0.046658416926179627 0.31452115879755133 0 -0.063405367888896266 0.30450188298560787 0 -0.061550611810425308 0.29253695808539859 0 -0.053810718958318647 0.3002838440818435 0 -0.063405367888896266 0.30450188298560787 0 -0.053810718958318647 0.3002838440818435 0 -0.058240181608654011 0.31192838165565751 0 -0.058240181608654011 0.31192838165565751 0 -0.057794897297724447 0.32559378167215092 0 -0.070536132068810639 0.31578840665344832 0 -0.057794897297724447 0.32559378167215092 0 -0.039506114894040961 0.32875847351325932 0 -0.046658416926179627 0.31452115879755133 0 -0.058240181608654011 0.31192838165565751 0 -0.057794897297724447 0.32559378167215092 0 -0.046658416926179627 0.31452115879755133 0 -0.039506114894040961 0.32875847351325932 0 -0.057885371155645578 0.34823090521902089 0 -0.057794897297724447 0.32559378167215092 0 -0.039506114894040961 0.32875847351325932 0 -0.057885371155645578 0.34823090521902089 0 -0.039506114894040961 0.32875847351325932 0 -0.02955504493233032 0.34856699308727451 0 -0.057885371155645578 0.34823090521902089 0 -0.039506114894040961 0.32875847351325932 0 -0.02955504493233032 0.34856699308727451 0 -0.023606834395300889 0.31191352346327877 0 -0.035380857235314242 0.31102296580774108 0 -0.039506114894040961 0.32875847351325932 0 -0.023606834395300889 0.31191352346327877 0 -0.039506114894040961 0.32875847351325932 0 -0.035380857235314242 0.31102296580774108 0 -0.039506114894040961 0.32875847351325932 0 -0.046658416926179627 0.31452115879755133 0 -0.039506114894040961 0.32875847351325932 0 -0.046658416926179627 0.31452115879755133 0 -0.023606834395300889 0.31191352346327877 0 -0.039506114894040961 0.32875847351325932 0 -0.022724245328663031 0.32127513496348092 0 -0.039506114894040961 0.32875847351325932 0 -0.022724245328663031 0.32127513496348092 0 -0.022898701036161141 0.33009803359622258 0 -0.016508362222874901 0.31323997377024793 0 -0.022724245328663031 0.32127513496348092 0 -0.01039529281254236 0.32275756492607738 0 -0.023606834395300889 0.31191352346327877 0 -0.016508362222874901 0.31323997377024793 0 -0.022724245328663031 0.32127513496348092 0 -0.022724245328663031 0.32127513496348092 0 -0.022898701036161141 0.33009803359622258 0 -0.01039529281254236 0.32275756492607738 0 -0.039506114894040961 0.32875847351325932 0 -0.022898701036161141 0.33009803359622258 0 -0.02955504493233032 0.34856699308727451 0 -0.022898701036161141 0.33009803359622258 0 -0.01007826550388795 0.33688784853290887 0 -0.02955504493233032 0.34856699308727451 0 -0.022898701036161141 0.33009803359622258 0 -0.01007826550388795 0.33688784853290887 0 -0.01039529281254236 0.32275756492607738 0 -0.01007826550388795 0.33688784853290887 0 -0.0088407377264510274 0.35099551144825197 0 0.007240156443205031 0.34158786810032932 0 -0.01007826550388795 0.33688784853290887 0 -0.01039529281254236 0.32275756492607738 0 0.0032889550775795991 0.32677985135124687 0 -0.016508362222874901 0.31323997377024793 0 -0.01039529281254236 0.32275756492607738 0 0.0091093105619211717 0.31104445313616919 0 -0.0088407377264510274 0.35099551144825197 0 -0.019603974970620011 0.36837551266128987 0 0.0068589959509591644 0.36406818319845519 0 -0.019603974970620011 0.36837551266128987 0 -0.0096529050089097235 0.38818403223530529 0 0.0068589959509591644 0.36406818319845519 0 -0.02955504493233032 0.34856699308727451 0 -0.019603974970620011 0.36837551266128987 0 -0.040736113312407507 0.36068185666849872 0 -0.01007826550388795 0.33688784853290887 0 -0.0088407377264510274 0.35099551144825197 0 -0.02955504493233032 0.34856699308727451 0 -0.02955504493233032 0.34856699308727451 0 -0.019603974970620011 0.36837551266128987 0 -0.0088407377264510274 0.35099551144825197 0 -0.02955504493233032 0.34856699308727451 0 -0.019603974970620011 0.36837551266128987 0 -0.019603974970620011 0.36837551266128987 0 -0.037619360597344817 0.37373435495151042 0 -0.040736113312407507 0.36068185666849872 0 -0.037619360597344817 0.37373435495151042 0 -0.040736113312407507 0.36068185666849872 0 -0.054976248787681863 0.3690562189796166 0 -0.02955504493233032 0.34856699308727451 0 -0.040736113312407507 0.36068185666849872 0 -0.057885371155645578 0.34823090521902089 0 -0.040736113312407507 0.36068185666849872 0 -0.057885371155645578 0.34823090521902089 0 -0.054976248787681863 0.3690562189796166 0 -0.057885371155645578 0.34823090521902089 0 -0.054976248787681863 0.3690562189796166 0 -0.076264627417249348 0.36770333692478319 0 -0.054976248787681863 0.3690562189796166 0 -0.076264627417249348 0.36770333692478319 0 -0.066378383953971429 0.37759245561974392 0 -0.087165737735280746 0.37091248315619679 0 -0.084769740868877466 0.35893191763644489 0 -0.096067542489280552 0.35469871762802818 0 -0.076264627417249348 0.36770333692478319 0 -0.087165737735280746 0.37091248315619679 0 -0.084769740868877466 0.35893191763644489 0 -0.076264627417249348 0.36770333692478319 0 -0.079045716816760092 0.34813792394515208 0 -0.084769740868877466 0.35893191763644489 0 -0.079045716816760092 0.34813792394515208 0 -0.084769740868877466 0.35893191763644489 0 -0.096067542489280552 0.35469871762802818 0 -0.079045716816760092 0.34813792394515208 0 -0.093505608225845721 0.33205773303881442 0 -0.096067542489280552 0.35469871762802818 0 -0.057885371155645578 0.34823090521902089 0 -0.076264627417249348 0.36770333692478319 0 -0.057885371155645578 0.34823090521902089 0 -0.076264627417249348 0.36770333692478319 0 -0.079045716816760092 0.34813792394515208 0 -0.057885371155645578 0.34823090521902089 0 -0.079045716816760092 0.34813792394515208 0 -0.072995608011735144 0.33292247019242027 0 -0.057794897297724447 0.32559378167215092 0 -0.057885371155645578 0.34823090521902089 0 -0.072995608011735144 0.33292247019242027 0 -0.057794897297724447 0.32559378167215092 0 -0.072995608011735144 0.33292247019242027 0 -0.070536132068810639 0.31578840665344832 0 -0.072995608011735144 0.33292247019242027 0 -0.070536132068810639 0.31578840665344832 0 -0.083443014595206047 0.3215542950615502 0 -0.086007563820818811 0.30899778903531722 0 -0.070536132068810639 0.31578840665344832 0 -0.083443014595206047 0.3215542950615502 0 -0.083443014595206047 0.3215542950615502 0 -0.093505608225845721 0.33205773303881442 0 -0.094905767114372347 0.31693358757448908 0 -0.086007563820818811 0.30899778903531722 0 -0.083443014595206047 0.3215542950615502 0 -0.094905767114372347 0.31693358757448908 0 -0.079045716816760092 0.34813792394515208 0 -0.093505608225845721 0.33205773303881442 0 -0.079045716816760092 0.34813792394515208 0 -0.072995608011735144 0.33292247019242027 0 -0.093505608225845721 0.33205773303881442 0 -0.072995608011735144 0.33292247019242027 0 -0.083443014595206047 0.3215542950615502 0 -0.093505608225845721 0.33205773303881442 0 -0.093505608225845721 0.33205773303881442 0 -0.1062580728291832 0.32898368705895892 0 -0.1098050759801192 0.34830437111207768 0 -0.093505608225845721 0.33205773303881442 0 -0.094905767114372347 0.31693358757448908 0 -0.10796549963493129 0.31597754213247659 0 -0.093505608225845721 0.33205773303881442 0 -0.10796549963493129 0.31597754213247659 0 -0.093505608225845721 0.33205773303881442 0 -0.1062580728291832 0.32898368705895892 0 -0.10796549963493129 0.31597754213247659 0 -0.10252860487176139 0.30560832946388589 0 -0.094905767114372347 0.31693358757448908 0 -0.10796549963493129 0.31597754213247659 0 -0.10796549963493129 0.31597754213247659 0 -0.1223272277487793 0.31341771335827351 0 -0.1179270600887002 0.3349761697233371 0 -0.1062580728291832 0.32898368705895892 0 -0.10796549963493129 0.31597754213247659 0 -0.1179270600887002 0.3349761697233371 0 -0.10796549963493129 0.31597754213247659 0 -0.1179270600887002 0.3349761697233371 0 -0.12805831269605539 0.32702555845781112 0 -0.1223272277487793 0.31341771335827351 0 -0.1179270600887002 0.3349761697233371 0 -0.1062580728291832 0.32898368705895892 0 -0.1179270600887002 0.3349761697233371 0 -0.1098050759801192 0.34830437111207768 0 -0.12788862054246969 0.35397479731419712 0 -0.12805831269605539 0.32702555845781112 0 -0.1179270600887002 0.3349761697233371 0 -0.12788862054246969 0.35397479731419712 0 -0.1179270600887002 0.3349761697233371 0 -0.12788862054246969 0.35397479731419712 0 -0.1179270600887002 0.3349761697233371 0 -0.1098050759801192 0.34830437111207768 0 -0.12788862054246969 0.35397479731419712 0 -0.1098050759801192 0.34830437111207768 0 -0.12008441417418871 0.36271820918391012 0 -0.12778444596459629 0.37051902474349302 0 -0.12008441417418871 0.36271820918391012 0 -0.106904213511166 0.37072128383729858 0 -0.12778444596459629 0.37051902474349302 0 -0.12566660637393731 0.37140256080148998 0 -0.106904213511166 0.37072128383729858 0 -0.12778444596459629 0.37051902474349302 0 -0.106904213511166 0.37072128383729858 0 -0.1098050759801192 0.34830437111207768 0 -0.12008441417418871 0.36271820918391012 0 -0.106904213511166 0.37072128383729858 0 -0.087165737735280746 0.37091248315619679 0 -0.106904213511166 0.37072128383729858 0 -0.096067542489280552 0.35469871762802818 0 -0.087165737735280746 0.37091248315619679 0 -0.106904213511166 0.37072128383729858 0 -0.093505608225845721 0.33205773303881442 0 -0.1098050759801192 0.34830437111207768 0 -0.096067542489280552 0.35469871762802818 0 -0.1098050759801192 0.34830437111207768 0 -0.106904213511166 0.37072128383729858 0 -0.096067542489280552 0.35469871762802818 0 -0.094643883678853 0.38717576863054548 0 -0.1159542463125542 0.39519427677564523 0 -0.1130231399404566 0.40664820033630772 0 -0.097716603671081537 0.40563857317680602 0 -0.094643883678853 0.38717576863054548 0 -0.1130231399404566 0.40664820033630772 0 -0.094643883678853 0.38717576863054548 0 -0.1130231399404566 0.40664820033630772 0 -0.087165737735280746 0.37091248315619679 0 -0.106904213511166 0.37072128383729858 0 -0.094643883678853 0.38717576863054548 0 -0.106904213511166 0.37072128383729858 0 -0.094643883678853 0.38717576863054548 0 -0.1141618636933608 0.3835788411898638 0 -0.094643883678853 0.38717576863054548 0 -0.1141618636933608 0.3835788411898638 0 -0.1159542463125542 0.39519427677564523 0 -0.12566660637393731 0.37140256080148998 0 -0.106904213511166 0.37072128383729858 0 -0.1141618636933608 0.3835788411898638 0 -0.1276403685902934 0.39340031590433988 0 -0.12566660637393731 0.37140256080148998 0 -0.1141618636933608 0.3835788411898638 0 -0.1276403685902934 0.39340031590433988 0 -0.1141618636933608 0.3835788411898638 0 -0.1159542463125542 0.39519427677564523 0 -0.1276403685902934 0.39340031590433988 0 -0.1159542463125542 0.39519427677564523 0 -0.12007515546669791 0.40585573689239302 0 -0.1159542463125542 0.39519427677564523 0 -0.12007515546669791 0.40585573689239302 0 -0.1130231399404566 0.40664820033630772 0 -0.12749629121599021 0.4162816070651868 0 -0.12007515546669791 0.40585573689239302 0 -0.1162617312741952 0.41775428438048562 0 -0.12749629121599021 0.4162816070651868 0 -0.1219308753491178 0.42128676145898958 0 -0.1162617312741952 0.41775428438048562 0 -0.12749629121599021 0.4162816070651868 0 -0.1162617312741952 0.41775428438048562 0 -0.1219308753491178 0.42128676145898958 0 -0.1162617312741952 0.41775428438048562 0 -0.1156364406660811 0.42443751247834161 0 -0.1162617312741952 0.41775428438048562 0 -0.1156364406660811 0.42443751247834161 0 -0.10900857954512121 0.41642272779807088 0 -0.1162617312741952 0.41775428438048562 0 -0.1130231399404566 0.40664820033630772 0 -0.10900857954512121 0.41642272779807088 0 -0.12007515546669791 0.40585573689239302 0 -0.1162617312741952 0.41775428438048562 0 -0.1130231399404566 0.40664820033630772 0 -0.10900857954512121 0.41642272779807088 0 -0.11159554241864079 0.4385712793382659 0 -0.1156364406660811 0.42443751247834161 0 -0.11991416797163031 0.44143571275283788 0 -0.1237634657142843 0.43059473016910937 0 -0.1156364406660811 0.42443751247834161 0 -0.11991416797163031 0.44143571275283788 0 -0.1156364406660811 0.42443751247834161 0 -0.11159554241864079 0.4385712793382659 0 -0.11991416797163031 0.44143571275283788 0 -0.1156364406660811 0.42443751247834161 0 -0.10900857954512121 0.41642272779807088 0 -0.11159554241864079 0.4385712793382659 0 -0.1291728855482859 0.43635421317304851 0 -0.1237634657142843 0.43059473016910937 0 -0.11991416797163031 0.44143571275283788 0 -0.1237634657142843 0.43059473016910937 0 -0.12389896432104849 0.42524252526554379 0 -0.1156364406660811 0.42443751247834161 0 -0.1219308753491178 0.42128676145898958 0 -0.12389896432104849 0.42524252526554379 0 -0.1156364406660811 0.42443751247834161 0 -0.12746200712738129 0.42172634963799549 0 -0.1219308753491178 0.42128676145898958 0 -0.12389896432104849 0.42524252526554379 0 -0.1024056242805565 0.42782342752106678 0 -0.10900857954512121 0.41642272779807088 0 -0.11159554241864079 0.4385712793382659 0 -0.1024056242805565 0.42782342752106678 0 -0.1001741245113338 0.43765999024488328 0 -0.11159554241864079 0.4385712793382659 0 -0.1024056242805565 0.42782342752106678 0 -0.094126995421277518 0.42938626002839753 0 -0.095775107618496808 0.41821081250062642 0 -0.1024056242805565 0.42782342752106678 0 -0.094126995421277518 0.42938626002839753 0 -0.1001741245113338 0.43765999024488328 0 -0.097716603671081537 0.40563857317680602 0 -0.1130231399404566 0.40664820033630772 0 -0.10900857954512121 0.41642272779807088 0 -0.1024056242805565 0.42782342752106678 0 -0.10900857954512121 0.41642272779807088 0 -0.095775107618496808 0.41821081250062642 0 -0.097716603671081537 0.40563857317680602 0 -0.10900857954512121 0.41642272779807088 0 -0.095775107618496808 0.41821081250062642 0 -0.097716603671081537 0.40563857317680602 0 -0.095775107618496808 0.41821081250062642 0 -0.087697339318605572 0.40953993757738599 0 -0.095775107618496808 0.41821081250062642 0 -0.087697339318605572 0.40953993757738599 0 -0.07951471775013895 0.42453254112731531 0 -0.087697339318605572 0.40953993757738599 0 -0.07951471775013895 0.42453254112731531 0 -0.073604534970322849 0.40701203209593861 0 -0.094126995421277518 0.42938626002839753 0 -0.07951471775013895 0.42453254112731531 0 -0.085520174312622821 0.44418930082328523 0 -0.094126995421277518 0.42938626002839753 0 -0.095775107618496808 0.41821081250062642 0 -0.07951471775013895 0.42453254112731531 0 -0.07951471775013895 0.42453254112731531 0 -0.072340943524563273 0.44222047918578489 0 -0.085520174312622821 0.44418930082328523 0 -0.094126995421277518 0.42938626002839753 0 -0.085520174312622821 0.44418930082328523 0 -0.1001741245113338 0.43765999024488328 0 -0.07951471775013895 0.42453254112731531 0 -0.06284692863443353 0.43341159424479092 0 -0.062003518986671953 0.41792637247954961 0 -0.07951471775013895 0.42453254112731531 0 -0.06284692863443353 0.43341159424479092 0 -0.072340943524563273 0.44222047918578489 0 -0.07951471775013895 0.42453254112731531 0 -0.073604534970322849 0.40701203209593861 0 -0.062003518986671953 0.41792637247954961 0 -0.073604534970322849 0.40701203209593861 0 -0.059362270387393307 0.40281708093337182 0 -0.062003518986671953 0.41792637247954961 0 -0.073604534970322849 0.40701203209593861 0 -0.068794141593880004 0.39164312870033191 0 -0.059362270387393307 0.40281708093337182 0 -0.068794141593880004 0.39164312870033191 0 -0.083420625819763852 0.39749250075127068 0 -0.078067251685840236 0.38394556432661642 0 -0.073604534970322849 0.40701203209593861 0 -0.068794141593880004 0.39164312870033191 0 -0.083420625819763852 0.39749250075127068 0 -0.087697339318605572 0.40953993757738599 0 -0.073604534970322849 0.40701203209593861 0 -0.083420625819763852 0.39749250075127068 0 -0.097716603671081537 0.40563857317680602 0 -0.094643883678853 0.38717576863054548 0 -0.083420625819763852 0.39749250075127068 0 -0.097716603671081537 0.40563857317680602 0 -0.087697339318605572 0.40953993757738599 0 -0.083420625819763852 0.39749250075127068 0 -0.076264627417249348 0.36770333692478319 0 -0.094643883678853 0.38717576863054548 0 -0.076264627417249348 0.36770333692478319 0 -0.094643883678853 0.38717576863054548 0 -0.078067251685840236 0.38394556432661642 0 -0.076264627417249348 0.36770333692478319 0 -0.087165737735280746 0.37091248315619679 0 -0.094643883678853 0.38717576863054548 0 -0.094643883678853 0.38717576863054548 0 -0.083420625819763852 0.39749250075127068 0 -0.078067251685840236 0.38394556432661642 0 -0.076264627417249348 0.36770333692478319 0 -0.078067251685840236 0.38394556432661642 0 -0.066378383953971429 0.37759245561974392 0 -0.068794141593880004 0.39164312870033191 0 -0.078067251685840236 0.38394556432661642 0 -0.066378383953971429 0.37759245561974392 0 -0.068794141593880004 0.39164312870033191 0 -0.066378383953971429 0.37759245561974392 0 -0.048621967716027441 0.38827344710163481 0 -0.054976248787681863 0.3690562189796166 0 -0.066378383953971429 0.37759245561974392 0 -0.048621967716027441 0.38827344710163481 0 -0.037619360597344817 0.37373435495151042 0 -0.054976248787681863 0.3690562189796166 0 -0.048621967716027441 0.38827344710163481 0 -0.068794141593880004 0.39164312870033191 0 -0.048621967716027441 0.38827344710163481 0 -0.059362270387393307 0.40281708093337182 0 -0.048621967716027441 0.38827344710163481 0 -0.059362270387393307 0.40281708093337182 0 -0.042814596361786993 0.41138552242299242 0 -0.048621967716027441 0.38827344710163481 0 -0.02901585043820647 0.3970441993482085 0 -0.042814596361786993 0.41138552242299242 0 -0.037619360597344817 0.37373435495151042 0 -0.048621967716027441 0.38827344710163481 0 -0.028902811746221689 0.38312230925958979 0 -0.048621967716027441 0.38827344710163481 0 -0.028902811746221689 0.38312230925958979 0 -0.02901585043820647 0.3970441993482085 0 -0.019603974970620011 0.36837551266128987 0 -0.028902811746221689 0.38312230925958979 0 -0.0096529050089097235 0.38818403223530529 0 -0.028902811746221689 0.38312230925958979 0 -0.02901585043820647 0.3970441993482085 0 -0.0096529050089097235 0.38818403223530529 0 -0.019603974970620011 0.36837551266128987 0 -0.037619360597344817 0.37373435495151042 0 -0.028902811746221689 0.38312230925958979 0 -0.02901585043820647 0.3970441993482085 0 -0.020981061607516879 0.40974347320864762 0 -0.042814596361786993 0.41138552242299242 0 -0.02901585043820647 0.3970441993482085 0 -0.0096529050089097235 0.38818403223530529 0 -0.020981061607516879 0.40974347320864762 0 -0.0096529050089097235 0.38818403223530529 0 -0.0019836062933307631 0.40838514229695472 0 -0.020981061607516879 0.40974347320864762 0 -0.019603974970620011 0.36837551266128987 0 -0.0096529050089097235 0.38818403223530529 0 -0.0118606258758429 0.42454297902743271 0 -0.0020380957693487771 0.43413130746409151 0 -0.015998446965530051 0.44299050125080308 0 -0.0118606258758429 0.42454297902743271 0 -0.0020380957693487771 0.43413130746409151 0 0.0078873893814910175 0.42460208048856352 0 -0.0118606258758429 0.42454297902743271 0 -0.0019836062933307631 0.40838514229695472 0 0.0078873893814910175 0.42460208048856352 0 -0.0118606258758429 0.42454297902743271 0 -0.0019836062933307631 0.40838514229695472 0 -0.020981061607516879 0.40974347320864762 0 -0.0118606258758429 0.42454297902743271 0 -0.020981061607516879 0.40974347320864762 0 -0.030092035820685741 0.42901327122244909 0 -0.0118606258758429 0.42454297902743271 0 -0.030092035820685741 0.42901327122244909 0 -0.015998446965530051 0.44299050125080308 0 -0.030092035820685741 0.42901327122244909 0 -0.048521169320727447 0.43323344519269541 0 -0.036470349602755373 0.44702881179830928 0 -0.030092035820685741 0.42901327122244909 0 -0.042814596361786993 0.41138552242299242 0 -0.048521169320727447 0.43323344519269541 0 -0.020981061607516879 0.40974347320864762 0 -0.030092035820685741 0.42901327122244909 0 -0.042814596361786993 0.41138552242299242 0 -0.042814596361786993 0.41138552242299242 0 -0.062003518986671953 0.41792637247954961 0 -0.048521169320727447 0.43323344519269541 0 -0.059362270387393307 0.40281708093337182 0 -0.042814596361786993 0.41138552242299242 0 -0.062003518986671953 0.41792637247954961 0 -0.06284692863443353 0.43341159424479092 0 -0.062003518986671953 0.41792637247954961 0 -0.048521169320727447 0.43323344519269541 0 -0.048521169320727447 0.43323344519269541 0 -0.056255322966513338 0.45055410925751538 0 -0.036470349602755373 0.44702881179830928 0 -0.06284692863443353 0.43341159424479092 0 -0.048521169320727447 0.43323344519269541 0 -0.056255322966513338 0.45055410925751538 0 -0.056255322966513338 0.45055410925751538 0 -0.05920068126445388 0.47327643355061372 0 -0.071580902834873644 0.45554380137928419 0 -0.056255322966513338 0.45055410925751538 0 -0.04170033724969166 0.46166267046531861 0 -0.05920068126445388 0.47327643355061372 0 -0.04170033724969166 0.46166267046531861 0 -0.036470349602755373 0.44702881179830928 0 -0.02588193374882861 0.46045373319371619 0 -0.04170033724969166 0.46166267046531861 0 -0.02588193374882861 0.46045373319371619 0 -0.033813970422692859 0.47907418302200561 0 -0.056255322966513338 0.45055410925751538 0 -0.04170033724969166 0.46166267046531861 0 -0.036470349602755373 0.44702881179830928 0 -0.030092035820685741 0.42901327122244909 0 -0.036470349602755373 0.44702881179830928 0 -0.015998446965530051 0.44299050125080308 0 -0.036470349602755373 0.44702881179830928 0 -0.015998446965530051 0.44299050125080308 0 -0.02588193374882861 0.46045373319371619 0 -0.015998446965530051 0.44299050125080308 0 -0.02588193374882861 0.46045373319371619 0 -0.0084032224040134704 0.45969352062895152 0 -0.02588193374882861 0.46045373319371619 0 -0.0084032224040134704 0.45969352062895152 0 -0.018905275848288269 0.47227271199690918 0 -0.0084032224040134704 0.45969352062895152 0 -0.0020232555169920458 0.47192666490181739 0 0.0098003185034536526 0.45870499314720981 0 -0.0084032224040134704 0.45969352062895152 0 -0.0020232555169920458 0.47192666490181739 0 -0.018905275848288269 0.47227271199690918 0 -0.015998446965530051 0.44299050125080308 0 -0.0084032224040134704 0.45969352062895152 0 -0.00096271743285814698 0.44760425322899178 0 -0.0020380957693487771 0.43413130746409151 0 -0.015998446965530051 0.44299050125080308 0 -0.00096271743285814698 0.44760425322899178 0 -0.0084272595809318229 0.48487193249339738 0 -0.016632137842203409 0.5 0 0.0089024403028718502 0.5 0 -0.0084272595809318229 0.48487193249339738 0 -0.0020232555169920458 0.47192666490181739 0 -0.018905275848288269 0.47227271199690918 0 -0.0084272595809318229 0.48487193249339738 0 -0.018905275848288269 0.47227271199690918 0 -0.033813970422692859 0.47907418302200561 0 -0.0084272595809318229 0.48487193249339738 0 -0.033813970422692859 0.47907418302200561 0 -0.02588193374882861 0.46045373319371619 0 -0.018905275848288269 0.47227271199690918 0 -0.033813970422692859 0.47907418302200561 0 -0.016632137842203409 0.5 0 -0.042166715987278607 0.5 0 -0.033813970422692859 0.47907418302200561 0 -0.0084272595809318229 0.48487193249339738 0 -0.016632137842203409 0.5 0 -0.033813970422692859 0.47907418302200561 0 -0.033813970422692859 0.47907418302200561 0 -0.05920068126445388 0.47327643355061372 0 -0.04170033724969166 0.46166267046531861 0 -0.033813970422692859 0.47907418302200561 0 -0.05920068126445388 0.47327643355061372 0 -0.042166715987278607 0.5 0 -0.033813970422692859 0.47907418302200561 0 -0.05920068126445388 0.47327643355061372 0 -0.042166715987278607 0.5 0 -0.05920068126445388 0.47327643355061372 0 -0.067701294132353818 0.5 0 -0.05920068126445388 0.47327643355061372 0 -0.067701294132353818 0.5 0 -0.080590129508376226 0.48531354709798458 0 -0.067701294132353818 0.5 0 -0.080590129508376226 0.48531354709798458 0 -0.093235872277429133 0.5 0 -0.080590129508376226 0.48531354709798458 0 -0.093235872277429133 0.5 0 -0.099952337641340899 0.47627794946715879 0 -0.080590129508376226 0.48531354709798458 0 -0.084587392106214895 0.46747868407922177 0 -0.099952337641340899 0.47627794946715879 0 -0.05920068126445388 0.47327643355061372 0 -0.084587392106214895 0.46747868407922177 0 -0.05920068126445388 0.47327643355061372 0 -0.080590129508376226 0.48531354709798458 0 -0.084587392106214895 0.46747868407922177 0 -0.05920068126445388 0.47327643355061372 0 -0.071580902834873644 0.45554380137928419 0 -0.084587392106214895 0.46747868407922177 0 -0.06284692863443353 0.43341159424479092 0 -0.056255322966513338 0.45055410925751538 0 -0.072340943524563273 0.44222047918578489 0 -0.056255322966513338 0.45055410925751538 0 -0.071580902834873644 0.45554380137928419 0 -0.072340943524563273 0.44222047918578489 0 -0.071580902834873644 0.45554380137928419 0 -0.072340943524563273 0.44222047918578489 0 -0.085520174312622821 0.44418930082328523 0 -0.085520174312622821 0.44418930082328523 0 -0.084587392106214895 0.46747868407922177 0 -0.09755534624421569 0.44882233793924731 0 -0.071580902834873644 0.45554380137928419 0 -0.085520174312622821 0.44418930082328523 0 -0.084587392106214895 0.46747868407922177 0 -0.084587392106214895 0.46747868407922177 0 -0.09755534624421569 0.44882233793924731 0 -0.1099741029479754 0.46168093460782772 0 -0.084587392106214895 0.46747868407922177 0 -0.1099741029479754 0.46168093460782772 0 -0.084587392106214895 0.46747868407922177 0 -0.1099741029479754 0.46168093460782772 0 -0.099952337641340899 0.47627794946715879 0 -0.09755534624421569 0.44882233793924731 0 -0.1099741029479754 0.46168093460782772 0 -0.1097415735089122 0.45563448692883352 0 -0.09755534624421569 0.44882233793924731 0 -0.1099741029479754 0.46168093460782772 0 -0.1148891788071954 0.46677008963169458 0 -0.1099741029479754 0.46168093460782772 0 -0.099952337641340899 0.47627794946715879 0 -0.1001741245113338 0.43765999024488328 0 -0.09755534624421569 0.44882233793924731 0 -0.104713520488533 0.44377290180302997 0 -0.085520174312622821 0.44418930082328523 0 -0.1001741245113338 0.43765999024488328 0 -0.09755534624421569 0.44882233793924731 0 -0.09755534624421569 0.44882233793924731 0 -0.104713520488533 0.44377290180302997 0 -0.1095290687799417 0.45003799968972352 0 -0.09755534624421569 0.44882233793924731 0 -0.1095290687799417 0.45003799968972352 0 -0.1097415735089122 0.45563448692883352 0 -0.104713520488533 0.44377290180302997 0 -0.11159554241864079 0.4385712793382659 0 -0.1095290687799417 0.45003799968972352 0 -0.1001741245113338 0.43765999024488328 0 -0.104713520488533 0.44377290180302997 0 -0.11159554241864079 0.4385712793382659 0 -0.11159554241864079 0.4385712793382659 0 -0.1141825052921657 0.4607198308784603 0 -0.11159554241864079 0.4385712793382659 0 -0.1095290687799417 0.45003799968972352 0 -0.1141825052921657 0.4607198308784603 0 -0.11159554241864079 0.4385712793382659 0 -0.1174710277399038 0.44979018399922482 0 -0.1141825052921657 0.4607198308784603 0 -0.1174710277399038 0.44979018399922482 0 -0.11991416797163031 0.44143571275283788 0 -0.1241918952771781 0.45843391302733461 0 -0.1278319557291811 0.44992854849024039 0 -0.11991416797163031 0.44143571275283788 0 -0.1241918952771781 0.45843391302733461 0 -0.11991416797163031 0.44143571275283788 0 -0.1241918952771781 0.45843391302733461 0 -0.11159554241864079 0.4385712793382659 0 -0.1174710277399038 0.44979018399922482 0 -0.11991416797163031 0.44143571275283788 0 -0.1148891788071954 0.46677008963169458 0 -0.1141825052921657 0.4607198308784603 0 -0.1099741029479754 0.46168093460782772 0 -0.1141825052921657 0.4607198308784603 0 -0.1148891788071954 0.46677008963169458 0 -0.1099741029479754 0.46168093460782772 0 -0.1148891788071954 0.46677008963169458 0 -0.1099741029479754 0.46168093460782772 0 -0.1141825052921657 0.4607198308784603 0 -0.1099741029479754 0.46168093460782772 0 -0.1097415735089122 0.45563448692883352 0 -0.1141825052921657 0.4607198308784603 0 -0.1095290687799417 0.45003799968972352 0 -0.1097415735089122 0.45563448692883352 0 -0.1141825052921657 0.4607198308784603 0 -0.1141825052921657 0.4607198308784603 0 -0.1241918952771781 0.45843391302733461 0 -0.1174710277399038 0.44979018399922482 0 -0.1141825052921657 0.4607198308784603 0 -0.1241918952771781 0.45843391302733461 0 -0.1148891788071954 0.46677008963169458 0 -0.1141825052921657 0.4607198308784603 0 -0.1241918952771781 0.45843391302733461 0 -0.1303072579155207 0.48273423687987022 0 -0.1148891788071954 0.46677008963169458 0 -0.1168298146148488 0.48338504481584932 0 -0.1303072579155207 0.48273423687987022 0 -0.1148891788071954 0.46677008963169458 0 -0.1241918952771781 0.45843391302733461 0 -0.1148891788071954 0.46677008963169458 0 -0.1168298146148488 0.48338504481584932 0 -0.099952337641340899 0.47627794946715879 0 -0.1303072579155207 0.48273423687987022 0 -0.1148891788071954 0.46677008963169458 0 -0.1148891788071954 0.46677008963169458 0 -0.1168298146148488 0.48338504481584932 0 -0.093235872277429133 0.5 0 -0.1168298146148488 0.48338504481584932 0 -0.11877045042250441 0.50000000000000377 0 -0.1168298146148488 0.48338504481584932 0 -0.12420164626658579 0.48996772677829548 0 -0.11877045042250441 0.50000000000000377 0 -0.1303072579155207 0.48273423687987022 0 -0.1168298146148488 0.48338504481584932 0 -0.12420164626658579 0.48996772677829548 0 -0.1168298146148488 0.48338504481584932 0 -0.11877045042250441 0.50000000000000377 0 -0.12696377206690171 0.49566061645915188 0 -0.12420164626658579 0.48996772677829548 0 -0.11877045042250441 0.50000000000000377 0 -0.093235872277429133 0.5 0 -0.1168298146148488 0.48338504481584932 0 -0.099952337641340899 0.47627794946715879 0 -0.16502843052514721 0.091105661735544199 0 -0.15889357039200161 0.073234857637620415 0 -0.1494962637003604 0.076182039889827205 0 -0.16978167523366611 0.078838674917164092 0 -0.16502843052514721 0.091105661735544199 0 -0.15889357039200161 0.073234857637620415 0 -0.16502843052514721 0.091105661735544199 0 -0.15889357039200161 0.073234857637620415 0 -0.16978167523366611 0.078838674917164092 0 -0.16502843052514721 0.091105661735544199 0 -0.17737693221508341 0.086583693431048062 0 -0.15889357039200161 0.073234857637620415 0 -0.15812601353405681 0.06585404142263683 0 -0.16834173536496311 0.06767413392306193 0 -0.15812601353405681 0.06585404142263683 0 -0.16834173536496311 0.06767413392306193 0 -0.16354708614562169 0.057984670512417423 0 -0.16978167523366611 0.078838674917164092 0 -0.15889357039200161 0.073234857637620415 0 -0.16834173536496311 0.06767413392306193 0 -0.17926770767113501 0.075595027858545841 0 -0.18861646014301151 0.081942904340023881 0 -0.19451708035959109 0.062720588655179516 0 -0.16978167523366611 0.078838674917164092 0 -0.16834173536496311 0.06767413392306193 0 -0.17926770767113501 0.075595027858545841 0 -0.16834173536496311 0.06767413392306193 0 -0.1799062561622396 0.06388494250067478 0 -0.17109915477629789 0.057353214413818299 0 -0.16834173536496311 0.06767413392306193 0 -0.17926770767113501 0.075595027858545841 0 -0.1799062561622396 0.06388494250067478 0 -0.17926770767113501 0.075595027858545841 0 -0.1799062561622396 0.06388494250067478 0 -0.19451708035959109 0.062720588655179516 0 -0.17926770767113501 0.075595027858545841 0 -0.17737693221508341 0.086583693431048062 0 -0.18861646014301151 0.081942904340023881 0 -0.16978167523366611 0.078838674917164092 0 -0.17926770767113501 0.075595027858545841 0 -0.17737693221508341 0.086583693431048062 0 -0.16502843052514721 0.091105661735544199 0 -0.17737693221508341 0.086583693431048062 0 -0.17673512879618911 0.098217807250643246 0 -0.17737693221508341 0.086583693431048062 0 -0.18649007944292781 0.092923082254624312 0 -0.17673512879618911 0.098217807250643246 0 -0.17737693221508341 0.086583693431048062 0 -0.18649007944292781 0.092923082254624312 0 -0.18861646014301151 0.081942904340023881 0 -0.1842820820067736 0.1019441326301195 0 -0.17621479417177999 0.10806746131693901 0 -0.19768832561619751 0.10856817969827121 0 -0.18649007944292781 0.092923082254624312 0 -0.1842820820067736 0.1019441326301195 0 -0.17673512879618911 0.098217807250643246 0 -0.17621479417177999 0.10806746131693901 0 -0.17673512879618911 0.098217807250643246 0 -0.17116329065829311 0.1089764658334679 0 -0.1842820820067736 0.1019441326301195 0 -0.17621479417177999 0.10806746131693901 0 -0.17673512879618911 0.098217807250643246 0 -0.17621479417177999 0.10806746131693901 0 -0.17116329065829311 0.1089764658334679 0 -0.17621479417177999 0.10806746131693901 0 -0.1729006404340899 0.1140373534199824 0 -0.19768832561619751 0.10856817969827121 0 -0.18743858944622921 0.1235545477349498 0 -0.17418043284876941 0.1177653796556876 0 -0.19827927979835749 0.1105571677176193 0 -0.17418043284876941 0.1177653796556876 0 -0.19827927979835749 0.1105571677176193 0 -0.1729006404340899 0.1140373534199824 0 -0.19768832561619751 0.10856817969827121 0 -0.1729006404340899 0.1140373534199824 0 -0.17418043284876941 0.1177653796556876 0 -0.19768832561619751 0.10856817969827121 0 -0.1729006404340899 0.1140373534199824 0 -0.17116329065829311 0.1089764658334679 0 -0.17621479417177999 0.10806746131693901 0 -0.1729006404340899 0.1140373534199824 0 -0.17116329065829311 0.1089764658334679 0 -0.1729006404340899 0.1140373534199824 0 -0.17418043284876941 0.1177653796556876 0 -0.1729006404340899 0.1140373534199824 0 -0.15848527054054909 0.1224599634487131 0 -0.14930657065203121 0.1192431669314985 0 -0.1729006404340899 0.1140373534199824 0 -0.17116329065829311 0.1089764658334679 0 -0.14930657065203121 0.1192431669314985 0 -0.1729006404340899 0.1140373534199824 0 -0.14930657065203121 0.1192431669314985 0 -0.1729006404340899 0.1140373534199824 0 -0.17418043284876941 0.1177653796556876 0 -0.15848527054054909 0.1224599634487131 0 -0.17116329065829311 0.1089764658334679 0 -0.14454242720243629 0.1137668188542325 0 -0.17418043284876941 0.1177653796556876 0 -0.15848527054054909 0.1224599634487131 0 -0.17418043284876941 0.1177653796556876 0 -0.15848527054054909 0.1224599634487131 0 -0.16788709502575161 0.125526009721731 0 -0.16502843052514721 0.091105661735544199 0 -0.17116329065829311 0.1089764658334679 0 -0.1576098205150791 0.1018742881756351 0 -0.17116329065829311 0.1089764658334679 0 -0.1576098205150791 0.1018742881756351 0 -0.14454242720243629 0.1137668188542325 0 -0.16502843052514721 0.091105661735544199 0 -0.17116329065829311 0.1089764658334679 0 -0.16502843052514721 0.091105661735544199 0 -0.17673512879618911 0.098217807250643246 0 -0.17116329065829311 0.1089764658334679 0 -0.16502843052514721 0.091105661735544199 0 -0.1576098205150791 0.1018742881756351 0 -0.14970513367443999 0.093648206279295682 0 -0.14454242720243629 0.1137668188542325 0 -0.1364575809359673 0.09507073693406809 0 -0.14970513367443999 0.093648206279295682 0 -0.1576098205150791 0.1018742881756351 0 -0.14454242720243629 0.1137668188542325 0 -0.14970513367443999 0.093648206279295682 0 -0.15848527054054909 0.1224599634487131 0 -0.14279010823232821 0.12715454724173611 0 -0.17116329065829311 0.1089764658334679 0 -0.14930657065203121 0.1192431669314985 0 -0.14454242720243629 0.1137668188542325 0 -0.15848527054054909 0.1224599634487131 0 -0.14930657065203121 0.1192431669314985 0 -0.14279010823232821 0.12715454724173611 0 -0.14930657065203121 0.1192431669314985 0 -0.14454242720243629 0.1137668188542325 0 -0.14279010823232821 0.12715454724173611 0 -0.14454242720243629 0.1137668188542325 0 -0.12671048613217031 0.1042115069534076 0 -0.1179215637465796 0.1185571718749982 0 -0.14454242720243629 0.1137668188542325 0 -0.1313747037434983 0.1256878806509408 0 -0.1179215637465796 0.1185571718749982 0 -0.14454242720243629 0.1137668188542325 0 -0.1179215637465796 0.1185571718749982 0 -0.14454242720243629 0.1137668188542325 0 -0.14279010823232821 0.12715454724173611 0 -0.1313747037434983 0.1256878806509408 0 -0.14454242720243629 0.1137668188542325 0 -0.1364575809359673 0.09507073693406809 0 -0.12671048613217031 0.1042115069534076 0 -0.1364575809359673 0.09507073693406809 0 -0.12671048613217031 0.1042115069534076 0 -0.1245320378174069 0.090537581379295282 0 -0.1364575809359673 0.09507073693406809 0 -0.13001417798313589 0.084142673976679933 0 -0.1245320378174069 0.090537581379295282 0 -0.13001417798313589 0.084142673976679933 0 -0.1245320378174069 0.090537581379295282 0 -0.13001417798313589 0.084142673976679933 0 -0.14242721489120311 0.083039430444421539 0 -0.14079750270615621 0.071563943588297985 0 -0.13001417798313589 0.084142673976679933 0 -0.14242721489120311 0.083039430444421539 0 -0.1364575809359673 0.09507073693406809 0 -0.13001417798313589 0.084142673976679933 0 -0.14242721489120311 0.083039430444421539 0 -0.16502843052514721 0.091105661735544199 0 -0.14970513367443999 0.093648206279295682 0 -0.1494962637003604 0.076182039889827205 0 -0.14242721489120311 0.083039430444421539 0 -0.14970513367443999 0.093648206279295682 0 -0.1494962637003604 0.076182039889827205 0 -0.1364575809359673 0.09507073693406809 0 -0.14242721489120311 0.083039430444421539 0 -0.14970513367443999 0.093648206279295682 0 -0.1494962637003604 0.076182039889827205 0 -0.14079750270615621 0.071563943588297985 0 -0.15158082742917689 0.05898521319991646 0 -0.14079750270615621 0.071563943588297985 0 -0.13164275203400999 0.060652308656581569 0 -0.15158082742917689 0.05898521319991646 0 -0.15812601353405681 0.06585404142263683 0 -0.1494962637003604 0.076182039889827205 0 -0.15158082742917689 0.05898521319991646 0 -0.15889357039200161 0.073234857637620415 0 -0.15812601353405681 0.06585404142263683 0 -0.1494962637003604 0.076182039889827205 0 -0.14242721489120311 0.083039430444421539 0 -0.1494962637003604 0.076182039889827205 0 -0.14079750270615621 0.071563943588297985 0 -0.14079750270615621 0.071563943588297985 0 -0.15158082742917689 0.05898521319991646 0 -0.14079750270615621 0.071563943588297985 0 -0.13085902303853009 0.071370017497863758 0 -0.13164275203400999 0.060652308656581569 0 -0.13001417798313589 0.084142673976679933 0 -0.14079750270615621 0.071563943588297985 0 -0.13085902303853009 0.071370017497863758 0 -0.13001417798313589 0.084142673976679933 0 -0.14079750270615621 0.071563943588297985 0 -0.13001417798313589 0.084142673976679933 0 -0.13085902303853009 0.071370017497863758 0 -0.1210395870472234 0.070294910121585841 0 -0.13085902303853009 0.071370017497863758 0 -0.13164275203400999 0.060652308656581569 0 -0.1210395870472234 0.070294910121585841 0 -0.13164275203400999 0.060652308656581569 0 -0.13899501114584251 0.053329276722468233 0 -0.12529493596717259 0.051271360479867543 0 -0.13899501114584251 0.053329276722468233 0 -0.12529493596717259 0.051271360479867543 0 -0.13480280749586659 0.043056735279033892 0 -0.12529493596717259 0.051271360479867543 0 -0.13480280749586659 0.043056735279033892 0 -0.11854076777288031 0.039566415304323428 0 -0.12917208020939011 0.032628214361676608 0 -0.13480280749586659 0.043056735279033892 0 -0.11854076777288031 0.039566415304323428 0 -0.12917208020939011 0.032628214361676608 0 -0.13480280749586659 0.043056735279033892 0 -0.1410037452468246 0.032830474114466671 0 -0.13899501114584251 0.053329276722468233 0 -0.13480280749586659 0.043056735279033892 0 -0.14337660028701349 0.043388035280618908 0 -0.13480280749586659 0.043056735279033892 0 -0.14337660028701349 0.043388035280618908 0 -0.1410037452468246 0.032830474114466671 0 -0.15283699531730011 0.03277217029609894 0 -0.1492444422292335 0.0549515199910268 0 -0.14337660028701349 0.043388035280618908 0 -0.15283699531730011 0.03277217029609894 0 -0.1492444422292335 0.0549515199910268 0 -0.15283699531730011 0.03277217029609894 0 -0.15516750754590231 0.046924654844448563 0 -0.1492444422292335 0.0549515199910268 0 -0.14337660028701349 0.043388035280618908 0 -0.1410037452468246 0.032830474114466671 0 -0.15283699531730011 0.03277217029609894 0 -0.13164275203400999 0.060652308656581569 0 -0.15158082742917689 0.05898521319991646 0 -0.15516750754590231 0.046924654844448563 0 -0.15158082742917689 0.05898521319991646 0 -0.1492444422292335 0.0549515199910268 0 -0.13164275203400999 0.060652308656581569 0 -0.13899501114584251 0.053329276722468233 0 -0.15158082742917689 0.05898521319991646 0 -0.13899501114584251 0.053329276722468233 0 -0.15158082742917689 0.05898521319991646 0 -0.1492444422292335 0.0549515199910268 0 -0.13899501114584251 0.053329276722468233 0 -0.14337660028701349 0.043388035280618908 0 -0.1492444422292335 0.0549515199910268 0 -0.13204674266974001 0.0023344024861769448 0 -0.14014414349949711 0.011872536912483449 0 -0.1497751813872662 0.0074147435616967981 0 -0.13234563100855259 -0.0039657619997244039 0 -0.13204674266974001 0.0023344024861769448 0 -0.1497751813872662 0.0074147435616967981 0 -0.13204674266974001 0.0023344024861769448 0 -0.1310181663381261 0.014950402213768589 0 -0.1225302032672328 0.0148426862870671 0 -0.13204674266974001 0.0023344024861769448 0 -0.1310181663381261 0.014950402213768589 0 -0.14014414349949711 0.011872536912483449 0 -0.1310181663381261 0.014950402213768589 0 -0.14014414349949711 0.011872536912483449 0 -0.13546870744168099 0.021801933317321089 0 -0.1310181663381261 0.014950402213768589 0 -0.1225302032672328 0.0148426862870671 0 -0.12490103481247961 0.023900452065794379 0 -0.1310181663381261 0.014950402213768589 0 -0.13546870744168099 0.021801933317321089 0 -0.12490103481247961 0.023900452065794379 0 -0.12917208020939011 0.032628214361676608 0 -0.13546870744168099 0.021801933317321089 0 -0.12490103481247961 0.023900452065794379 0 -0.12917208020939011 0.032628214361676608 0 -0.1410037452468246 0.032830474114466671 0 -0.13546870744168099 0.021801933317321089 0 -0.15283699531730011 0.03277217029609894 0 -0.15642954840536669 0.01059282060117113 0 -0.15283699531730011 0.03277217029609894 0 -0.14805883133146649 0.01956410613643958 0 -0.15642954840536669 0.01059282060117113 0 -0.1410037452468246 0.032830474114466671 0 -0.13546870744168099 0.021801933317321089 0 -0.14805883133146649 0.01956410613643958 0 -0.1410037452468246 0.032830474114466671 0 -0.15283699531730011 0.03277217029609894 0 -0.14805883133146649 0.01956410613643958 0 -0.14014414349949711 0.011872536912483449 0 -0.13546870744168099 0.021801933317321089 0 -0.14805883133146649 0.01956410613643958 0 -0.13234563100855259 -0.0039657619997244039 0 -0.1497751813872662 0.0074147435616967981 0 -0.16002210149343241 -0.011586529093756881 0 -0.1497751813872662 0.0074147435616967981 0 -0.15642954840536669 0.01059282060117113 0 -0.14014414349949711 0.011872536912483449 0 -0.14805883133146649 0.01956410613643958 0 -0.14923878238253441 0.01276069567604248 0 -0.14014414349949711 0.011872536912483449 0 -0.14923878238253441 0.01276069567604248 0 -0.1497751813872662 0.0074147435616967981 0 -0.14805883133146649 0.01956410613643958 0 -0.14923878238253441 0.01276069567604248 0 -0.15642954840536669 0.01059282060117113 0 -0.14923878238253441 0.01276069567604248 0 -0.1497751813872662 0.0074147435616967981 0 -0.15642954840536669 0.01059282060117113 0 -0.16002210149343241 -0.011586529093756881 0 -0.1646578652215766 0.003337892693202899 0 -0.15642954840536669 0.01059282060117113 0 -0.1646578652215766 0.003337892693202899 0 -0.1682643842241506 0.01253296415588759 0 -0.17391542676335689 0.001812315109509761 0 -0.1646578652215766 0.003337892693202899 0 -0.15642954840536669 0.01059282060117113 0 -0.1682643842241506 0.01253296415588759 0 -0.1653082420611604 0.02390225027689432 0 -0.18243470298662409 0.02299421858159054 0 -0.16700776520789989 0.04098971589075303 0 -0.15283699531730011 0.03277217029609894 0 -0.15642954840536669 0.01059282060117113 0 -0.1653082420611604 0.02390225027689432 0 -0.15642954840536669 0.01059282060117113 0 -0.1682643842241506 0.01253296415588759 0 -0.1653082420611604 0.02390225027689432 0 -0.1682643842241506 0.01253296415588759 0 -0.1653082420611604 0.02390225027689432 0 -0.18243470298662409 0.02299421858159054 0 -0.1815299649543908 0.027341178252014899 0 -0.18243470298662409 0.02299421858159054 0 -0.16700776520789989 0.04098971589075303 0 -0.1815299649543908 0.027341178252014899 0 -0.18243470298662409 0.02299421858159054 0 -0.1945049246246483 0.027774040523902081 0 -0.18243470298662409 0.02299421858159054 0 -0.17391542676335689 0.001812315109509761 0 -0.19786164076534829 0.0049987212724280326 0 -0.1682643842241506 0.01253296415588759 0 -0.18243470298662409 0.02299421858159054 0 -0.17391542676335689 0.001812315109509761 0 -0.1861272887773644 -0.0062487556756454041 0 -0.17391542676335689 0.001812315109509761 0 -0.19786164076534829 0.0049987212724280326 0 -0.17109915477629789 0.057353214413818299 0 -0.16354708614562169 0.057984670512417423 0 -0.16700776520789989 0.04098971589075303 0 -0.15158082742917689 0.05898521319991646 0 -0.16700776520789989 0.04098971589075303 0 -0.15158082742917689 0.05898521319991646 0 -0.16354708614562169 0.057984670512417423 0 -0.16700776520789989 0.04098971589075303 0 -0.15516750754590231 0.046924654844448563 0 -0.15158082742917689 0.05898521319991646 0 -0.16700776520789989 0.04098971589075303 0 -0.16834173536496311 0.06767413392306193 0 -0.17109915477629789 0.057353214413818299 0 -0.16354708614562169 0.057984670512417423 0 -0.17109915477629789 0.057353214413818299 0 -0.16354708614562169 0.057984670512417423 0 -0.15158082742917689 0.05898521319991646 0 -0.16354708614562169 0.057984670512417423 0 -0.15812601353405681 0.06585404142263683 0 -0.15158082742917689 0.05898521319991646 0 -0.16354708614562169 0.057984670512417423 0 -0.15283699531730011 0.03277217029609894 0 -0.15516750754590231 0.046924654844448563 0 -0.16700776520789989 0.04098971589075303 0 -0.15283699531730011 0.03277217029609894 0 -0.1653082420611604 0.02390225027689432 0 -0.16700776520789989 0.04098971589075303 0 -0.17109915477629789 0.057353214413818299 0 -0.16700776520789989 0.04098971589075303 0 -0.17763965763255299 0.04148401014434823 0 -0.18243470298662409 0.02299421858159054 0 -0.16700776520789989 0.04098971589075303 0 -0.17109915477629789 0.057353214413818299 0 -0.17763965763255299 0.04148401014434823 0 -0.19092174559162339 0.040251932020806701 0 -0.1815299649543908 0.027341178252014899 0 -0.16700776520789989 0.04098971589075303 0 -0.17763965763255299 0.04148401014434823 0 -0.1815299649543908 0.027341178252014899 0 -0.19092174559162339 0.040251932020806701 0 -0.1815299649543908 0.027341178252014899 0 -0.17763965763255299 0.04148401014434823 0 -0.19092174559162339 0.040251932020806701 0 -0.17109915477629789 0.057353214413818299 0 -0.1861777374801048 0.055190332609717938 0 -0.19092174559162339 0.040251932020806701 0 -0.1799062561622396 0.06388494250067478 0 -0.17109915477629789 0.057353214413818299 0 -0.1861777374801048 0.055190332609717938 0 -0.17109915477629789 0.057353214413818299 0 -0.1861777374801048 0.055190332609717938 0 -0.1799062561622396 0.06388494250067478 0 -0.1861777374801048 0.055190332609717938 0 -0.19451708035959109 0.062720588655179516 0 -0.1861777374801048 0.055190332609717938 0 -0.20151205050212359 0.054810280891718272 0 -0.1861777374801048 0.055190332609717938 0 -0.20151205050212359 0.054810280891718272 0 -0.19451708035959109 0.062720588655179516 0 -0.20151205050212359 0.054810280891718272 0 -0.20419685410638941 0.058501044080411679 0 -0.19451708035959109 0.062720588655179516 0 -0.20151205050212359 0.054810280891718272 0 -0.20419685410638941 0.058501044080411679 0 -0.1861777374801048 0.055190332609717938 0 -0.20151205050212359 0.054810280891718272 0 -0.20031352622885579 0.053162685789598638 0 -0.20031352622885579 0.053162685789598638 0 -0.19092174559162339 0.040251932020806701 0 -0.20560731264747409 0.052403341589648669 0 -0.20151205050212359 0.054810280891718272 0 -0.20031352622885579 0.053162685789598638 0 -0.20560731264747409 0.052403341589648669 0 -0.20031352622885579 0.053162685789598638 0 -0.20560731264747409 0.052403341589648669 0 -0.20151205050212359 0.054810280891718272 0 -0.20031352622885579 0.053162685789598638 0 -0.1861777374801048 0.055190332609717938 0 -0.20031352622885579 0.053162685789598638 0 -0.19092174559162339 0.040251932020806701 0 -0.1861777374801048 0.055190332609717938 0 -0.20031352622885579 0.053162685789598638 0 -0.19092174559162339 0.040251932020806701 0 -0.20560731264747409 0.052403341589648669 0 -0.1945049246246483 0.027774040523902081 0 -0.1815299649543908 0.027341178252014899 0 -0.19092174559162339 0.040251932020806701 0 -0.1945049246246483 0.027774040523902081 0 -0.20031352622885579 0.053162685789598638 0 -0.19092174559162339 0.040251932020806701 0 -0.20560731264747409 0.052403341589648669 0 -0.22494669563518929 0.049629287795050152 0 -0.2213303955402188 0.036304026634605337 0 -0.20560731264747409 0.052403341589648669 0 -0.2121588808911414 0.024079564013641759 0 -0.2213303955402188 0.036304026634605337 0 -0.20560731264747409 0.052403341589648669 0 -0.1945049246246483 0.027774040523902081 0 -0.2121588808911414 0.024079564013641759 0 -0.20560731264747409 0.052403341589648669 0 -0.2121588808911414 0.024079564013641759 0 -0.20560731264747409 0.052403341589648669 0 -0.22494669563518929 0.049629287795050152 0 -0.218551673480021 0.05997285120544648 0 -0.20967335229902351 0.054127884578312399 0 -0.22494669563518929 0.049629287795050152 0 -0.20560731264747409 0.052403341589648669 0 -0.20967335229902351 0.054127884578312399 0 -0.22494669563518929 0.049629287795050152 0 -0.218551673480021 0.05997285120544648 0 -0.20419685410638941 0.058501044080411679 0 -0.20967335229902351 0.054127884578312399 0 -0.20151205050212359 0.054810280891718272 0 -0.20419685410638941 0.058501044080411679 0 -0.20512035083694391 0.054508577694431751 0 -0.20419685410638941 0.058501044080411679 0 -0.20512035083694391 0.054508577694431751 0 -0.20967335229902351 0.054127884578312399 0 -0.20419685410638941 0.058501044080411679 0 -0.20512035083694391 0.054508577694431751 0 -0.20151205050212359 0.054810280891718272 0 -0.20512035083694391 0.054508577694431751 0 -0.20151205050212359 0.054810280891718272 0 -0.20512035083694391 0.054508577694431751 0 -0.20560731264747409 0.052403341589648669 0 -0.20512035083694391 0.054508577694431751 0 -0.20560731264747409 0.052403341589648669 0 -0.20967335229902351 0.054127884578312399 0 -0.20512035083694391 0.054508577694431751 0 -0.20560731264747409 0.052403341589648669 0 -0.20512035083694391 0.054508577694431751 0 -0.20967335229902351 0.054127884578312399 0 -0.18243470298662409 0.02299421858159054 0 -0.19786164076534829 0.0049987212724280326 0 -0.18243470298662409 0.02299421858159054 0 -0.19786164076534829 0.0049987212724280326 0 -0.1945049246246483 0.027774040523902081 0 -0.19786164076534829 0.0049987212724280326 0 -0.1945049246246483 0.027774040523902081 0 -0.2121588808911414 0.024079564013641759 0 -0.21871044913480961 -0.0042442135623651043 0 -0.2121588808911414 0.024079564013641759 0 -0.21871044913480961 -0.0042442135623651043 0 -0.19786164076534829 0.0049987212724280326 0 -0.2121588808911414 0.024079564013641759 0 -0.21871044913480961 -0.0042442135623651043 0 -0.2121588808911414 0.024079564013641759 0 -0.2218097566737828 0.00075901962222443137 0 -0.2218097566737828 0.00075901962222443137 0 -0.2302017538960838 0.01963249780569927 0 -0.2395998062585549 3.2132456287619487e-05 0 -0.2121588808911414 0.024079564013641759 0 -0.2218097566737828 0.00075901962222443137 0 -0.2302017538960838 0.01963249780569927 0 -0.2302017538960838 0.01963249780569927 0 -0.2213303955402188 0.036304026634605337 0 -0.23373733463120541 0.035775441968986757 0 -0.2121588808911414 0.024079564013641759 0 -0.2302017538960838 0.01963249780569927 0 -0.2213303955402188 0.036304026634605337 0 -0.2302017538960838 0.01963249780569927 0 -0.23946478990517481 0.026512976015281811 0 -0.23373733463120541 0.035775441968986757 0 -0.23946478990517481 0.026512976015281811 0 -0.24509883809478239 0.01481825845038178 0 -0.2488212329986276 0.035825705836059457 0 -0.2302017538960838 0.01963249780569927 0 -0.23946478990517481 0.026512976015281811 0 -0.24509883809478239 0.01481825845038178 0 -0.2302017538960838 0.01963249780569927 0 -0.24509883809478239 0.01481825845038178 0 -0.2395998062585549 3.2132456287619487e-05 0 -0.25951563859444499 0.0085172264464785548 0 -0.24509883809478239 0.01481825845038178 0 -0.2395998062585549 3.2132456287619487e-05 0 -0.25951563859444499 0.0085172264464785548 0 -0.2395998062585549 3.2132456287619487e-05 0 -0.218551673480021 0.05997285120544648 0 -0.22494669563518929 0.049629287795050152 0 -0.2381268274028103 0.063134185225640488 0 -0.22494669563518929 0.049629287795050152 0 -0.23373733463120541 0.035775441968986757 0 -0.2444732076528876 0.046928516504279913 0 -0.22494669563518929 0.049629287795050152 0 -0.2213303955402188 0.036304026634605337 0 -0.23373733463120541 0.035775441968986757 0 -0.23946478990517481 0.026512976015281811 0 -0.23373733463120541 0.035775441968986757 0 -0.2488212329986276 0.035825705836059457 0 -0.23373733463120541 0.035775441968986757 0 -0.2488212329986276 0.035825705836059457 0 -0.2444732076528876 0.046928516504279913 0 -0.2488212329986276 0.035825705836059457 0 -0.2444732076528876 0.046928516504279913 0 -0.2444732076528876 0.046928516504279913 0 -0.2381268274028103 0.063134185225640488 0 -0.22494669563518929 0.049629287795050152 0 -0.2444732076528876 0.046928516504279913 0 -0.2381268274028103 0.063134185225640488 0 -0.22494669563518929 0.049629287795050152 0 -0.2444732076528876 0.046928516504279913 0 -0.26243605140907061 0.056968836332360717 0 -0.2444732076528876 0.046928516504279913 0 -0.2381268274028103 0.063134185225640488 0 -0.25324543335959387 0.075417011431584843 0 -0.2381268274028103 0.063134185225640488 0 -0.24163367719149401 0.083560882577462109 0 -0.2381268274028103 0.063134185225640488 0 -0.24163367719149401 0.083560882577462109 0 -0.2274324218069935 0.090442664615221435 0 -0.25523928785414762 0.089221309932465798 0 -0.2450665584409219 0.09255505516060239 0 -0.24163367719149401 0.083560882577462109 0 -0.25523928785414762 0.089221309932465798 0 -0.25324543335959387 0.075417011431584843 0 -0.24163367719149401 0.083560882577462109 0 -0.2450665584409219 0.09255505516060239 0 -0.24163367719149401 0.083560882577462109 0 -0.2379837756591974 0.093190666623446314 0 -0.24163367719149401 0.083560882577462109 0 -0.2379837756591974 0.093190666623446314 0 -0.2274324218069935 0.090442664615221435 0 -0.2274324218069935 0.090442664615221435 0 -0.21581463795669059 0.074471854347817182 0 -0.2381268274028103 0.063134185225640488 0 -0.2274324218069935 0.090442664615221435 0 -0.218551673480021 0.05997285120544648 0 -0.2381268274028103 0.063134185225640488 0 -0.21581463795669059 0.074471854347817182 0 -0.2381268274028103 0.063134185225640488 0 -0.2274324218069935 0.090442664615221435 0 -0.21581463795669059 0.074471854347817182 0 -0.20419685410638941 0.058501044080411679 0 -0.21581463795669059 0.074471854347817182 0 -0.218551673480021 0.05997285120544648 0 -0.20419685410638941 0.058501044080411679 0 -0.21581463795669059 0.074471854347817182 0 -0.20419685410638941 0.058501044080411679 0 -0.21581463795669059 0.074471854347817182 0 -0.1992657844723425 0.079819072731278737 0 -0.21581463795669059 0.074471854347817182 0 -0.21101740313492631 0.091312972534564801 0 -0.1992657844723425 0.079819072731278737 0 -0.2274324218069935 0.090442664615221435 0 -0.21581463795669059 0.074471854347817182 0 -0.21101740313492631 0.091312972534564801 0 -0.21101740313492631 0.091312972534564801 0 -0.1992657844723425 0.079819072731278737 0 -0.19796013121300821 0.091676505623482826 0 -0.18649007944292781 0.092923082254624312 0 -0.19796013121300821 0.091676505623482826 0 -0.18861646014301151 0.081942904340023881 0 -0.1992657844723425 0.079819072731278737 0 -0.19796013121300821 0.091676505623482826 0 -0.18861646014301151 0.081942904340023881 0 -0.20419685410638941 0.058501044080411679 0 -0.1992657844723425 0.079819072731278737 0 -0.1992657844723425 0.079819072731278737 0 -0.18861646014301151 0.081942904340023881 0 -0.19451708035959109 0.062720588655179516 0 -0.20419685410638941 0.058501044080411679 0 -0.1992657844723425 0.079819072731278737 0 -0.19451708035959109 0.062720588655179516 0 -0.19827927979835749 0.1105571677176193 0 -0.21407019768867361 0.12456349710700559 0 -0.19701794414624649 0.13037187800738179 0 -0.17418043284876941 0.1177653796556876 0 -0.19827927979835749 0.1105571677176193 0 -0.19768832561619751 0.10856817969827121 0 -0.18743858944622921 0.1235545477349498 0 -0.19827927979835749 0.1105571677176193 0 -0.19701794414624649 0.13037187800738179 0 -0.21101740313492631 0.091312972534564801 0 -0.19796013121300821 0.091676505623482826 0 -0.19768832561619751 0.10856817969827121 0 -0.18649007944292781 0.092923082254624312 0 -0.1842820820067736 0.1019441326301195 0 -0.19768832561619751 0.10856817969827121 0 -0.18649007944292781 0.092923082254624312 0 -0.19796013121300821 0.091676505623482826 0 -0.19768832561619751 0.10856817969827121 0 -0.21101740313492631 0.091312972534564801 0 -0.19768832561619751 0.10856817969827121 0 -0.22247601079830351 0.1030990059765536 0 -0.19768832561619751 0.10856817969827121 0 -0.22247601079830351 0.1030990059765536 0 -0.19827927979835749 0.1105571677176193 0 -0.22247601079830351 0.1030990059765536 0 -0.19827927979835749 0.1105571677176193 0 -0.19768832561619751 0.10856817969827121 0 -0.22247601079830351 0.1030990059765536 0 -0.19827927979835749 0.1105571677176193 0 -0.21407019768867361 0.12456349710700559 0 -0.22247601079830351 0.1030990059765536 0 -0.21407019768867361 0.12456349710700559 0 -0.22247601079830351 0.1030990059765536 0 -0.23104917191390931 0.1133330576188583 0 -0.22849382607241969 0.12406878775072 0 -0.22247601079830351 0.1030990059765536 0 -0.21407019768867361 0.12456349710700559 0 -0.22849382607241969 0.12406878775072 0 -0.22247601079830351 0.1030990059765536 0 -0.23104917191390931 0.1133330576188583 0 -0.23056729770126291 0.10753334680354561 0 -0.2364349290579589 0.1157760727659366 0 -0.23104917191390931 0.1133330576188583 0 -0.22849382607241969 0.12406878775072 0 -0.2364349290579589 0.1157760727659366 0 -0.2274324218069935 0.090442664615221435 0 -0.21101740313492631 0.091312972534564801 0 -0.22247601079830351 0.1030990059765536 0 -0.2274324218069935 0.090442664615221435 0 -0.22528820833991189 0.1024785205709321 0 -0.22247601079830351 0.1030990059765536 0 -0.2274324218069935 0.090442664615221435 0 -0.22247601079830351 0.1030990059765536 0 -0.22528820833991189 0.1024785205709321 0 -0.22247601079830351 0.1030990059765536 0 -0.23056729770126291 0.10753334680354561 0 -0.22528820833991189 0.1024785205709321 0 -0.22247601079830351 0.1030990059765536 0 -0.22528820833991189 0.1024785205709321 0 -0.23056729770126291 0.10753334680354561 0 -0.23468031104368489 0.1004062398830937 0 -0.23104917191390931 0.1133330576188583 0 -0.22247601079830351 0.1030990059765536 0 -0.23056729770126291 0.10753334680354561 0 -0.23056729770126291 0.10753334680354561 0 -0.23468031104368489 0.1004062398830937 0 -0.2364349290579589 0.1157760727659366 0 -0.2274324218069935 0.090442664615221435 0 -0.22528820833991189 0.1024785205709321 0 -0.23468031104368489 0.1004062398830937 0 -0.22528820833991189 0.1024785205709321 0 -0.23468031104368489 0.1004062398830937 0 -0.2274324218069935 0.090442664615221435 0 -0.23468031104368489 0.1004062398830937 0 -0.2379837756591974 0.093190666623446314 0 -0.2274324218069935 0.090442664615221435 0 -0.23468031104368489 0.1004062398830937 0 -0.23468031104368489 0.1004062398830937 0 -0.24730766349430119 0.11776489044562111 0 -0.23468031104368489 0.1004062398830937 0 -0.2459334671226438 0.1063135222388453 0 -0.24730766349430119 0.11776489044562111 0 -0.2450665584409219 0.09255505516060239 0 -0.2379837756591974 0.093190666623446314 0 -0.24110590981289179 0.098988490880853222 0 -0.2379837756591974 0.093190666623446314 0 -0.23468031104368489 0.1004062398830937 0 -0.24110590981289179 0.098988490880853222 0 -0.23468031104368489 0.1004062398830937 0 -0.24110590981289179 0.098988490880853222 0 -0.23468031104368489 0.1004062398830937 0 -0.24110590981289179 0.098988490880853222 0 -0.2459334671226438 0.1063135222388453 0 -0.25177912818774689 0.1056966606388251 0 -0.2459334671226438 0.1063135222388453 0 -0.24997009747084009 0.1096221427284915 0 -0.25121874698990321 0.099274658180543388 0 -0.25177912818774689 0.1056966606388251 0 -0.2459334671226438 0.1063135222388453 0 -0.25121874698990321 0.099274658180543388 0 -0.2450665584409219 0.09255505516060239 0 -0.24110590981289179 0.098988490880853222 0 -0.25121874698990321 0.099274658180543388 0 -0.24110590981289179 0.098988490880853222 0 -0.2459334671226438 0.1063135222388453 0 -0.23468031104368489 0.1004062398830937 0 -0.2364349290579589 0.1157760727659366 0 -0.24730766349430119 0.11776489044562111 0 -0.2364349290579589 0.1157760727659366 0 -0.24730766349430119 0.11776489044562111 0 -0.23929752475520391 0.12597278433532119 0 -0.22849382607241969 0.12406878775072 0 -0.2364349290579589 0.1157760727659366 0 -0.23929752475520391 0.12597278433532119 0 -0.2459334671226438 0.1063135222388453 0 -0.24997009747084009 0.1096221427284915 0 -0.24730766349430119 0.11776489044562111 0 -0.25021589487386009 0.1217627967739804 0 -0.24730766349430119 0.11776489044562111 0 -0.25021589487386009 0.1217627967739804 0 -0.24730766349430119 0.11776489044562111 0 -0.23929752475520391 0.12597278433532119 0 -0.24730766349430119 0.11776489044562111 0 -0.23929752475520391 0.12597278433532119 0 -0.2485103830577845 0.13360273470286391 0 -0.23750686347857691 0.13751198901236769 0 -0.24694467916077331 0.14978784711936979 0 -0.25021589487386009 0.1217627967739804 0 -0.2485103830577845 0.13360273470286391 0 -0.23929752475520391 0.12597278433532119 0 -0.2485103830577845 0.13360273470286391 0 -0.23750686347857691 0.13751198901236769 0 -0.23929752475520391 0.12597278433532119 0 -0.23750686347857691 0.13751198901236769 0 -0.23929752475520391 0.12597278433532119 0 -0.22737396137382129 0.13203122841814041 0 -0.23750686347857691 0.13751198901236769 0 -0.22737396137382129 0.13203122841814041 0 -0.21750139487423231 0.14803908388528769 0 -0.22849382607241969 0.12406878775072 0 -0.23929752475520391 0.12597278433532119 0 -0.22737396137382129 0.13203122841814041 0 -0.21407019768867361 0.12456349710700559 0 -0.22737396137382129 0.13203122841814041 0 -0.21750139487423231 0.14803908388528769 0 -0.21407019768867361 0.12456349710700559 0 -0.22849382607241969 0.12406878775072 0 -0.22737396137382129 0.13203122841814041 0 -0.24694467916077331 0.14978784711936979 0 -0.21750139487423231 0.14803908388528769 0 -0.23750686347857691 0.13751198901236769 0 -0.24694467916077331 0.14978784711936979 0 -0.21750139487423231 0.14803908388528769 0 -0.24694467916077331 0.14978784711936979 0 -0.23046311674237241 0.15967266740455319 0 -0.21750139487423231 0.14803908388528769 0 -0.23046311674237241 0.15967266740455319 0 -0.2190598239414937 0.1584584065868555 0 -0.21750139487423231 0.14803908388528769 0 -0.24694467916077331 0.14978784711936979 0 -0.2451331807401034 0.16958755419389371 0 -0.23046311674237241 0.15967266740455319 0 -0.2451331807401034 0.16958755419389371 0 -0.2294820105555605 0.1728016827233653 0 -0.23046311674237241 0.15967266740455319 0 -0.25827636085937339 0.1830925944401752 0 -0.23537599845410659 0.18911957598237969 0 -0.2451331807401034 0.16958755419389371 0 -0.2294820105555605 0.1728016827233653 0 -0.23537599845410659 0.18911957598237969 0 -0.25827636085937339 0.1830925944401752 0 -0.2451331807401034 0.16958755419389371 0 -0.23537599845410659 0.18911957598237969 0 -0.2294820105555605 0.1728016827233653 0 -0.21740851377150849 0.17935426822631059 0 -0.23537599845410659 0.18911957598237969 0 -0.2294820105555605 0.1728016827233653 0 -0.21699640666675049 0.16758356222550039 0 -0.21740851377150849 0.17935426822631059 0 -0.2294820105555605 0.1728016827233653 0 -0.23046311674237241 0.15967266740455319 0 -0.21699640666675049 0.16758356222550039 0 -0.23046311674237241 0.15967266740455319 0 -0.2190598239414937 0.1584584065868555 0 -0.21699640666675049 0.16758356222550039 0 -0.2190598239414937 0.1584584065868555 0 -0.2112783774826196 0.15853831283208089 0 -0.21699640666675049 0.16758356222550039 0 -0.2112783774826196 0.15853831283208089 0 -0.21699640666675049 0.16758356222550039 0 -0.20751834368149269 0.16886256348150491 0 -0.20751834368149269 0.16886256348150491 0 -0.20550333234091431 0.16004287362749581 0 -0.19745433957013861 0.16699257976192969 0 -0.2112783774826196 0.15853831283208089 0 -0.20751834368149269 0.16886256348150491 0 -0.20550333234091431 0.16004287362749581 0 -0.21740851377150849 0.17935426822631059 0 -0.20243250900221771 0.18062712506307471 0 -0.2124756360488404 0.19514655752458579 0 -0.21699640666675049 0.16758356222550039 0 -0.20751834368149269 0.16886256348150491 0 -0.21740851377150849 0.17935426822631059 0 -0.20751834368149269 0.16886256348150491 0 -0.21740851377150849 0.17935426822631059 0 -0.20243250900221771 0.18062712506307471 0 -0.20751834368149269 0.16886256348150491 0 -0.20243250900221771 0.18062712506307471 0 -0.19745433957013861 0.16699257976192969 0 -0.20243250900221771 0.18062712506307471 0 -0.19238938195559921 0.16610769260156069 0 -0.20243250900221771 0.18062712506307471 0 -0.18993008494223521 0.17800772639442761 0 -0.19238938195559921 0.16610769260156069 0 -0.20243250900221771 0.18062712506307471 0 -0.18993008494223521 0.17800772639442761 0 -0.19024758067470329 0.19121203373587789 0 -0.18993008494223521 0.17800772639442761 0 -0.19024758067470329 0.19121203373587789 0 -0.18310718790045599 0.18563769824975901 0 -0.20550333234091431 0.16004287362749581 0 -0.19745433957013861 0.16699257976192969 0 -0.20576226862940611 0.14577803843446771 0 -0.19745433957013861 0.16699257976192969 0 -0.20576226862940611 0.14577803843446771 0 -0.19745433957013861 0.16699257976192969 0 -0.1967210575763623 0.15625181114247519 0 -0.20576226862940611 0.14577803843446771 0 -0.19745433957013861 0.16699257976192969 0 -0.19386415707303581 0.16231913666991901 0 -0.1967210575763623 0.15625181114247519 0 -0.20243250900221771 0.18062712506307471 0 -0.19745433957013861 0.16699257976192969 0 -0.19238938195559921 0.16610769260156069 0 -0.19745433957013861 0.16699257976192969 0 -0.19238938195559921 0.16610769260156069 0 -0.19386415707303581 0.16231913666991901 0 -0.18993008494223521 0.17800772639442761 0 -0.19238938195559921 0.16610769260156069 0 -0.18550133011161499 0.17125134579025111 0 -0.19238938195559921 0.16610769260156069 0 -0.18654084109849109 0.1653155360607832 0 -0.18550133011161499 0.17125134579025111 0 -0.19238938195559921 0.16610769260156069 0 -0.1889997655351682 0.16022061057238851 0 -0.18654084109849109 0.1653155360607832 0 -0.1889997655351682 0.16022061057238851 0 -0.1967210575763623 0.15625181114247519 0 -0.18637296913431731 0.15328215146253341 0 -0.19238938195559921 0.16610769260156069 0 -0.1889997655351682 0.16022061057238851 0 -0.19386415707303581 0.16231913666991901 0 -0.1889997655351682 0.16022061057238851 0 -0.19386415707303581 0.16231913666991901 0 -0.1967210575763623 0.15625181114247519 0 -0.1967210575763623 0.15625181114247519 0 -0.1932301880955751 0.14424152892119371 0 -0.18637296913431731 0.15328215146253341 0 -0.1967210575763623 0.15625181114247519 0 -0.1932301880955751 0.14424152892119371 0 -0.20576226862940611 0.14577803843446771 0 -0.18743858944622921 0.1235545477349498 0 -0.19701794414624649 0.13037187800738179 0 -0.18027670099154339 0.1355237655591105 0 -0.1932301880955751 0.14424152892119371 0 -0.19701794414624649 0.13037187800738179 0 -0.18027670099154339 0.1355237655591105 0 -0.1932301880955751 0.14424152892119371 0 -0.19701794414624649 0.13037187800738179 0 -0.20576226862940611 0.14577803843446771 0 -0.21407019768867361 0.12456349710700559 0 -0.19701794414624649 0.13037187800738179 0 -0.20576226862940611 0.14577803843446771 0 -0.21407019768867361 0.12456349710700559 0 -0.20576226862940611 0.14577803843446771 0 -0.21407019768867361 0.12456349710700559 0 -0.21750139487423231 0.14803908388528769 0 -0.20576226862940611 0.14577803843446771 0 -0.2112783774826196 0.15853831283208089 0 -0.21750139487423231 0.14803908388528769 0 -0.20576226862940611 0.14577803843446771 0 -0.2190598239414937 0.1584584065868555 0 -0.2112783774826196 0.15853831283208089 0 -0.21750139487423231 0.14803908388528769 0 -0.2112783774826196 0.15853831283208089 0 -0.20550333234091431 0.16004287362749581 0 -0.20576226862940611 0.14577803843446771 0 -0.21969346928946179 0.24779007988428181 0 -0.23314897563164741 0.24661661118151479 0 -0.21665051319236711 0.23463074487402669 0 -0.23848877085535369 0.2463302843583732 0 -0.23597613069227349 0.22912141846219311 0 -0.21665051319236711 0.23463074487402669 0 -0.23314897563164741 0.24661661118151479 0 -0.23848877085535369 0.2463302843583732 0 -0.21665051319236711 0.23463074487402669 0 -0.23848877085535369 0.2463302843583732 0 -0.21665051319236711 0.23463074487402669 0 -0.2314955066694 0.25435815368133358 0 -0.23314897563164741 0.24661661118151479 0 -0.23848877085535369 0.2463302843583732 0 -0.2314955066694 0.25435815368133358 0 -0.21969346928946179 0.24779007988428181 0 -0.23314897563164741 0.24661661118151479 0 -0.25406663564760762 0.22844778205935701 0 -0.23848877085535369 0.2463302843583732 0 -0.23597613069227349 0.22912141846219311 0 -0.25406663564760762 0.22844778205935701 0 -0.23848877085535369 0.2463302843583732 0 -0.25406663564760762 0.22844778205935701 0 -0.23597613069227349 0.22912141846219311 0 -0.2438763773042594 0.2203788174050223 0 -0.25406663564760762 0.22844778205935701 0 -0.2438763773042594 0.2203788174050223 0 -0.2479927643128377 0.20791230204745789 0 -0.23597613069227349 0.22912141846219311 0 -0.2438763773042594 0.2203788174050223 0 -0.23746997856431859 0.2160337670510811 0 -0.23597613069227349 0.22912141846219311 0 -0.2208528626383707 0.22262716924243761 0 -0.22079399991288029 0.207172485480459 0 -0.23597613069227349 0.22912141846219311 0 -0.2208528626383707 0.22262716924243761 0 -0.21665051319236711 0.23463074487402669 0 -0.23597613069227349 0.22912141846219311 0 -0.22079399991288029 0.207172485480459 0 -0.22079399991288029 0.207172485480459 0 -0.2479927643128377 0.20791230204745789 0 -0.23597613069227349 0.22912141846219311 0 -0.22079399991288029 0.207172485480459 0 -0.23746997856431859 0.2160337670510811 0 -0.22079399991288029 0.207172485480459 0 -0.23746997856431859 0.2160337670510811 0 -0.2479927643128377 0.20791230204745789 0 -0.22079399991288029 0.207172485480459 0 -0.2416772434028289 0.20374817391205191 0 -0.2479927643128377 0.20791230204745789 0 -0.2438763773042594 0.2203788174050223 0 -0.23746997856431859 0.2160337670510811 0 -0.2479927643128377 0.20791230204745789 0 -0.25827636085937339 0.1830925944401752 0 -0.2416772434028289 0.20374817391205191 0 -0.23537599845410659 0.18911957598237969 0 -0.23537599845410659 0.18911957598237969 0 -0.2124756360488404 0.19514655752458579 0 -0.2137099863657986 0.19693106806376551 0 -0.23537599845410659 0.18911957598237969 0 -0.2124756360488404 0.19514655752458579 0 -0.2416772434028289 0.20374817391205191 0 -0.23537599845410659 0.18911957598237969 0 -0.2137099863657986 0.19693106806376551 0 -0.22079399991288029 0.207172485480459 0 -0.2416772434028289 0.20374817391205191 0 -0.2137099863657986 0.19693106806376551 0 -0.2416772434028289 0.20374817391205191 0 -0.2137099863657986 0.19693106806376551 0 -0.21740851377150849 0.17935426822631059 0 -0.23537599845410659 0.18911957598237969 0 -0.2124756360488404 0.19514655752458579 0 -0.22079399991288029 0.207172485480459 0 -0.2137099863657986 0.19693106806376551 0 -0.22079399991288029 0.207172485480459 0 -0.2137099863657986 0.19693106806376551 0 -0.2095489666599816 0.19591680657456079 0 -0.2137099863657986 0.19693106806376551 0 -0.2095489666599816 0.19591680657456079 0 -0.2124756360488404 0.19514655752458579 0 -0.2137099863657986 0.19693106806376551 0 -0.2095489666599816 0.19591680657456079 0 -0.2124756360488404 0.19514655752458579 0 -0.2137099863657986 0.19693106806376551 0 -0.2124756360488404 0.19514655752458579 0 -0.2095489666599816 0.19591680657456079 0 -0.20243250900221771 0.18062712506307471 0 -0.2124756360488404 0.19514655752458579 0 -0.2095489666599816 0.19591680657456079 0 -0.20243250900221771 0.18062712506307471 0 -0.2124756360488404 0.19514655752458579 0 -0.2095489666599816 0.19591680657456079 0 -0.19024758067470329 0.19121203373587789 0 -0.19069489607427981 0.20087887369841201 0 -0.20243250900221771 0.18062712506307471 0 -0.2095489666599816 0.19591680657456079 0 -0.19024758067470329 0.19121203373587789 0 -0.2095489666599816 0.19591680657456079 0 -0.19024758067470329 0.19121203373587789 0 -0.2095489666599816 0.19591680657456079 0 -0.19069489607427981 0.20087887369841201 0 -0.19631741270072911 0.2065067131513611 0 -0.2095489666599816 0.19591680657456079 0 -0.19069489607427981 0.20087887369841201 0 -0.19631741270072911 0.2065067131513611 0 -0.1943841412390552 0.22779454181592931 0 -0.18355811150720711 0.21542921950826141 0 -0.19631741270072911 0.2065067131513611 0 -0.20999080675596191 0.21958402815307149 0 -0.1943841412390552 0.22779454181592931 0 -0.22079399991288029 0.207172485480459 0 -0.2095489666599816 0.19591680657456079 0 -0.19631741270072911 0.2065067131513611 0 -0.22079399991288029 0.207172485480459 0 -0.19631741270072911 0.2065067131513611 0 -0.20999080675596191 0.21958402815307149 0 -0.22079399991288029 0.207172485480459 0 -0.19631741270072911 0.2065067131513611 0 -0.2208528626383707 0.22262716924243761 0 -0.22079399991288029 0.207172485480459 0 -0.20999080675596191 0.21958402815307149 0 -0.20999080675596191 0.21958402815307149 0 -0.1943841412390552 0.22779454181592931 0 -0.21665051319236711 0.23463074487402669 0 -0.2208528626383707 0.22262716924243761 0 -0.20999080675596191 0.21958402815307149 0 -0.21665051319236711 0.23463074487402669 0 -0.20261199663408169 0.25251976098724788 0 -0.1943841412390552 0.22779454181592931 0 -0.18065622936835921 0.24352779683045819 0 -0.20261199663408169 0.25251976098724788 0 -0.18065622936835921 0.24352779683045819 0 -0.20261199663408169 0.25251976098724788 0 -0.21969346928946179 0.24779007988428181 0 -0.21665051319236711 0.23463074487402669 0 -0.20261199663408169 0.25251976098724788 0 -0.1943841412390552 0.22779454181592931 0 -0.21665051319236711 0.23463074487402669 0 -0.1587004621026365 0.23453583267366901 0 -0.18065622936835921 0.24352779683045819 0 -0.15631560818178461 0.25831279381537031 0 -0.1587004621026365 0.23453583267366901 0 -0.18065622936835921 0.24352779683045819 0 -0.15631560818178461 0.25831279381537031 0 -0.1587004621026365 0.23453583267366901 0 -0.1943841412390552 0.22779454181592931 0 -0.18065622936835921 0.24352779683045819 0 -0.17062710580841811 0.22264129222242579 0 -0.1943841412390552 0.22779454181592931 0 -0.17062710580841811 0.22264129222242579 0 -0.18355811150720711 0.21542921950826141 0 -0.1587004621026365 0.23453583267366901 0 -0.16130034722023251 0.20861501342622649 0 -0.1587004621026365 0.23453583267366901 0 -0.18065622936835921 0.24352779683045819 0 -0.17062710580841811 0.22264129222242579 0 -0.1587004621026365 0.23453583267366901 0 -0.17062710580841811 0.22264129222242579 0 -0.16130034722023251 0.20861501342622649 0 -0.17062710580841811 0.22264129222242579 0 -0.16130034722023251 0.20861501342622649 0 -0.1718408254885779 0.20584094082226301 0 -0.16130034722023251 0.20861501342622649 0 -0.1718408254885779 0.20584094082226301 0 -0.16130034722023251 0.20861501342622649 0 -0.16855816298444171 0.20575165117407501 0 -0.1718408254885779 0.20584094082226301 0 -0.16130034722023251 0.20861501342622649 0 -0.16855816298444171 0.20575165117407501 0 -0.17004332996165919 0.19759745274452251 0 -0.16855816298444171 0.20575165117407501 0 -0.1718408254885779 0.20584094082226301 0 -0.19631741270072911 0.2065067131513611 0 -0.1718408254885779 0.20584094082226301 0 -0.17062710580841811 0.22264129222242579 0 -0.1718408254885779 0.20584094082226301 0 -0.18355811150720711 0.21542921950826141 0 -0.19069489607427981 0.20087887369841201 0 -0.19631741270072911 0.2065067131513611 0 -0.1718408254885779 0.20584094082226301 0 -0.19631741270072911 0.2065067131513611 0 -0.1718408254885779 0.20584094082226301 0 -0.18355811150720711 0.21542921950826141 0 -0.19069489607427981 0.20087887369841201 0 -0.1718408254885779 0.20584094082226301 0 -0.1718408254885779 0.20584094082226301 0 -0.18018560067023109 0.1946059379580628 0 -0.17004332996165919 0.19759745274452251 0 -0.19069489607427981 0.20087887369841201 0 -0.1718408254885779 0.20584094082226301 0 -0.18018560067023109 0.1946059379580628 0 -0.19024758067470329 0.19121203373587789 0 -0.19069489607427981 0.20087887369841201 0 -0.18018560067023109 0.1946059379580628 0 -0.19024758067470329 0.19121203373587789 0 -0.18018560067023109 0.1946059379580628 0 -0.18310718790045599 0.18563769824975901 0 -0.18018560067023109 0.1946059379580628 0 -0.17004332996165919 0.19759745274452251 0 -0.17457967813602099 0.18703145567289331 0 -0.18018560067023109 0.1946059379580628 0 -0.18310718790045599 0.18563769824975901 0 -0.17457967813602099 0.18703145567289331 0 -0.16130034722023251 0.20861501342622649 0 -0.17004332996165919 0.19759745274452251 0 -0.16379536527045091 0.18373971741361281 0 -0.17004332996165919 0.19759745274452251 0 -0.17457967813602099 0.18703145567289331 0 -0.16379536527045091 0.18373971741361281 0 -0.16130034722023251 0.20861501342622649 0 -0.16379536527045091 0.18373971741361281 0 -0.16130034722023251 0.20861501342622649 0 -0.14874641532227481 0.1983394846806458 0 -0.16379536527045091 0.18373971741361281 0 -0.16855816298444171 0.20575165117407501 0 -0.1718408254885779 0.20584094082226301 0 -0.17004332996165919 0.19759745274452251 0 -0.14874641532227481 0.1983394846806458 0 -0.16379536527045091 0.18373971741361281 0 -0.14764377825999439 0.18280488393440189 0 -0.14874641532227481 0.1983394846806458 0 -0.1364966776753562 0.1903813821755522 0 -0.14764377825999439 0.18280488393440189 0 -0.1364966776753562 0.1903813821755522 0 -0.12708469945993289 0.19830010169262161 0 -0.13379663172393841 0.2067314648141903 0 -0.14874641532227481 0.1983394846806458 0 -0.1364966776753562 0.1903813821755522 0 -0.13379663172393841 0.2067314648141903 0 -0.1364966776753562 0.1903813821755522 0 -0.12708469945993289 0.19830010169262161 0 -0.11319610668070069 0.18470928522015381 0 -0.12638451069402831 0.2178042611136648 0 -0.14384242895713059 0.21320963726994641 0 -0.13379663172393841 0.2067314648141903 0 -0.12638451069402831 0.2178042611136648 0 -0.14384242895713059 0.21320963726994641 0 -0.12638451069402831 0.2178042611136648 0 -0.14384242895713059 0.21320963726994641 0 -0.13583705364782669 0.2202973031473191 0 -0.12708469945993289 0.19830010169262161 0 -0.13379663172393841 0.2067314648141903 0 -0.1220501153829975 0.20952259766677489 0 -0.12638451069402831 0.2178042611136648 0 -0.12763980304133399 0.22181496851140631 0 -0.1220501153829975 0.20952259766677489 0 -0.13379663172393841 0.2067314648141903 0 -0.12638451069402831 0.2178042611136648 0 -0.1220501153829975 0.20952259766677489 0 -0.16130034722023251 0.20861501342622649 0 -0.14384242895713059 0.21320963726994641 0 -0.1587004621026365 0.23453583267366901 0 -0.16130034722023251 0.20861501342622649 0 -0.14384242895713059 0.21320963726994641 0 -0.16130034722023251 0.20861501342622649 0 -0.14874641532227481 0.1983394846806458 0 -0.14384242895713059 0.21320963726994641 0 -0.14874641532227481 0.1983394846806458 0 -0.13379663172393841 0.2067314648141903 0 -0.14384242895713059 0.21320963726994641 0 -0.1587004621026365 0.23453583267366901 0 -0.14384242895713059 0.21320963726994641 0 -0.14317013257198541 0.22817540059253741 0 -0.1587004621026365 0.23453583267366901 0 -0.14317013257198541 0.22817540059253741 0 -0.14384242895713059 0.21320963726994641 0 -0.14317013257198541 0.22817540059253741 0 -0.13583705364782669 0.2202973031473191 0 -0.14317013257198541 0.22817540059253741 0 -0.13583705364782669 0.2202973031473191 0 -0.12763980304133399 0.22181496851140631 0 -0.12763980304133399 0.22181496851140631 0 -0.1309041240852927 0.2343359101133965 0 -0.1220501153829975 0.20952259766677489 0 -0.14317013257198541 0.22817540059253741 0 -0.12763980304133399 0.22181496851140631 0 -0.1309041240852927 0.2343359101133965 0 -0.1220501153829975 0.20952259766677489 0 -0.12638451069402831 0.2178042611136648 0 -0.13583705364782669 0.2202973031473191 0 -0.12763980304133399 0.22181496851140631 0 -0.14317013257198541 0.22817540059253741 0 -0.12763980304133399 0.22181496851140631 0 -0.1309041240852927 0.2343359101133965 0 -0.14317013257198541 0.22817540059253741 0 -0.1309041240852927 0.2343359101133965 0 -0.14223809415634681 0.24329665536152459 0 -0.1309041240852927 0.2343359101133965 0 -0.12720947456823251 0.2476316789285182 0 -0.14223809415634681 0.24329665536152459 0 -0.1309041240852927 0.2343359101133965 0 -0.12720947456823251 0.2476316789285182 0 -0.1176322251674659 0.237294439172582 0 -0.1365805039239788 0.25711754121745489 0 -0.12720947456823251 0.2476316789285182 0 -0.14223809415634681 0.24329665536152459 0 -0.15631560818178461 0.25831279381537031 0 -0.1587004621026365 0.23453583267366901 0 -0.14223809415634681 0.24329665536152459 0 -0.1587004621026365 0.23453583267366901 0 -0.14317013257198541 0.22817540059253741 0 -0.14223809415634681 0.24329665536152459 0 -0.16878540137089629 0.133989125388386 0 -0.16629038332067361 0.15886442140099949 0 -0.16878540137089629 0.133989125388386 0 -0.16629038332067361 0.15886442140099949 0 -0.1543811468763549 0.1496649690565485 0 -0.16878540137089629 0.133989125388386 0 -0.1763481802102615 0.14893989371571381 0 -0.16629038332067361 0.15886442140099949 0 -0.16878540137089629 0.133989125388386 0 -0.1543811468763549 0.1496649690565485 0 -0.15418515539514399 0.13666731733246049 0 -0.16066843397378289 0.13087516887284209 0 -0.16878540137089629 0.133989125388386 0 -0.15418515539514399 0.13666731733246049 0 -0.15848527054054909 0.1224599634487131 0 -0.16066843397378289 0.13087516887284209 0 -0.16788709502575161 0.125526009721731 0 -0.15848527054054909 0.1224599634487131 0 -0.16066843397378289 0.13087516887284209 0 -0.15418515539514399 0.13666731733246049 0 -0.16066843397378289 0.13087516887284209 0 -0.16788709502575161 0.125526009721731 0 -0.16878540137089629 0.133989125388386 0 -0.18743858944622921 0.1235545477349498 0 -0.17418043284876941 0.1177653796556876 0 -0.18027670099154339 0.1355237655591105 0 -0.17418043284876941 0.1177653796556876 0 -0.18027670099154339 0.1355237655591105 0 -0.17418043284876941 0.1177653796556876 0 -0.16788709502575161 0.125526009721731 0 -0.18027670099154339 0.1355237655591105 0 -0.16878540137089629 0.133989125388386 0 -0.18027670099154339 0.1355237655591105 0 -0.1763481802102615 0.14893989371571381 0 -0.16788709502575161 0.125526009721731 0 -0.16878540137089629 0.133989125388386 0 -0.18027670099154339 0.1355237655591105 0 -0.18027670099154339 0.1355237655591105 0 -0.18637296913431731 0.15328215146253341 0 -0.1932301880955751 0.14424152892119371 0 -0.18027670099154339 0.1355237655591105 0 -0.18637296913431731 0.15328215146253341 0 -0.18027670099154339 0.1355237655591105 0 -0.1763481802102615 0.14893989371571381 0 -0.18637296913431731 0.15328215146253341 0 -0.1763481802102615 0.14893989371571381 0 -0.18637296913431731 0.15328215146253341 0 -0.1800154462338768 0.16304000476753969 0 -0.1889997655351682 0.16022061057238851 0 -0.18637296913431731 0.15328215146253341 0 -0.1800154462338768 0.16304000476753969 0 -0.1800154462338768 0.16304000476753969 0 -0.17772064287848799 0.17552591790394151 0 -0.16629038332067361 0.15886442140099949 0 -0.1889997655351682 0.16022061057238851 0 -0.1800154462338768 0.16304000476753969 0 -0.18654084109849109 0.1653155360607832 0 -0.1800154462338768 0.16304000476753969 0 -0.18654084109849109 0.1653155360607832 0 -0.18550133011161499 0.17125134579025111 0 -0.1800154462338768 0.16304000476753969 0 -0.18550133011161499 0.17125134579025111 0 -0.17772064287848799 0.17552591790394151 0 -0.1763481802102615 0.14893989371571381 0 -0.1800154462338768 0.16304000476753969 0 -0.16629038332067361 0.15886442140099949 0 -0.18993008494223521 0.17800772639442761 0 -0.18310718790045599 0.18563769824975901 0 -0.17772064287848799 0.17552591790394151 0 -0.18993008494223521 0.17800772639442761 0 -0.18550133011161499 0.17125134579025111 0 -0.17772064287848799 0.17552591790394151 0 -0.17772064287848799 0.17552591790394151 0 -0.17457967813602099 0.18703145567289331 0 -0.16379536527045091 0.18373971741361281 0 -0.18310718790045599 0.18563769824975901 0 -0.17772064287848799 0.17552591790394151 0 -0.17457967813602099 0.18703145567289331 0 -0.17772064287848799 0.17552591790394151 0 -0.16379536527045091 0.18373971741361281 0 -0.16629038332067361 0.15886442140099949 0 -0.16379536527045091 0.18373971741361281 0 -0.16629038332067361 0.15886442140099949 0 -0.16379536527045091 0.18373971741361281 0 -0.16629038332067361 0.15886442140099949 0 -0.15293439566544931 0.16930005854812921 0 -0.16629038332067361 0.15886442140099949 0 -0.15293439566544931 0.16930005854812921 0 -0.1543811468763549 0.1496649690565485 0 -0.15293439566544931 0.16930005854812921 0 -0.14080856560044111 0.156569755998995 0 -0.13624603736644059 0.17226377685406929 0 -0.15293439566544931 0.16930005854812921 0 -0.14080856560044111 0.156569755998995 0 -0.1543811468763549 0.1496649690565485 0 -0.16379536527045091 0.18373971741361281 0 -0.15293439566544931 0.16930005854812921 0 -0.14764377825999439 0.18280488393440189 0 -0.15293439566544931 0.16930005854812921 0 -0.14764377825999439 0.18280488393440189 0 -0.13624603736644059 0.17226377685406929 0 -0.1364966776753562 0.1903813821755522 0 -0.14764377825999439 0.18280488393440189 0 -0.13624603736644059 0.17226377685406929 0 -0.1364966776753562 0.1903813821755522 0 -0.13624603736644059 0.17226377685406929 0 -0.11319610668070069 0.18470928522015381 0 -0.14080856560044111 0.156569755998995 0 -0.13624603736644059 0.17226377685406929 0 -0.1219873593224028 0.16108341265669371 0 -0.14080856560044111 0.156569755998995 0 -0.13421437919811879 0.14942746110481089 0 -0.1219873593224028 0.16108341265669371 0 -0.1307786119641062 0.13745754009323391 0 -0.1219873593224028 0.16108341265669371 0 -0.13421437919811879 0.14942746110481089 0 -0.1307786119641062 0.13745754009323391 0 -0.1219873593224028 0.16108341265669371 0 -0.13421437919811879 0.14942746110481089 0 -0.1432829799055253 0.14259913567032101 0 -0.1307786119641062 0.13745754009323391 0 -0.14080856560044111 0.156569755998995 0 -0.13421437919811879 0.14942746110481089 0 -0.1432829799055253 0.14259913567032101 0 -0.14080856560044111 0.156569755998995 0 -0.1432829799055253 0.14259913567032101 0 -0.1543811468763549 0.1496649690565485 0 -0.1432829799055253 0.14259913567032101 0 -0.1543811468763549 0.1496649690565485 0 -0.15418515539514399 0.13666731733246049 0 -0.15848527054054909 0.1224599634487131 0 -0.15418515539514399 0.13666731733246049 0 -0.14279010823232821 0.12715454724173611 0 -0.1432829799055253 0.14259913567032101 0 -0.15418515539514399 0.13666731733246049 0 -0.14279010823232821 0.12715454724173611 0 -0.14279010823232821 0.12715454724173611 0 -0.1307786119641062 0.13745754009323391 0 -0.1313747037434983 0.1256878806509408 0 -0.1432829799055253 0.14259913567032101 0 -0.14279010823232821 0.12715454724173611 0 -0.1307786119641062 0.13745754009323391 0 -0.1307786119641062 0.13745754009323391 0 -0.1313747037434983 0.1256878806509408 0 -0.12125090321159571 0.13123506107875119 0 -0.1313747037434983 0.1256878806509408 0 -0.12125090321159571 0.13123506107875119 0 -0.1179215637465796 0.1185571718749982 0 -0.1307786119641062 0.13745754009323391 0 -0.12125090321159571 0.13123506107875119 0 -0.11700720413314419 0.14243566784503639 0 -0.12125090321159571 0.13123506107875119 0 -0.10917243247065039 0.1320370449295469 0 -0.11700720413314419 0.14243566784503639 0 -0.12125090321159571 0.13123506107875119 0 -0.10917243247065039 0.1320370449295469 0 -0.1179215637465796 0.1185571718749982 0 -0.10917243247065039 0.1320370449295469 0 -0.098791886610763935 0.1443415348414325 0 -0.091300700290723069 0.1233475248957638 0 -0.098791886610763935 0.1443415348414325 0 -0.091300700290723069 0.1233475248957638 0 -0.10917243247065039 0.1320370449295469 0 -0.098791886610763935 0.1443415348414325 0 -0.11700720413314419 0.14243566784503639 0 -0.098791886610763935 0.1443415348414325 0 -0.1120421573316914 0.15375054113717629 0 -0.11700720413314419 0.14243566784503639 0 -0.098791886610763935 0.1443415348414325 0 -0.11700720413314419 0.14243566784503639 0 -0.098791886610763935 0.1443415348414325 0 -0.1059939966457332 0.16452541003079291 0 -0.098791886610763935 0.1443415348414325 0 -0.1120421573316914 0.15375054113717629 0 -0.1059939966457332 0.16452541003079291 0 -0.1120421573316914 0.15375054113717629 0 -0.11700720413314419 0.14243566784503639 0 -0.1219873593224028 0.16108341265669371 0 -0.1307786119641062 0.13745754009323391 0 -0.11700720413314419 0.14243566784503639 0 -0.1219873593224028 0.16108341265669371 0 -0.1120421573316914 0.15375054113717629 0 -0.1219873593224028 0.16108341265669371 0 -0.1059939966457332 0.16452541003079291 0 -0.1219873593224028 0.16108341265669371 0 -0.11319610668070069 0.18470928522015381 0 -0.1059939966457332 0.16452541003079291 0 -0.1219873593224028 0.16108341265669371 0 -0.11319610668070069 0.18470928522015381 0 -0.11319610668070069 0.18470928522015381 0 -0.1059939966457332 0.16452541003079291 0 -0.13624603736644059 0.17226377685406929 0 -0.1219873593224028 0.16108341265669371 0 -0.11319610668070069 0.18470928522015381 0 -0.1001472797949339 0.17888091044305299 0 -0.1059939966457332 0.16452541003079291 0 -0.088540436451686133 0.1740916200774163 0 -0.11319610668070069 0.18470928522015381 0 -0.1001472797949339 0.17888091044305299 0 -0.092240447313121865 0.19384567090255941 0 -0.11319610668070069 0.18470928522015381 0 -0.1001472797949339 0.17888091044305299 0 -0.1059939966457332 0.16452541003079291 0 -0.1059939966457332 0.16452541003079291 0 -0.091172018211901185 0.1600882254503434 0 -0.088540436451686133 0.1740916200774163 0 -0.098791886610763935 0.1443415348414325 0 -0.1059939966457332 0.16452541003079291 0 -0.091172018211901185 0.1600882254503434 0 -0.091172018211901185 0.1600882254503434 0 -0.08166192597756948 0.16321879990867669 0 -0.088540436451686133 0.1740916200774163 0 -0.08166192597756948 0.16321879990867669 0 -0.088540436451686133 0.1740916200774163 0 -0.074060336345789457 0.17038476279792919 0 -0.091172018211901185 0.1600882254503434 0 -0.08166192597756948 0.16321879990867669 0 -0.081513658429544486 0.15423591444771409 0 -0.08166192597756948 0.16321879990867669 0 -0.073023180448926167 0.1572934767699804 0 -0.081513658429544486 0.15423591444771409 0 -0.1001472797949339 0.17888091044305299 0 -0.088540436451686133 0.1740916200774163 0 -0.092240447313121865 0.19384567090255941 0 -0.088540436451686133 0.1740916200774163 0 -0.074060336345789457 0.17038476279792919 0 -0.076393812961543933 0.18855654478380079 0 -0.088540436451686133 0.1740916200774163 0 -0.092240447313121865 0.19384567090255941 0 -0.076393812961543933 0.18855654478380079 0 -0.065384376172853115 0.18024301707024301 0 -0.074060336345789457 0.17038476279792919 0 -0.076393812961543933 0.18855654478380079 0 -0.065384376172853115 0.18024301707024301 0 -0.070012473698793168 0.1532189705683685 0 -0.057664331774833523 0.16501257012838219 0 -0.065384376172853115 0.18024301707024301 0 -0.074060336345789457 0.17038476279792919 0 -0.070012473698793168 0.1532189705683685 0 -0.073023180448926167 0.1572934767699804 0 -0.074060336345789457 0.17038476279792919 0 -0.070012473698793168 0.1532189705683685 0 -0.065384376172853115 0.18024301707024301 0 -0.070012473698793168 0.1532189705683685 0 -0.08166192597756948 0.16321879990867669 0 -0.073023180448926167 0.1572934767699804 0 -0.074060336345789457 0.17038476279792919 0 -0.070012473698793168 0.1532189705683685 0 -0.061127593139391083 0.15384087425451601 0 -0.057664331774833523 0.16501257012838219 0 -0.070012473698793168 0.1532189705683685 0 -0.065988897302193983 0.14777370859462621 0 -0.061127593139391083 0.15384087425451601 0 -0.070012473698793168 0.1532189705683685 0 -0.071035449019754893 0.14724568835274099 0 -0.065988897302193983 0.14777370859462621 0 -0.070012473698793168 0.1532189705683685 0 -0.065988897302193983 0.14777370859462621 0 -0.073023180448926167 0.1572934767699804 0 -0.070012473698793168 0.1532189705683685 0 -0.081513658429544486 0.15423591444771409 0 -0.070012473698793168 0.1532189705683685 0 -0.071035449019754893 0.14724568835274099 0 -0.081513658429544486 0.15423591444771409 0 -0.073023180448926167 0.1572934767699804 0 -0.070012473698793168 0.1532189705683685 0 -0.070012473698793168 0.1532189705683685 0 -0.071035449019754893 0.14724568835274099 0 -0.071035449019754893 0.14724568835274099 0 -0.065988897302193983 0.14777370859462621 0 -0.074613969063149974 0.1263502574508254 0 -0.053028894207596072 0.13023443381156441 0 -0.065988897302193983 0.14777370859462621 0 -0.074613969063149974 0.1263502574508254 0 -0.053028894207596072 0.13023443381156441 0 -0.071035449019754893 0.14724568835274099 0 -0.074613969063149974 0.1263502574508254 0 -0.071035449019754893 0.14724568835274099 0 -0.065988897302193983 0.14777370859462621 0 -0.074613969063149974 0.1263502574508254 0 -0.098791886610763935 0.1443415348414325 0 -0.071035449019754893 0.14724568835274099 0 -0.074613969063149974 0.1263502574508254 0 -0.098791886610763935 0.1443415348414325 0 -0.074613969063149974 0.1263502574508254 0 -0.091300700290723069 0.1233475248957638 0 -0.098791886610763935 0.1443415348414325 0 -0.071035449019754893 0.14724568835274099 0 -0.081513658429544486 0.15423591444771409 0 -0.098791886610763935 0.1443415348414325 0 -0.071035449019754893 0.14724568835274099 0 -0.098791886610763935 0.1443415348414325 0 -0.091172018211901185 0.1600882254503434 0 -0.081513658429544486 0.15423591444771409 0 -0.10693559005728449 0.22914115453845851 0 -0.095738181086679253 0.23162623120235509 0 -0.091589430458735632 0.24662932541625401 0 -0.10693559005728449 0.22914115453845851 0 -0.091589430458735632 0.24662932541625401 0 -0.10676800541436821 0.24272309023594871 0 -0.10693559005728449 0.22914115453845851 0 -0.091589430458735632 0.24662932541625401 0 -0.1022381897011586 0.25780264773575212 0 -0.10676800541436821 0.24272309023594871 0 -0.091589430458735632 0.24662932541625401 0 -0.1022381897011586 0.25780264773575212 0 -0.10676800541436821 0.24272309023594871 0 -0.1147333885237303 0.24788528680780031 0 -0.10676800541436821 0.24272309023594871 0 -0.1147333885237303 0.24788528680780031 0 -0.1176322251674659 0.237294439172582 0 -0.12720947456823251 0.2476316789285182 0 -0.1147333885237303 0.24788528680780031 0 -0.1176322251674659 0.237294439172582 0 -0.10676800541436821 0.24272309023594871 0 -0.1176322251674659 0.237294439172582 0 -0.10693559005728449 0.22914115453845851 0 -0.1176322251674659 0.237294439172582 0 -0.1180668505975784 0.2252186678827876 0 -0.10693559005728449 0.22914115453845851 0 -0.1309041240852927 0.2343359101133965 0 -0.1180668505975784 0.2252186678827876 0 -0.1220501153829975 0.20952259766677489 0 -0.1309041240852927 0.2343359101133965 0 -0.1176322251674659 0.237294439172582 0 -0.1180668505975784 0.2252186678827876 0 -0.1180668505975784 0.2252186678827876 0 -0.10693559005728449 0.22914115453845851 0 -0.1128325840082717 0.21741190946042821 0 -0.095738181086679253 0.23162623120235509 0 -0.1044671438836894 0.20816775821125419 0 -0.10693559005728449 0.22914115453845851 0 -0.095738181086679253 0.23162623120235509 0 -0.1044671438836894 0.20816775821125419 0 -0.10693559005728449 0.22914115453845851 0 -0.1044671438836894 0.20816775821125419 0 -0.1128325840082717 0.21741190946042821 0 -0.1044671438836894 0.20816775821125419 0 -0.092240447313121865 0.19384567090255941 0 -0.090833201356095877 0.21644780253752591 0 -0.095738181086679253 0.23162623120235509 0 -0.1044671438836894 0.20816775821125419 0 -0.090833201356095877 0.21644780253752591 0 -0.1180668505975784 0.2252186678827876 0 -0.1128325840082717 0.21741190946042821 0 -0.1220501153829975 0.20952259766677489 0 -0.1044671438836894 0.20816775821125419 0 -0.1128325840082717 0.21741190946042821 0 -0.1220501153829975 0.20952259766677489 0 -0.12708469945993289 0.19830010169262161 0 -0.11319610668070069 0.18470928522015381 0 -0.1220501153829975 0.20952259766677489 0 -0.11319610668070069 0.18470928522015381 0 -0.1220501153829975 0.20952259766677489 0 -0.11319610668070069 0.18470928522015381 0 -0.1044671438836894 0.20816775821125419 0 -0.1220501153829975 0.20952259766677489 0 -0.11319610668070069 0.18470928522015381 0 -0.1044671438836894 0.20816775821125419 0 -0.092240447313121865 0.19384567090255941 0 -0.11319610668070069 0.18470928522015381 0 -0.1044671438836894 0.20816775821125419 0 -0.092240447313121865 0.19384567090255941 0 -0.076393812961543933 0.18855654478380079 0 -0.074047533410061872 0.21238250781909401 0 -0.063908247046392863 0.199154995542283 0 -0.076393812961543933 0.18855654478380079 0 -0.074047533410061872 0.21238250781909401 0 -0.065384376172853115 0.18024301707024301 0 -0.063908247046392863 0.199154995542283 0 -0.076393812961543933 0.18855654478380079 0 -0.063908247046392863 0.199154995542283 0 -0.074047533410061872 0.21238250781909401 0 -0.052204766413305743 0.210027254784238 0 -0.092240447313121865 0.19384567090255941 0 -0.074047533410061872 0.21238250781909401 0 -0.090833201356095877 0.21644780253752591 0 -0.074047533410061872 0.21238250781909401 0 -0.090833201356095877 0.21644780253752591 0 -0.084970852226219529 0.22672399571570639 0 -0.095738181086679253 0.23162623120235509 0 -0.090833201356095877 0.21644780253752591 0 -0.084970852226219529 0.22672399571570639 0 -0.095738181086679253 0.23162623120235509 0 -0.084970852226219529 0.22672399571570639 0 -0.085009675918636049 0.23726076631331519 0 -0.084970852226219529 0.22672399571570639 0 -0.074929273829437648 0.23297971205015841 0 -0.085009675918636049 0.23726076631331519 0 -0.074047533410061872 0.21238250781909401 0 -0.074929273829437648 0.23297971205015841 0 -0.056796830616990229 0.22805828546528789 0 -0.074047533410061872 0.21238250781909401 0 -0.084970852226219529 0.22672399571570639 0 -0.074929273829437648 0.23297971205015841 0 -0.074929273829437648 0.23297971205015841 0 -0.05167756311802927 0.24613586928495221 0 -0.074929273829437648 0.23297971205015841 0 -0.074440127216583662 0.24846193142452569 0 -0.05167756311802927 0.24613586928495221 0 -0.074929273829437648 0.23297971205015841 0 -0.074440127216583662 0.24846193142452569 0 -0.085009675918636049 0.23726076631331519 0 -0.074440127216583662 0.24846193142452569 0 -0.085009675918636049 0.23726076631331519 0 -0.091589430458735632 0.24662932541625401 0 -0.095738181086679253 0.23162623120235509 0 -0.085009675918636049 0.23726076631331519 0 -0.091589430458735632 0.24662932541625401 0 -0.02842585240662095 0.25929202651974598 0 -0.05167756311802927 0.24613586928495221 0 -0.02411114837135055 0.2406774227239924 0 -0.05167756311802927 0.24613586928495221 0 -0.036739868224219763 0.22575131305786561 0 -0.02411114837135055 0.2406774227239924 0 -0.074929273829437648 0.23297971205015841 0 -0.05167756311802927 0.24613586928495221 0 -0.056796830616990229 0.22805828546528789 0 -0.05167756311802927 0.24613586928495221 0 -0.056796830616990229 0.22805828546528789 0 -0.036739868224219763 0.22575131305786561 0 -0.056796830616990229 0.22805828546528789 0 -0.036739868224219763 0.22575131305786561 0 -0.052204766413305743 0.210027254784238 0 -0.036739868224219763 0.22575131305786561 0 -0.052204766413305743 0.210027254784238 0 -0.02817309211193237 0.202726453561208 0 -0.074047533410061872 0.21238250781909401 0 -0.056796830616990229 0.22805828546528789 0 -0.052204766413305743 0.210027254784238 0 -0.065384376172853115 0.18024301707024301 0 -0.063908247046392863 0.199154995542283 0 -0.048931979649077147 0.18699469789351361 0 -0.063908247046392863 0.199154995542283 0 -0.052204766413305743 0.210027254784238 0 -0.048931979649077147 0.18699469789351361 0 -0.052204766413305743 0.210027254784238 0 -0.02817309211193237 0.202726453561208 0 -0.048931979649077147 0.18699469789351361 0 -0.02817309211193237 0.202726453561208 0 -0.048931979649077147 0.18699469789351361 0 -0.032675461393497737 0.18300450159786669 0 -0.02817309211193237 0.202726453561208 0 -0.032675461393497737 0.18300450159786669 0 -0.01102304468130395 0.17953637950077039 0 -0.02817309211193237 0.202726453561208 0 -0.00028024135755097199 0.1979006243237903 0 -0.01102304468130395 0.17953637950077039 0 -0.02817309211193237 0.202726453561208 0 -0.00028024135755097199 0.1979006243237903 0 -0.0097306680647822538 0.22296462825355501 0 -0.00028024135755097199 0.1979006243237903 0 -0.0097306680647822538 0.22296462825355501 0 -0.036739868224219763 0.22575131305786561 0 -0.02817309211193237 0.202726453561208 0 -0.0097306680647822538 0.22296462825355501 0 -0.036739868224219763 0.22575131305786561 0 -0.0097306680647822538 0.22296462825355501 0 -0.02411114837135055 0.2406774227239924 0 -0.0097306680647822538 0.22296462825355501 0 -0.001711322607177821 0.2476415137308719 0 -0.02411114837135055 0.2406774227239924 0 -0.02842585240662095 0.25929202651974598 0 -0.001711322607177821 0.2476415137308719 0 -0.02411114837135055 0.2406774227239924 0 -0.035700442261292861 0.15094278685874879 0 -0.05084466978174336 0.1493582477266866 0 -0.042332081601366513 0.16755739807709419 0 -0.035700442261292861 0.15094278685874879 0 -0.036410976071479653 0.14155925752222051 0 -0.05084466978174336 0.1493582477266866 0 -0.036410976071479653 0.14155925752222051 0 -0.049395668908401261 0.14012715176531959 0 -0.05084466978174336 0.1493582477266866 0 -0.035700442261292861 0.15094278685874879 0 -0.05084466978174336 0.1493582477266866 0 -0.035700442261292861 0.15094278685874879 0 -0.036410976071479653 0.14155925752222051 0 -0.023734324410322302 0.15019557999602251 0 -0.036410976071479653 0.14155925752222051 0 -0.041195711268572778 0.13236378336219931 0 -0.025963053204229921 0.13751284480690901 0 -0.036410976071479653 0.14155925752222051 0 -0.041195711268572778 0.13236378336219931 0 -0.049395668908401261 0.14012715176531959 0 -0.065988897302193983 0.14777370859462621 0 -0.053028894207596072 0.13023443381156441 0 -0.041195711268572778 0.13236378336219931 0 -0.049395668908401261 0.14012715176531959 0 -0.053028894207596072 0.13023443381156441 0 -0.065988897302193983 0.14777370859462621 0 -0.049395668908401261 0.14012715176531959 0 -0.053028894207596072 0.13023443381156441 0 -0.041195711268572778 0.13236378336219931 0 -0.053028894207596072 0.13023443381156441 0 -0.05084466978174336 0.1493582477266866 0 -0.061127593139391083 0.15384087425451601 0 -0.057664331774833523 0.16501257012838219 0 -0.065988897302193983 0.14777370859462621 0 -0.049395668908401261 0.14012715176531959 0 -0.05084466978174336 0.1493582477266866 0 -0.065988897302193983 0.14777370859462621 0 -0.05084466978174336 0.1493582477266866 0 -0.061127593139391083 0.15384087425451601 0 -0.065988897302193983 0.14777370859462621 0 -0.05084466978174336 0.1493582477266866 0 -0.05084466978174336 0.1493582477266866 0 -0.057664331774833523 0.16501257012838219 0 -0.042332081601366513 0.16755739807709419 0 -0.065384376172853115 0.18024301707024301 0 -0.057664331774833523 0.16501257012838219 0 -0.048931979649077147 0.18699469789351361 0 -0.057664331774833523 0.16501257012838219 0 -0.048931979649077147 0.18699469789351361 0 -0.042332081601366513 0.16755739807709419 0 -0.032675461393497737 0.18300450159786669 0 -0.042332081601366513 0.16755739807709419 0 -0.027057729154672729 0.16585364082544021 0 -0.048931979649077147 0.18699469789351361 0 -0.032675461393497737 0.18300450159786669 0 -0.042332081601366513 0.16755739807709419 0 -0.035700442261292861 0.15094278685874879 0 -0.042332081601366513 0.16755739807709419 0 -0.027057729154672729 0.16585364082544021 0 -0.027057729154672729 0.16585364082544021 0 -0.01203943987003989 0.1582850206737926 0 -0.023734324410322302 0.15019557999602251 0 -0.027057729154672729 0.16585364082544021 0 -0.01102304468130395 0.17953637950077039 0 -0.01203943987003989 0.1582850206737926 0 -0.032675461393497737 0.18300450159786669 0 -0.027057729154672729 0.16585364082544021 0 -0.01102304468130395 0.17953637950077039 0 -0.00028024135755097199 0.1979006243237903 0 -0.01102304468130395 0.17953637950077039 0 0.0091701853496803341 0.17283662039402559 0 -0.01102304468130395 0.17953637950077039 0 0.00075419168641665949 0.1623636528292407 0 0.0091701853496803341 0.17283662039402559 0 -0.01102304468130395 0.17953637950077039 0 -0.01203943987003989 0.1582850206737926 0 0.00075419168641665949 0.1623636528292407 0 -0.01203943987003989 0.1582850206737926 0 0.000912498425950988 0.14941155809899509 0 0.00075419168641665949 0.1623636528292407 0 -0.01203943987003989 0.1582850206737926 0 -0.01188536323591897 0.14420977985878761 0 0.000912498425950988 0.14941155809899509 0 -0.01188536323591897 0.14420977985878761 0 0.0037667378851027802 0.1337295510750334 0 0.000912498425950988 0.14941155809899509 0 -0.01203943987003989 0.1582850206737926 0 -0.01188536323591897 0.14420977985878761 0 -0.023734324410322302 0.15019557999602251 0 -0.035700442261292861 0.15094278685874879 0 -0.027057729154672729 0.16585364082544021 0 -0.023734324410322302 0.15019557999602251 0 -0.01188536323591897 0.14420977985878761 0 -0.023734324410322302 0.15019557999602251 0 -0.025963053204229921 0.13751284480690901 0 -0.036410976071479653 0.14155925752222051 0 -0.023734324410322302 0.15019557999602251 0 -0.025963053204229921 0.13751284480690901 0 -0.041195711268572778 0.13236378336219931 0 -0.025963053204229921 0.13751284480690901 0 -0.02620201966438547 0.12438092367532461 0 -0.01188536323591897 0.14420977985878761 0 -0.025963053204229921 0.13751284480690901 0 -0.013024073791010331 0.12994926867596229 0 -0.025963053204229921 0.13751284480690901 0 -0.013024073791010331 0.12994926867596229 0 -0.02620201966438547 0.12438092367532461 0 -0.01188536323591897 0.14420977985878761 0 -0.013024073791010331 0.12994926867596229 0 0.0037667378851027802 0.1337295510750334 0 -0.013024073791010331 0.12994926867596229 0 -0.0013247525459362129 0.11990672198295289 0 0.0037667378851027802 0.1337295510750334 0 -0.0013247525459362129 0.11990672198295289 0 -0.01455145657243366 0.1145168950868658 0 0.001589205702606383 0.1054252565709831 0 -0.013024073791010331 0.12994926867596229 0 -0.0013247525459362129 0.11990672198295289 0 -0.01455145657243366 0.1145168950868658 0 -0.01455145657243366 0.1145168950868658 0 -0.01117015451292022 0.099174108877392697 0 0.001589205702606383 0.1054252565709831 0 -0.01117015451292022 0.099174108877392697 0 -0.0014784298921727791 0.087882785625659612 0 0.001589205702606383 0.1054252565709831 0 -0.01952271276376397 0.084889219077809358 0 -0.036275803485680623 0.1075618264446863 0 -0.01117015451292022 0.099174108877392697 0 -0.01952271276376397 0.084889219077809358 0 -0.036275803485680623 0.1075618264446863 0 -0.01455145657243366 0.1145168950868658 0 -0.01117015451292022 0.099174108877392697 0 -0.036275803485680623 0.1075618264446863 0 -0.01455145657243366 0.1145168950868658 0 -0.02620201966438547 0.12438092367532461 0 -0.036275803485680623 0.1075618264446863 0 -0.013024073791010331 0.12994926867596229 0 -0.01455145657243366 0.1145168950868658 0 -0.02620201966438547 0.12438092367532461 0 -0.01117015451292022 0.099174108877392697 0 -0.0014784298921727791 0.087882785625659612 0 -0.01952271276376397 0.084889219077809358 0 -0.01156628242006226 0.063556581462986234 0 -0.0014784298921727791 0.087882785625659612 0 -0.01952271276376397 0.084889219077809358 0 -0.01952271276376397 0.084889219077809358 0 -0.035034599060641623 0.086432088675274688 0 -0.036275803485680623 0.1075618264446863 0 -0.01952271276376397 0.084889219077809358 0 -0.028335217133297109 0.070648383185923536 0 -0.035034599060641623 0.086432088675274688 0 -0.01156628242006226 0.063556581462986234 0 -0.01952271276376397 0.084889219077809358 0 -0.028335217133297109 0.070648383185923536 0 -0.043944392298795473 0.075662504139200365 0 -0.053289593715083003 0.064665875617441027 0 -0.03755686348382286 0.050349460554755171 0 -0.028335217133297109 0.070648383185923536 0 -0.043944392298795473 0.075662504139200365 0 -0.035034599060641623 0.086432088675274688 0 -0.028335217133297109 0.070648383185923536 0 -0.043944392298795473 0.075662504139200365 0 -0.03755686348382286 0.050349460554755171 0 -0.043944392298795473 0.075662504139200365 0 -0.035034599060641623 0.086432088675274688 0 -0.047094869621670962 0.093398510528753767 0 -0.043944392298795473 0.075662504139200365 0 -0.047094869621670962 0.093398510528753767 0 -0.055567080045509601 0.085606102261796546 0 -0.043944392298795473 0.075662504139200365 0 -0.055567080045509601 0.085606102261796546 0 -0.061810176307962462 0.076269286594681893 0 -0.047094869621670962 0.093398510528753767 0 -0.055567080045509601 0.085606102261796546 0 -0.058003258623138328 0.096722195819425205 0 -0.055567080045509601 0.085606102261796546 0 -0.058003258623138328 0.096722195819425205 0 -0.065863055217670205 0.089844285258610976 0 -0.055567080045509601 0.085606102261796546 0 -0.061810176307962462 0.076269286594681893 0 -0.065863055217670205 0.089844285258610976 0 -0.043944392298795473 0.075662504139200365 0 -0.061810176307962462 0.076269286594681893 0 -0.053289593715083003 0.064665875617441027 0 -0.061810176307962462 0.076269286594681893 0 -0.053289593715083003 0.064665875617441027 0 -0.067382894371232849 0.062245928899374178 0 -0.053028894207596072 0.13023443381156441 0 -0.036275803485680623 0.1075618264446863 0 -0.041195711268572778 0.13236378336219931 0 -0.02620201966438547 0.12438092367532461 0 -0.036275803485680623 0.1075618264446863 0 -0.041195711268572778 0.13236378336219931 0 -0.053028894207596072 0.13023443381156441 0 -0.036275803485680623 0.1075618264446863 0 -0.035034599060641623 0.086432088675274688 0 -0.047094869621670962 0.093398510528753767 0 -0.036275803485680623 0.1075618264446863 0 -0.047094869621670962 0.093398510528753767 0 -0.036275803485680623 0.1075618264446863 0 -0.054179192426297901 0.1083997560317751 0 -0.054179192426297901 0.1083997560317751 0 -0.063897580708697041 0.1178132624232992 0 -0.066581026060980097 0.1019588472207375 0 -0.047094869621670962 0.093398510528753767 0 -0.054179192426297901 0.1083997560317751 0 -0.058003258623138328 0.096722195819425205 0 -0.054179192426297901 0.1083997560317751 0 -0.058003258623138328 0.096722195819425205 0 -0.066581026060980097 0.1019588472207375 0 -0.053028894207596072 0.13023443381156441 0 -0.036275803485680623 0.1075618264446863 0 -0.054179192426297901 0.1083997560317751 0 -0.053028894207596072 0.13023443381156441 0 -0.054179192426297901 0.1083997560317751 0 -0.063897580708697041 0.1178132624232992 0 -0.074613969063149974 0.1263502574508254 0 -0.053028894207596072 0.13023443381156441 0 -0.063897580708697041 0.1178132624232992 0 -0.074613969063149974 0.1263502574508254 0 -0.063897580708697041 0.1178132624232992 0 -0.077855892745524818 0.107420255250797 0 -0.074613969063149974 0.1263502574508254 0 -0.077855892745524818 0.107420255250797 0 -0.074613969063149974 0.1263502574508254 0 -0.091300700290723069 0.1233475248957638 0 -0.074613969063149974 0.1263502574508254 0 -0.088737468616287313 0.1161640817177176 0 -0.077855892745524818 0.107420255250797 0 -0.074613969063149974 0.1263502574508254 0 -0.088737468616287313 0.1161640817177176 0 -0.091300700290723069 0.1233475248957638 0 -0.088737468616287313 0.1161640817177176 0 -0.088142197574951828 0.10518441933226561 0 -0.077855892745524818 0.107420255250797 0 -0.088737468616287313 0.1161640817177176 0 -0.091300700290723069 0.1233475248957638 0 -0.098991793020111754 0.1106289498477145 0 -0.088737468616287313 0.1161640817177176 0 -0.088142197574951828 0.10518441933226561 0 -0.098991793020111754 0.1106289498477145 0 -0.088737468616287313 0.1161640817177176 0 -0.091300700290723069 0.1233475248957638 0 -0.088142197574951828 0.10518441933226561 0 -0.077855892745524818 0.107420255250797 0 -0.081097816427898886 0.088490253050768353 0 -0.077855892745524818 0.107420255250797 0 -0.081097816427898886 0.088490253050768353 0 -0.088142197574951828 0.10518441933226561 0 -0.081097816427898886 0.088490253050768353 0 -0.096460219427137645 0.099036577761655059 0 -0.077855892745524818 0.107420255250797 0 -0.066581026060980097 0.1019588472207375 0 -0.081097816427898886 0.088490253050768353 0 -0.063897580708697041 0.1178132624232992 0 -0.077855892745524818 0.107420255250797 0 -0.066581026060980097 0.1019588472207375 0 -0.058003258623138328 0.096722195819425205 0 -0.066581026060980097 0.1019588472207375 0 -0.065863055217670205 0.089844285258610976 0 -0.061810176307962462 0.076269286594681893 0 -0.065863055217670205 0.089844285258610976 0 -0.071218344194879671 0.087349518152223998 0 -0.076482473256357847 0.081522006647854653 0 -0.071218344194879671 0.087349518152223998 0 -0.07572712895768656 0.073815849772609535 0 -0.076482473256357847 0.081522006647854653 0 -0.07572712895768656 0.073815849772609535 0 -0.080648009784800079 0.080984731264281143 0 -0.076482473256357847 0.081522006647854653 0 -0.071218344194879671 0.087349518152223998 0 -0.0781627246678957 0.085053016787479674 0 -0.071218344194879671 0.087349518152223998 0 -0.081097816427898886 0.088490253050768353 0 -0.0781627246678957 0.085053016787479674 0 -0.065863055217670205 0.089844285258610976 0 -0.071218344194879671 0.087349518152223998 0 -0.081097816427898886 0.088490253050768353 0 -0.065863055217670205 0.089844285258610976 0 -0.081097816427898886 0.088490253050768353 0 -0.066581026060980097 0.1019588472207375 0 -0.065863055217670205 0.089844285258610976 0 -0.081097816427898886 0.088490253050768353 0 -0.061810176307962462 0.076269286594681893 0 -0.071218344194879671 0.087349518152223998 0 -0.067382894371232849 0.062245928899374178 0 -0.071218344194879671 0.087349518152223998 0 -0.067382894371232849 0.062245928899374178 0 -0.071218344194879671 0.087349518152223998 0 -0.07572712895768656 0.073815849772609535 0 -0.067382894371232849 0.062245928899374178 0 -0.07572712895768656 0.073815849772609535 0 -0.081962106443321303 0.068337064486833618 0 -0.067382894371232849 0.062245928899374178 0 -0.081962106443321303 0.068337064486833618 0 -0.078749749295322274 0.057761267235313302 0 -0.067382894371232849 0.062245928899374178 0 -0.081962106443321303 0.068337064486833618 0 -0.092046366210314354 0.068867750512680265 0 -0.078749749295322274 0.057761267235313302 0 -0.07572712895768656 0.073815849772609535 0 -0.085690958892718883 0.077292237038543141 0 -0.080648009784800079 0.080984731264281143 0 -0.07572712895768656 0.073815849772609535 0 -0.081962106443321303 0.068337064486833618 0 -0.085690958892718883 0.077292237038543141 0 -0.085690958892718883 0.077292237038543141 0 -0.092046366210314354 0.068867750512680265 0 -0.094710587494239884 0.07863893778959255 0 -0.081962106443321303 0.068337064486833618 0 -0.085690958892718883 0.077292237038543141 0 -0.092046366210314354 0.068867750512680265 0 -0.081097816427898886 0.088490253050768353 0 -0.1055559972055172 0.086316463513723282 0 -0.081097816427898886 0.088490253050768353 0 -0.081366979675541712 0.086918574822270223 0 -0.0781627246678957 0.085053016787479674 0 -0.081097816427898886 0.088490253050768353 0 -0.081366979675541712 0.086918574822270223 0 -0.085690958892718883 0.077292237038543141 0 -0.081366979675541712 0.086918574822270223 0 -0.080648009784800079 0.080984731264281143 0 -0.076482473256357847 0.081522006647854653 0 -0.0781627246678957 0.085053016787479674 0 -0.080648009784800079 0.080984731264281143 0 -0.081097816427898886 0.088490253050768353 0 -0.081366979675541712 0.086918574822270223 0 -0.094710587494239884 0.07863893778959255 0 -0.081366979675541712 0.086918574822270223 0 -0.0781627246678957 0.085053016787479674 0 -0.080648009784800079 0.080984731264281143 0 -0.085690958892718883 0.077292237038543141 0 -0.081366979675541712 0.086918574822270223 0 -0.094710587494239884 0.07863893778959255 0 -0.094710587494239884 0.07863893778959255 0 -0.1055559972055172 0.086316463513723282 0 -0.1107575172713377 0.076442931492724103 0 -0.081097816427898886 0.088490253050768353 0 -0.1055559972055172 0.086316463513723282 0 -0.096460219427137645 0.099036577761655059 0 -0.081097816427898886 0.088490253050768353 0 -0.094710587494239884 0.07863893778959255 0 -0.1055559972055172 0.086316463513723282 0 -0.094710587494239884 0.07863893778959255 0 -0.10645847677635011 0.066144354096438415 0 -0.1107575172713377 0.076442931492724103 0 -0.092046366210314354 0.068867750512680265 0 -0.10645847677635011 0.066144354096438415 0 -0.098287786268152988 0.059233928379564191 0 -0.092046366210314354 0.068867750512680265 0 -0.094710587494239884 0.07863893778959255 0 -0.10645847677635011 0.066144354096438415 0 -0.13001417798313589 0.084142673976679933 0 -0.1107575172713377 0.076442931492724103 0 -0.1210395870472234 0.070294910121585841 0 -0.10645847677635011 0.066144354096438415 0 -0.1210395870472234 0.070294910121585841 0 -0.1174806644222971 0.060162268591940328 0 -0.10645847677635011 0.066144354096438415 0 -0.1107575172713377 0.076442931492724103 0 -0.1210395870472234 0.070294910121585841 0 -0.13164275203400999 0.060652308656581569 0 -0.1210395870472234 0.070294910121585841 0 -0.1174806644222971 0.060162268591940328 0 -0.13001417798313589 0.084142673976679933 0 -0.1055559972055172 0.086316463513723282 0 -0.1245320378174069 0.090537581379295282 0 -0.1055559972055172 0.086316463513723282 0 -0.1245320378174069 0.090537581379295282 0 -0.1115725396658698 0.1016693637220024 0 -0.13001417798313589 0.084142673976679933 0 -0.1055559972055172 0.086316463513723282 0 -0.1107575172713377 0.076442931492724103 0 -0.13001417798313589 0.084142673976679933 0 -0.1055559972055172 0.086316463513723282 0 -0.12671048613217031 0.1042115069534076 0 -0.1115725396658698 0.1016693637220024 0 -0.1179215637465796 0.1185571718749982 0 -0.12671048613217031 0.1042115069534076 0 -0.1245320378174069 0.090537581379295282 0 -0.1115725396658698 0.1016693637220024 0 -0.1115725396658698 0.1016693637220024 0 -0.1179215637465796 0.1185571718749982 0 -0.098991793020111754 0.1106289498477145 0 -0.10917243247065039 0.1320370449295469 0 -0.091300700290723069 0.1233475248957638 0 -0.1179215637465796 0.1185571718749982 0 -0.091300700290723069 0.1233475248957638 0 -0.1179215637465796 0.1185571718749982 0 -0.098991793020111754 0.1106289498477145 0 -0.091300700290723069 0.1233475248957638 0 -0.1179215637465796 0.1185571718749982 0 -0.088142197574951828 0.10518441933226561 0 -0.098991793020111754 0.1106289498477145 0 -0.096460219427137645 0.099036577761655059 0 -0.1055559972055172 0.086316463513723282 0 -0.1115725396658698 0.1016693637220024 0 -0.096460219427137645 0.099036577761655059 0 -0.1115725396658698 0.1016693637220024 0 -0.098991793020111754 0.1106289498477145 0 -0.096460219427137645 0.099036577761655059 0 -0.10109586067746899 0.03073951670516217 0 -0.10755279369274939 0.014781009388329479 0 -0.083058844715760097 0.027227616290484549 0 -0.10755279369274939 0.014781009388329479 0 -0.083058844715760097 0.027227616290484549 0 -0.10109586067746899 0.03073951670516217 0 -0.10755279369274939 0.014781009388329479 0 -0.1156247653715033 0.027095628998703599 0 -0.095336274017079642 0.0062248325735965336 0 -0.10755279369274939 0.014781009388329479 0 -0.11384095251281599 0.001129535286935791 0 -0.095336274017079642 0.0062248325735965336 0 -0.10755279369274939 0.014781009388329479 0 -0.0864609038513134 0.01317969303592084 0 -0.095336274017079642 0.0062248325735965336 0 -0.11384095251281599 0.001129535286935791 0 -0.13204674266974001 0.0023344024861769448 0 -0.10755279369274939 0.014781009388329479 0 -0.11384095251281599 0.001129535286935791 0 -0.13204674266974001 0.0023344024861769448 0 -0.10755279369274939 0.014781009388329479 0 -0.13204674266974001 0.0023344024861769448 0 -0.10755279369274939 0.014781009388329479 0 -0.1225302032672328 0.0148426862870671 0 -0.1225302032672328 0.0148426862870671 0 -0.1156247653715033 0.027095628998703599 0 -0.12490103481247961 0.023900452065794379 0 -0.10755279369274939 0.014781009388329479 0 -0.1225302032672328 0.0148426862870671 0 -0.1156247653715033 0.027095628998703599 0 -0.12917208020939011 0.032628214361676608 0 -0.1156247653715033 0.027095628998703599 0 -0.12490103481247961 0.023900452065794379 0 -0.12917208020939011 0.032628214361676608 0 -0.1156247653715033 0.027095628998703599 0 -0.11854076777288031 0.039566415304323428 0 -0.11854076777288031 0.039566415304323428 0 -0.110307612932139 0.050861158324857797 0 -0.1068255438127873 0.039814658768161072 0 -0.1156247653715033 0.027095628998703599 0 -0.11854076777288031 0.039566415304323428 0 -0.1068255438127873 0.039814658768161072 0 -0.13164275203400999 0.060652308656581569 0 -0.12529493596717259 0.051271360479867543 0 -0.1174806644222971 0.060162268591940328 0 -0.12529493596717259 0.051271360479867543 0 -0.11854076777288031 0.039566415304323428 0 -0.110307612932139 0.050861158324857797 0 -0.12529493596717259 0.051271360479867543 0 -0.1174806644222971 0.060162268591940328 0 -0.110307612932139 0.050861158324857797 0 -0.10645847677635011 0.066144354096438415 0 -0.1174806644222971 0.060162268591940328 0 -0.110307612932139 0.050861158324857797 0 -0.10645847677635011 0.066144354096438415 0 -0.110307612932139 0.050861158324857797 0 -0.094758660746055046 0.046685985193461538 0 -0.10645847677635011 0.066144354096438415 0 -0.098287786268152988 0.059233928379564191 0 -0.094758660746055046 0.046685985193461538 0 -0.10645847677635011 0.066144354096438415 0 -0.094758660746055046 0.046685985193461538 0 -0.10109586067746899 0.03073951670516217 0 -0.1068255438127873 0.039814658768161072 0 -0.094758660746055046 0.046685985193461538 0 -0.10109586067746899 0.03073951670516217 0 -0.1156247653715033 0.027095628998703599 0 -0.1068255438127873 0.039814658768161072 0 -0.110307612932139 0.050861158324857797 0 -0.1068255438127873 0.039814658768161072 0 -0.094758660746055046 0.046685985193461538 0 -0.10109586067746899 0.03073951670516217 0 -0.094758660746055046 0.046685985193461538 0 -0.083058844715760097 0.027227616290484549 0 -0.094758660746055046 0.046685985193461538 0 -0.083270160955179945 0.037038720015447973 0 -0.083058844715760097 0.027227616290484549 0 -0.094758660746055046 0.046685985193461538 0 -0.083058844715760097 0.027227616290484549 0 -0.094758660746055046 0.046685985193461538 0 -0.080263934424650435 0.042918153609931141 0 -0.083270160955179945 0.037038720015447973 0 -0.083270160955179945 0.037038720015447973 0 -0.074999203934254549 0.031323124967914513 0 -0.083058844715760097 0.027227616290484549 0 -0.080263934424650435 0.042918153609931141 0 -0.083270160955179945 0.037038720015447973 0 -0.074999203934254549 0.031323124967914513 0 -0.092046366210314354 0.068867750512680265 0 -0.080263934424650435 0.042918153609931141 0 -0.098287786268152988 0.059233928379564191 0 -0.080263934424650435 0.042918153609931141 0 -0.092046366210314354 0.068867750512680265 0 -0.098287786268152988 0.059233928379564191 0 -0.080263934424650435 0.042918153609931141 0 -0.092046366210314354 0.068867750512680265 0 -0.080263934424650435 0.042918153609931141 0 -0.078749749295322274 0.057761267235313302 0 -0.098287786268152988 0.059233928379564191 0 -0.094758660746055046 0.046685985193461538 0 -0.080263934424650435 0.042918153609931141 0 -0.078749749295322274 0.057761267235313302 0 -0.067382894371232849 0.062245928899374178 0 -0.072093445027092667 0.046437438667747181 0 -0.067382894371232849 0.062245928899374178 0 -0.072093445027092667 0.046437438667747181 0 -0.063547444547583778 0.037142339646524733 0 -0.067382894371232849 0.062245928899374178 0 -0.063547444547583778 0.037142339646524733 0 -0.080263934424650435 0.042918153609931141 0 -0.078749749295322274 0.057761267235313302 0 -0.072093445027092667 0.046437438667747181 0 -0.080263934424650435 0.042918153609931141 0 -0.074999203934254549 0.031323124967914513 0 -0.080263934424650435 0.042918153609931141 0 -0.074999203934254549 0.031323124967914513 0 -0.070167374532124432 0.033778420406115103 0 -0.080263934424650435 0.042918153609931141 0 -0.070167374532124432 0.033778420406115103 0 -0.074999203934254549 0.031323124967914513 0 -0.070167374532124432 0.033778420406115103 0 -0.080263934424650435 0.042918153609931141 0 -0.072093445027092667 0.046437438667747181 0 -0.070167374532124432 0.033778420406115103 0 -0.072093445027092667 0.046437438667747181 0 -0.063547444547583778 0.037142339646524733 0 -0.070167374532124432 0.033778420406115103 0 -0.063547444547583778 0.037142339646524733 0 -0.061888467006876377 0.02628408502801358 0 -0.063547444547583778 0.037142339646524733 0 -0.070167374532124432 0.033778420406115103 0 -0.061888467006876377 0.02628408502801358 0 -0.063547444547583778 0.037142339646524733 0 -0.070167374532124432 0.033778420406115103 0 -0.074999203934254549 0.031323124967914513 0 -0.068180132474324667 0.02715132644548315 0 -0.065593712491839609 0.019554287191981962 0 -0.074999203934254549 0.031323124967914513 0 -0.064187599919179245 0.0075116766041989028 0 -0.070167374532124432 0.033778420406115103 0 -0.068180132474324667 0.02715132644548315 0 -0.061888467006876377 0.02628408502801358 0 -0.074999203934254549 0.031323124967914513 0 -0.065593712491839609 0.019554287191981962 0 -0.064187599919179245 0.0075116766041989028 0 -0.083058844715760097 0.027227616290484549 0 -0.072455239660695892 0.009592393793938947 0 -0.074999203934254549 0.031323124967914513 0 -0.073675222057472414 0.018913702914134242 0 -0.064187599919179245 0.0075116766041989028 0 -0.073675222057472414 0.018913702914134242 0 -0.083058844715760097 0.027227616290484549 0 -0.072455239660695892 0.009592393793938947 0 -0.070167374532124432 0.033778420406115103 0 -0.061888467006876377 0.02628408502801358 0 -0.068180132474324667 0.02715132644548315 0 -0.065593712491839609 0.019554287191981962 0 -0.061888467006876377 0.02628408502801358 0 -0.074999203934254549 0.031323124967914513 0 -0.073675222057472414 0.018913702914134242 0 -0.083058844715760097 0.027227616290484549 0 -0.074999203934254549 0.031323124967914513 0 -0.070167374532124432 0.033778420406115103 0 -0.068180132474324667 0.02715132644548315 0 -0.083058844715760097 0.027227616290484549 0 -0.0864609038513134 0.01317969303592084 0 -0.072455239660695892 0.009592393793938947 0 -0.10755279369274939 0.014781009388329479 0 -0.083058844715760097 0.027227616290484549 0 -0.0864609038513134 0.01317969303592084 0 -0.074999203934254549 0.031323124967914513 0 -0.083058844715760097 0.027227616290484549 0 -0.095336274017079642 0.0062248325735965336 0 -0.0864609038513134 0.01317969303592084 0 -0.083932528361024786 0.0016182416830315149 0 -0.0864609038513134 0.01317969303592084 0 -0.083932528361024786 0.0016182416830315149 0 -0.072455239660695892 0.009592393793938947 0 -0.061851634605631887 -0.008042828702606683 0 -0.072455239660695892 0.009592393793938947 0 -0.061851634605631887 -0.008042828702606683 0 -0.072455239660695892 0.009592393793938947 0 -0.064187599919179245 0.0075116766041989028 0 -0.074156603845683955 -0.003592961947274779 0 -0.083932528361024786 0.0016182416830315149 0 -0.072455239660695892 0.009592393793938947 0 -0.073675222057472414 0.018913702914134242 0 -0.072455239660695892 0.009592393793938947 0 -0.064187599919179245 0.0075116766041989028 0 -0.065593712491839609 0.019554287191981962 0 -0.064187599919179245 0.0075116766041989028 0 -0.058713159124563367 0.0055012229142995736 0 -0.050289743194359457 0.0047188100463112096 0 -0.061888467006876377 0.02628408502801358 0 -0.043253111612289168 0.0094147574275557817 0 -0.058713159124563367 0.0055012229142995736 0 -0.050289743194359457 0.0047188100463112096 0 -0.061888467006876377 0.02628408502801358 0 -0.04821375407982418 -0.0034821883700730779 0 -0.058713159124563367 0.0055012229142995736 0 -0.050289743194359457 0.0047188100463112096 0 -0.04821375407982418 -0.0034821883700730779 0 -0.050289743194359457 0.0047188100463112096 0 -0.043253111612289168 0.0094147574275557817 0 -0.061888467006876377 0.02628408502801358 0 -0.042197560975553612 0.027585150039397151 0 -0.043253111612289168 0.0094147574275557817 0 -0.061888467006876377 0.02628408502801358 0 -0.042197560975553612 0.027585150039397151 0 -0.052845347034255759 0.033221598053778147 0 -0.065593712491839609 0.019554287191981962 0 -0.058713159124563367 0.0055012229142995736 0 -0.061888467006876377 0.02628408502801358 0 -0.058713159124563367 0.0055012229142995736 0 -0.061888467006876377 0.02628408502801358 0 -0.061888467006876377 0.02628408502801358 0 -0.043253111612289168 0.0094147574275557817 0 -0.032893667588675533 0.018150932827947861 0 -0.042197560975553612 0.027585150039397151 0 -0.023936610738927049 0.027646552684349492 0 -0.032893667588675533 0.018150932827947861 0 -0.042197560975553612 0.027585150039397151 0 -0.043253111612289168 0.0094147574275557817 0 -0.032893667588675533 0.018150932827947861 0 -0.043253111612289168 0.0094147574275557817 0 -0.02719131736308238 0.0067143628432696709 0 -0.024617756217701899 -0.0074545701729019538 0 -0.043253111612289168 0.0094147574275557817 0 -0.024617756217701899 -0.0074545701729019538 0 -0.043253111612289168 0.0094147574275557817 0 -0.02719131736308238 0.0067143628432696709 0 -0.067382894371232849 0.062245928899374178 0 -0.063547444547583778 0.037142339646524733 0 -0.055166841240803927 0.053083448573085362 0 -0.053289593715083003 0.064665875617441027 0 -0.055166841240803927 0.053083448573085362 0 -0.03755686348382286 0.050349460554755171 0 -0.053289593715083003 0.064665875617441027 0 -0.067382894371232849 0.062245928899374178 0 -0.055166841240803927 0.053083448573085362 0 -0.063547444547583778 0.037142339646524733 0 -0.055166841240803927 0.053083448573085362 0 -0.03755686348382286 0.050349460554755171 0 -0.063547444547583778 0.037142339646524733 0 -0.052845347034255759 0.033221598053778147 0 -0.03755686348382286 0.050349460554755171 0 -0.063547444547583778 0.037142339646524733 0 -0.03755686348382286 0.050349460554755171 0 -0.063547444547583778 0.037142339646524733 0 -0.061888467006876377 0.02628408502801358 0 -0.052845347034255759 0.033221598053778147 0 -0.042197560975553612 0.027585150039397151 0 -0.03755686348382286 0.050349460554755171 0 -0.023936610738927049 0.027646552684349492 0 -0.042197560975553612 0.027585150039397151 0 -0.052845347034255759 0.033221598053778147 0 -0.03755686348382286 0.050349460554755171 0 -0.01156628242006226 0.063556581462986234 0 -0.03755686348382286 0.050349460554755171 0 -0.01156628242006226 0.063556581462986234 0 -0.03755686348382286 0.050349460554755171 0 -0.01226221823829883 0.042256189127394657 0 -0.01156628242006226 0.063556581462986234 0 -0.028335217133297109 0.070648383185923536 0 -0.03755686348382286 0.050349460554755171 0 -0.03755686348382286 0.050349460554755171 0 -0.01226221823829883 0.042256189127394657 0 -0.023936610738927049 0.027646552684349492 0 -0.01226221823829883 0.042256189127394657 0 -0.023936610738927049 0.027646552684349492 0 -0.009664391728621876 0.025422356762936069 0 -0.01226221823829883 0.042256189127394657 0 -0.009664391728621876 0.025422356762936069 0 0.003443975928265737 0.030441267478972009 0 -0.01226221823829883 0.042256189127394657 0 0.003443975928265737 0.030441267478972009 0 0.0067302831803174364 0.047038727874829052 0 -0.01156628242006226 0.063556581462986234 0 -0.01226221823829883 0.042256189127394657 0 0.0067302831803174364 0.047038727874829052 0 -0.032893667588675533 0.018150932827947861 0 -0.016362809750073169 0.01309239906413022 0 -0.02719131736308238 0.0067143628432696709 0 -0.016345274944772888 -5.9837842431312287e-05 0 -0.016362809750073169 0.01309239906413022 0 -0.02719131736308238 0.0067143628432696709 0 -0.032893667588675533 0.018150932827947861 0 -0.016362809750073169 0.01309239906413022 0 -0.023936610738927049 0.027646552684349492 0 -0.016362809750073169 0.01309239906413022 0 -0.023936610738927049 0.027646552684349492 0 -0.009664391728621876 0.025422356762936069 0 -0.009664391728621876 0.025422356762936069 0 0.00079570415592393744 0.013675375459833959 0 0.003443975928265737 0.030441267478972009 0 -0.016362809750073169 0.01309239906413022 0 -0.009664391728621876 0.025422356762936069 0 0.00079570415592393744 0.013675375459833959 0 -0.016362809750073169 0.01309239906413022 0 -0.0052482603672307157 0.002057095947941197 0 0.00079570415592393744 0.013675375459833959 0 -0.016345274944772888 -5.9837842431312287e-05 0 -0.016362809750073169 0.01309239906413022 0 -0.0052482603672307157 0.002057095947941197 0 -0.0052482603672307157 0.002057095947941197 0 0.00079570415592393744 0.013675375459833959 0 0.015761146306078541 -0.0038236511103695108 0 0.00079570415592393744 0.013675375459833959 0 0.016902242756276342 0.017625040160181599 0 0.015761146306078541 -0.0038236511103695108 0 0.00079570415592393744 0.013675375459833959 0 0.003443975928265737 0.030441267478972009 0 0.016902242756276342 0.017625040160181599 0 0.003443975928265737 0.030441267478972009 0 0.016902242756276342 0.017625040160181599 0 0.021634622046852691 0.033165445268332837 0 0.016902242756276342 0.017625040160181599 0 0.021634622046852691 0.033165445268332837 0 0.037205585448404417 0.016947357795226589 0 0.037205585448404417 0.016947357795226589 0 0.015761146306078541 -0.0038236511103695108 0 0.016902242756276342 0.017625040160181599 0 0.037205585448404417 0.016947357795226589 0 0.015761146306078541 -0.0038236511103695108 0 -0.01156628242006226 0.063556581462986234 0 0.0067302831803174364 0.047038727874829052 0 0.012854970211466331 0.06089627209955159 0 0.0067302831803174364 0.047038727874829052 0 0.012854970211466331 0.06089627209955159 0 0.024768669441457669 0.049849049391762518 0 0.003443975928265737 0.030441267478972009 0 0.0067302831803174364 0.047038727874829052 0 0.021634622046852691 0.033165445268332837 0 0.0067302831803174364 0.047038727874829052 0 0.021634622046852691 0.033165445268332837 0 0.024768669441457669 0.049849049391762518 0 0.021634622046852691 0.033165445268332837 0 0.024768669441457669 0.049849049391762518 0 0.040756975526394568 0.037091228909025283 0 0.012854970211466331 0.06089627209955159 0 0.024768669441457669 0.049849049391762518 0 0.029917882211920571 0.067273299396962943 0 0.024768669441457669 0.049849049391762518 0 0.051184911714795452 0.06140702050966778 0 0.029917882211920571 0.067273299396962943 0 0.024768669441457669 0.049849049391762518 0 0.040756975526394568 0.037091228909025283 0 0.051184911714795452 0.06140702050966778 0 0.040756975526394568 0.037091228909025283 0 0.061112217327982631 0.03507825942732351 0 0.051184911714795452 0.06140702050966778 0 0.061112217327982631 0.03507825942732351 0 0.051184911714795452 0.06140702050966778 0 0.061112217327982631 0.03507825942732351 0 0.051184911714795452 0.06140702050966778 0 0.071467637103591483 0.056186647189533277 0 0.037205585448404417 0.016947357795226589 0 0.015761146306078541 -0.0038236511103695108 0 0.043869542357556447 -0.0077626595509977673 0 0.037205585448404417 0.016947357795226589 0 0.053889019005023207 0.0042927930963859544 0 0.043869542357556447 -0.0077626595509977673 0 0.021634622046852691 0.033165445268332837 0 0.040756975526394568 0.037091228909025283 0 0.037205585448404417 0.016947357795226589 0 0.040756975526394568 0.037091228909025283 0 0.061112217327982631 0.03507825942732351 0 0.037205585448404417 0.016947357795226589 0 0.061112217327982631 0.03507825942732351 0 0.037205585448404417 0.016947357795226589 0 0.063461588480862405 0.01690269280888896 0 0.053889019005023207 0.0042927930963859544 0 0.063461588480862405 0.01690269280888896 0 0.067144851277335119 -0.007206669998643612 0 0.037205585448404417 0.016947357795226589 0 0.053889019005023207 0.0042927930963859544 0 0.063461588480862405 0.01690269280888896 0 0.084556828012583282 0.01000373329485589 0 0.063461588480862405 0.01690269280888896 0 0.084556828012583282 0.01000373329485589 0 0.063461588480862405 0.01690269280888896 0 0.067144851277335119 -0.007206669998643612 0 0.084556828012583282 0.01000373329485589 0 0.1056520675443042 0.003104773780823032 0 0.089186898378300156 -0.01154008688884384 0 0.084556828012583282 0.01000373329485589 0 0.080290792733560393 0.034228591697510191 0 0.1022661843402158 0.030101663748427529 0 0.061112217327982631 0.03507825942732351 0 0.063461588480862405 0.01690269280888896 0 0.080290792733560393 0.034228591697510191 0 0.084556828012583282 0.01000373329485589 0 0.063461588480862405 0.01690269280888896 0 0.080290792733560393 0.034228591697510191 0 0.061112217327982631 0.03507825942732351 0 0.071467637103591483 0.056186647189533277 0 0.080290792733560393 0.034228591697510191 0 0.071467637103591483 0.056186647189533277 0 0.080290792733560393 0.034228591697510191 0 0.098880301136126877 0.057098553716031987 0 0.098880301136126877 0.057098553716031987 0 0.1022661843402158 0.030101663748427529 0 0.098880301136126877 0.057098553716031987 0 0.1163576027375398 0.039123890133197808 0 0.1022661843402158 0.030101663748427529 0 0.080290792733560393 0.034228591697510191 0 0.098880301136126877 0.057098553716031987 0 0.1022661843402158 0.030101663748427529 0 0.1163576027375398 0.039123890133197808 0 0.1145907508986508 0.065964367015261843 0 0.13209279743577931 0.061594098807270473 0 0.098880301136126877 0.057098553716031987 0 0.1163576027375398 0.039123890133197808 0 0.1145907508986508 0.065964367015261843 0 0.1163576027375398 0.039123890133197808 0 0.13209279743577931 0.061594098807270473 0 0.1163576027375398 0.039123890133197808 0 0.11958777769478759 0.018563325633784111 0 0.1022661843402158 0.030101663748427529 0 0.1163576027375398 0.039123890133197808 0 0.11958777769478759 0.018563325633784111 0 0.12756671846366541 0.03035088117771842 0 0.11958777769478759 0.018563325633784111 0 0.1056520675443042 0.003104773780823032 0 0.12420808900298839 -0.002963763179494149 0 0.1056520675443042 0.003104773780823032 0 0.12420808900298839 -0.002963763179494149 0 0.084556828012583282 0.01000373329485589 0 0.1056520675443042 0.003104773780823032 0 0.1022661843402158 0.030101663748427529 0 0.084556828012583282 0.01000373329485589 0 0.1056520675443042 0.003104773780823032 0 0.11958777769478759 0.018563325633784111 0 0.1056520675443042 0.003104773780823032 0 0.1022661843402158 0.030101663748427529 0 0.1056520675443042 0.003104773780823032 0 0.1022661843402158 0.030101663748427529 0 0.10929881565540329 0.09983715869608889 0 0.1020493700245648 0.1157770468116797 0 0.10929881565540329 0.09983715869608889 0 0.1020493700245648 0.1157770468116797 0 0.092108534727949165 0.11109233365124049 0 0.095494417932038028 0.084095443683636278 0 0.092108534727949165 0.11109233365124049 0 0.10929881565540329 0.09983715869608889 0 0.095494417932038028 0.084095443683636278 0 0.092108534727949165 0.11109233365124049 0 0.10001260787420101 0.1202554252213249 0 0.1020493700245648 0.1157770468116797 0 0.1202715569803728 0.1305500157755918 0 0.1020493700245648 0.1157770468116797 0 0.092108534727949165 0.11109233365124049 0 0.10001260787420101 0.1202554252213249 0 0.1020493700245648 0.1157770468116797 0 0.092108534727949165 0.11109233365124049 0 0.10001260787420101 0.1202554252213249 0 0.1020493700245648 0.1157770468116797 0 0.1020493700245648 0.1157770468116797 0 0.11725277824469139 0.1116264242092916 0 0.12532407705565429 0.12651291283451899 0 0.1020493700245648 0.1157770468116797 0 0.1202715569803728 0.1305500157755918 0 0.12532407705565429 0.12651291283451899 0 0.1020493700245648 0.1157770468116797 0 0.12532407705565429 0.12651291283451899 0 0.11725277824469139 0.1116264242092916 0 0.12532407705565429 0.12651291283451899 0 0.1321308772851239 0.1019693471251534 0 0.10929881565540329 0.09983715869608889 0 0.1020493700245648 0.1157770468116797 0 0.11725277824469139 0.1116264242092916 0 0.10929881565540329 0.09983715869608889 0 0.11725277824469139 0.1116264242092916 0 0.1321308772851239 0.1019693471251534 0 0.10929881565540329 0.09983715869608889 0 0.11654826128624179 0.083897270580498076 0 0.1321308772851239 0.1019693471251534 0 0.10929881565540329 0.09983715869608889 0 0.11654826128624179 0.083897270580498076 0 0.11654826128624179 0.083897270580498076 0 0.1145907508986508 0.065964367015261843 0 0.13209279743577931 0.061594098807270473 0 0.098880301136126877 0.057098553716031987 0 0.1145907508986508 0.065964367015261843 0 0.095494417932038028 0.084095443683636278 0 0.11654826128624179 0.083897270580498076 0 0.1145907508986508 0.065964367015261843 0 0.095494417932038028 0.084095443683636278 0 0.098880301136126877 0.057098553716031987 0 0.095494417932038028 0.084095443683636278 0 0.10929881565540329 0.09983715869608889 0 0.11654826128624179 0.083897270580498076 0 0.095494417932038028 0.084095443683636278 0 0.095494417932038028 0.084095443683636278 0 0.082475962220814686 0.092543395134753459 0 0.075420653857357259 0.079564440904793893 0 0.098880301136126877 0.057098553716031987 0 0.095494417932038028 0.084095443683636278 0 0.075420653857357259 0.079564440904793893 0 0.071467637103591483 0.056186647189533277 0 0.098880301136126877 0.057098553716031987 0 0.075420653857357259 0.079564440904793893 0 0.071467637103591483 0.056186647189533277 0 0.075420653857357259 0.079564440904793893 0 0.058453735679924977 0.078424968218498425 0 0.075420653857357259 0.079564440904793893 0 0.070055045223956725 0.091766853971487733 0 0.058453735679924977 0.078424968218498425 0 0.082475962220814686 0.092543395134753459 0 0.075420653857357259 0.079564440904793893 0 0.070055045223956725 0.091766853971487733 0 0.070055045223956725 0.091766853971487733 0 0.074367775296471622 0.1030084266996253 0 0.057812690699040881 0.095372104145816913 0 0.071152571819980207 0.1055901899713326 0 0.074367775296471622 0.1030084266996253 0 0.057812690699040881 0.095372104145816913 0 0.074367775296471622 0.1030084266996253 0 0.057812690699040881 0.095372104145816913 0 0.071152571819980207 0.1055901899713326 0 0.055783725763719171 0.097780506625390853 0 0.071152571819980207 0.1055901899713326 0 0.074367775296471622 0.1030084266996253 0 0.085582589847090412 0.112922807596329 0 0.071152571819980207 0.1055901899713326 0 0.074367775296471622 0.1030084266996253 0 0.082475962220814686 0.092543395134753459 0 0.070055045223956725 0.091766853971487733 0 0.074367775296471622 0.1030084266996253 0 0.095494417932038028 0.084095443683636278 0 0.082475962220814686 0.092543395134753459 0 0.092108534727949165 0.11109233365124049 0 0.082475962220814686 0.092543395134753459 0 0.074367775296471622 0.1030084266996253 0 0.092108534727949165 0.11109233365124049 0 0.074367775296471622 0.1030084266996253 0 0.092108534727949165 0.11109233365124049 0 0.074367775296471622 0.1030084266996253 0 0.092108534727949165 0.11109233365124049 0 0.085582589847090412 0.112922807596329 0 0.071152571819980207 0.1055901899713326 0 0.085582589847090412 0.112922807596329 0 0.10001260787420101 0.1202554252213249 0 0.088728232934725482 0.1234180411018468 0 0.085582589847090412 0.112922807596329 0 0.10001260787420101 0.1202554252213249 0 0.085582589847090412 0.112922807596329 0 0.10001260787420101 0.1202554252213249 0 0.092108534727949165 0.11109233365124049 0 0.085582589847090412 0.112922807596329 0 0.088728232934725482 0.1234180411018468 0 0.085582589847090412 0.112922807596329 0 0.076108991186985275 0.12527834898938731 0 0.059009239543346567 0.1153411153784268 0 0.076108991186985275 0.12527834898938731 0 0.071152571819980207 0.1055901899713326 0 0.085582589847090412 0.112922807596329 0 0.076108991186985275 0.12527834898938731 0 0.071152571819980207 0.1055901899713326 0 0.059009239543346567 0.1153411153784268 0 0.076108991186985275 0.12527834898938731 0 0.071152571819980207 0.1055901899713326 0 0.059009239543346567 0.1153411153784268 0 0.059009239543346567 0.1153411153784268 0 0.043545102968562392 0.118477994144643 0 0.038814925800129442 0.13155686592134411 0 0.059009239543346567 0.1153411153784268 0 0.038814925800129442 0.13155686592134411 0 0.056715148754757749 0.1140079430279699 0 0.059009239543346567 0.1153411153784268 0 0.043545102968562392 0.118477994144643 0 0.056715148754757749 0.1140079430279699 0 0.046801709960410012 0.1064365058254087 0 0.043545102968562392 0.118477994144643 0 0.071152571819980207 0.1055901899713326 0 0.056715148754757749 0.1140079430279699 0 0.059009239543346567 0.1153411153784268 0 0.056715148754757749 0.1140079430279699 0 0.059009239543346567 0.1153411153784268 0 0.071152571819980207 0.1055901899713326 0 0.056715148754757749 0.1140079430279699 0 0.055783725763719171 0.097780506625390853 0 0.056715148754757749 0.1140079430279699 0 0.055783725763719171 0.097780506625390853 0 0.046801709960410012 0.1064365058254087 0 0.055783725763719171 0.097780506625390853 0 0.046801709960410012 0.1064365058254087 0 0.040414879707455567 0.08997082327945434 0 0.071152571819980207 0.1055901899713326 0 0.055783725763719171 0.097780506625390853 0 0.057812690699040881 0.095372104145816913 0 0.055783725763719171 0.097780506625390853 0 0.040414879707455567 0.08997082327945434 0 0.03315012382394044 0.10923808767438969 0 0.040414879707455567 0.08997082327945434 0 0.046801709960410012 0.1064365058254087 0 0.03315012382394044 0.10923808767438969 0 0.040414879707455567 0.08997082327945434 0 0.03315012382394044 0.10923808767438969 0 0.043545102968562392 0.118477994144643 0 0.025885367940426011 0.1285053520693254 0 0.046801709960410012 0.1064365058254087 0 0.03315012382394044 0.10923808767438969 0 0.043545102968562392 0.118477994144643 0 0.051184911714795452 0.06140702050966778 0 0.071467637103591483 0.056186647189533277 0 0.058453735679924977 0.078424968218498425 0 0.051184911714795452 0.06140702050966778 0 0.058453735679924977 0.078424968218498425 0 0.041257606101608529 0.087735781592012146 0 0.057812690699040881 0.095372104145816913 0 0.058453735679924977 0.078424968218498425 0 0.041257606101608529 0.087735781592012146 0 0.070055045223956725 0.091766853971487733 0 0.057812690699040881 0.095372104145816913 0 0.058453735679924977 0.078424968218498425 0 0.055783725763719171 0.097780506625390853 0 0.057812690699040881 0.095372104145816913 0 0.041257606101608529 0.087735781592012146 0 0.057812690699040881 0.095372104145816913 0 0.041257606101608529 0.087735781592012146 0 0.055783725763719171 0.097780506625390853 0 0.041257606101608529 0.087735781592012146 0 0.040414879707455567 0.08997082327945434 0 0.041257606101608529 0.087735781592012146 0 0.040414879707455567 0.08997082327945434 0 0.041257606101608529 0.087735781592012146 0 0.034823169797042627 0.084767785216971286 0 0.041257606101608529 0.087735781592012146 0 0.040414879707455567 0.08997082327945434 0 0.034823169797042627 0.084767785216971286 0 0.051184911714795452 0.06140702050966778 0 0.041257606101608529 0.087735781592012146 0 0.034823169797042627 0.084767785216971286 0 0.051184911714795452 0.06140702050966778 0 0.041257606101608529 0.087735781592012146 0 0.051184911714795452 0.06140702050966778 0 0.034823169797042627 0.084767785216971286 0 0.029917882211920571 0.067273299396962943 0 0.034823169797042627 0.084767785216971286 0 0.029917882211920571 0.067273299396962943 0 0.01442429864369821 0.076763702371217241 0 0.012854970211466331 0.06089627209955159 0 0.029917882211920571 0.067273299396962943 0 0.01442429864369821 0.076763702371217241 0 0.040414879707455567 0.08997082327945434 0 0.01442429864369821 0.076763702371217241 0 0.017375065997405181 0.097487845393569111 0 0.040414879707455567 0.08997082327945434 0 0.034823169797042627 0.084767785216971286 0 0.01442429864369821 0.076763702371217241 0 0.040414879707455567 0.08997082327945434 0 0.01442429864369821 0.076763702371217241 0 -0.0014784298921727791 0.087882785625659612 0 0.01442429864369821 0.076763702371217241 0 0.017375065997405181 0.097487845393569111 0 -0.01156628242006226 0.063556581462986234 0 -0.0014784298921727791 0.087882785625659612 0 0.01442429864369821 0.076763702371217241 0 -0.01156628242006226 0.063556581462986234 0 0.01442429864369821 0.076763702371217241 0 -0.01156628242006226 0.063556581462986234 0 0.012854970211466331 0.06089627209955159 0 0.01442429864369821 0.076763702371217241 0 0.03315012382394044 0.10923808767438969 0 0.025885367940426011 0.1285053520693254 0 0.03315012382394044 0.10923808767438969 0 0.013406958133924099 0.1157154691277089 0 0.025885367940426011 0.1285053520693254 0 0.03315012382394044 0.10923808767438969 0 0.017375065997405181 0.097487845393569111 0 0.013406958133924099 0.1157154691277089 0 0.03315012382394044 0.10923808767438969 0 0.040414879707455567 0.08997082327945434 0 0.017375065997405181 0.097487845393569111 0 0.017375065997405181 0.097487845393569111 0 0.001589205702606383 0.1054252565709831 0 0.013406958133924099 0.1157154691277089 0 -0.0014784298921727791 0.087882785625659612 0 0.017375065997405181 0.097487845393569111 0 0.001589205702606383 0.1054252565709831 0 -0.0013247525459362129 0.11990672198295289 0 0.013406958133924099 0.1157154691277089 0 0.0037667378851027802 0.1337295510750334 0 -0.0013247525459362129 0.11990672198295289 0 0.001589205702606383 0.1054252565709831 0 0.013406958133924099 0.1157154691277089 0 0.0037667378851027802 0.1337295510750334 0 0.025885367940426011 0.1285053520693254 0 0.012268294901789909 0.1424764959204608 0 0.013406958133924099 0.1157154691277089 0 0.0037667378851027802 0.1337295510750334 0 0.025885367940426011 0.1285053520693254 0 0.018620612056911831 0.1477726164642611 0 0.038814925800129442 0.13155686592134411 0 0.025885367940426011 0.1285053520693254 0 0.018620612056911831 0.1477726164642611 0 0.012268294901789909 0.1424764959204608 0 0.025885367940426011 0.1285053520693254 0 0.018620612056911831 0.1477726164642611 0 0.025885367940426011 0.1285053520693254 0 0.018620612056911831 0.1477726164642611 0 0.038814925800129442 0.13155686592134411 0 0.018620612056911831 0.1477726164642611 0 0.02675096128981962 0.16558595729921291 0 0.041269029493763952 0.1519069423218867 0 0.0037667378851027802 0.1337295510750334 0 0.012268294901789909 0.1424764959204608 0 0.000912498425950988 0.14941155809899509 0 0.018620612056911831 0.1477726164642611 0 0.012156258200558139 0.15296340189468899 0 0.018620612056911831 0.1477726164642611 0 0.012156258200558139 0.15296340189468899 0 0.012268294901789909 0.1424764959204608 0 0.012156258200558139 0.15296340189468899 0 0.012268294901789909 0.1424764959204608 0 0.000912498425950988 0.14941155809899509 0 0.012156258200558139 0.15296340189468899 0 0.000912498425950988 0.14941155809899509 0 0.00075419168641665949 0.1623636528292407 0 0.012156258200558139 0.15296340189468899 0 0.00075419168641665949 0.1623636528292407 0 0.0091701853496803341 0.17283662039402559 0 0.018620612056911831 0.1477726164642611 0 0.0091701853496803341 0.17283662039402559 0 0.018620612056911831 0.1477726164642611 0 0.012156258200558139 0.15296340189468899 0 0.0091701853496803341 0.17283662039402559 0 -0.00028024135755097199 0.1979006243237903 0 0.0091701853496803341 0.17283662039402559 0 0.023739093229298441 0.18163789329564911 0 -0.00028024135755097199 0.1979006243237903 0 0.0091701853496803341 0.17283662039402559 0 0.0091701853496803341 0.17283662039402559 0 0.023739093229298441 0.18163789329564911 0 0.02675096128981962 0.16558595729921291 0 0.023739093229298441 0.18163789329564911 0 0.02675096128981962 0.16558595729921291 0 0.041828531431361338 0.1742191471980199 0 0.018620612056911831 0.1477726164642611 0 0.0091701853496803341 0.17283662039402559 0 0.02675096128981962 0.16558595729921291 0 0.02675096128981962 0.16558595729921291 0 0.041828531431361338 0.1742191471980199 0 0.041269029493763952 0.1519069423218867 0 0.023739093229298441 0.18163789329564911 0 0.041828531431361338 0.1742191471980199 0 0.031614205584118177 0.2027771950655364 0 0.041828531431361338 0.1742191471980199 0 0.060658537589543718 0.17703267465467759 0 0.057395811134162027 0.19650639102976941 0 0.041828531431361338 0.1742191471980199 0 0.060658537589543718 0.17703267465467759 0 0.062303300377132428 0.15777810048637139 0 0.041828531431361338 0.1742191471980199 0 0.062303300377132428 0.15777810048637139 0 0.041269029493763952 0.1519069423218867 0 0.062303300377132428 0.15777810048637139 0 0.05859394629115712 0.13721945822522941 0 0.041269029493763952 0.1519069423218867 0 0.059009239543346567 0.1153411153784268 0 0.05859394629115712 0.13721945822522941 0 0.038814925800129442 0.13155686592134411 0 0.05859394629115712 0.13721945822522941 0 0.038814925800129442 0.13155686592134411 0 0.041269029493763952 0.1519069423218867 0 0.043545102968562392 0.118477994144643 0 0.025885367940426011 0.1285053520693254 0 0.038814925800129442 0.13155686592134411 0 0.018620612056911831 0.1477726164642611 0 0.038814925800129442 0.13155686592134411 0 0.041269029493763952 0.1519069423218867 0 -0.001711322607177821 0.2476415137308719 0 0.024455966897590251 0.2469497650613437 0 0.013112990807721671 0.22472294109631019 0 -0.0097306680647822538 0.22296462825355501 0 -0.001711322607177821 0.2476415137308719 0 0.013112990807721671 0.22472294109631019 0 0.024455966897590251 0.2469497650613437 0 0.013112990807721671 0.22472294109631019 0 0.033494874165546577 0.22752897138748451 0 -0.00028024135755097199 0.1979006243237903 0 0.023739093229298441 0.18163789329564911 0 0.031614205584118177 0.2027771950655364 0 -0.00028024135755097199 0.1979006243237903 0 0.013112990807721671 0.22472294109631019 0 0.031614205584118177 0.2027771950655364 0 0.013112990807721671 0.22472294109631019 0 0.031614205584118177 0.2027771950655364 0 0.033494874165546577 0.22752897138748451 0 -0.00028024135755097199 0.1979006243237903 0 -0.0097306680647822538 0.22296462825355501 0 0.013112990807721671 0.22472294109631019 0 0.041828531431361338 0.1742191471980199 0 0.031614205584118177 0.2027771950655364 0 0.057395811134162027 0.19650639102976941 0 0.057395811134162027 0.19650639102976941 0 0.05054052358339764 0.21977083059595101 0 0.06800525532309537 0.21740613223900679 0 0.031614205584118177 0.2027771950655364 0 0.033494874165546577 0.22752897138748451 0 0.05054052358339764 0.21977083059595101 0 0.031614205584118177 0.2027771950655364 0 0.057395811134162027 0.19650639102976941 0 0.05054052358339764 0.21977083059595101 0 0.033494874165546577 0.22752897138748451 0 0.05054052358339764 0.21977083059595101 0 0.047750683954905143 0.2434241251182814 0 0.05054052358339764 0.21977083059595101 0 0.047750683954905143 0.2434241251182814 0 0.072857389447875093 0.23529484166331269 0 0.047750683954905143 0.2434241251182814 0 0.072857389447875093 0.23529484166331269 0 0.062502990013812793 0.26095755865104597 0 0.024455966897590251 0.2469497650613437 0 0.033494874165546577 0.22752897138748451 0 0.047750683954905143 0.2434241251182814 0 0.072857389447875093 0.23529484166331269 0 0.099368800493647116 0.23564238668442589 0 0.085979313092188051 0.25234243848150012 0 0.072857389447875093 0.23529484166331269 0 0.062502990013812793 0.26095755865104597 0 0.085979313092188051 0.25234243848150012 0 0.05054052358339764 0.21977083059595101 0 0.072857389447875093 0.23529484166331269 0 0.06800525532309537 0.21740613223900679 0 0.072857389447875093 0.23529484166331269 0 0.093673962701444319 0.21535483902785449 0 0.06800525532309537 0.21740613223900679 0 0.072857389447875093 0.23529484166331269 0 0.093673962701444319 0.21535483902785449 0 0.099368800493647116 0.23564238668442589 0 0.093673962701444319 0.21535483902785449 0 0.076997780488796727 0.20384104798963379 0 0.091446487440154323 0.19746068708348091 0 0.093673962701444319 0.21535483902785449 0 0.06800525532309537 0.21740613223900679 0 0.076997780488796727 0.20384104798963379 0 0.057395811134162027 0.19650639102976941 0 0.06800525532309537 0.21740613223900679 0 0.076997780488796727 0.20384104798963379 0 0.057395811134162027 0.19650639102976941 0 0.076997780488796727 0.20384104798963379 0 0.078747158199504105 0.1879851978720993 0 0.076997780488796727 0.20384104798963379 0 0.091446487440154323 0.19746068708348091 0 0.078747158199504105 0.1879851978720993 0 0.091446487440154323 0.19746068708348091 0 0.078747158199504105 0.1879851978720993 0 0.097396137693701673 0.17812286200842919 0 0.091446487440154323 0.19746068708348091 0 0.1079663975725943 0.19628520074313249 0 0.097396137693701673 0.17812286200842919 0 0.093673962701444319 0.21535483902785449 0 0.091446487440154323 0.19746068708348091 0 0.1079663975725943 0.19628520074313249 0 0.1079663975725943 0.19628520074313249 0 0.11467576576267249 0.21506550688823739 0 0.1256790613578205 0.19456737876663921 0 0.1079663975725943 0.19628520074313249 0 0.12018786268376069 0.17480187339622599 0 0.1256790613578205 0.19456737876663921 0 0.093673962701444319 0.21535483902785449 0 0.1079663975725943 0.19628520074313249 0 0.11467576576267249 0.21506550688823739 0 0.093673962701444319 0.21535483902785449 0 0.11467576576267249 0.21506550688823739 0 0.099368800493647116 0.23564238668442589 0 0.11467576576267249 0.21506550688823739 0 0.1172255882914653 0.240359016139747 0 0.099368800493647116 0.23564238668442589 0 0.11467576576267249 0.21506550688823739 0 0.1172255882914653 0.240359016139747 0 0.12850052128049691 0.22816313454829451 0 0.099368800493647116 0.23564238668442589 0 0.085979313092188051 0.25234243848150012 0 0.1098365401102865 0.25523401559104458 0 0.1172255882914653 0.240359016139747 0 0.099368800493647116 0.23564238668442589 0 0.1098365401102865 0.25523401559104458 0 0.084785387251344282 0.15373663266801121 0 0.093208742830624858 0.1352155826003463 0 0.074058191345584917 0.14145537625396001 0 0.084785387251344282 0.15373663266801121 0 0.093208742830624858 0.1352155826003463 0 0.088728232934725482 0.1234180411018468 0 0.093208742830624858 0.1352155826003463 0 0.076108991186985275 0.12527834898938731 0 0.093208742830624858 0.1352155826003463 0 0.076108991186985275 0.12527834898938731 0 0.093208742830624858 0.1352155826003463 0 0.076108991186985275 0.12527834898938731 0 0.074058191345584917 0.14145537625396001 0 0.05859394629115712 0.13721945822522941 0 0.076108991186985275 0.12527834898938731 0 0.074058191345584917 0.14145537625396001 0 0.059009239543346567 0.1153411153784268 0 0.05859394629115712 0.13721945822522941 0 0.076108991186985275 0.12527834898938731 0 0.062303300377132428 0.15777810048637139 0 0.05859394629115712 0.13721945822522941 0 0.074058191345584917 0.14145537625396001 0 0.062303300377132428 0.15777810048637139 0 0.084785387251344282 0.15373663266801121 0 0.074058191345584917 0.14145537625396001 0 0.060658537589543718 0.17703267465467759 0 0.062303300377132428 0.15777810048637139 0 0.076362031672063485 0.1722576827356759 0 0.062303300377132428 0.15777810048637139 0 0.084785387251344282 0.15373663266801121 0 0.076362031672063485 0.1722576827356759 0 0.060658537589543718 0.17703267465467759 0 0.057395811134162027 0.19650639102976941 0 0.078747158199504105 0.1879851978720993 0 0.060658537589543718 0.17703267465467759 0 0.078747158199504105 0.1879851978720993 0 0.076362031672063485 0.1722576827356759 0 0.078747158199504105 0.1879851978720993 0 0.076362031672063485 0.1722576827356759 0 0.097396137693701673 0.17812286200842919 0 0.084785387251344282 0.15373663266801121 0 0.091119054899049631 0.16530177332964191 0 0.10375742370438081 0.15723343922268929 0 0.084785387251344282 0.15373663266801121 0 0.076362031672063485 0.1722576827356759 0 0.076362031672063485 0.1722576827356759 0 0.091119054899049631 0.16530177332964191 0 0.097396137693701673 0.17812286200842919 0 0.084785387251344282 0.15373663266801121 0 0.076362031672063485 0.1722576827356759 0 0.091119054899049631 0.16530177332964191 0 0.10375742370438081 0.15723343922268929 0 0.097396137693701673 0.17812286200842919 0 0.12018786268376069 0.17480187339622599 0 0.091119054899049631 0.16530177332964191 0 0.10375742370438081 0.15723343922268929 0 0.097396137693701673 0.17812286200842919 0 0.1079663975725943 0.19628520074313249 0 0.097396137693701673 0.17812286200842919 0 0.12018786268376069 0.17480187339622599 0 0.10375742370438081 0.15723343922268929 0 0.12018786268376069 0.17480187339622599 0 0.11923029592746499 0.15033757135387951 0 0.10375742370438081 0.15723343922268929 0 0.11923029592746499 0.15033757135387951 0 0.093208742830624858 0.1352155826003463 0 0.10375742370438081 0.15723343922268929 0 0.11923029592746499 0.15033757135387951 0 0.093208742830624858 0.1352155826003463 0 0.11923029592746499 0.15033757135387951 0 0.084785387251344282 0.15373663266801121 0 0.093208742830624858 0.1352155826003463 0 0.10375742370438081 0.15723343922268929 0 0.093208742830624858 0.1352155826003463 0 0.11923029592746499 0.15033757135387951 0 0.1081808009031658 0.13408964873778501 0 0.10001260787420101 0.1202554252213249 0 0.093208742830624858 0.1352155826003463 0 0.10001260787420101 0.1202554252213249 0 0.088728232934725482 0.1234180411018468 0 0.093208742830624858 0.1352155826003463 0 0.10001260787420101 0.1202554252213249 0 0.093208742830624858 0.1352155826003463 0 0.1081808009031658 0.13408964873778501 0 0.11923029592746499 0.15033757135387951 0 0.1081808009031658 0.13408964873778501 0 0.1202715569803728 0.1305500157755918 0 0.10001260787420101 0.1202554252213249 0 0.1202715569803728 0.1305500157755918 0 0.10001260787420101 0.1202554252213249 0 0.1081808009031658 0.13408964873778501 0 0.1202715569803728 0.1305500157755918 0 0.1202715569803728 0.1305500157755918 0 0.14053050608654591 0.14084460632985649 0 0.12532407705565429 0.12651291283451899 0 0.1485987840867446 0.13724877885735659 0 0.14778422405409941 0.1200572911566926 0 0.1202715569803728 0.1305500157755918 0 0.12532407705565429 0.12651291283451899 0 0.14053050608654591 0.14084460632985649 0 0.12532407705565429 0.12651291283451899 0 0.1485987840867446 0.13724877885735659 0 0.14053050608654591 0.14084460632985649 0 0.11923029592746499 0.15033757135387951 0 0.1202715569803728 0.1305500157755918 0 0.14053050608654591 0.14084460632985649 0 0.12532407705565429 0.12651291283451899 0 0.1485987840867446 0.13724877885735659 0 0.1485987840867446 0.13724877885735659 0 0.1693041950107167 0.1280209008110165 0 0.14778422405409941 0.1200572911566926 0 0.1485987840867446 0.13724877885735659 0 0.14053050608654591 0.14084460632985649 0 0.15567509236607949 0.1485403320086453 0 0.14418134198094601 0.15240959034439741 0 0.15385967101393949 0.15655911475965761 0 0.1485987840867446 0.13724877885735659 0 0.15567509236607949 0.1485403320086453 0 0.14053050608654591 0.14084460632985649 0 0.15567509236607949 0.1485403320086453 0 0.14053050608654591 0.14084460632985649 0 0.15567509236607949 0.1485403320086453 0 0.14418134198094601 0.15240959034439741 0 0.14053050608654591 0.14084460632985649 0 0.11923029592746499 0.15033757135387951 0 0.14418134198094601 0.15240959034439741 0 0.14364408243704629 0.16452523354511239 0 0.11923029592746499 0.15033757135387951 0 0.14053050608654591 0.14084460632985649 0 0.11923029592746499 0.15033757135387951 0 0.14418134198094601 0.15240959034439741 0 0.14053050608654591 0.14084460632985649 0 0.12018786268376069 0.17480187339622599 0 0.11923029592746499 0.15033757135387951 0 0.14364408243704629 0.16452523354511239 0 0.11923029592746499 0.15033757135387951 0 0.14364408243704629 0.16452523354511239 0 0.12018786268376069 0.17480187339622599 0 0.1432567069679701 0.18510845942500451 0 0.14364408243704629 0.16452523354511239 0 0.12018786268376069 0.17480187339622599 0 0.1432567069679701 0.18510845942500451 0 0.1256790613578205 0.19456737876663921 0 0.1432567069679701 0.18510845942500451 0 0.14364408243704629 0.16452523354511239 0 0.16805786894662961 0.178712895736342 0 0.14364408243704629 0.16452523354511239 0 0.15385967101393949 0.15655911475965761 0 0.16428356389809021 0.1626346464006832 0 0.14364408243704629 0.16452523354511239 0 0.16805786894662961 0.178712895736342 0 0.14418134198094601 0.15240959034439741 0 0.14364408243704629 0.16452523354511239 0 0.15385967101393949 0.15655911475965761 0 0.14364408243704629 0.16452523354511239 0 0.16428356389809021 0.1626346464006832 0 0.16805786894662961 0.178712895736342 0 0.15385967101393949 0.15655911475965761 0 0.16428356389809021 0.1626346464006832 0 0.16151427438753529 0.1546857714994497 0 0.16428356389809021 0.1626346464006832 0 0.16805786894662961 0.178712895736342 0 0.17862598545672281 0.1607831837711097 0 0.16428356389809021 0.1626346464006832 0 0.17862598545672281 0.1607831837711097 0 0.16890420443593471 0.15382998529937331 0 0.16428356389809021 0.1626346464006832 0 0.16151427438753529 0.1546857714994497 0 0.16890420443593471 0.15382998529937331 0 0.1432567069679701 0.18510845942500451 0 0.16805786894662961 0.178712895736342 0 0.15938016315480519 0.19509295521855419 0 0.16805786894662961 0.178712895736342 0 0.19247165545621289 0.19290055792757169 0 0.19692186442139961 0.17248994205979129 0 0.16805786894662961 0.178712895736342 0 0.19247165545621289 0.19290055792757169 0 0.16805786894662961 0.178712895736342 0 0.17862598545672281 0.1607831837711097 0 0.19692186442139961 0.17248994205979129 0 0.17862598545672281 0.1607831837711097 0 0.1777863351820119 0.14884120606595461 0 0.19403004866561829 0.15002527330455359 0 0.1777863351820119 0.14884120606595461 0 0.1791058667746841 0.1369586492912617 0 0.19403004866561829 0.15002527330455359 0 0.17862598545672281 0.1607831837711097 0 0.1777863351820119 0.14884120606595461 0 0.16890420443593471 0.15382998529937331 0 0.1791058667746841 0.1369586492912617 0 0.16707350063953449 0.1463566940332082 0 0.1777863351820119 0.14884120606595461 0 0.1791058667746841 0.1369586492912617 0 0.16707350063953449 0.1463566940332082 0 0.1791058667746841 0.1369586492912617 0 0.1693041950107167 0.1280209008110165 0 0.1911382329098345 0.1275606045493162 0 0.1791058667746841 0.1369586492912617 0 0.1911382329098345 0.1275606045493162 0 0.1791058667746841 0.1369586492912617 0 0.16703210457882539 0.13824851916792741 0 0.16707350063953449 0.1463566940332082 0 0.1485987840867446 0.13724877885735659 0 0.16703210457882539 0.13824851916792741 0 0.1693041950107167 0.1280209008110165 0 0.1485987840867446 0.13724877885735659 0 0.16703210457882539 0.13824851916792741 0 0.1651887789857423 0.1449012043988411 0 0.1791058667746841 0.1369586492912617 0 0.16703210457882539 0.13824851916792741 0 0.1693041950107167 0.1280209008110165 0 0.1485987840867446 0.13724877885735659 0 0.1693041950107167 0.1280209008110165 0 0.15567509236607949 0.1485403320086453 0 0.16414156705171351 0.1496784100258344 0 0.1651887789857423 0.1449012043988411 0 0.1485987840867446 0.13724877885735659 0 0.1651887789857423 0.1449012043988411 0 0.1485987840867446 0.13724877885735659 0 0.15567509236607949 0.1485403320086453 0 0.1651887789857423 0.1449012043988411 0 0.15567509236607949 0.1485403320086453 0 0.16151427438753529 0.1546857714994497 0 0.16414156705171351 0.1496784100258344 0 0.15567509236607949 0.1485403320086453 0 0.15385967101393949 0.15655911475965761 0 0.16151427438753529 0.1546857714994497 0 0.16414156705171351 0.1496784100258344 0 0.16890420443593471 0.15382998529937331 0 0.16707350063953449 0.1463566940332082 0 0.1777863351820119 0.14884120606595461 0 0.16890420443593471 0.15382998529937331 0 0.16707350063953449 0.1463566940332082 0 0.16151427438753529 0.1546857714994497 0 0.16414156705171351 0.1496784100258344 0 0.16890420443593471 0.15382998529937331 0 0.16703210457882539 0.13824851916792741 0 0.16707350063953449 0.1463566940332082 0 0.1651887789857423 0.1449012043988411 0 0.16414156705171351 0.1496784100258344 0 0.16707350063953449 0.1463566940332082 0 0.1651887789857423 0.1449012043988411 0 0.1380396634466351 0.24024876031326919 0 0.15789362260467041 0.23593912242974599 0 0.14985317479105889 0.25641055026691512 0 0.1172255882914653 0.240359016139747 0 0.1380396634466351 0.24024876031326919 0 0.12850052128049691 0.22816313454829451 0 0.1172255882914653 0.240359016139747 0 0.1380396634466351 0.24024876031326919 0 0.12954986313609879 0.25966003259786019 0 0.1380396634466351 0.24024876031326919 0 0.12850052128049691 0.22816313454829451 0 0.14677959469473079 0.22420447983408379 0 0.1380396634466351 0.24024876031326919 0 0.14677959469473079 0.22420447983408379 0 0.15789362260467041 0.23593912242974599 0 0.14677959469473079 0.22420447983408379 0 0.14259120322775831 0.20295041988715309 0 0.1668729629140934 0.21372096199195581 0 0.11467576576267249 0.21506550688823739 0 0.1256790613578205 0.19456737876663921 0 0.14259120322775831 0.20295041988715309 0 0.12850052128049691 0.22816313454829451 0 0.14677959469473079 0.22420447983408379 0 0.14259120322775831 0.20295041988715309 0 0.11467576576267249 0.21506550688823739 0 0.12850052128049691 0.22816313454829451 0 0.14259120322775831 0.20295041988715309 0 0.1432567069679701 0.18510845942500451 0 0.1256790613578205 0.19456737876663921 0 0.14259120322775831 0.20295041988715309 0 0.1432567069679701 0.18510845942500451 0 0.14259120322775831 0.20295041988715309 0 0.15938016315480519 0.19509295521855419 0 0.16805786894662961 0.178712895736342 0 0.15938016315480519 0.19509295521855419 0 0.19247165545621289 0.19290055792757169 0 0.15938016315480519 0.19509295521855419 0 0.1668729629140934 0.21372096199195581 0 0.19247165545621289 0.19290055792757169 0 0.1668729629140934 0.21372096199195581 0 0.19367076920468329 0.21780787625795731 0 0.19247165545621289 0.19290055792757169 0 0.14259120322775831 0.20295041988715309 0 0.15938016315480519 0.19509295521855419 0 0.1668729629140934 0.21372096199195581 0 0.1668729629140934 0.21372096199195581 0 0.17798126184684721 0.23334105661034699 0 0.15789362260467041 0.23593912242974599 0 0.14677959469473079 0.22420447983408379 0 0.1668729629140934 0.21372096199195581 0 0.15789362260467041 0.23593912242974599 0 0.1668729629140934 0.21372096199195581 0 0.17798126184684721 0.23334105661034699 0 0.19367076920468329 0.21780787625795731 0 0.17798126184684721 0.23334105661034699 0 0.19631113481602469 0.24161166483964239 0 0.1751578196947641 0.25762565753243361 0 0.17798126184684721 0.23334105661034699 0 0.15789362260467041 0.23593912242974599 0 0.1751578196947641 0.25762565753243361 0 0.15789362260467041 0.23593912242974599 0 0.14985317479105889 0.25641055026691512 0 0.1751578196947641 0.25762565753243361 0 0.19631113481602469 0.24161166483964239 0 0.2194422312111613 0.23258133671058789 0 0.21922140051195271 0.25973847567324782 0 0.17798126184684721 0.23334105661034699 0 0.19631113481602469 0.24161166483964239 0 0.19367076920468329 0.21780787625795731 0 0.21688544196579629 0.2070882201188014 0 0.19367076920468329 0.21780787625795731 0 0.2194422312111613 0.23258133671058789 0 0.19631113481602469 0.24161166483964239 0 0.19367076920468329 0.21780787625795731 0 0.2194422312111613 0.23258133671058789 0 0.21688544196579629 0.2070882201188014 0 0.19367076920468329 0.21780787625795731 0 0.19247165545621289 0.19290055792757169 0 0.21688544196579629 0.2070882201188014 0 0.19247165545621289 0.19290055792757169 0 0.21688544196579629 0.2070882201188014 0 0.19247165545621289 0.19290055792757169 0 0.21439563653319621 0.1811185543715122 0 0.21688544196579629 0.2070882201188014 0 0.230384311991505 0.19011006447239229 0 0.21439563653319621 0.1811185543715122 0 0.21688544196579629 0.2070882201188014 0 0.230384311991505 0.19011006447239229 0 0.2421304067638739 0.2033168939570765 0 0.2421304067638739 0.2033168939570765 0 0.24296158505236981 0.18535790560412049 0 0.230384311991505 0.19011006447239229 0 0.2421304067638739 0.2033168939570765 0 0.24296158505236981 0.18535790560412049 0 0.2421304067638739 0.2033168939570765 0 0.24296158505236981 0.18535790560412049 0 0.25516797988164652 0.19677723396004301 0 0.2421304067638739 0.2033168939570765 0 0.2412992284753788 0.22127588231003251 0 0.25972824514266152 0.21313008597689859 0 0.2421304067638739 0.2033168939570765 0 0.2412992284753788 0.22127588231003251 0 0.21688544196579629 0.2070882201188014 0 0.2412992284753788 0.22127588231003251 0 0.21688544196579629 0.2070882201188014 0 0.2421304067638739 0.2033168939570765 0 0.2412992284753788 0.22127588231003251 0 0.21688544196579629 0.2070882201188014 0 0.2194422312111613 0.23258133671058789 0 0.2412992284753788 0.22127588231003251 0 0.2194422312111613 0.23258133671058789 0 0.2412992284753788 0.22127588231003251 0 0.2401615503470183 0.2458573091102893 0 0.2412992284753788 0.22127588231003251 0 0.2401615503470183 0.2458573091102893 0 0.26286204550881048 0.23380675144995419 0 0.2412992284753788 0.22127588231003251 0 0.2401615503470183 0.2458573091102893 0 0.2194422312111613 0.23258133671058789 0 0.2401615503470183 0.2458573091102893 0 0.21922140051195271 0.25973847567324782 0 0.21084192174534019 0.1418589082859032 0 0.2084325260884517 0.1615720397530096 0 0.22239494097946061 0.15144630142208221 0 0.21084192174534019 0.1418589082859032 0 0.19403004866561829 0.15002527330455359 0 0.2084325260884517 0.1615720397530096 0 0.21084192174534019 0.1418589082859032 0 0.21574373035682529 0.12509643088899869 0 0.20334256149634311 0.1322614040574642 0 0.21084192174534019 0.1418589082859032 0 0.21574373035682529 0.12509643088899869 0 0.22535993337429511 0.1363728779493312 0 0.20334256149634311 0.1322614040574642 0 0.1911382329098345 0.1275606045493162 0 0.19403004866561829 0.15002527330455359 0 0.1791058667746841 0.1369586492912617 0 0.1911382329098345 0.1275606045493162 0 0.19403004866561829 0.15002527330455359 0 0.1911382329098345 0.1275606045493162 0 0.19403004866561829 0.15002527330455359 0 0.20334256149634311 0.1322614040574642 0 0.1911382329098345 0.1275606045493162 0 0.2049588738040978 0.1167658032585502 0 0.21084192174534019 0.1418589082859032 0 0.20334256149634311 0.1322614040574642 0 0.19403004866561829 0.15002527330455359 0 0.19403004866561829 0.15002527330455359 0 0.19692186442139961 0.17248994205979129 0 0.19403004866561829 0.15002527330455359 0 0.19692186442139961 0.17248994205979129 0 0.2084325260884517 0.1615720397530096 0 0.17862598545672281 0.1607831837711097 0 0.19403004866561829 0.15002527330455359 0 0.19692186442139961 0.17248994205979129 0 0.19247165545621289 0.19290055792757169 0 0.19692186442139961 0.17248994205979129 0 0.21439563653319621 0.1811185543715122 0 0.21439563653319621 0.1811185543715122 0 0.2084325260884517 0.1615720397530096 0 0.22227626998422881 0.16643539740272839 0 0.19692186442139961 0.17248994205979129 0 0.21439563653319621 0.1811185543715122 0 0.2084325260884517 0.1615720397530096 0 0.2084325260884517 0.1615720397530096 0 0.22227626998422881 0.16643539740272839 0 0.22239494097946061 0.15144630142208221 0 0.22227626998422881 0.16643539740272839 0 0.23232634337123659 0.1599549702032533 0 0.22239494097946061 0.15144630142208221 0 0.22227626998422881 0.16643539740272839 0 0.23232634337123659 0.1599549702032533 0 0.23399268864119549 0.1739628288570132 0 0.230384311991505 0.19011006447239229 0 0.21439563653319621 0.1811185543715122 0 0.23399268864119549 0.1739628288570132 0 0.21439563653319621 0.1811185543715122 0 0.22227626998422881 0.16643539740272839 0 0.23399268864119549 0.1739628288570132 0 0.24296158505236981 0.18535790560412049 0 0.245332083239199 0.16387733992730119 0 0.2586352776645402 0.18376471114627199 0 0.23399268864119549 0.1739628288570132 0 0.24296158505236981 0.18535790560412049 0 0.245332083239199 0.16387733992730119 0 0.230384311991505 0.19011006447239229 0 0.23399268864119549 0.1739628288570132 0 0.24296158505236981 0.18535790560412049 0 0.23232634337123659 0.1599549702032533 0 0.23399268864119549 0.1739628288570132 0 0.245332083239199 0.16387733992730119 0 0.23232634337123659 0.1599549702032533 0 0.245332083239199 0.16387733992730119 0 0.23607993301100641 0.14434706395370389 0 0.245332083239199 0.16387733992730119 0 0.23607993301100641 0.14434706395370389 0 0.25126119266682923 0.14355190786909219 0 0.23232634337123659 0.1599549702032533 0 0.23607993301100641 0.14434706395370389 0 0.22239494097946061 0.15144630142208221 0 0.23607993301100641 0.14434706395370389 0 0.22239494097946061 0.15144630142208221 0 0.22535993337429511 0.1363728779493312 0 0.21084192174534019 0.1418589082859032 0 0.22239494097946061 0.15144630142208221 0 0.22535993337429511 0.1363728779493312 0 0.21574373035682529 0.12509643088899869 0 0.22535993337429511 0.1363728779493312 0 0.23027938041756979 0.12297410344580351 0 0.23607993301100641 0.14434706395370389 0 0.22535993337429511 0.1363728779493312 0 0.2395889632723294 0.13253728848937851 0 0.22535993337429511 0.1363728779493312 0 0.2395889632723294 0.13253728848937851 0 0.23027938041756979 0.12297410344580351 0 0.23607993301100641 0.14434706395370389 0 0.2395889632723294 0.13253728848937851 0 0.25126119266682923 0.14355190786909219 0 0.2395889632723294 0.13253728848937851 0 0.25025677146151371 0.12896077062257741 0 0.25126119266682923 0.14355190786909219 0 0.2395889632723294 0.13253728848937851 0 0.24429656870276231 0.1190170070957627 0 0.25025677146151371 0.12896077062257741 0 0.24429656870276231 0.1190170070957627 0 0.23673036290680211 0.1106651557815095 0 0.25023704899119109 0.1052469062197824 0 0.2395889632723294 0.13253728848937851 0 0.24429656870276231 0.1190170070957627 0 0.23027938041756979 0.12297410344580351 0 0.24429656870276231 0.1190170070957627 0 0.23673036290680211 0.1106651557815095 0 0.23027938041756979 0.12297410344580351 0 0.2400432199128654 0.096494306274414576 0 0.25023704899119109 0.1052469062197824 0 0.23673036290680211 0.1106651557815095 0 0.2400432199128654 0.096494306274414576 0 0.25023704899119109 0.1052469062197824 0 0.23673036290680211 0.1106651557815095 0 0.2400432199128654 0.096494306274414576 0 0.21877951469836179 0.10597100196778519 0 0.2400432199128654 0.096494306274414576 0 0.21877951469836179 0.10597100196778519 0 0.2400432199128654 0.096494306274414576 0 0.23344973231042451 0.094512627119175796 0 0.21877951469836179 0.10597100196778519 0 0.23344973231042451 0.094512627119175796 0 0.21877951469836179 0.10597100196778519 0 0.2189498167239759 0.092178970198694338 0 0.23344973231042451 0.094512627119175796 0 0.21877951469836179 0.10597100196778519 0 0.23673036290680211 0.1106651557815095 0 0.21877951469836179 0.10597100196778519 0 0.23027938041756979 0.12297410344580351 0 0.21574373035682529 0.12509643088899869 0 0.21877951469836179 0.10597100196778519 0 0.23027938041756979 0.12297410344580351 0 0.21574373035682529 0.12509643088899869 0 0.21877951469836179 0.10597100196778519 0 0.2049588738040978 0.1167658032585502 0 0.21574373035682529 0.12509643088899869 0 0.20334256149634311 0.1322614040574642 0 0.2049588738040978 0.1167658032585502 0 0.21877951469836179 0.10597100196778519 0 0.2049588738040978 0.1167658032585502 0 0.20439456031652589 0.1123820123662321 0 0.21877951469836179 0.10597100196778519 0 0.2049588738040978 0.1167658032585502 0 0.21877951469836179 0.10597100196778519 0 0.20439456031652589 0.1123820123662321 0 0.21877951469836179 0.10597100196778519 0 0.20439456031652589 0.1123820123662321 0 0.20353231393762189 0.094781480956417641 0 0.21877951469836179 0.10597100196778519 0 0.20353231393762189 0.094781480956417641 0 0.2189498167239759 0.092178970198694338 0 0.187485411611028 0.099184170007879741 0 0.19000960593468971 0.1187930227646783 0 0.20439456031652589 0.1123820123662321 0 0.20353231393762189 0.094781480956417641 0 0.187485411611028 0.099184170007879741 0 0.20439456031652589 0.1123820123662321 0 0.187485411611028 0.099184170007879741 0 0.19000960593468971 0.1187930227646783 0 0.1911382329098345 0.1275606045493162 0 0.19000960593468971 0.1187930227646783 0 0.1911382329098345 0.1275606045493162 0 0.2049588738040978 0.1167658032585502 0 0.1911382329098345 0.1275606045493162 0 0.2049588738040978 0.1167658032585502 0 0.19000960593468971 0.1187930227646783 0 0.20439456031652589 0.1123820123662321 0 0.19000960593468971 0.1187930227646783 0 0.2049588738040978 0.1167658032585502 0 0.20439456031652589 0.1123820123662321 0 0.19000960593468971 0.1187930227646783 0 0.20143150960957279 0.063341616456445204 0 0.18496121728736661 0.079575317251081246 0 0.179529243056992 0.063854403030979917 0 0.20143150960957279 0.063341616456445204 0 0.20552808871173781 0.080303765584130271 0 0.18496121728736661 0.079575317251081246 0 0.20353231393762189 0.094781480956417641 0 0.20552808871173781 0.080303765584130271 0 0.18496121728736661 0.079575317251081246 0 0.20353231393762189 0.094781480956417641 0 0.187485411611028 0.099184170007879741 0 0.18496121728736661 0.079575317251081246 0 0.20353231393762189 0.094781480956417641 0 0.20552808871173781 0.080303765584130271 0 0.2189498167239759 0.092178970198694338 0 0.20552808871173781 0.080303765584130271 0 0.2189498167239759 0.092178970198694338 0 0.22073736476121891 0.079917961365430015 0 0.20143150960957279 0.063341616456445204 0 0.22073736476121891 0.079917961365430015 0 0.20143150960957279 0.063341616456445204 0 0.20552808871173781 0.080303765584130271 0 0.22073736476121891 0.079917961365430015 0 0.20143150960957279 0.063341616456445204 0 0.22073736476121891 0.079917961365430015 0 0.22146227083888501 0.055280219122894242 0 0.22073736476121891 0.079917961365430015 0 0.24236200917689829 0.071146248962842704 0 0.22146227083888501 0.055280219122894242 0 0.2400432199128654 0.096494306274414576 0 0.23344973231042451 0.094512627119175796 0 0.22073736476121891 0.079917961365430015 0 0.2400432199128654 0.096494306274414576 0 0.22073736476121891 0.079917961365430015 0 0.23344973231042451 0.094512627119175796 0 0.2189498167239759 0.092178970198694338 0 0.22073736476121891 0.079917961365430015 0 0.2400432199128654 0.096494306274414576 0 0.22073736476121891 0.079917961365430015 0 0.24236200917689829 0.071146248962842704 0 0.2400432199128654 0.096494306274414576 0 0.24236200917689829 0.071146248962842704 0 0.26301159695607512 0.086257881455061719 0 0.24236200917689829 0.071146248962842704 0 0.242793264139128 0.046571216962303708 0 0.22146227083888501 0.055280219122894242 0 0.242793264139128 0.046571216962303708 0 0.22519282482911679 0.037679600003528053 0 0.23825647195069499 0.02590580448818797 0 0.242793264139128 0.046571216962303708 0 0.23825647195069499 0.02590580448818797 0 0.25145097858043691 0.033250747220101663 0 0.242793264139128 0.046571216962303708 0 0.22519282482911679 0.037679600003528053 0 0.22146227083888501 0.055280219122894242 0 0.22519282482911679 0.037679600003528053 0 0.22146227083888501 0.055280219122894242 0 0.21262659764282321 0.04146782799736428 0 0.22519282482911679 0.037679600003528053 0 0.2210947953560248 0.025106256079717681 0 0.21214946999163881 0.031242496166102168 0 0.24919497150951991 0.0083708591586718235 0 0.23825647195069499 0.02590580448818797 0 0.22681017395631881 0.01128963505630334 0 0.24919497150951991 0.0083708591586718235 0 0.22681017395631881 0.01128963505630334 0 0.2437956037903577 0.0081593705510081757 0 0.24919497150951991 0.0083708591586718235 0 0.22681017395631881 0.01128963505630334 0 0.2437956037903577 0.0081593705510081757 0 0.24919497150951991 0.0083708591586718235 0 0.2443368381618172 -0.0014217291461706941 0 0.24919497150951991 0.0083708591586718235 0 0.23825647195069499 0.02590580448818797 0 0.25231904427849411 0.021983750114194719 0 0.23825647195069499 0.02590580448818797 0 0.25231904427849411 0.021983750114194719 0 0.25145097858043691 0.033250747220101663 0 0.23825647195069499 0.02590580448818797 0 0.2210947953560248 0.025106256079717681 0 0.22681017395631881 0.01128963505630334 0 0.22519282482911679 0.037679600003528053 0 0.23825647195069499 0.02590580448818797 0 0.2210947953560248 0.025106256079717681 0 0.2210947953560248 0.025106256079717681 0 0.22681017395631881 0.01128963505630334 0 0.21080218108549159 0.021237586048871122 0 0.2437956037903577 0.0081593705510081757 0 0.22681017395631881 0.01128963505630334 0 0.2238187354208786 -0.01032781909156914 0 0.22681017395631881 0.01128963505630334 0 0.20442634121126069 0.014215810300686631 0 0.21080218108549159 0.021237586048871122 0 0.22681017395631881 0.01128963505630334 0 0.2041377938698247 0.0071157717978486829 0 0.20442634121126069 0.014215810300686631 0 0.22681017395631881 0.01128963505630334 0 0.20442634121126069 0.014215810300686631 0 0.22681017395631881 0.01128963505630334 0 0.2041377938698247 0.0071157717978486829 0 0.2238187354208786 -0.01032781909156914 0 0.2041377938698247 0.0071157717978486829 0 0.20442634121126069 0.014215810300686631 0 0.21080218108549159 0.021237586048871122 0 0.2017802351407039 0.026665045772209631 0 0.20105427380801241 0.02006988834363594 0 0.20442634121126069 0.014215810300686631 0 0.21080218108549159 0.021237586048871122 0 0.20105427380801241 0.02006988834363594 0 0.2210947953560248 0.025106256079717681 0 0.21080218108549159 0.021237586048871122 0 0.21214946999163881 0.031242496166102168 0 0.21080218108549159 0.021237586048871122 0 0.21214946999163881 0.031242496166102168 0 0.2017802351407039 0.026665045772209631 0 0.21214946999163881 0.031242496166102168 0 0.2017802351407039 0.026665045772209631 0 0.2014001858956723 0.035298661094922273 0 0.2017802351407039 0.026665045772209631 0 0.1942365905127498 0.03047998427761096 0 0.2014001858956723 0.035298661094922273 0 0.2017802351407039 0.026665045772209631 0 0.19429398509653761 0.02368009568639259 0 0.20105427380801241 0.02006988834363594 0 0.2017802351407039 0.026665045772209631 0 0.1942365905127498 0.03047998427761096 0 0.19429398509653761 0.02368009568639259 0 0.1881222178597379 0.02581403966026246 0 0.19429398509653761 0.02368009568639259 0 0.18581884225355971 0.023352205237187441 0 0.1942365905127498 0.03047998427761096 0 0.1881222178597379 0.02581403966026246 0 0.18959641253537099 0.031962186398538213 0 0.1942365905127498 0.03047998427761096 0 0.1881222178597379 0.02581403966026246 0 0.19429398509653761 0.02368009568639259 0 0.19429398509653761 0.02368009568639259 0 0.1947054961292275 0.015475795758459591 0 0.18581884225355971 0.023352205237187441 0 0.1947054961292275 0.015475795758459591 0 0.18581884225355971 0.023352205237187441 0 0.19429398509653761 0.02368009568639259 0 0.20105427380801241 0.02006988834363594 0 0.1947054961292275 0.015475795758459591 0 0.20442634121126069 0.014215810300686631 0 0.20105427380801241 0.02006988834363594 0 0.1947054961292275 0.015475795758459591 0 0.20442634121126069 0.014215810300686631 0 0.1947054961292275 0.015475795758459591 0 0.2041377938698247 0.0071157717978486829 0 0.1947054961292275 0.015475795758459591 0 0.1947445826830477 0.0025945221424396271 0 0.2041377938698247 0.0071157717978486829 0 0.20442634121126069 0.014215810300686631 0 0.1947054961292275 0.015475795758459591 0 0.2041377938698247 0.0071157717978486829 0 0.1947054961292275 0.015475795758459591 0 0.1947054961292275 0.015475795758459591 0 0.1947445826830477 0.0025945221424396271 0 0.186432714383994 0.0070262045413187306 0 0.1947445826830477 0.0025945221424396271 0 0.186432714383994 0.0070262045413187306 0 0.18535099892293991 -0.0051935449981599657 0 0.22146227083888501 0.055280219122894242 0 0.21262659764282321 0.04146782799736428 0 0.20177369087734609 0.04665734712050338 0 0.20143150960957279 0.063341616456445204 0 0.22146227083888501 0.055280219122894242 0 0.20177369087734609 0.04665734712050338 0 0.22519282482911679 0.037679600003528053 0 0.21214946999163881 0.031242496166102168 0 0.21262659764282321 0.04146782799736428 0 0.21214946999163881 0.031242496166102168 0 0.21262659764282321 0.04146782799736428 0 0.2014001858956723 0.035298661094922273 0 0.21262659764282321 0.04146782799736428 0 0.20177369087734609 0.04665734712050338 0 0.2014001858956723 0.035298661094922273 0 0.20177369087734609 0.04665734712050338 0 0.2014001858956723 0.035298661094922273 0 0.1915959268191969 0.037790486503933927 0 0.20177369087734609 0.04665734712050338 0 0.1915959268191969 0.037790486503933927 0 0.18212565445792669 0.046765271547460373 0 0.1942365905127498 0.03047998427761096 0 0.2014001858956723 0.035298661094922273 0 0.1915959268191969 0.037790486503933927 0 0.1942365905127498 0.03047998427761096 0 0.1915959268191969 0.037790486503933927 0 0.18959641253537099 0.031962186398538213 0 0.1915959268191969 0.037790486503933927 0 0.18959641253537099 0.031962186398538213 0 0.1844309149497993 0.033764235152345487 0 0.20143150960957279 0.063341616456445204 0 0.18212565445792669 0.046765271547460373 0 0.179529243056992 0.063854403030979917 0 0.20143150960957279 0.063341616456445204 0 0.20177369087734609 0.04665734712050338 0 0.18212565445792669 0.046765271547460373 0 0.20143150960957279 0.063341616456445204 0 0.18212565445792669 0.046765271547460373 0 0.18212565445792669 0.046765271547460373 0 0.1582325005140863 0.056573861674522503 0 0.179529243056992 0.063854403030979917 0 0.1915959268191969 0.037790486503933927 0 0.18212565445792669 0.046765271547460373 0 0.1844309149497993 0.033764235152345487 0 0.1844309149497993 0.033764235152345487 0 0.17063590687791391 0.03689997330983083 0 0.18581884225355971 0.023352205237187441 0 0.18212565445792669 0.046765271547460373 0 0.17063590687791391 0.03689997330983083 0 0.18212565445792669 0.046765271547460373 0 0.1844309149497993 0.033764235152345487 0 0.17063590687791391 0.03689997330983083 0 0.18212565445792669 0.046765271547460373 0 0.17063590687791391 0.03689997330983083 0 0.1582325005140863 0.056573861674522503 0 0.17063590687791391 0.03689997330983083 0 0.1582325005140863 0.056573861674522503 0 0.16281979930628049 0.030188926638475541 0 0.17063590687791391 0.03689997330983083 0 0.16281979930628049 0.030188926638475541 0 0.17713446895202581 0.0027071555325514931 0 0.180216980166478 0.017364967687936349 0 0.1597115953628577 -0.004551068078293679 0 0.17713446895202581 0.0027071555325514931 0 0.186432714383994 0.0070262045413187306 0 0.18535099892293991 -0.0051935449981599657 0 0.17713446895202581 0.0027071555325514931 0 0.186432714383994 0.0070262045413187306 0 0.180216980166478 0.017364967687936349 0 0.1947054961292275 0.015475795758459591 0 0.186432714383994 0.0070262045413187306 0 0.180216980166478 0.017364967687936349 0 0.180216980166478 0.017364967687936349 0 0.17310890739457749 0.025336066402616531 0 0.16572663112149269 0.019254378634819089 0 0.180216980166478 0.017364967687936349 0 0.16572663112149269 0.019254378634819089 0 0.1947054961292275 0.015475795758459591 0 0.180216980166478 0.017364967687936349 0 0.18581884225355971 0.023352205237187441 0 0.180216980166478 0.017364967687936349 0 0.18581884225355971 0.023352205237187441 0 0.17310890739457749 0.025336066402616531 0 0.1947054961292275 0.015475795758459591 0 0.180216980166478 0.017364967687936349 0 0.180216980166478 0.017364967687936349 0 0.18581884225355971 0.023352205237187441 0 0.1881222178597379 0.02581403966026246 0 0.1844309149497993 0.033764235152345487 0 0.18581884225355971 0.023352205237187441 0 0.1881222178597379 0.02581403966026246 0 0.18959641253537099 0.031962186398538213 0 0.1844309149497993 0.033764235152345487 0 0.1881222178597379 0.02581403966026246 0 0.18581884225355971 0.023352205237187441 0 0.17063590687791391 0.03689997330983083 0 0.18581884225355971 0.023352205237187441 0 0.17310890739457749 0.025336066402616531 0 0.17063590687791391 0.03689997330983083 0 0.18581884225355971 0.023352205237187441 0 0.16281979930628049 0.030188926638475541 0 0.16572663112149269 0.019254378634819089 0 0.14351394415463439 0.01361258172949073 0 0.17310890739457749 0.025336066402616531 0 0.16281979930628049 0.030188926638475541 0 0.16572663112149269 0.019254378634819089 0 0.17063590687791391 0.03689997330983083 0 0.17310890739457749 0.025336066402616531 0 0.16281979930628049 0.030188926638475541 0 0.16572663112149269 0.019254378634819089 0 0.15185178981994291 0.0051732104260197066 0 0.1597115953628577 -0.004551068078293679 0 0.180216980166478 0.017364967687936349 0 0.1597115953628577 -0.004551068078293679 0 0.180216980166478 0.017364967687936349 0 0.16572663112149269 0.019254378634819089 0 0.1597115953628577 -0.004551068078293679 0 0.16572663112149269 0.019254378634819089 0 0.15185178981994291 0.0051732104260197066 0 0.14351394415463439 0.01361258172949073 0 0.15185178981994291 0.0051732104260197066 0 0.14351394415463439 0.01361258172949073 0 0.1384549886407869 -0.0076230505819373006 0 0.16281979930628049 0.030188926638475541 0 0.14351394415463439 0.01361258172949073 0 0.1400225675035067 0.03855476684627563 0 0.16281979930628049 0.030188926638475541 0 0.14351394415463439 0.01361258172949073 0 0.11958777769478759 0.018563325633784111 0 0.14351394415463439 0.01361258172949073 0 0.12756671846366541 0.03035088117771842 0 0.14351394415463439 0.01361258172949073 0 0.12756671846366541 0.03035088117771842 0 0.1400225675035067 0.03855476684627563 0 0.11958777769478759 0.018563325633784111 0 0.14351394415463439 0.01361258172949073 0 0.12420808900298839 -0.002963763179494149 0 0.14351394415463439 0.01361258172949073 0 0.12420808900298839 -0.002963763179494149 0 0.14351394415463439 0.01361258172949073 0 0.12420808900298839 -0.002963763179494149 0 0.1384549886407869 -0.0076230505819373006 0 0.1582325005140863 0.056573861674522503 0 0.1400225675035067 0.03855476684627563 0 0.13209279743577931 0.061594098807270473 0 0.1582325005140863 0.056573861674522503 0 0.16281979930628049 0.030188926638475541 0 0.1400225675035067 0.03855476684627563 0 0.1163576027375398 0.039123890133197808 0 0.1400225675035067 0.03855476684627563 0 0.13209279743577931 0.061594098807270473 0 0.1163576027375398 0.039123890133197808 0 0.12756671846366541 0.03035088117771842 0 0.1400225675035067 0.03855476684627563 0 0.13209279743577931 0.061594098807270473 0 0.14782799213401879 0.084064307481343165 0 0.11654826128624179 0.083897270580498076 0 0.14782799213401879 0.084064307481343165 0 0.1321308772851239 0.1019693471251534 0 0.11654826128624179 0.083897270580498076 0 0.13209279743577931 0.061594098807270473 0 0.14782799213401879 0.084064307481343165 0 0.1582325005140863 0.056573861674522503 0 0.13209279743577931 0.061594098807270473 0 0.14782799213401879 0.084064307481343165 0 0.14782799213401879 0.084064307481343165 0 0.1321308772851239 0.1019693471251534 0 0.1635631868322581 0.1065345161554157 0 0.1321308772851239 0.1019693471251534 0 0.14778422405409941 0.1200572911566926 0 0.1635631868322581 0.1065345161554157 0 0.12532407705565429 0.12651291283451899 0 0.1321308772851239 0.1019693471251534 0 0.14778422405409941 0.1200572911566926 0 0.14782799213401879 0.084064307481343165 0 0.1635631868322581 0.1065345161554157 0 0.14782799213401879 0.084064307481343165 0 0.1635631868322581 0.1065345161554157 0 0.17194721478388711 0.091217467140699587 0 0.1635631868322581 0.1065345161554157 0 0.17783903473979121 0.11039281460218379 0 0.17194721478388711 0.091217467140699587 0 0.1693041950107167 0.1280209008110165 0 0.14778422405409941 0.1200572911566926 0 0.1635631868322581 0.1065345161554157 0 0.1693041950107167 0.1280209008110165 0 0.1635631868322581 0.1065345161554157 0 0.17783903473979121 0.11039281460218379 0 0.1693041950107167 0.1280209008110165 0 0.19000960593468971 0.1187930227646783 0 0.187485411611028 0.099184170007879741 0 0.19000960593468971 0.1187930227646783 0 0.17783903473979121 0.11039281460218379 0 0.1693041950107167 0.1280209008110165 0 0.19000960593468971 0.1187930227646783 0 0.17783903473979121 0.11039281460218379 0 0.1693041950107167 0.1280209008110165 0 0.1911382329098345 0.1275606045493162 0 0.19000960593468971 0.1187930227646783 0 0.187485411611028 0.099184170007879741 0 0.17783903473979121 0.11039281460218379 0 0.17194721478388711 0.091217467140699587 0 0.17194721478388711 0.091217467140699587 0 0.18496121728736661 0.079575317251081246 0 0.16803189759023829 0.073937791844077755 0 0.187485411611028 0.099184170007879741 0 0.17194721478388711 0.091217467140699587 0 0.18496121728736661 0.079575317251081246 0 0.187485411611028 0.099184170007879741 0 0.18496121728736661 0.079575317251081246 0 0.18496121728736661 0.079575317251081246 0 0.179529243056992 0.063854403030979917 0 0.16803189759023829 0.073937791844077755 0 0.1582325005140863 0.056573861674522503 0 0.14782799213401879 0.084064307481343165 0 0.16803189759023829 0.073937791844077755 0 0.1582325005140863 0.056573861674522503 0 0.179529243056992 0.063854403030979917 0 0.16803189759023829 0.073937791844077755 0 0.14782799213401879 0.084064307481343165 0 0.17194721478388711 0.091217467140699587 0 0.16803189759023829 0.073937791844077755 0 0.10074152611426709 0.48473563909564488 0 0.094710535320039729 0.49534829719987478 0 0.089212923375540043 0.47317073633820511 0 0.1041214538396991 0.47063826165398259 0 0.10074152611426709 0.48473563909564488 0 0.1181521448807476 0.47910587189452208 0 0.1041214538396991 0.47063826165398259 0 0.10074152611426709 0.48473563909564488 0 0.089212923375540043 0.47317073633820511 0 0.10074152611426709 0.48473563909564488 0 0.089212923375540043 0.47317073633820511 0 0.094962145043601509 0.5 0 0.1122701288529946 0.49630054185308431 0 0.1159579751080806 0.500000000000004 0 0.10074152611426709 0.48473563909564488 0 0.094710535320039729 0.49534829719987478 0 0.1122701288529946 0.49630054185308431 0 0.094962145043601509 0.5 0 0.094710535320039729 0.49534829719987478 0 0.1122701288529946 0.49630054185308431 0 0.094710535320039729 0.49534829719987478 0 0.1122701288529946 0.49630054185308431 0 0.10074152611426709 0.48473563909564488 0 0.1122701288529946 0.49630054185308431 0 0.1122701288529946 0.49630054185308431 0 0.1181521448807476 0.47910587189452208 0 0.13354287728216829 0.49745414833678719 0 0.10074152611426709 0.48473563909564488 0 0.1122701288529946 0.49630054185308431 0 0.1181521448807476 0.47910587189452208 0 0.1122701288529946 0.49630054185308431 0 0.1159579751080806 0.500000000000004 0 0.13354287728216829 0.49745414833678719 0 0.1122701288529946 0.49630054185308431 0 0.13354287728216829 0.49745414833678719 0 0.1122701288529946 0.49630054185308431 0 0.1159579751080806 0.500000000000004 0 0.1041214538396991 0.47063826165398259 0 0.1181521448807476 0.47910587189452208 0 0.1145189907573687 0.45843860172183282 0 0.1145189907573687 0.45843860172183282 0 0.1268369380096746 0.44485403652946842 0 0.13203429693280841 0.46485456583424678 0 0.1181521448807476 0.47910587189452208 0 0.1145189907573687 0.45843860172183282 0 0.13203429693280841 0.46485456583424678 0 0.1145189907573687 0.45843860172183282 0 0.1067504447656009 0.44231018210120582 0 0.1268369380096746 0.44485403652946842 0 0.1145189907573687 0.45843860172183282 0 0.1067504447656009 0.44231018210120582 0 0.097981684070573297 0.45774045921970707 0 0.1067504447656009 0.44231018210120582 0 0.097981684070573297 0.45774045921970707 0 0.1067504447656009 0.44231018210120582 0 0.097981684070573297 0.45774045921970707 0 0.091252082873025414 0.44911161823872131 0 0.1067504447656009 0.44231018210120582 0 0.091252082873025414 0.44911161823872131 0 0.093211119126496073 0.43513101814704869 0 0.1041214538396991 0.47063826165398259 0 0.1145189907573687 0.45843860172183282 0 0.097981684070573297 0.45774045921970707 0 0.1041214538396991 0.47063826165398259 0 0.097981684070573297 0.45774045921970707 0 0.089212923375540043 0.47317073633820511 0 0.097981684070573297 0.45774045921970707 0 0.089212923375540043 0.47317073633820511 0 0.087474718394838641 0.46117945267477678 0 0.079907136741490414 0.45489790326079421 0 0.071454990992377065 0.45535688969618943 0 0.087474718394838641 0.46117945267477678 0 0.071454990992377065 0.45535688969618943 0 0.089212923375540043 0.47317073633820511 0 0.071454990992377065 0.45535688969618943 0 0.089212923375540043 0.47317073633820511 0 0.097981684070573297 0.45774045921970707 0 0.087474718394838641 0.46117945267477678 0 0.089212923375540043 0.47317073633820511 0 0.097981684070573297 0.45774045921970707 0 0.087474718394838641 0.46117945267477678 0 0.091252082873025414 0.44911161823872131 0 0.087474718394838641 0.46117945267477678 0 0.079907136741490414 0.45489790326079421 0 0.091252082873025414 0.44911161823872131 0 0.091252082873025414 0.44911161823872131 0 0.081654963542222819 0.44231133756621999 0 0.093211119126496073 0.43513101814704869 0 0.079907136741490414 0.45489790326079421 0 0.091252082873025414 0.44911161823872131 0 0.081654963542222819 0.44231133756621999 0 0.081654963542222819 0.44231133756621999 0 0.071325881730069873 0.44567706267011808 0 0.063081548685676073 0.43142091244588798 0 0.079907136741490414 0.45489790326079421 0 0.071325881730069873 0.44567706267011808 0 0.071454990992377065 0.45535688969618943 0 0.079907136741490414 0.45489790326079421 0 0.081654963542222819 0.44231133756621999 0 0.071325881730069873 0.44567706267011808 0 0.071454990992377065 0.45535688969618943 0 0.06053076868858305 0.44439827038149959 0 0.071454990992377065 0.45535688969618943 0 0.055839364873215183 0.45620488271259529 0 0.06053076868858305 0.44439827038149959 0 0.071325881730069873 0.44567706267011808 0 0.071454990992377065 0.45535688969618943 0 0.06053076868858305 0.44439827038149959 0 0.071325881730069873 0.44567706267011808 0 0.06053076868858305 0.44439827038149959 0 0.063081548685676073 0.43142091244588798 0 0.071454990992377065 0.45535688969618943 0 0.067786176320652494 0.46878053199386682 0 0.089212923375540043 0.47317073633820511 0 0.079907136741490414 0.45489790326079421 0 0.071454990992377065 0.45535688969618943 0 0.071454990992377065 0.45535688969618943 0 0.067786176320652494 0.46878053199386682 0 0.055839364873215183 0.45620488271259529 0 0.071454990992377065 0.45535688969618943 0 0.055839364873215183 0.45620488271259529 0 0.067786176320652494 0.46878053199386682 0 0.063506183659477022 0.47773244738796838 0 0.075188830376506796 0.48052306335420197 0 0.067786176320652494 0.46878053199386682 0 0.075188830376506796 0.48052306335420197 0 0.089212923375540043 0.47317073633820511 0 0.063506183659477022 0.47773244738796838 0 0.075188830376506796 0.48052306335420197 0 0.070537868371486553 0.48735856372700997 0 0.075188830376506796 0.48052306335420197 0 0.089212923375540043 0.47317073633820511 0 0.077150941787085051 0.4943960525466623 0 0.089212923375540043 0.47317073633820511 0 0.077150941787085051 0.4943960525466623 0 0.094710535320039729 0.49534829719987478 0 0.077150941787085051 0.4943960525466623 0 0.094962145043601509 0.5 0 0.094710535320039729 0.49534829719987478 0 0.077150941787085051 0.4943960525466623 0 0.094962145043601509 0.5 0 0.077150941787085051 0.4943960525466623 0 0.073966314979122372 0.50000000000000178 0 0.094710535320039729 0.49534829719987478 0 0.089212923375540043 0.47317073633820511 0 0.077150941787085051 0.4943960525466623 0 0.077150941787085051 0.4943960525466623 0 0.074494688974149015 0.49425200578761191 0 0.073966314979122372 0.50000000000000178 0 0.073966314979122372 0.50000000000000178 0 0.054274455960656942 0.5 0 0.062348697060215487 0.48988924955860591 0 0.077150941787085051 0.4943960525466623 0 0.073966314979122372 0.50000000000000178 0 0.077150941787085051 0.4943960525466623 0 0.074494688974149015 0.49425200578761191 0 0.075188830376506796 0.48052306335420197 0 0.077150941787085051 0.4943960525466623 0 0.070537868371486553 0.48735856372700997 0 0.077150941787085051 0.4943960525466623 0 0.074494688974149015 0.49425200578761191 0 0.070537868371486553 0.48735856372700997 0 0.063506183659477022 0.47773244738796838 0 0.070537868371486553 0.48735856372700997 0 0.062348697060215487 0.48988924955860591 0 0.074494688974149015 0.49425200578761191 0 0.070537868371486553 0.48735856372700997 0 0.062348697060215487 0.48988924955860591 0 0.074494688974149015 0.49425200578761191 0 0.073966314979122372 0.50000000000000178 0 0.062348697060215487 0.48988924955860591 0 0.062348697060215487 0.48988924955860591 0 0.052801595697150809 0.48093842282535171 0 0.046214806336390128 0.48988881486989061 0 0.054274455960656942 0.5 0 0.062348697060215487 0.48988924955860591 0 0.046214806336390128 0.48988881486989061 0 0.067786176320652494 0.46878053199386682 0 0.063506183659477022 0.47773244738796838 0 0.051514764646800132 0.46969517247403908 0 0.063506183659477022 0.47773244738796838 0 0.052801595697150809 0.48093842282535171 0 0.051514764646800132 0.46969517247403908 0 0.063506183659477022 0.47773244738796838 0 0.062348697060215487 0.48988924955860591 0 0.052801595697150809 0.48093842282535171 0 0.052801595697150809 0.48093842282535171 0 0.051514764646800132 0.46969517247403908 0 0.037403167848122892 0.47852643786450078 0 0.031220438929435219 0.47885823283273449 0 0.037403167848122892 0.47852643786450078 0 0.02800385941092073 0.45771646566546781 0 0.052801595697150809 0.48093842282535171 0 0.037403167848122892 0.47852643786450078 0 0.046214806336390128 0.48988881486989061 0 0.054274455960656942 0.5 0 0.034437018447947103 0.50000000000000178 0 0.046214806336390128 0.48988881486989061 0 0.031220438929435219 0.47885823283273449 0 0.034437018447947103 0.50000000000000178 0 0.031220438929435219 0.47885823283273449 0 0.037403167848122892 0.47852643786450078 0 0.034437018447947103 0.50000000000000178 0 0.037403167848122892 0.47852643786450078 0 0.034437018447947103 0.50000000000000178 0 0.037403167848122892 0.47852643786450078 0 0.034437018447947103 0.50000000000000178 0 0.046214806336390128 0.48988881486989061 0 0.031220438929435219 0.47885823283273449 0 0.034437018447947103 0.50000000000000178 0 0.021378199909727901 0.4894495320943788 0 0.034437018447947103 0.50000000000000178 0 0.021378199909727901 0.4894495320943788 0 0.0089024403028718502 0.5 0 0.031220438929435219 0.47885823283273449 0 0.010952901958657699 0.47893989554477873 0 0.019450282488670159 0.46830560644301839 0 0.031220438929435219 0.47885823283273449 0 0.021378199909727901 0.4894495320943788 0 0.010952901958657699 0.47893989554477873 0 -0.0084272595809318229 0.48487193249339738 0 -0.0020232555169920458 0.47192666490181739 0 0.010952901958657699 0.47893989554477873 0 -0.0020232555169920458 0.47192666490181739 0 0.010952901958657699 0.47893989554477873 0 0.0098003185034536526 0.45870499314720981 0 0.021378199909727901 0.4894495320943788 0 0.010952901958657699 0.47893989554477873 0 0.0089024403028718502 0.5 0 -0.0084272595809318229 0.48487193249339738 0 0.010952901958657699 0.47893989554477873 0 0.0089024403028718502 0.5 0 -0.00096271743285814698 0.44760425322899178 0 0.01182585947114791 0.44250094365390291 0 0.0098003185034536526 0.45870499314720981 0 -0.0020380957693487771 0.43413130746409151 0 -0.00096271743285814698 0.44760425322899178 0 0.01182585947114791 0.44250094365390291 0 -0.0084032224040134704 0.45969352062895152 0 0.0098003185034536526 0.45870499314720981 0 0.010952901958657699 0.47893989554477873 0 0.0098003185034536526 0.45870499314720981 0 0.019450282488670159 0.46830560644301839 0 -0.0084032224040134704 0.45969352062895152 0 -0.00096271743285814698 0.44760425322899178 0 0.0098003185034536526 0.45870499314720981 0 0.031220438929435219 0.47885823283273449 0 0.019450282488670159 0.46830560644301839 0 0.02800385941092073 0.45771646566546781 0 0.031220438929435219 0.47885823283273449 0 0.02800385941092073 0.45771646566546781 0 0.0098003185034536526 0.45870499314720981 0 0.02800385941092073 0.45771646566546781 0 0.0098003185034536526 0.45870499314720981 0 0.019450282488670159 0.46830560644301839 0 0.02800385941092073 0.45771646566546781 0 0.02800385941092073 0.45771646566546781 0 0.033670306998470928 0.44477561848144542 0 0.024292199030424629 0.43332065666498282 0 0.01182585947114791 0.44250094365390291 0 0.02800385941092073 0.45771646566546781 0 0.024292199030424629 0.43332065666498282 0 0.02800385941092073 0.45771646566546781 0 0.024292199030424629 0.43332065666498282 0 0.01182585947114791 0.44250094365390291 0 0.0098003185034536526 0.45870499314720981 0 0.02800385941092073 0.45771646566546781 0 0.033670306998470928 0.44477561848144542 0 0.033923621016176651 0.43527083318928811 0 0.024292199030424629 0.43332065666498282 0 0.040223738754053343 0.45705287572900161 0 0.042858773333566073 0.43699183820877968 0 0.033670306998470928 0.44477561848144542 0 0.042858773333566073 0.43699183820877968 0 0.033923621016176651 0.43527083318928811 0 0.033670306998470928 0.44477561848144542 0 0.040223738754053343 0.45705287572900161 0 0.042858773333566073 0.43699183820877968 0 0.040223738754053343 0.45705287572900161 0 0.04811555719912293 0.44761888819965612 0 0.042858773333566073 0.43699183820877968 0 0.02800385941092073 0.45771646566546781 0 0.033670306998470928 0.44477561848144542 0 0.040223738754053343 0.45705287572900161 0 0.049121400324636001 0.44070322721845429 0 0.04811555719912293 0.44761888819965612 0 0.042858773333566073 0.43699183820877968 0 0.037403167848122892 0.47852643786450078 0 0.040223738754053343 0.45705287572900161 0 0.037403167848122892 0.47852643786450078 0 0.02800385941092073 0.45771646566546781 0 0.040223738754053343 0.45705287572900161 0 0.051514764646800132 0.46969517247403908 0 0.037403167848122892 0.47852643786450078 0 0.040223738754053343 0.45705287572900161 0 0.02800385941092073 0.45771646566546781 0 0.040223738754053343 0.45705287572900161 0 0.067786176320652494 0.46878053199386682 0 0.051514764646800132 0.46969517247403908 0 0.055839364873215183 0.45620488271259529 0 0.051514764646800132 0.46969517247403908 0 0.040223738754053343 0.45705287572900161 0 0.055839364873215183 0.45620488271259529 0 0.040223738754053343 0.45705287572900161 0 0.055839364873215183 0.45620488271259529 0 0.04811555719912293 0.44761888819965612 0 0.040223738754053343 0.45705287572900161 0 0.055839364873215183 0.45620488271259529 0 0.049121400324636001 0.44070322721845429 0 0.04811555719912293 0.44761888819965612 0 0.06053076868858305 0.44439827038149959 0 0.049121400324636001 0.44070322721845429 0 0.06053076868858305 0.44439827038149959 0 0.049606546384789327 0.43343965106680948 0 0.055839364873215183 0.45620488271259529 0 0.04811555719912293 0.44761888819965612 0 0.06053076868858305 0.44439827038149959 0 0.06053076868858305 0.44439827038149959 0 0.049606546384789327 0.43343965106680948 0 0.049606546384789327 0.43343965106680948 0 0.045493807913077867 0.41693080068855781 0 0.063081548685676073 0.43142091244588798 0 0.045493807913077867 0.41693080068855781 0 0.067513035634320206 0.41759001637710191 0 0.063081548685676073 0.43142091244588798 0 0.06053076868858305 0.44439827038149959 0 0.049606546384789327 0.43343965106680948 0 0.063081548685676073 0.43142091244588798 0 0.049121400324636001 0.44070322721845429 0 0.049606546384789327 0.43343965106680948 0 0.042858773333566073 0.43699183820877968 0 0.045493807913077867 0.41693080068855781 0 0.053371107726417587 0.39286869518798379 0 0.067513035634320206 0.41759001637710191 0 0.045493807913077867 0.41693080068855781 0 0.02058053864992565 0.40892484766449821 0 0.033801238340228912 0.39424351452574119 0 0.045493807913077867 0.41693080068855781 0 0.034873204702244982 0.42599521940194468 0 0.02058053864992565 0.40892484766449821 0 0.045493807913077867 0.41693080068855781 0 0.042858773333566073 0.43699183820877968 0 0.034873204702244982 0.42599521940194468 0 0.045493807913077867 0.41693080068855781 0 0.042858773333566073 0.43699183820877968 0 0.049606546384789327 0.43343965106680948 0 0.045493807913077867 0.41693080068855781 0 0.042858773333566073 0.43699183820877968 0 0.042858773333566073 0.43699183820877968 0 0.034873204702244982 0.42599521940194468 0 0.033923621016176651 0.43527083318928811 0 0.034873204702244982 0.42599521940194468 0 0.024292199030424629 0.43332065666498282 0 0.02058053864992565 0.40892484766449821 0 0.024292199030424629 0.43332065666498282 0 0.02058053864992565 0.40892484766449821 0 0.0078873893814910175 0.42460208048856352 0 0.034873204702244982 0.42599521940194468 0 0.033923621016176651 0.43527083318928811 0 0.024292199030424629 0.43332065666498282 0 0.024292199030424629 0.43332065666498282 0 0.02058053864992565 0.40892484766449821 0 -0.0019836062933307631 0.40838514229695472 0 0.02058053864992565 0.40892484766449821 0 0.0078873893814910175 0.42460208048856352 0 0.01182585947114791 0.44250094365390291 0 0.024292199030424629 0.43332065666498282 0 0.0078873893814910175 0.42460208048856352 0 -0.0020380957693487771 0.43413130746409151 0 0.01182585947114791 0.44250094365390291 0 0.0078873893814910175 0.42460208048856352 0 -0.0096529050089097235 0.38818403223530529 0 0.01246101880688281 0.38835476806396452 0 0.0068589959509591644 0.36406818319845519 0 -0.0019836062933307631 0.40838514229695472 0 0.02058053864992565 0.40892484766449821 0 0.01246101880688281 0.38835476806396452 0 -0.0096529050089097235 0.38818403223530529 0 -0.0019836062933307631 0.40838514229695472 0 0.01246101880688281 0.38835476806396452 0 0.02058053864992565 0.40892484766449821 0 0.01246101880688281 0.38835476806396452 0 0.033801238340228912 0.39424351452574119 0 0.01246101880688281 0.38835476806396452 0 0.033801238340228912 0.39424351452574119 0 0.039229179818514988 0.36814737399886571 0 0.033801238340228912 0.39424351452574119 0 0.053371107726417587 0.39286869518798379 0 0.039229179818514988 0.36814737399886571 0 0.053371107726417587 0.39286869518798379 0 0.039229179818514988 0.36814737399886571 0 0.045493807913077867 0.41693080068855781 0 0.033801238340228912 0.39424351452574119 0 0.053371107726417587 0.39286869518798379 0 0.053371107726417587 0.39286869518798379 0 0.067513035634320206 0.41759001637710191 0 0.053371107726417587 0.39286869518798379 0 0.065721765298576498 0.36723728435075681 0 0.039229179818514988 0.36814737399886571 0 0.082012045919436047 0.37835872032243018 0 0.070303856059003897 0.39140739952339337 0 0.065721765298576498 0.36723728435075681 0 0.053371107726417587 0.39286869518798379 0 0.070303856059003897 0.39140739952339337 0 0.065721765298576498 0.36723728435075681 0 0.082012045919436047 0.37835872032243018 0 0.093379860312885782 0.38748047916441242 0 0.082901325716269195 0.40098228137869429 0 0.082012045919436047 0.37835872032243018 0 0.093379860312885782 0.38748047916441242 0 0.10226378897692209 0.37309144900389762 0 0.082012045919436047 0.37835872032243018 0 0.082901325716269195 0.40098228137869429 0 0.070303856059003897 0.39140739952339337 0 0.082901325716269195 0.40098228137869429 0 0.070303856059003897 0.39140739952339337 0 0.067513035634320206 0.41759001637710191 0 0.053371107726417587 0.39286869518798379 0 0.070303856059003897 0.39140739952339337 0 0.067513035634320206 0.41759001637710191 0 0.067513035634320206 0.41759001637710191 0 0.083769642830772914 0.42600909201599801 0 0.082145274067845678 0.41575738730631678 0 0.082901325716269195 0.40098228137869429 0 0.067513035634320206 0.41759001637710191 0 0.082145274067845678 0.41575738730631678 0 0.081654963542222819 0.44231133756621999 0 0.067513035634320206 0.41759001637710191 0 0.081654963542222819 0.44231133756621999 0 0.067513035634320206 0.41759001637710191 0 0.063081548685676073 0.43142091244588798 0 0.081654963542222819 0.44231133756621999 0 0.067513035634320206 0.41759001637710191 0 0.083769642830772914 0.42600909201599801 0 0.081654963542222819 0.44231133756621999 0 0.083769642830772914 0.42600909201599801 0 0.093211119126496073 0.43513101814704869 0 0.083769642830772914 0.42600909201599801 0 0.093211119126496073 0.43513101814704869 0 0.094201704604578884 0.42060160273301772 0 0.082901325716269195 0.40098228137869429 0 0.082145274067845678 0.41575738730631678 0 0.094201704604578884 0.42060160273301772 0 0.083769642830772914 0.42600909201599801 0 0.082145274067845678 0.41575738730631678 0 0.094201704604578884 0.42060160273301772 0 0.082901325716269195 0.40098228137869429 0 0.094201704604578884 0.42060160273301772 0 0.1050493549927676 0.41238151405247842 0 0.094201704604578884 0.42060160273301772 0 0.1050493549927676 0.41238151405247842 0 0.1040016231409318 0.42698923574168901 0 0.1067504447656009 0.44231018210120582 0 0.093211119126496073 0.43513101814704869 0 0.1040016231409318 0.42698923574168901 0 0.093211119126496073 0.43513101814704869 0 0.094201704604578884 0.42060160273301772 0 0.1040016231409318 0.42698923574168901 0 0.1067504447656009 0.44231018210120582 0 0.1198412428593968 0.42397387650584523 0 0.1268369380096746 0.44485403652946842 0 0.1067504447656009 0.44231018210120582 0 0.1040016231409318 0.42698923574168901 0 0.1198412428593968 0.42397387650584523 0 0.1050493549927676 0.41238151405247842 0 0.1040016231409318 0.42698923574168901 0 0.1198412428593968 0.42397387650584523 0 0.1050493549927676 0.41238151405247842 0 0.1198412428593968 0.42397387650584523 0 0.123007952996513 0.4042526220029965 0 0.1050493549927676 0.41238151405247842 0 0.123007952996513 0.4042526220029965 0 0.10634228063891581 0.39748946595262752 0 0.123007952996513 0.4042526220029965 0 0.1247172308674029 0.3823544709444861 0 0.10634228063891581 0.39748946595262752 0 0.1247172308674029 0.3823544709444861 0 0.10634228063891581 0.39748946595262752 0 0.10226378897692209 0.37309144900389762 0 0.093379860312885782 0.38748047916441242 0 0.10634228063891581 0.39748946595262752 0 0.10226378897692209 0.37309144900389762 0 0.093379860312885782 0.38748047916441242 0 0.082901325716269195 0.40098228137869429 0 0.10634228063891581 0.39748946595262752 0 0.082901325716269195 0.40098228137869429 0 0.1050493549927676 0.41238151405247842 0 0.10634228063891581 0.39748946595262752 0 0.10238846866813139 0.34598186424486638 0 0.10226378897692209 0.37309144900389762 0 0.118692486023295 0.35711635397700159 0 0.10238846866813139 0.34598186424486638 0 0.10226378897692209 0.37309144900389762 0 0.085955510243520508 0.36191430595649332 0 0.1247172308674029 0.3823544709444861 0 0.10226378897692209 0.37309144900389762 0 0.118692486023295 0.35711635397700159 0 0.10238846866813139 0.34598186424486638 0 0.118692486023295 0.35711635397700159 0 0.121653117875585 0.33841756537502748 0 0.10238846866813139 0.34598186424486638 0 0.121653117875585 0.33841756537502748 0 0.1139271273706487 0.32357725290979922 0 0.121653117875585 0.33841756537502748 0 0.1139271273706487 0.32357725290979922 0 0.13145164753469951 0.31590187804813491 0 0.1139271273706487 0.32357725290979922 0 0.093908688562443346 0.32312666992009198 0 0.109436350710878 0.29612042384048559 0 0.10238846866813139 0.34598186424486638 0 0.1139271273706487 0.32357725290979922 0 0.093908688562443346 0.32312666992009198 0 0.10238846866813139 0.34598186424486638 0 0.093908688562443346 0.32312666992009198 0 0.07739148235453655 0.34490221186051528 0 0.093908688562443346 0.32312666992009198 0 0.074346373354155837 0.32372037543095272 0 0.07739148235453655 0.34490221186051528 0 0.093908688562443346 0.32312666992009198 0 0.074346373354155837 0.32372037543095272 0 0.085962328916309741 0.30445789123393302 0 0.074346373354155837 0.32372037543095272 0 0.07739148235453655 0.34490221186051528 0 0.050217091630001889 0.33510673948095138 0 0.07739148235453655 0.34490221186051528 0 0.065721765298576498 0.36723728435075681 0 0.050217091630001889 0.33510673948095138 0 0.07739148235453655 0.34490221186051528 0 0.085955510243520508 0.36191430595649332 0 0.065721765298576498 0.36723728435075681 0 0.10238846866813139 0.34598186424486638 0 0.07739148235453655 0.34490221186051528 0 0.085955510243520508 0.36191430595649332 0 0.082012045919436047 0.37835872032243018 0 0.10226378897692209 0.37309144900389762 0 0.085955510243520508 0.36191430595649332 0 0.082012045919436047 0.37835872032243018 0 0.085955510243520508 0.36191430595649332 0 0.065721765298576498 0.36723728435075681 0 0.065721765298576498 0.36723728435075681 0 0.039229179818514988 0.36814737399886571 0 0.050217091630001889 0.33510673948095138 0 0.039229179818514988 0.36814737399886571 0 0.02508725191061242 0.34342605280974758 0 0.050217091630001889 0.33510673948095138 0 0.039229179818514988 0.36814737399886571 0 0.02508725191061242 0.34342605280974758 0 0.039229179818514988 0.36814737399886571 0 0.0068589959509591644 0.36406818319845519 0 0.02508725191061242 0.34342605280974758 0 0.01246101880688281 0.38835476806396452 0 0.039229179818514988 0.36814737399886571 0 0.0068589959509591644 0.36406818319845519 0 -0.0088407377264510274 0.35099551144825197 0 0.0068589959509591644 0.36406818319845519 0 0.007240156443205031 0.34158786810032932 0 0.0068589959509591644 0.36406818319845519 0 0.007240156443205031 0.34158786810032932 0 0.02508725191061242 0.34342605280974758 0 0.0032889550775795991 0.32677985135124687 0 0.02274523180575809 0.32517534841165358 0 0.0091093105619211717 0.31104445313616919 0 -0.01039529281254236 0.32275756492607738 0 0.0032889550775795991 0.32677985135124687 0 0.0091093105619211717 0.31104445313616919 0 -0.01007826550388795 0.33688784853290887 0 0.0032889550775795991 0.32677985135124687 0 0.007240156443205031 0.34158786810032932 0 0.0032889550775795991 0.32677985135124687 0 0.007240156443205031 0.34158786810032932 0 0.02274523180575809 0.32517534841165358 0 0.007240156443205031 0.34158786810032932 0 0.02508725191061242 0.34342605280974758 0 0.02274523180575809 0.32517534841165358 0 0.02274523180575809 0.32517534841165358 0 0.034726983346717297 0.30884893250209039 0 0.0091093105619211717 0.31104445313616919 0 0.02274523180575809 0.32517534841165358 0 0.050217091630001889 0.33510673948095138 0 0.034726983346717297 0.30884893250209039 0 0.02508725191061242 0.34342605280974758 0 0.02274523180575809 0.32517534841165358 0 0.050217091630001889 0.33510673948095138 0 0.050217091630001889 0.33510673948095138 0 0.060344656131513547 0.30665341186801182 0 0.034726983346717297 0.30884893250209039 0 0.074346373354155837 0.32372037543095272 0 0.050217091630001889 0.33510673948095138 0 0.060344656131513547 0.30665341186801182 0 0.060344656131513547 0.30665341186801182 0 0.048439888218750393 0.28460695927571 0 0.034726983346717297 0.30884893250209039 0 0.060344656131513547 0.30665341186801182 0 0.034726983346717297 0.30884893250209039 0 0.060344656131513547 0.30665341186801182 0 0.048439888218750393 0.28460695927571 0 0.076143736916019139 0.28168648605220381 0 0.048439888218750393 0.28460695927571 0 0.034726983346717297 0.30884893250209039 0 0.018077569016195661 0.28560434098933341 0 0.034726983346717297 0.30884893250209039 0 0.018077569016195661 0.28560434098933341 0 0.0091093105619211717 0.31104445313616919 0 0.034726983346717297 0.30884893250209039 0 0.0091093105619211717 0.31104445313616919 0 -0.0051741416952126428 0.27244818375453972 0 0.018077569016195661 0.28560434098933341 0 0.001037681847786531 0.29259039198356668 0 0.018077569016195661 0.28560434098933341 0 0.001037681847786531 0.29259039198356668 0 0.0091093105619211717 0.31104445313616919 0 -0.0093909515200206062 0.30166555970258729 0 0.001037681847786531 0.29259039198356668 0 0.0091093105619211717 0.31104445313616919 0 -0.0051741416952126428 0.27244818375453972 0 -0.001711322607177821 0.2476415137308719 0 0.014129405402641061 0.26483297251484011 0 -0.001711322607177821 0.2476415137308719 0 0.024455966897590251 0.2469497650613437 0 0.014129405402641061 0.26483297251484011 0 -0.0051741416952126428 0.27244818375453972 0 0.018077569016195661 0.28560434098933341 0 -0.0051741416952126428 0.27244818375453972 0 0.018077569016195661 0.28560434098933341 0 0.014129405402641061 0.26483297251484011 0 0.018077569016195661 0.28560434098933341 0 0.014129405402641061 0.26483297251484011 0 0.035875987733604217 0.26452958273597432 0 0.024455966897590251 0.2469497650613437 0 0.014129405402641061 0.26483297251484011 0 0.035875987733604217 0.26452958273597432 0 0.024455966897590251 0.2469497650613437 0 0.047750683954905143 0.2434241251182814 0 0.035875987733604217 0.26452958273597432 0 0.048439888218750393 0.28460695927571 0 0.018077569016195661 0.28560434098933341 0 0.035875987733604217 0.26452958273597432 0 0.048439888218750393 0.28460695927571 0 0.035875987733604217 0.26452958273597432 0 0.062502990013812793 0.26095755865104597 0 0.048439888218750393 0.28460695927571 0 0.062502990013812793 0.26095755865104597 0 0.076143736916019139 0.28168648605220381 0 0.047750683954905143 0.2434241251182814 0 0.035875987733604217 0.26452958273597432 0 0.062502990013812793 0.26095755865104597 0 0.062502990013812793 0.26095755865104597 0 0.085979313092188051 0.25234243848150012 0 0.076143736916019139 0.28168648605220381 0 0.085979313092188051 0.25234243848150012 0 0.076143736916019139 0.28168648605220381 0 0.09760272897394387 0.27204762589420223 0 0.076143736916019139 0.28168648605220381 0 0.09228628637928768 0.28857810675520612 0 0.09760272897394387 0.27204762589420223 0 0.060344656131513547 0.30665341186801182 0 0.076143736916019139 0.28168648605220381 0 0.085962328916309741 0.30445789123393302 0 0.060344656131513547 0.30665341186801182 0 0.085962328916309741 0.30445789123393302 0 0.074346373354155837 0.32372037543095272 0 0.060344656131513547 0.30665341186801182 0 0.085962328916309741 0.30445789123393302 0 0.076143736916019139 0.28168648605220381 0 0.085962328916309741 0.30445789123393302 0 0.09228628637928768 0.28857810675520612 0 0.085962328916309741 0.30445789123393302 0 0.09228628637928768 0.28857810675520612 0 0.109436350710878 0.29612042384048559 0 0.09228628637928768 0.28857810675520612 0 0.109436350710878 0.29612042384048559 0 0.09760272897394387 0.27204762589420223 0 0.093908688562443346 0.32312666992009198 0 0.085962328916309741 0.30445789123393302 0 0.109436350710878 0.29612042384048559 0 0.1139271273706487 0.32357725290979922 0 0.109436350710878 0.29612042384048559 0 0.13145164753469951 0.31590187804813491 0 0.109436350710878 0.29612042384048559 0 0.120327499880284 0.27566418248746571 0 0.1350804375444333 0.29711752101062772 0 0.1172255882914653 0.240359016139747 0 0.1098365401102865 0.25523401559104458 0 0.12954986313609879 0.25966003259786019 0 0.120327499880284 0.27566418248746571 0 0.1098365401102865 0.25523401559104458 0 0.12954986313609879 0.25966003259786019 0 0.085979313092188051 0.25234243848150012 0 0.1098365401102865 0.25523401559104458 0 0.09760272897394387 0.27204762589420223 0 0.109436350710878 0.29612042384048559 0 0.120327499880284 0.27566418248746571 0 0.09760272897394387 0.27204762589420223 0 0.120327499880284 0.27566418248746571 0 0.1098365401102865 0.25523401559104458 0 0.09760272897394387 0.27204762589420223 0 0.1423927392534077 0.27623952208515551 0 0.14985317479105889 0.25641055026691512 0 0.1594445397184612 0.27372740673278417 0 0.1423927392534077 0.27623952208515551 0 0.14985317479105889 0.25641055026691512 0 0.12954986313609879 0.25966003259786019 0 0.1380396634466351 0.24024876031326919 0 0.14985317479105889 0.25641055026691512 0 0.12954986313609879 0.25966003259786019 0 0.120327499880284 0.27566418248746571 0 0.1423927392534077 0.27623952208515551 0 0.12954986313609879 0.25966003259786019 0 0.120327499880284 0.27566418248746571 0 0.1423927392534077 0.27623952208515551 0 0.1350804375444333 0.29711752101062772 0 0.109436350710878 0.29612042384048559 0 0.1350804375444333 0.29711752101062772 0 0.13145164753469951 0.31590187804813491 0 0.1350804375444333 0.29711752101062772 0 0.15052674767856519 0.31443193221621052 0 0.13145164753469951 0.31590187804813491 0 0.1350804375444333 0.29711752101062772 0 0.16010092045011001 0.29485743941527998 0 0.15052674767856519 0.31443193221621052 0 0.1350804375444333 0.29711752101062772 0 0.15052674767856519 0.31443193221621052 0 0.1423927392534077 0.27623952208515551 0 0.1350804375444333 0.29711752101062772 0 0.16010092045011001 0.29485743941527998 0 0.1423927392534077 0.27623952208515551 0 0.16010092045011001 0.29485743941527998 0 0.1594445397184612 0.27372740673278417 0 0.16010092045011001 0.29485743941527998 0 0.17975305898062871 0.30714031686158111 0 0.17328625341433751 0.28347796057017599 0 0.16010092045011001 0.29485743941527998 0 0.17328625341433751 0.28347796057017599 0 0.1594445397184612 0.27372740673278417 0 0.16010092045011001 0.29485743941527998 0 0.17975305898062871 0.30714031686158111 0 0.15052674767856519 0.31443193221621052 0 0.17328625341433751 0.28347796057017599 0 0.19007829356882211 0.27832290766148371 0 0.19268495313657069 0.29422671324685901 0 0.17975305898062871 0.30714031686158111 0 0.17328625341433751 0.28347796057017599 0 0.19268495313657069 0.29422671324685901 0 0.17328625341433751 0.28347796057017599 0 0.1751578196947641 0.25762565753243361 0 0.19007829356882211 0.27832290766148371 0 0.17328625341433751 0.28347796057017599 0 0.1594445397184612 0.27372740673278417 0 0.1751578196947641 0.25762565753243361 0 0.14985317479105889 0.25641055026691512 0 0.1594445397184612 0.27372740673278417 0 0.1751578196947641 0.25762565753243361 0 0.19631113481602469 0.24161166483964239 0 0.1751578196947641 0.25762565753243361 0 0.19803132426978229 0.26181747526401772 0 0.1751578196947641 0.25762565753243361 0 0.19803132426978229 0.26181747526401772 0 0.19007829356882211 0.27832290766148371 0 0.19803132426978229 0.26181747526401772 0 0.19007829356882211 0.27832290766148371 0 0.21095551889598849 0.28349578666088349 0 0.19803132426978229 0.26181747526401772 0 0.21922140051195271 0.25973847567324782 0 0.21095551889598849 0.28349578666088349 0 0.19631113481602469 0.24161166483964239 0 0.19803132426978229 0.26181747526401772 0 0.21922140051195271 0.25973847567324782 0 0.2401615503470183 0.2458573091102893 0 0.21922140051195271 0.25973847567324782 0 0.23902387221865859 0.27043873591054612 0 0.21922140051195271 0.25973847567324782 0 0.23902387221865859 0.27043873591054612 0 0.2283481358888845 0.28234345453216703 0 0.21922140051195271 0.25973847567324782 0 0.2283481358888845 0.28234345453216703 0 0.21095551889598849 0.28349578666088349 0 0.23902387221865859 0.27043873591054612 0 0.24977120520341911 0.28701821694709911 0 0.25931436089426951 0.27642138959578888 0 0.2401615503470183 0.2458573091102893 0 0.23902387221865859 0.27043873591054612 0 0.26100036705339191 0.25593539236450208 0 0.2401615503470183 0.2458573091102893 0 0.23902387221865859 0.27043873591054612 0 0.2378861940902989 0.29502016271080311 0 0.23674851596193919 0.31960158951105999 0 0.24762251716882169 0.30864802395995089 0 0.2378861940902989 0.29502016271080311 0 0.23674851596193919 0.31960158951105999 0 0.24762251716882169 0.30864802395995089 0 0.2378861940902989 0.29502016271080311 0 0.25161633839361708 0.30231206201048039 0 0.23902387221865859 0.27043873591054612 0 0.2378861940902989 0.29502016271080311 0 0.2283481358888845 0.28234345453216703 0 0.23902387221865859 0.27043873591054612 0 0.24977120520341911 0.28701821694709911 0 0.2378861940902989 0.29502016271080311 0 0.24977120520341911 0.28701821694709911 0 0.2378861940902989 0.29502016271080311 0 0.25161633839361708 0.30231206201048039 0 0.23902387221865859 0.27043873591054612 0 0.2378861940902989 0.29502016271080311 0 0.2283481358888845 0.28234345453216703 0 0.22372872123399951 0.30291099161927137 0 0.21095551889598849 0.28349578666088349 0 0.2378861940902989 0.29502016271080311 0 0.2283481358888845 0.28234345453216703 0 0.22372872123399951 0.30291099161927137 0 0.2378861940902989 0.29502016271080311 0 0.22372872123399951 0.30291099161927137 0 0.23674851596193919 0.31960158951105999 0 0.22372872123399951 0.30291099161927137 0 0.20678384102200401 0.30621173839888832 0 0.21730970143778991 0.32234134287876681 0 0.22372872123399951 0.30291099161927137 0 0.20678384102200401 0.30621173839888832 0 0.21095551889598849 0.28349578666088349 0 0.20678384102200401 0.30621173839888832 0 0.21095551889598849 0.28349578666088349 0 0.19268495313657069 0.29422671324685901 0 0.19007829356882211 0.27832290766148371 0 0.21095551889598849 0.28349578666088349 0 0.19268495313657069 0.29422671324685901 0 0.17975305898062871 0.30714031686158111 0 0.20678384102200401 0.30621173839888832 0 0.19268495313657069 0.29422671324685901 0 0.17975305898062871 0.30714031686158111 0 0.20678384102200401 0.30621173839888832 0 0.19490807469540231 0.32943534849571871 0 0.19490807469540231 0.32943534849571871 0 0.19978301617508851 0.3483722320656637 0 0.181419367946829 0.34906075462737612 0 0.19490807469540231 0.32943534849571871 0 0.21157773337411359 0.33852941004609888 0 0.19978301617508851 0.3483722320656637 0 0.19490807469540231 0.32943534849571871 0 0.21157773337411359 0.33852941004609888 0 0.21730970143778991 0.32234134287876681 0 0.20678384102200401 0.30621173839888832 0 0.19490807469540231 0.32943534849571871 0 0.21730970143778991 0.32234134287876681 0 0.22372872123399951 0.30291099161927137 0 0.21730970143778991 0.32234134287876681 0 0.23674851596193919 0.31960158951105999 0 0.21730970143778991 0.32234134287876681 0 0.23011132233928031 0.33735897920156349 0 0.23674851596193919 0.31960158951105999 0 0.21157773337411359 0.33852941004609888 0 0.23011132233928031 0.33735897920156349 0 0.22591995898968259 0.35117825670578579 0 0.21157773337411359 0.33852941004609888 0 0.21730970143778991 0.32234134287876681 0 0.23011132233928031 0.33735897920156349 0 0.23011132233928031 0.33735897920156349 0 0.2407813983965908 0.33320573386014118 0 0.23674851596193919 0.31960158951105999 0 0.23011132233928031 0.33735897920156349 0 0.24165933342299781 0.34336032058970639 0 0.23549565816048629 0.34890106626918199 0 0.23011132233928031 0.33735897920156349 0 0.2407813983965908 0.33320573386014118 0 0.24165933342299781 0.34336032058970639 0 0.2407813983965908 0.33320573386014118 0 0.24165933342299781 0.34336032058970639 0 0.25262120207229127 0.34084517858386998 0 0.2407813983965908 0.33320573386014118 0 0.25026421316334402 0.32948166370830623 0 0.25262120207229127 0.34084517858386998 0 0.2407813983965908 0.33320573386014118 0 0.23674851596193919 0.31960158951105999 0 0.25026421316334402 0.32948166370830623 0 0.23674851596193919 0.31960158951105999 0 0.25375848191490757 0.31919031353891703 0 0.25026421316334402 0.32948166370830623 0 0.24762251716882169 0.30864802395995089 0 0.23674851596193919 0.31960158951105999 0 0.25375848191490757 0.31919031353891703 0 0.2435893676352921 0.35444018843789149 0 0.23619830841517861 0.35816758641096308 0 0.22946792748715919 0.37569623772732658 0 0.2453621331743529 0.37093673251849368 0 0.2435893676352921 0.35444018843789149 0 0.22946792748715919 0.37569623772732658 0 0.2453621331743529 0.37093673251849368 0 0.2435893676352921 0.35444018843789149 0 0.25061804429220852 0.36201224904723989 0 0.2435893676352921 0.35444018843789149 0 0.22946792748715919 0.37569623772732658 0 0.2435893676352921 0.35444018843789149 0 0.2549064962932388 0.35651835030752899 0 0.25061804429220852 0.36201224904723989 0 0.2435893676352921 0.35444018843789149 0 0.25262120207229127 0.34084517858386998 0 0.24165933342299781 0.34336032058970639 0 0.2435893676352921 0.35444018843789149 0 0.25262120207229127 0.34084517858386998 0 0.24165933342299781 0.34336032058970639 0 0.2435893676352921 0.35444018843789149 0 0.23549565816048629 0.34890106626918199 0 0.2435893676352921 0.35444018843789149 0 0.23549565816048629 0.34890106626918199 0 0.23619830841517861 0.35816758641096308 0 0.2435893676352921 0.35444018843789149 0 0.23619830841517861 0.35816758641096308 0 0.23619830841517861 0.35816758641096308 0 0.22591995898968259 0.35117825670578579 0 0.22446232773324359 0.36341762215920431 0 0.23549565816048629 0.34890106626918199 0 0.23619830841517861 0.35816758641096308 0 0.22591995898968259 0.35117825670578579 0 0.23011132233928031 0.33735897920156349 0 0.23549565816048629 0.34890106626918199 0 0.22591995898968259 0.35117825670578579 0 0.22591995898968259 0.35117825670578579 0 0.22446232773324359 0.36341762215920431 0 0.21414422677813641 0.35846048132616593 0 0.23619830841517861 0.35816758641096308 0 0.22446232773324359 0.36341762215920431 0 0.22946792748715919 0.37569623772732658 0 0.22446232773324359 0.36341762215920431 0 0.2140394038306338 0.37497649326173582 0 0.22946792748715919 0.37569623772732658 0 0.22446232773324359 0.36341762215920431 0 0.2140394038306338 0.37497649326173582 0 0.21414422677813641 0.35846048132616593 0 0.2140394038306338 0.37497649326173582 0 0.21414422677813641 0.35846048132616593 0 0.19686567808096089 0.36637516583295898 0 0.2140394038306338 0.37497649326173582 0 0.19686567808096089 0.36637516583295898 0 0.20499532100950349 0.37946023161941878 0 0.21414422677813641 0.35846048132616593 0 0.19978301617508851 0.3483722320656637 0 0.19686567808096089 0.36637516583295898 0 0.21157773337411359 0.33852941004609888 0 0.21414422677813641 0.35846048132616593 0 0.19978301617508851 0.3483722320656637 0 0.21157773337411359 0.33852941004609888 0 0.22591995898968259 0.35117825670578579 0 0.21414422677813641 0.35846048132616593 0 0.19686567808096089 0.36637516583295898 0 0.181419367946829 0.34906075462737612 0 0.19978301617508851 0.3483722320656637 0 0.19686567808096089 0.36637516583295898 0 0.181419367946829 0.34906075462737612 0 0.19686567808096089 0.36637516583295898 0 0.18078569376514381 0.37134298371850782 0 0.19449694356433969 0.3788799403556708 0 0.19686567808096089 0.36637516583295898 0 0.19449694356433969 0.3788799403556708 0 0.20499532100950349 0.37946023161941878 0 0.19686567808096089 0.36637516583295898 0 0.18078569376514381 0.37134298371850782 0 0.181419367946829 0.34906075462737612 0 0.18078569376514381 0.37134298371850782 0 0.16543644782336431 0.36427035277662589 0 0.181419367946829 0.34906075462737612 0 0.18078569376514381 0.37134298371850782 0 0.16543644782336431 0.36427035277662589 0 0.16220499096968449 0.37827428364331861 0 0.16543644782336431 0.36427035277662589 0 0.15894186899331261 0.3508841989203022 0 0.181419367946829 0.34906075462737612 0 0.15894186899331261 0.3508841989203022 0 0.181419367946829 0.34906075462737612 0 0.16597305781269711 0.33174634342179332 0 0.181419367946829 0.34906075462737612 0 0.16597305781269711 0.33174634342179332 0 0.19490807469540231 0.32943534849571871 0 0.181419367946829 0.34906075462737612 0 0.16597305781269711 0.33174634342179332 0 0.17975305898062871 0.30714031686158111 0 0.19490807469540231 0.32943534849571871 0 0.16597305781269711 0.33174634342179332 0 0.17975305898062871 0.30714031686158111 0 0.16597305781269711 0.33174634342179332 0 0.15052674767856519 0.31443193221621052 0 0.16597305781269711 0.33174634342179332 0 0.15052674767856519 0.31443193221621052 0 0.15894186899331261 0.3508841989203022 0 0.16597305781269711 0.33174634342179332 0 0.13974094341450211 0.3396011128838235 0 0.16597305781269711 0.33174634342179332 0 0.15052674767856519 0.31443193221621052 0 0.13974094341450211 0.3396011128838235 0 0.15052674767856519 0.31443193221621052 0 0.13145164753469951 0.31590187804813491 0 0.13974094341450211 0.3396011128838235 0 0.121653117875585 0.33841756537502748 0 0.13145164753469951 0.31590187804813491 0 0.13974094341450211 0.3396011128838235 0 0.118692486023295 0.35711635397700159 0 0.121653117875585 0.33841756537502748 0 0.13974094341450211 0.3396011128838235 0 0.118692486023295 0.35711635397700159 0 0.13974094341450211 0.3396011128838235 0 0.14044873849648981 0.3676953188101601 0 0.1247172308674029 0.3823544709444861 0 0.118692486023295 0.35711635397700159 0 0.14044873849648981 0.3676953188101601 0 0.118692486023295 0.35711635397700159 0 0.14044873849648981 0.3676953188101601 0 0.16543644782336431 0.36427035277662589 0 0.15894186899331261 0.3508841989203022 0 0.14044873849648981 0.3676953188101601 0 0.14044873849648981 0.3676953188101601 0 0.16220499096968449 0.37827428364331861 0 0.16543644782336431 0.36427035277662589 0 0.14044873849648981 0.3676953188101601 0 0.16220499096968449 0.37827428364331861 0 0.15894186899331261 0.3508841989203022 0 0.13974094341450211 0.3396011128838235 0 0.14044873849648981 0.3676953188101601 0 0.1389926337232448 0.39591180975406931 0 0.137003618067042 0.41149275768582078 0 0.15407374958972869 0.4071685066110482 0 0.15282166697656041 0.39032169776158449 0 0.1389926337232448 0.39591180975406931 0 0.15407374958972869 0.4071685066110482 0 0.15282166697656041 0.39032169776158449 0 0.14317618158006651 0.38252368084282151 0 0.16220499096968449 0.37827428364331861 0 0.14044873849648981 0.3676953188101601 0 0.14317618158006651 0.38252368084282151 0 0.16220499096968449 0.37827428364331861 0 0.15282166697656041 0.39032169776158449 0 0.14317618158006651 0.38252368084282151 0 0.1389926337232448 0.39591180975406931 0 0.1247172308674029 0.3823544709444861 0 0.14317618158006651 0.38252368084282151 0 0.1389926337232448 0.39591180975406931 0 0.1247172308674029 0.3823544709444861 0 0.14044873849648981 0.3676953188101601 0 0.14317618158006651 0.38252368084282151 0 0.123007952996513 0.4042526220029965 0 0.1247172308674029 0.3823544709444861 0 0.1389926337232448 0.39591180975406931 0 0.123007952996513 0.4042526220029965 0 0.1389926337232448 0.39591180975406931 0 0.137003618067042 0.41149275768582078 0 0.1198412428593968 0.42397387650584523 0 0.123007952996513 0.4042526220029965 0 0.137003618067042 0.41149275768582078 0 0.1198412428593968 0.42397387650584523 0 0.137003618067042 0.41149275768582078 0 0.14015317038045719 0.42842951568108689 0 0.1198412428593968 0.42397387650584523 0 0.14015317038045719 0.42842951568108689 0 0.1268369380096746 0.44485403652946842 0 0.14015317038045719 0.42842951568108689 0 0.15680531250106761 0.42943783501172711 0 0.1485921674465126 0.450895386405332 0 0.137003618067042 0.41149275768582078 0 0.14015317038045719 0.42842951568108689 0 0.15407374958972869 0.4071685066110482 0 0.14015317038045719 0.42842951568108689 0 0.15407374958972869 0.4071685066110482 0 0.15680531250106761 0.42943783501172711 0 0.15407374958972869 0.4071685066110482 0 0.1695068102250806 0.41646518755586298 0 0.15680531250106761 0.42943783501172711 0 0.1695068102250806 0.41646518755586298 0 0.1717006648635587 0.44423057880530542 0 0.1695068102250806 0.41646518755586298 0 0.15680531250106761 0.42943783501172711 0 0.1717006648635587 0.44423057880530542 0 0.1695068102250806 0.41646518755586298 0 0.1866571042593006 0.42779559815619711 0 0.1717006648635587 0.44423057880530542 0 0.1695068102250806 0.41646518755586298 0 0.1866571042593006 0.42779559815619711 0 0.18897277856493469 0.40620771451460352 0 0.1673129555866025 0.38869979630642049 0 0.1839612434428794 0.38885324847647712 0 0.18897277856493469 0.40620771451460352 0 0.1695068102250806 0.41646518755586298 0 0.1673129555866025 0.38869979630642049 0 0.18897277856493469 0.40620771451460352 0 0.15282166697656041 0.39032169776158449 0 0.15407374958972869 0.4071685066110482 0 0.1673129555866025 0.38869979630642049 0 0.15407374958972869 0.4071685066110482 0 0.1695068102250806 0.41646518755586298 0 0.1673129555866025 0.38869979630642049 0 0.1695068102250806 0.41646518755586298 0 0.1673129555866025 0.38869979630642049 0 0.16220499096968449 0.37827428364331861 0 0.1673129555866025 0.38869979630642049 0 0.1839612434428794 0.38885324847647712 0 0.15282166697656041 0.39032169776158449 0 0.16220499096968449 0.37827428364331861 0 0.1673129555866025 0.38869979630642049 0 0.18078569376514381 0.37134298371850782 0 0.1839612434428794 0.38885324847647712 0 0.19449694356433969 0.3788799403556708 0 0.16220499096968449 0.37827428364331861 0 0.1839612434428794 0.38885324847647712 0 0.18078569376514381 0.37134298371850782 0 0.16220499096968449 0.37827428364331861 0 0.1839612434428794 0.38885324847647712 0 0.1839612434428794 0.38885324847647712 0 0.19449694356433969 0.3788799403556708 0 0.20587678152321101 0.388368072130991 0 0.19449694356433969 0.3788799403556708 0 0.20499532100950349 0.37946023161941878 0 0.20587678152321101 0.388368072130991 0 0.18897277856493469 0.40620771451460352 0 0.20571749591607441 0.39943221330963558 0 0.20434056635788311 0.4104052143373263 0 0.1839612434428794 0.38885324847647712 0 0.20571749591607441 0.39943221330963558 0 0.20587678152321101 0.388368072130991 0 0.1839612434428794 0.38885324847647712 0 0.18897277856493469 0.40620771451460352 0 0.20571749591607441 0.39943221330963558 0 0.1839612434428794 0.38885324847647712 0 0.20571749591607441 0.39943221330963558 0 0.20571749591607441 0.39943221330963558 0 0.213741679716004 0.40716373255343857 0 0.20434056635788311 0.4104052143373263 0 0.20571749591607441 0.39943221330963558 0 0.21534648733902559 0.39695228701676122 0 0.20587678152321101 0.388368072130991 0 0.21534648733902559 0.39695228701676122 0 0.22425205528917461 0.40439251142441052 0 0.213741679716004 0.40716373255343857 0 0.20571749591607441 0.39943221330963558 0 0.21534648733902559 0.39695228701676122 0 0.213741679716004 0.40716373255343857 0 0.2140394038306338 0.37497649326173582 0 0.21534648733902559 0.39695228701676122 0 0.20587678152321101 0.388368072130991 0 0.2140394038306338 0.37497649326173582 0 0.20499532100950349 0.37946023161941878 0 0.20587678152321101 0.388368072130991 0 0.2140394038306338 0.37497649326173582 0 0.21534648733902559 0.39695228701676122 0 0.22946792748715919 0.37569623772732658 0 0.22946792748715919 0.37569623772732658 0 0.22983904005408901 0.39212012622784898 0 0.24115934006274431 0.38599615874030679 0 0.21534648733902559 0.39695228701676122 0 0.22946792748715919 0.37569623772732658 0 0.22983904005408901 0.39212012622784898 0 0.21534648733902559 0.39695228701676122 0 0.22946792748715919 0.37569623772732658 0 0.21534648733902559 0.39695228701676122 0 0.22425205528917461 0.40439251142441052 0 0.22983904005408901 0.39212012622784898 0 0.22425205528917461 0.40439251142441052 0 0.22983904005408901 0.39212012622784898 0 0.2347251501097769 0.40338996238380048 0 0.22983904005408901 0.39212012622784898 0 0.2384729245374721 0.39509531972936368 0 0.2347251501097769 0.40338996238380048 0 0.22983904005408901 0.39212012622784898 0 0.2384729245374721 0.39509531972936368 0 0.24115934006274431 0.38599615874030679 0 0.2384729245374721 0.39509531972936368 0 0.2467744606880356 0.39584089270316469 0 0.24115934006274431 0.38599615874030679 0 0.2384729245374721 0.39509531972936368 0 0.2347251501097769 0.40338996238380048 0 0.2429757628230248 0.40379176262926852 0 0.2347251501097769 0.40338996238380048 0 0.2429757628230248 0.40379176262926852 0 0.24106246601305389 0.41127907996518709 0 0.2429757628230248 0.40379176262926852 0 0.2467744606880356 0.39584089270316469 0 0.25425612982894968 0.40934958201286309 0 0.2384729245374721 0.39509531972936368 0 0.2429757628230248 0.40379176262926852 0 0.2467744606880356 0.39584089270316469 0 0.2453621331743529 0.37093673251849368 0 0.24115934006274431 0.38599615874030679 0 0.25768124422427657 0.38752600091818851 0 0.2453621331743529 0.37093673251849368 0 0.22946792748715919 0.37569623772732658 0 0.24115934006274431 0.38599615874030679 0 0.2467744606880356 0.39584089270316469 0 0.24115934006274431 0.38599615874030679 0 0.25768124422427657 0.38752600091818851 0 0.2383868758125415 0.42347896434486448 0 0.2362739382004802 0.43687989130365829 0 0.24543322266541101 0.43541889254993399 0 0.24543322266541101 0.43541889254993399 0 0.25307793640191562 0.44090379946232228 0 0.25128307062355898 0.42829283212929448 0 0.2383868758125415 0.42347896434486448 0 0.24543322266541101 0.43541889254993399 0 0.25128307062355898 0.42829283212929448 0 0.2383868758125415 0.42347896434486448 0 0.25272431505726811 0.41910974766963099 0 0.25128307062355898 0.42829283212929448 0 0.2383868758125415 0.42347896434486448 0 0.25272431505726811 0.41910974766963099 0 0.2383868758125415 0.42347896434486448 0 0.24106246601305389 0.41127907996518709 0 0.25425612982894968 0.40934958201286309 0 0.2383868758125415 0.42347896434486448 0 0.25425612982894968 0.40934958201286309 0 0.2383868758125415 0.42347896434486448 0 0.25425612982894968 0.40934958201286309 0 0.25272431505726811 0.41910974766963099 0 0.2429757628230248 0.40379176262926852 0 0.24106246601305389 0.41127907996518709 0 0.25425612982894968 0.40934958201286309 0 0.2347251501097769 0.40338996238380048 0 0.24106246601305389 0.41127907996518709 0 0.23082445010043151 0.41298445868408767 0 0.2383868758125415 0.42347896434486448 0 0.24106246601305389 0.41127907996518709 0 0.23082445010043151 0.41298445868408767 0 0.2383868758125415 0.42347896434486448 0 0.23082445010043151 0.41298445868408767 0 0.2242489767006676 0.41989406390079448 0 0.22425205528917461 0.40439251142441052 0 0.2347251501097769 0.40338996238380048 0 0.23082445010043151 0.41298445868408767 0 0.22425205528917461 0.40439251142441052 0 0.2210895635104875 0.41310271821505562 0 0.213741679716004 0.40716373255343857 0 0.22425205528917461 0.40439251142441052 0 0.23082445010043151 0.41298445868408767 0 0.2210895635104875 0.41310271821505562 0 0.23082445010043151 0.41298445868408767 0 0.2210895635104875 0.41310271821505562 0 0.2242489767006676 0.41989406390079448 0 0.2210895635104875 0.41310271821505562 0 0.2242489767006676 0.41989406390079448 0 0.2128735592616465 0.41828966258567202 0 0.2383868758125415 0.42347896434486448 0 0.21811839695373281 0.42965561655590312 0 0.2383868758125415 0.42347896434486448 0 0.2242489767006676 0.41989406390079448 0 0.21811839695373281 0.42965561655590312 0 0.2383868758125415 0.42347896434486448 0 0.22398975613312941 0.43629761405704492 0 0.21811839695373281 0.42965561655590312 0 0.2383868758125415 0.42347896434486448 0 0.2362739382004802 0.43687989130365829 0 0.22398975613312941 0.43629761405704492 0 0.2383868758125415 0.42347896434486448 0 0.22398975613312941 0.43629761405704492 0 0.22398975613312941 0.43629761405704492 0 0.2127377907128086 0.43565352473930291 0 0.21811839695373281 0.42965561655590312 0 0.2127377907128086 0.43565352473930291 0 0.21811839695373281 0.42965561655590312 0 0.20936302575552909 0.4278610054835954 0 0.21811839695373281 0.42965561655590312 0 0.20936302575552909 0.4278610054835954 0 0.2128735592616465 0.41828966258567202 0 0.2242489767006676 0.41989406390079448 0 0.21811839695373281 0.42965561655590312 0 0.2128735592616465 0.41828966258567202 0 0.20936302575552909 0.4278610054835954 0 0.2128735592616465 0.41828966258567202 0 0.20039731833075591 0.42093274872328201 0 0.20936302575552909 0.4278610054835954 0 0.20039731833075591 0.42093274872328201 0 0.20268806351870211 0.43477347481381712 0 0.2127377907128086 0.43565352473930291 0 0.20936302575552909 0.4278610054835954 0 0.20268806351870211 0.43477347481381712 0 0.2210895635104875 0.41310271821505562 0 0.213741679716004 0.40716373255343857 0 0.2128735592616465 0.41828966258567202 0 0.2128735592616465 0.41828966258567202 0 0.20434056635788311 0.4104052143373263 0 0.20039731833075591 0.42093274872328201 0 0.213741679716004 0.40716373255343857 0 0.2128735592616465 0.41828966258567202 0 0.20434056635788311 0.4104052143373263 0 0.1866571042593006 0.42779559815619711 0 0.18897277856493469 0.40620771451460352 0 0.20039731833075591 0.42093274872328201 0 0.18897277856493469 0.40620771451460352 0 0.20434056635788311 0.4104052143373263 0 0.20039731833075591 0.42093274872328201 0 0.1866571042593006 0.42779559815619711 0 0.20268806351870211 0.43477347481381712 0 0.1926048573679722 0.44349481772051302 0 0.1866571042593006 0.42779559815619711 0 0.20039731833075591 0.42093274872328201 0 0.20268806351870211 0.43477347481381712 0 0.20268806351870211 0.43477347481381712 0 0.1926048573679722 0.44349481772051302 0 0.20959263645371781 0.44911626376922581 0 0.1926048573679722 0.44349481772051302 0 0.19238581774458169 0.46155817305801961 0 0.20959263645371781 0.44911626376922581 0 0.19238581774458169 0.46155817305801961 0 0.21258877640667209 0.46226531802147308 0 0.20640925040967609 0.47415258875439398 0 0.19238581774458169 0.46155817305801961 0 0.21258877640667209 0.46226531802147308 0 0.20959263645371781 0.44911626376922581 0 0.21258877640667209 0.46226531802147308 0 0.20959263645371781 0.44911626376922581 0 0.22237566426784519 0.45298677781629709 0 0.2127377907128086 0.43565352473930291 0 0.20268806351870211 0.43477347481381712 0 0.20959263645371781 0.44911626376922581 0 0.20959263645371781 0.44911626376922581 0 0.22166070101726651 0.44590863734145142 0 0.22237566426784519 0.45298677781629709 0 0.22398975613312941 0.43629761405704492 0 0.20959263645371781 0.44911626376922581 0 0.22398975613312941 0.43629761405704492 0 0.20959263645371781 0.44911626376922581 0 0.22166070101726651 0.44590863734145142 0 0.22398975613312941 0.43629761405704492 0 0.2127377907128086 0.43565352473930291 0 0.20959263645371781 0.44911626376922581 0 0.22398975613312941 0.43629761405704492 0 0.23068474721437371 0.44523389372323779 0 0.22166070101726651 0.44590863734145142 0 0.2362739382004802 0.43687989130365829 0 0.22398975613312941 0.43629761405704492 0 0.23068474721437371 0.44523389372323779 0 0.23068474721437371 0.44523389372323779 0 0.22166070101726651 0.44590863734145142 0 0.22237566426784519 0.45298677781629709 0 0.21258877640667209 0.46226531802147308 0 0.22237566426784519 0.45298677781629709 0 0.2235561040573327 0.4746040738513545 0 0.23068474721437371 0.44523389372323779 0 0.22237566426784519 0.45298677781629709 0 0.2397695184178931 0.46865785187753128 0 0.22237566426784519 0.45298677781629709 0 0.2397695184178931 0.46865785187753128 0 0.22237566426784519 0.45298677781629709 0 0.2397695184178931 0.46865785187753128 0 0.2235561040573327 0.4746040738513545 0 0.23068474721437371 0.44523389372323779 0 0.2397695184178931 0.46865785187753128 0 0.24299435070596459 0.44666352649766328 0 0.2397695184178931 0.46865785187753128 0 0.24299435070596459 0.44666352649766328 0 0.25289743674024862 0.45440379631961753 0 0.24299435070596459 0.44666352649766328 0 0.25307793640191562 0.44090379946232228 0 0.25289743674024862 0.45440379631961753 0 0.24543322266541101 0.43541889254993399 0 0.24299435070596459 0.44666352649766328 0 0.25307793640191562 0.44090379946232228 0 0.2362739382004802 0.43687989130365829 0 0.23068474721437371 0.44523389372323779 0 0.24299435070596459 0.44666352649766328 0 0.2362739382004802 0.43687989130365829 0 0.24543322266541101 0.43541889254993399 0 0.24299435070596459 0.44666352649766328 0 0.2499447275231288 0.5 0 0.2395145350799289 0.48538673505267182 0 0.25716337256794097 0.48432892593876548 0 0.2499447275231288 0.5 0 0.2395145350799289 0.48538673505267182 0 0.22533222832826871 0.5 0 0.2397695184178931 0.46865785187753128 0 0.2395145350799289 0.48538673505267182 0 0.25716337256794097 0.48432892593876548 0 0.2397695184178931 0.46865785187753128 0 0.25716337256794097 0.48432892593876548 0 0.2397695184178931 0.46865785187753128 0 0.2395145350799289 0.48538673505267182 0 0.2235561040573327 0.4746040738513545 0 0.2235561040573327 0.4746040738513545 0 0.22533222832826871 0.5 0 0.2102406177354425 0.48757941756675399 0 0.2395145350799289 0.48538673505267182 0 0.2235561040573327 0.4746040738513545 0 0.22533222832826871 0.5 0 0.22533222832826871 0.5 0 0.2102406177354425 0.48757941756675399 0 0.20071972913340849 0.5 0 0.21258877640667209 0.46226531802147308 0 0.2235561040573327 0.4746040738513545 0 0.20640925040967609 0.47415258875439398 0 0.2235561040573327 0.4746040738513545 0 0.2102406177354425 0.48757941756675399 0 0.20640925040967609 0.47415258875439398 0 0.19238581774458169 0.46155817305801961 0 0.20640925040967609 0.47415258875439398 0 0.18961505475773399 0.48378720615058501 0 0.2102406177354425 0.48757941756675399 0 0.20640925040967609 0.47415258875439398 0 0.18961505475773399 0.48378720615058501 0 0.18961505475773399 0.48378720615058501 0 0.20071972913340849 0.5 0 0.17834327737024289 0.49978320773391688 0 0.2102406177354425 0.48757941756675399 0 0.18961505475773399 0.48378720615058501 0 0.20071972913340849 0.5 0 0.17608837414051601 0.49976136130419052 0 0.1738945195020368 0.47199597005474803 0 0.18961505475773399 0.48378720615058501 0 0.17608837414051601 0.49976136130419052 0 0.17834327737024289 0.49978320773391688 0 0.18961505475773399 0.48378720615058501 0 0.17608837414051601 0.49976136130419052 0 0.1738945195020368 0.47199597005474803 0 0.17608837414051601 0.49976136130419052 0 0.17834327737024289 0.49978320773391688 0 0.17608837414051601 0.49976136130419052 0 0.14603260252331449 0.5 0 0.15481562571134219 0.4986077548204888 0 0.17608837414051601 0.49976136130419052 0 0.15481562571134219 0.4986077548204888 0 0.17608837414051601 0.49976136130419052 0 0.16410032756018211 0.48650823537295401 0 0.1738945195020368 0.47199597005474803 0 0.16410032756018211 0.48650823537295401 0 0.15481562571134219 0.4986077548204888 0 0.15160279088683351 0.47566785531238881 0 0.17608837414051601 0.49976136130419052 0 0.16410032756018211 0.48650823537295401 0 0.15481562571134219 0.4986077548204888 0 0.16410032756018211 0.48650823537295401 0 0.1738945195020368 0.47199597005474803 0 0.15160279088683351 0.47566785531238881 0 0.19238581774458169 0.46155817305801961 0 0.18961505475773399 0.48378720615058501 0 0.1738945195020368 0.47199597005474803 0 0.1738945195020368 0.47199597005474803 0 0.1717006648635587 0.44423057880530542 0 0.19238581774458169 0.46155817305801961 0 0.1738945195020368 0.47199597005474803 0 0.1717006648635587 0.44423057880530542 0 0.1866571042593006 0.42779559815619711 0 0.1926048573679722 0.44349481772051302 0 0.1717006648635587 0.44423057880530542 0 0.1926048573679722 0.44349481772051302 0 0.19238581774458169 0.46155817305801961 0 0.1717006648635587 0.44423057880530542 0 0.15680531250106761 0.42943783501172711 0 0.1717006648635587 0.44423057880530542 0 0.1485921674465126 0.450895386405332 0 0.1738945195020368 0.47199597005474803 0 0.1717006648635587 0.44423057880530542 0 0.1485921674465126 0.450895386405332 0 0.1738945195020368 0.47199597005474803 0 0.1485921674465126 0.450895386405332 0 0.15160279088683351 0.47566785531238881 0 0.1485921674465126 0.450895386405332 0 0.13203429693280841 0.46485456583424678 0 0.15160279088683351 0.47566785531238881 0 0.14015317038045719 0.42842951568108689 0 0.1485921674465126 0.450895386405332 0 0.1268369380096746 0.44485403652946842 0 0.1485921674465126 0.450895386405332 0 0.1268369380096746 0.44485403652946842 0 0.13203429693280841 0.46485456583424678 0 0.1181521448807476 0.47910587189452208 0 0.13203429693280841 0.46485456583424678 0 0.13691953724932671 0.48254861517922842 0 0.13203429693280841 0.46485456583424678 0 0.13691953724932671 0.48254861517922842 0 0.15160279088683351 0.47566785531238881 0 0.1159579751080806 0.500000000000004 0 0.13354287728216829 0.49745414833678719 0 0.14603260252331449 0.5 0 0.1181521448807476 0.47910587189452208 0 0.13691953724932671 0.48254861517922842 0 0.13354287728216829 0.49745414833678719 0 0.13354287728216829 0.49745414833678719 0 0.14603260252331449 0.5 0 0.15481562571134219 0.4986077548204888 0 0.13354287728216829 0.49745414833678719 0 0.15481562571134219 0.4986077548204888 0 0.13691953724932671 0.48254861517922842 0 0.13354287728216829 0.49745414833678719 0 0.15481562571134219 0.4986077548204888 0 0.13691953724932671 0.48254861517922842 0 0.15481562571134219 0.4986077548204888 0 0.15160279088683351 0.47566785531238881 0 0.35941744806433051 0.47884355145640378 0 0.34904024096446362 0.46486630418036079 0 0.34147417475646269 0.48228920681662718 0 0.36012784339578502 0.5 0 0.35941744806433051 0.47884355145640378 0 0.34147417475646269 0.48228920681662718 0 0.36012784339578502 0.5 0 0.34147417475646269 0.48228920681662718 0 0.33160430450318618 0.5 0 0.36012784339578502 0.5 0 0.37556414921668291 0.48330088294525653 0 0.38865138228838358 0.5 0 0.36012784339578502 0.5 0 0.35941744806433051 0.47884355145640378 0 0.37556414921668291 0.48330088294525653 0 0.35941744806433051 0.47884355145640378 0 0.37088083198825822 0.46376136333977419 0 0.37556414921668291 0.48330088294525653 0 0.35941744806433051 0.47884355145640378 0 0.37088083198825822 0.46376136333977419 0 0.34904024096446362 0.46486630418036079 0 0.37088083198825822 0.46376136333977419 0 0.3739039730899622 0.44823051421869181 0 0.35523397852359112 0.44565196188381379 0 0.3739039730899622 0.44823051421869181 0 0.35523397852359112 0.44565196188381379 0 0.36270600567134031 0.42996737180436151 0 0.3739039730899622 0.44823051421869181 0 0.36270600567134031 0.42996737180436151 0 0.38831176678627888 0.43826958822440631 0 0.35523397852359112 0.44565196188381379 0 0.34904024096446362 0.46486630418036079 0 0.33705007144708499 0.45059312110025268 0 0.37088083198825822 0.46376136333977419 0 0.35523397852359112 0.44565196188381379 0 0.34904024096446362 0.46486630418036079 0 0.33038676513379639 0.46508507929821291 0 0.33705007144708499 0.45059312110025268 0 0.32196633033810751 0.44895268801754479 0 0.34904024096446362 0.46486630418036079 0 0.33038676513379639 0.46508507929821291 0 0.33705007144708499 0.45059312110025268 0 0.35523397852359112 0.44565196188381379 0 0.33705007144708499 0.45059312110025268 0 0.33329905320622111 0.43523943913228619 0 0.33705007144708499 0.45059312110025268 0 0.32196633033810751 0.44895268801754479 0 0.33329905320622111 0.43523943913228619 0 0.32196633033810751 0.44895268801754479 0 0.30233726636647662 0.44611835726920268 0 0.31631889127748031 0.42847101164256662 0 0.33038676513379639 0.46508507929821291 0 0.32196633033810751 0.44895268801754479 0 0.31240593459758581 0.46820911966274809 0 0.33038676513379639 0.46508507929821291 0 0.32220990081548972 0.48440866523194132 0 0.31240593459758581 0.46820911966274809 0 0.32220990081548972 0.48440866523194132 0 0.30308076561058761 0.5 0 0.31240593459758581 0.46820911966274809 0 0.33038676513379639 0.46508507929821291 0 0.32220990081548972 0.48440866523194132 0 0.34147417475646269 0.48228920681662718 0 0.34904024096446362 0.46486630418036079 0 0.33038676513379639 0.46508507929821291 0 0.34147417475646269 0.48228920681662718 0 0.32220990081548972 0.48440866523194132 0 0.34147417475646269 0.48228920681662718 0 0.33160430450318618 0.5 0 0.32220990081548972 0.48440866523194132 0 0.33160430450318618 0.5 0 0.30308076561058761 0.5 0 0.30308076561058761 0.5 0 0.2940912068929013 0.46742747471470258 0 0.31240593459758581 0.46820911966274809 0 0.30308076561058761 0.5 0 0.27948837381892028 0.47861494668875643 0 0.2940912068929013 0.46742747471470258 0 0.30308076561058761 0.5 0 0.27455722671798888 0.49999999999999978 0 0.27948837381892028 0.47861494668875643 0 0.27455722671798888 0.49999999999999978 0 0.25716337256794097 0.48432892593876548 0 0.27455722671798888 0.49999999999999978 0 0.27948837381892028 0.47861494668875643 0 0.25716337256794097 0.48432892593876548 0 0.27948837381892028 0.47861494668875643 0 0.25716337256794097 0.48432892593876548 0 0.26361544674464549 0.46598982738786382 0 0.2397695184178931 0.46865785187753128 0 0.25716337256794097 0.48432892593876548 0 0.26361544674464549 0.46598982738786382 0 0.2499447275231288 0.5 0 0.27455722671798888 0.49999999999999978 0 0.25716337256794097 0.48432892593876548 0 0.26540211326641372 0.44725832193153309 0 0.25307793640191562 0.44090379946232228 0 0.26266894896098553 0.43382753843677418 0 0.26540211326641372 0.44725832193153309 0 0.25307793640191562 0.44090379946232228 0 0.25289743674024862 0.45440379631961753 0 0.26540211326641372 0.44725832193153309 0 0.26361544674464549 0.46598982738786382 0 0.25289743674024862 0.45440379631961753 0 0.2397695184178931 0.46865785187753128 0 0.26361544674464549 0.46598982738786382 0 0.25289743674024862 0.45440379631961753 0 0.27948837381892028 0.47861494668875643 0 0.26361544674464549 0.46598982738786382 0 0.28442222437945791 0.45394345209120618 0 0.26540211326641372 0.44725832193153309 0 0.26361544674464549 0.46598982738786382 0 0.28442222437945791 0.45394345209120618 0 0.26540211326641372 0.44725832193153309 0 0.28063852310889309 0.4366006916833105 0 0.26266894896098553 0.43382753843677418 0 0.26540211326641372 0.44725832193153309 0 0.28442222437945791 0.45394345209120618 0 0.28063852310889309 0.4366006916833105 0 0.28442222437945791 0.45394345209120618 0 0.30233726636647662 0.44611835726920268 0 0.28063852310889309 0.4366006916833105 0 0.2940912068929013 0.46742747471470258 0 0.28442222437945791 0.45394345209120618 0 0.30233726636647662 0.44611835726920268 0 0.27948837381892028 0.47861494668875643 0 0.2940912068929013 0.46742747471470258 0 0.28442222437945791 0.45394345209120618 0 0.2940912068929013 0.46742747471470258 0 0.31240593459758581 0.46820911966274809 0 0.30233726636647662 0.44611835726920268 0 0.32196633033810751 0.44895268801754479 0 0.31240593459758581 0.46820911966274809 0 0.30233726636647662 0.44611835726920268 0 0.30233726636647662 0.44611835726920268 0 0.29559113321076341 0.42416669310407701 0 0.31631889127748031 0.42847101164256662 0 0.30637626188319128 0.41800557202955979 0 0.29559113321076341 0.42416669310407701 0 0.31631889127748031 0.42847101164256662 0 0.30637626188319128 0.41800557202955979 0 0.29559113321076341 0.42416669310407701 0 0.30118405151922961 0.40434204159513087 0 0.30637626188319128 0.41800557202955979 0 0.30118405151922961 0.40434204159513087 0 0.31638899430655898 0.41463485516653198 0 0.27695418328824861 0.41172589463238041 0 0.30118405151922961 0.40434204159513087 0 0.29559113321076341 0.42416669310407701 0 0.27695418328824861 0.41172589463238041 0 0.30118405151922961 0.40434204159513087 0 0.29559113321076341 0.42416669310407701 0 0.28122463192783909 0.42465810624099948 0 0.27695418328824861 0.41172589463238041 0 0.30233726636647662 0.44611835726920268 0 0.29559113321076341 0.42416669310407701 0 0.28063852310889309 0.4366006916833105 0 0.29559113321076341 0.42416669310407701 0 0.28063852310889309 0.4366006916833105 0 0.28122463192783909 0.42465810624099948 0 0.28063852310889309 0.4366006916833105 0 0.27171468810345151 0.42613914554422971 0 0.26266894896098553 0.43382753843677418 0 0.27171468810345151 0.42613914554422971 0 0.26266894896098553 0.43382753843677418 0 0.2630690412067026 0.42381903168246188 0 0.28063852310889309 0.4366006916833105 0 0.27171468810345151 0.42613914554422971 0 0.28122463192783909 0.42465810624099948 0 0.27171468810345151 0.42613914554422971 0 0.28122463192783909 0.42465810624099948 0 0.27695418328824861 0.41172589463238041 0 0.27171468810345151 0.42613914554422971 0 0.27695418328824861 0.41172589463238041 0 0.2630690412067026 0.42381903168246188 0 0.27695418328824861 0.41172589463238041 0 0.25272431505726811 0.41910974766963099 0 0.2630690412067026 0.42381903168246188 0 0.27695418328824861 0.41172589463238041 0 0.2628173206521407 0.4094725459237436 0 0.25272431505726811 0.41910974766963099 0 0.27695418328824861 0.41172589463238041 0 0.25272431505726811 0.41910974766963099 0 0.2628173206521407 0.4094725459237436 0 0.25425612982894968 0.40934958201286309 0 0.25272431505726811 0.41910974766963099 0 0.25425612982894968 0.40934958201286309 0 0.25272431505726811 0.41910974766963099 0 0.25272431505726811 0.41910974766963099 0 0.25128307062355898 0.42829283212929448 0 0.25272431505726811 0.41910974766963099 0 0.25128307062355898 0.42829283212929448 0 0.2630690412067026 0.42381903168246188 0 0.25307793640191562 0.44090379946232228 0 0.25128307062355898 0.42829283212929448 0 0.26266894896098553 0.43382753843677418 0 0.25128307062355898 0.42829283212929448 0 0.26266894896098553 0.43382753843677418 0 0.2630690412067026 0.42381903168246188 0 0.25768124422427657 0.38752600091818851 0 0.26110635861960457 0.36570241982351381 0 0.25768124422427657 0.38752600091818851 0 0.27542927181838278 0.37893498932047781 0 0.26110635861960457 0.36570241982351381 0 0.2467744606880356 0.39584089270316469 0 0.25425612982894968 0.40934958201286309 0 0.25768124422427657 0.38752600091818851 0 0.25425612982894968 0.40934958201286309 0 0.25768124422427657 0.38752600091818851 0 0.25425612982894968 0.40934958201286309 0 0.25768124422427657 0.38752600091818851 0 0.26733465443409549 0.39770495938009931 0 0.2628173206521407 0.4094725459237436 0 0.25425612982894968 0.40934958201286309 0 0.26733465443409549 0.39770495938009931 0 0.25425612982894968 0.40934958201286309 0 0.26733465443409549 0.39770495938009931 0 0.27695418328824861 0.41172589463238041 0 0.26733465443409549 0.39770495938009931 0 0.28385379034161767 0.39580650866637529 0 0.26733465443409549 0.39770495938009931 0 0.27542927181838278 0.37893498932047781 0 0.28385379034161767 0.39580650866637529 0 0.27695418328824861 0.41172589463238041 0 0.2628173206521407 0.4094725459237436 0 0.26733465443409549 0.39770495938009931 0 0.25768124422427657 0.38752600091818851 0 0.26733465443409549 0.39770495938009931 0 0.27542927181838278 0.37893498932047781 0 0.27542927181838278 0.37893498932047781 0 0.28385379034161767 0.39580650866637529 0 0.29836679064813187 0.38632465840378821 0 0.27542927181838278 0.37893498932047781 0 0.29836679064813187 0.38632465840378821 0 0.28632795174045672 0.36264130238425191 0 0.27695418328824861 0.41172589463238041 0 0.28385379034161767 0.39580650866637529 0 0.30118405151922961 0.40434204159513087 0 0.28385379034161767 0.39580650866637529 0 0.30118405151922961 0.40434204159513087 0 0.29836679064813187 0.38632465840378821 0 0.30118405151922961 0.40434204159513087 0 0.31246472811083209 0.39098801198699851 0 0.29836679064813187 0.38632465840378821 0 0.31246472811083209 0.39098801198699851 0 0.29836679064813187 0.38632465840378821 0 0.31685025883591661 0.3790255610106204 0 0.29836679064813187 0.38632465840378821 0 0.31685025883591661 0.3790255610106204 0 0.30606599884082941 0.36317623976023122 0 0.31685025883591661 0.3790255610106204 0 0.32429626458655209 0.38754556906186471 0 0.33396297058320279 0.37979601670120833 0 0.31246472811083209 0.39098801198699851 0 0.31685025883591661 0.3790255610106204 0 0.32429626458655209 0.38754556906186471 0 0.33396297058320279 0.37979601670120833 0 0.33278944565259838 0.39096006705261488 0 0.35190293067442968 0.38758847192644802 0 0.32429626458655209 0.38754556906186471 0 0.33396297058320279 0.37979601670120833 0 0.33278944565259838 0.39096006705261488 0 0.3321587874544773 0.40216804770996539 0 0.35190293067442968 0.38758847192644802 0 0.33278944565259838 0.39096006705261488 0 0.3321587874544773 0.40216804770996539 0 0.35190293067442968 0.38758847192644802 0 0.33278944565259838 0.39096006705261488 0 0.3321587874544773 0.40216804770996539 0 0.32541391975021039 0.39695818855788129 0 0.30118405151922961 0.40434204159513087 0 0.31246472811083209 0.39098801198699851 0 0.32541391975021039 0.39695818855788129 0 0.30118405151922961 0.40434204159513087 0 0.32541391975021039 0.39695818855788129 0 0.3321587874544773 0.40216804770996539 0 0.32541391975021039 0.39695818855788129 0 0.32135107222113318 0.40705477412460561 0 0.30118405151922961 0.40434204159513087 0 0.32541391975021039 0.39695818855788129 0 0.32135107222113318 0.40705477412460561 0 0.32429626458655209 0.38754556906186471 0 0.33278944565259838 0.39096006705261488 0 0.32541391975021039 0.39695818855788129 0 0.31246472811083209 0.39098801198699851 0 0.32429626458655209 0.38754556906186471 0 0.32541391975021039 0.39695818855788129 0 0.30118405151922961 0.40434204159513087 0 0.31638899430655898 0.41463485516653198 0 0.32135107222113318 0.40705477412460561 0 0.30637626188319128 0.41800557202955979 0 0.31638899430655898 0.41463485516653198 0 0.31631889127748031 0.42847101164256662 0 0.31638899430655898 0.41463485516653198 0 0.31631889127748031 0.42847101164256662 0 0.33160960807518969 0.41717073759351808 0 0.31638899430655898 0.41463485516653198 0 0.32135107222113318 0.40705477412460561 0 0.33160960807518969 0.41717073759351808 0 0.32196633033810751 0.44895268801754479 0 0.31631889127748031 0.42847101164256662 0 0.33329905320622111 0.43523943913228619 0 0.31631889127748031 0.42847101164256662 0 0.33329905320622111 0.43523943913228619 0 0.33160960807518969 0.41717073759351808 0 0.33329905320622111 0.43523943913228619 0 0.33160960807518969 0.41717073759351808 0 0.34680142255515761 0.42677857726239032 0 0.33160960807518969 0.41717073759351808 0 0.35258406569808348 0.40797278878207899 0 0.34680142255515761 0.42677857726239032 0 0.3321587874544773 0.40216804770996539 0 0.33160960807518969 0.41717073759351808 0 0.35258406569808348 0.40797278878207899 0 0.3321587874544773 0.40216804770996539 0 0.32135107222113318 0.40705477412460561 0 0.33160960807518969 0.41717073759351808 0 0.35258406569808348 0.40797278878207899 0 0.34680142255515761 0.42677857726239032 0 0.36270600567134031 0.42996737180436151 0 0.35523397852359112 0.44565196188381379 0 0.34680142255515761 0.42677857726239032 0 0.36270600567134031 0.42996737180436151 0 0.35523397852359112 0.44565196188381379 0 0.33329905320622111 0.43523943913228619 0 0.34680142255515761 0.42677857726239032 0 0.35258406569808348 0.40797278878207899 0 0.37234689329828258 0.40235042049070202 0 0.37600920761416617 0.4189630949491861 0 0.35258406569808348 0.40797278878207899 0 0.36270600567134031 0.42996737180436151 0 0.37600920761416617 0.4189630949491861 0 0.35258406569808348 0.40797278878207899 0 0.37234689329828258 0.40235042049070202 0 0.36560552752104791 0.39157162495380321 0 0.37234689329828258 0.40235042049070202 0 0.36560552752104791 0.39157162495380321 0 0.37954667404006182 0.38693754742685732 0 0.35190293067442968 0.38758847192644802 0 0.37164707389438162 0.37300889614292948 0 0.36560552752104791 0.39157162495380321 0 0.37164707389438162 0.37300889614292948 0 0.37954667404006182 0.38693754742685732 0 0.36560552752104791 0.39157162495380321 0 0.35190293067442968 0.38758847192644802 0 0.37164707389438162 0.37300889614292948 0 0.35190293067442968 0.38758847192644802 0 0.3502699817108223 0.36810123543595219 0 0.37164707389438162 0.37300889614292948 0 0.33396297058320279 0.37979601670120833 0 0.35190293067442968 0.38758847192644802 0 0.3502699817108223 0.36810123543595219 0 0.3321587874544773 0.40216804770996539 0 0.35258406569808348 0.40797278878207899 0 0.35190293067442968 0.38758847192644802 0 0.35258406569808348 0.40797278878207899 0 0.36560552752104791 0.39157162495380321 0 0.35190293067442968 0.38758847192644802 0 0.3502699817108223 0.36810123543595219 0 0.3594237842053456 0.35145667369099892 0 0.33790891690249852 0.34659774172784902 0 0.37164707389438162 0.37300889614292948 0 0.3594237842053456 0.35145667369099892 0 0.3502699817108223 0.36810123543595219 0 0.37164707389438162 0.37300889614292948 0 0.3594237842053456 0.35145667369099892 0 0.3594237842053456 0.35145667369099892 0 0.36473176787229478 0.33593830767487048 0 0.37502222645091138 0.35209631528788943 0 0.37164707389438162 0.37300889614292948 0 0.3594237842053456 0.35145667369099892 0 0.37502222645091138 0.35209631528788943 0 0.36473176787229478 0.33593830767487048 0 0.38205499985883618 0.33859476847568148 0 0.37502222645091138 0.35209631528788943 0 0.36473176787229478 0.33593830767487048 0 0.37547604290798409 0.32536411734344328 0 0.38205499985883618 0.33859476847568148 0 0.36891808154843297 0.31491442274563353 0 0.35933595400268048 0.32252231114922109 0 0.37547604290798409 0.32536411734344328 0 0.36473176787229478 0.33593830767487048 0 0.35933595400268048 0.32252231114922109 0 0.37547604290798409 0.32536411734344328 0 0.36891808154843297 0.31491442274563353 0 0.35933595400268048 0.32252231114922109 0 0.35890266197979609 0.31140234212675688 0 0.35933595400268048 0.32252231114922109 0 0.34696107592017611 0.31440218095809169 0 0.35890266197979609 0.31140234212675688 0 0.35933595400268048 0.32252231114922109 0 0.34696107592017611 0.31440218095809169 0 0.3472004945163098 0.3299044512390682 0 0.36473176787229478 0.33593830767487048 0 0.35933595400268048 0.32252231114922109 0 0.3472004945163098 0.3299044512390682 0 0.3594237842053456 0.35145667369099892 0 0.3472004945163098 0.3299044512390682 0 0.3594237842053456 0.35145667369099892 0 0.36473176787229478 0.33593830767487048 0 0.3472004945163098 0.3299044512390682 0 0.3594237842053456 0.35145667369099892 0 0.3472004945163098 0.3299044512390682 0 0.33790891690249852 0.34659774172784902 0 0.3472004945163098 0.3299044512390682 0 0.33053530041995788 0.32612558006804998 0 0.33790891690249852 0.34659774172784902 0 0.3472004945163098 0.3299044512390682 0 0.33497720482727378 0.30835222878713769 0 0.3472004945163098 0.3299044512390682 0 0.33053530041995788 0.32612558006804998 0 0.33497720482727378 0.30835222878713769 0 0.34696107592017611 0.31440218095809169 0 0.3472004945163098 0.3299044512390682 0 0.33497720482727378 0.30835222878713769 0 0.33053530041995788 0.32612558006804998 0 0.31474784082911089 0.31855413464633281 0 0.33497720482727378 0.30835222878713769 0 0.31474784082911089 0.31855413464633281 0 0.33497720482727378 0.30835222878713769 0 0.33053530041995788 0.32612558006804998 0 0.3136499146147318 0.34115412833690351 0 0.33790891690249852 0.34659774172784902 0 0.33053530041995788 0.32612558006804998 0 0.31474784082911089 0.31855413464633281 0 0.3136499146147318 0.34115412833690351 0 0.3136499146147318 0.34115412833690351 0 0.32637402594782372 0.36284438159612098 0 0.30606599884082941 0.36317623976023122 0 0.3136499146147318 0.34115412833690351 0 0.33790891690249852 0.34659774172784902 0 0.32637402594782372 0.36284438159612098 0 0.3502699817108223 0.36810123543595219 0 0.33790891690249852 0.34659774172784902 0 0.32637402594782372 0.36284438159612098 0 0.33396297058320279 0.37979601670120833 0 0.3502699817108223 0.36810123543595219 0 0.32637402594782372 0.36284438159612098 0 0.31685025883591661 0.3790255610106204 0 0.32637402594782372 0.36284438159612098 0 0.30606599884082941 0.36317623976023122 0 0.31685025883591661 0.3790255610106204 0 0.33396297058320279 0.37979601670120833 0 0.32637402594782372 0.36284438159612098 0 0.29836679064813187 0.38632465840378821 0 0.30606599884082941 0.36317623976023122 0 0.28632795174045672 0.36264130238425191 0 0.3136499146147318 0.34115412833690351 0 0.30606599884082941 0.36317623976023122 0 0.29482705125791592 0.34706740682970239 0 0.29482705125791592 0.34706740682970239 0 0.28632795174045672 0.36264130238425191 0 0.27428911283278151 0.33895794636471549 0 0.30606599884082941 0.36317623976023122 0 0.29482705125791592 0.34706740682970239 0 0.28632795174045672 0.36264130238425191 0 0.29836679064813187 0.38632465840378821 0 0.28632795174045672 0.36264130238425191 0 0.27542927181838278 0.37893498932047781 0 0.27233683360523142 0.35802309932435972 0 0.26110635861960457 0.36570241982351381 0 0.27542927181838278 0.37893498932047781 0 0.28632795174045672 0.36264130238425191 0 0.27233683360523142 0.35802309932435972 0 0.28632795174045672 0.36264130238425191 0 0.27428911283278151 0.33895794636471549 0 0.27233683360523142 0.35802309932435972 0 0.26453147301493157 0.34387883872883912 0 0.27428911283278151 0.33895794636471549 0 0.27233683360523142 0.35802309932435972 0 0.26453147301493157 0.34387883872883912 0 0.26110635861960457 0.36570241982351381 0 0.28632795174045672 0.36264130238425191 0 0.27233683360523142 0.35802309932435972 0 0.27428911283278151 0.33895794636471549 0 0.26453147301493157 0.34387883872883912 0 0.26110635861960457 0.36570241982351381 0 0.26453147301493157 0.34387883872883912 0 0.2549064962932388 0.35651835030752899 0 0.26110635861960457 0.36570241982351381 0 0.2435893676352921 0.35444018843789149 0 0.26453147301493157 0.34387883872883912 0 0.25551134348532561 0.34391408179685279 0 0.2435893676352921 0.35444018843789149 0 0.26453147301493157 0.34387883872883912 0 0.2549064962932388 0.35651835030752899 0 0.2435893676352921 0.35444018843789149 0 0.26453147301493157 0.34387883872883912 0 0.2435893676352921 0.35444018843789149 0 0.25551134348532561 0.34391408179685279 0 0.25262120207229127 0.34084517858386998 0 0.2453621331743529 0.37093673251849368 0 0.25768124422427657 0.38752600091818851 0 0.26110635861960457 0.36570241982351381 0 0.2453621331743529 0.37093673251849368 0 0.25061804429220852 0.36201224904723989 0 0.26110635861960457 0.36570241982351381 0 0.2549064962932388 0.35651835030752899 0 0.25061804429220852 0.36201224904723989 0 0.26110635861960457 0.36570241982351381 0 0.26523766667612919 0.32115152637158728 0 0.26165303650928989 0.32725016872984808 0 0.25375848191490757 0.31919031353891703 0 0.26523766667612919 0.32115152637158728 0 0.25375848191490757 0.31919031353891703 0 0.25810305548334572 0.30711599202849438 0 0.26523766667612919 0.32115152637158728 0 0.25810305548334572 0.30711599202849438 0 0.26165303650928989 0.32725016872984808 0 0.25375848191490757 0.31919031353891703 0 0.25026421316334402 0.32948166370830623 0 0.26165303650928989 0.32725016872984808 0 0.25026421316334402 0.32948166370830623 0 0.25262120207229127 0.34084517858386998 0 0.26165303650928989 0.32725016872984808 0 0.25262120207229127 0.34084517858386998 0 0.25551134348532561 0.34391408179685279 0 0.25262120207229127 0.34084517858386998 0 0.26130333121878718 0.3364921214368109 0 0.26453147301493157 0.34387883872883912 0 0.26130333121878718 0.3364921214368109 0 0.26688590331760059 0.32887726660262823 0 0.26453147301493157 0.34387883872883912 0 0.25551134348532561 0.34391408179685279 0 0.26130333121878718 0.3364921214368109 0 0.26165303650928989 0.32725016872984808 0 0.25262120207229127 0.34084517858386998 0 0.26130333121878718 0.3364921214368109 0 0.26523766667612919 0.32115152637158728 0 0.26130333121878718 0.3364921214368109 0 0.26523766667612919 0.32115152637158728 0 0.26130333121878718 0.3364921214368109 0 0.26688590331760059 0.32887726660262823 0 0.26523766667612919 0.32115152637158728 0 0.26165303650928989 0.32725016872984808 0 0.26130333121878718 0.3364921214368109 0 0.26523766667612919 0.32115152637158728 0 0.26688590331760059 0.32887726660262823 0 0.27428911283278151 0.33895794636471549 0 0.26523766667612919 0.32115152637158728 0 0.27428911283278151 0.33895794636471549 0 0.26453147301493157 0.34387883872883912 0 0.26688590331760059 0.32887726660262823 0 0.27428911283278151 0.33895794636471549 0 0.26453147301493157 0.34387883872883912 0 0.26688590331760059 0.32887726660262823 0 0.26453147301493157 0.34387883872883912 0 0.27428911283278151 0.33895794636471549 0 0.26523766667612919 0.32115152637158728 0 0.28136612586454418 0.31650453761857811 0 0.27002760382913682 0.30247480522037379 0 0.26523766667612919 0.32115152637158728 0 0.27428911283278151 0.33895794636471549 0 0.28136612586454418 0.31650453761857811 0 0.28136612586454418 0.31650453761857811 0 0.29451847683094629 0.32875604050552421 0 0.29994974828456672 0.31343017051622418 0 0.27428911283278151 0.33895794636471549 0 0.28136612586454418 0.31650453761857811 0 0.29451847683094629 0.32875604050552421 0 0.29482705125791592 0.34706740682970239 0 0.27428911283278151 0.33895794636471549 0 0.29451847683094629 0.32875604050552421 0 0.27428911283278151 0.33895794636471549 0 0.29451847683094629 0.32875604050552421 0 0.31474784082911089 0.31855413464633281 0 0.3136499146147318 0.34115412833690351 0 0.29451847683094629 0.32875604050552421 0 0.3136499146147318 0.34115412833690351 0 0.29482705125791592 0.34706740682970239 0 0.29451847683094629 0.32875604050552421 0 0.31474784082911089 0.31855413464633281 0 0.29451847683094629 0.32875604050552421 0 0.31474784082911089 0.31855413464633281 0 0.29451847683094629 0.32875604050552421 0 0.29994974828456672 0.31343017051622418 0 0.31474784082911089 0.31855413464633281 0 0.29994974828456672 0.31343017051622418 0 0.31131206102322118 0.3028397320694281 0 0.31131206102322118 0.3028397320694281 0 0.29066983242617889 0.30265726864490111 0 0.29994974828456672 0.31343017051622418 0 0.31131206102322118 0.3028397320694281 0 0.29066983242617889 0.30265726864490111 0 0.31131206102322118 0.3028397320694281 0 0.30254030922848391 0.29539064839618068 0 0.29066983242617889 0.30265726864490111 0 0.30580913674198351 0.28179156682018969 0 0.31173941421315848 0.29014030815013181 0 0.31720312288744568 0.27701279582011601 0 0.31131206102322118 0.3028397320694281 0 0.31173941421315848 0.29014030815013181 0 0.30254030922848391 0.29539064839618068 0 0.31173941421315848 0.29014030815013181 0 0.30254030922848391 0.29539064839618068 0 0.29643992925137691 0.28592528472026207 0 0.30580913674198351 0.28179156682018969 0 0.31173941421315848 0.29014030815013181 0 0.29643992925137691 0.28592528472026207 0 0.31173941421315848 0.29014030815013181 0 0.29643992925137691 0.28592528472026207 0 0.29643992925137691 0.28592528472026207 0 0.29066983242617889 0.30265726864490111 0 0.27512155731924459 0.28261267637546511 0 0.30254030922848391 0.29539064839618068 0 0.29643992925137691 0.28592528472026207 0 0.29066983242617889 0.30265726864490111 0 0.28136612586454418 0.31650453761857811 0 0.29994974828456672 0.31343017051622418 0 0.29066983242617889 0.30265726864490111 0 0.29066983242617889 0.30265726864490111 0 0.27002760382913682 0.30247480522037379 0 0.28136612586454418 0.31650453761857811 0 0.29066983242617889 0.30265726864490111 0 0.27002760382913682 0.30247480522037379 0 0.26523766667612919 0.32115152637158728 0 0.27002760382913682 0.30247480522037379 0 0.29066983242617889 0.30265726864490111 0 0.27002760382913682 0.30247480522037379 0 0.27512155731924459 0.28261267637546511 0 0.27002760382913682 0.30247480522037379 0 0.27512155731924459 0.28261267637546511 0 0.26101526042025142 0.29089873450787701 0 0.27002760382913682 0.30247480522037379 0 0.27512155731924459 0.28261267637546511 0 0.27512155731924459 0.28261267637546511 0 0.26101526042025142 0.29089873450787701 0 0.25931436089426951 0.27642138959578888 0 0.24977120520341911 0.28701821694709911 0 0.26101526042025142 0.29089873450787701 0 0.25931436089426951 0.27642138959578888 0 0.24977120520341911 0.28701821694709911 0 0.26101526042025142 0.29089873450787701 0 0.25161633839361708 0.30231206201048039 0 0.27002760382913682 0.30247480522037379 0 0.25161633839361708 0.30231206201048039 0 0.26523766667612919 0.32115152637158728 0 0.27002760382913682 0.30247480522037379 0 0.25810305548334572 0.30711599202849438 0 0.27002760382913682 0.30247480522037379 0 0.25161633839361708 0.30231206201048039 0 0.25810305548334572 0.30711599202849438 0 0.27002760382913682 0.30247480522037379 0 0.26101526042025142 0.29089873450787701 0 0.25161633839361708 0.30231206201048039 0 0.24762251716882169 0.30864802395995089 0 0.25375848191490757 0.31919031353891703 0 0.25810305548334572 0.30711599202849438 0 0.24762251716882169 0.30864802395995089 0 0.25161633839361708 0.30231206201048039 0 0.25810305548334572 0.30711599202849438 0 0.23902387221865859 0.27043873591054612 0 0.26100036705339191 0.25593539236450208 0 0.25931436089426951 0.27642138959578888 0 0.27512155731924459 0.28261267637546511 0 0.28021551080935342 0.26275054753055671 0 0.25931436089426951 0.27642138959578888 0 0.28021551080935342 0.26275054753055671 0 0.27512155731924459 0.28261267637546511 0 0.25931436089426951 0.27642138959578888 0 0.28021551080935342 0.26275054753055671 0 0.26100036705339191 0.25593539236450208 0 0.25931436089426951 0.27642138959578888 0 0.28021551080935342 0.26275054753055671 0 0.26100036705339191 0.25593539236450208 0 0.28021551080935342 0.26275054753055671 0 0.28442486254224258 0.2463376205898751 0 0.28021551080935342 0.26275054753055671 0 0.29548352595208072 0.25276417718664501 0 0.28021551080935342 0.26275054753055671 0 0.29548352595208072 0.25276417718664501 0 0.28442486254224258 0.2463376205898751 0 0.28021551080935342 0.26275054753055671 0 0.29548352595208072 0.25276417718664501 0 0.29513940397713201 0.2706748598100861 0 0.28021551080935342 0.26275054753055671 0 0.28442486254224258 0.2463376205898751 0 0.29643992925137691 0.28592528472026207 0 0.27512155731924459 0.28261267637546511 0 0.29513940397713201 0.2706748598100861 0 0.27512155731924459 0.28261267637546511 0 0.28021551080935342 0.26275054753055671 0 0.29513940397713201 0.2706748598100861 0 0.30736734659995057 0.25967026006023142 0 0.31720312288744568 0.27701279582011601 0 0.30637975255162769 0.27228737062765579 0 0.30736734659995057 0.25967026006023142 0 0.31720312288744568 0.27701279582011601 0 0.30580913674198351 0.28179156682018969 0 0.29643992925137691 0.28592528472026207 0 0.29513940397713201 0.2706748598100861 0 0.30580913674198351 0.28179156682018969 0 0.29513940397713201 0.2706748598100861 0 0.30637975255162769 0.27228737062765579 0 0.29513940397713201 0.2706748598100861 0 0.30637975255162769 0.27228737062765579 0 0.30736734659995057 0.25967026006023142 0 0.30580913674198351 0.28179156682018969 0 0.30637975255162769 0.27228737062765579 0 0.31720312288744568 0.27701279582011601 0 0.30736734659995057 0.25967026006023142 0 0.32645287516793792 0.2534464880952344 0 0.30129484237942677 0.24896316196057619 0 0.29548352595208072 0.25276417718664501 0 0.29513940397713201 0.2706748598100861 0 0.30736734659995057 0.25967026006023142 0 0.29548352595208072 0.25276417718664501 0 0.30736734659995057 0.25967026006023142 0 0.30129484237942677 0.24896316196057619 0 0.30736734659995057 0.25967026006023142 0 0.30129484237942677 0.24896316196057619 0 0.29548352595208072 0.25276417718664501 0 0.30736734659995057 0.25967026006023142 0 0.29548352595208072 0.25276417718664501 0 0.30129484237942677 0.24896316196057619 0 0.30736734659995057 0.25967026006023142 0 0.32645287516793792 0.2534464880952344 0 0.33129789907580798 0.27357709890490101 0 0.32645287516793792 0.2534464880952344 0 0.35135324764132891 0.26660931721666697 0 0.34353276186511927 0.2376624453472102 0 0.32645287516793792 0.2534464880952344 0 0.33129789907580798 0.27357709890490101 0 0.35135324764132891 0.26660931721666697 0 0.33129789907580798 0.27357709890490101 0 0.35522845155166533 0.28748393774957098 0 0.33129789907580798 0.27357709890490101 0 0.3283937976125193 0.28288756170752388 0 0.33803526931188232 0.28660502052507852 0 0.30736734659995057 0.25967026006023142 0 0.33129789907580798 0.27357709890490101 0 0.33129789907580798 0.27357709890490101 0 0.31720312288744568 0.27701279582011601 0 0.3283937976125193 0.28288756170752388 0 0.30736734659995057 0.25967026006023142 0 0.33129789907580798 0.27357709890490101 0 0.31720312288744568 0.27701279582011601 0 0.31720312288744568 0.27701279582011601 0 0.32703889917494028 0.29435533158000082 0 0.31173941421315848 0.29014030815013181 0 0.31720312288744568 0.27701279582011601 0 0.32703889917494028 0.29435533158000082 0 0.31720312288744568 0.27701279582011601 0 0.32703889917494028 0.29435533158000082 0 0.3283937976125193 0.28288756170752388 0 0.31173941421315848 0.29014030815013181 0 0.32703889917494028 0.29435533158000082 0 0.31173941421315848 0.29014030815013181 0 0.32703889917494028 0.29435533158000082 0 0.32051116600789631 0.29758939182337829 0 0.31131206102322118 0.3028397320694281 0 0.31173941421315848 0.29014030815013181 0 0.32051116600789631 0.29758939182337829 0 0.31131206102322118 0.3028397320694281 0 0.33195428962026341 0.30302219549395348 0 0.31131206102322118 0.3028397320694281 0 0.32243146034354919 0.30850321877451609 0 0.33195428962026341 0.30302219549395348 0 0.31474784082911089 0.31855413464633281 0 0.31131206102322118 0.3028397320694281 0 0.32243146034354919 0.30850321877451609 0 0.31131206102322118 0.3028397320694281 0 0.32051116600789631 0.29758939182337829 0 0.33195428962026341 0.30302219549395348 0 0.31474784082911089 0.31855413464633281 0 0.32243146034354919 0.30850321877451609 0 0.33497720482727378 0.30835222878713769 0 0.32703889917494028 0.29435533158000082 0 0.32051116600789631 0.29758939182337829 0 0.33195428962026341 0.30302219549395348 0 0.32703889917494028 0.29435533158000082 0 0.35331621070300218 0.30159475722350831 0 0.32703889917494028 0.29435533158000082 0 0.33660273890424969 0.30306328466081078 0 0.35331621070300218 0.30159475722350831 0 0.32243146034354919 0.30850321877451609 0 0.33497720482727378 0.30835222878713769 0 0.33195428962026341 0.30302219549395348 0 0.33497720482727378 0.30835222878713769 0 0.33195428962026341 0.30302219549395348 0 0.33660273890424969 0.30306328466081078 0 0.33497720482727378 0.30835222878713769 0 0.33195428962026341 0.30302219549395348 0 0.32703889917494028 0.29435533158000082 0 0.33195428962026341 0.30302219549395348 0 0.32703889917494028 0.29435533158000082 0 0.33195428962026341 0.30302219549395348 0 0.33660273890424969 0.30306328466081078 0 0.33195428962026341 0.30302219549395348 0 0.33660273890424969 0.30306328466081078 0 0.34696107592017611 0.31440218095809169 0 0.33497720482727378 0.30835222878713769 0 0.34577542782547971 0.30690812329873213 0 0.33497720482727378 0.30835222878713769 0 0.33660273890424969 0.30306328466081078 0 0.34577542782547971 0.30690812329873213 0 0.33129789907580798 0.27357709890490101 0 0.33803526931188232 0.28660502052507852 0 0.35522845155166533 0.28748393774957098 0 0.32703889917494028 0.29435533158000082 0 0.34340470768537279 0.29250976176953952 0 0.33803526931188232 0.28660502052507852 0 0.32703889917494028 0.29435533158000082 0 0.34340470768537279 0.29250976176953952 0 0.35331621070300218 0.30159475722350831 0 0.32703889917494028 0.29435533158000082 0 0.3283937976125193 0.28288756170752388 0 0.33803526931188232 0.28660502052507852 0 0.34340470768537279 0.29250976176953952 0 0.33803526931188232 0.28660502052507852 0 0.35522845155166533 0.28748393774957098 0 0.34340470768537279 0.29250976176953952 0 0.35522845155166533 0.28748393774957098 0 0.35331621070300218 0.30159475722350831 0 0.33660273890424969 0.30306328466081078 0 0.34577542782547971 0.30690812329873213 0 0.35331621070300218 0.30159475722350831 0 0.34696107592017611 0.31440218095809169 0 0.34577542782547971 0.30690812329873213 0 0.35890266197979609 0.31140234212675688 0 0.34577542782547971 0.30690812329873213 0 0.35331621070300218 0.30159475722350831 0 0.35890266197979609 0.31140234212675688 0 0.35331621070300218 0.30159475722350831 0 0.37959352223106441 0.30883418286701508 0 0.35331621070300218 0.30159475722350831 0 0.35890266197979609 0.31140234212675688 0 0.37959352223106441 0.30883418286701508 0 0.36891808154843297 0.31491442274563353 0 0.35890266197979609 0.31140234212675688 0 0.37959352223106441 0.30883418286701508 0 0.35331621070300218 0.30159475722350831 0 0.37959352223106441 0.30883418286701508 0 0.37915900402752228 0.30139077659424118 0 0.35522845155166533 0.28748393774957098 0 0.35331621070300218 0.30159475722350831 0 0.37915900402752228 0.30139077659424118 0 0.35522845155166533 0.28748393774957098 0 0.37915900402752228 0.30139077659424118 0 0.35522845155166533 0.28748393774957098 0 0.37834652839569871 0.27179832220999101 0 0.37915900402752228 0.30139077659424118 0 0.35522845155166533 0.28748393774957098 0 0.35135324764132891 0.26660931721666697 0 0.37834652839569871 0.27179832220999101 0 0.37834652839569871 0.27179832220999101 0 0.36346140581198227 0.2489327044989503 0 0.38313168943010789 0.24915105822936001 0 0.35135324764132891 0.26660931721666697 0 0.37834652839569871 0.27179832220999101 0 0.36346140581198227 0.2489327044989503 0 0.35135324764132891 0.26660931721666697 0 0.34353276186511927 0.2376624453472102 0 0.36346140581198227 0.2489327044989503 0 0.33129789907580798 0.27357709890490101 0 0.35522845155166533 0.28748393774957098 0 0.35135324764132891 0.26660931721666697 0 0.37834652839569871 0.27179832220999101 0 0.39579141488576458 0.28726443808203628 0 0.40741878708023538 0.26033295739176671 0 0.37834652839569871 0.27179832220999101 0 0.40741878708023538 0.26033295739176671 0 0.38313168943010789 0.24915105822936001 0 0.37834652839569871 0.27179832220999101 0 0.37915900402752228 0.30139077659424118 0 0.39579141488576458 0.28726443808203628 0 0.37915900402752228 0.30139077659424118 0 0.4030895565033813 0.31529761543890827 0 0.38600381902590719 0.31510601909226899 0 0.37959352223106441 0.30883418286701508 0 0.37915900402752228 0.30139077659424118 0 0.38600381902590719 0.31510601909226899 0 0.37915900402752228 0.30139077659424118 0 0.4030895565033813 0.31529761543890827 0 0.37915900402752228 0.30139077659424118 0 0.39579141488576458 0.28726443808203628 0 0.4030895565033813 0.31529761543890827 0 0.39579141488576458 0.28726443808203628 0 0.41760231516954321 0.28795375624503672 0 0.4030895565033813 0.31529761543890827 0 0.41760231516954321 0.28795375624503672 0 0.42778584325884822 0.31557455509830767 0 0.4030895565033813 0.31529761543890827 0 0.41760231516954321 0.28795375624503672 0 0.44285636301006648 0.2975099544025685 0 0.42778584325884822 0.31557455509830767 0 0.41760231516954321 0.28795375624503672 0 0.42778584325884822 0.31557455509830767 0 0.41760231516954321 0.28795375624503672 0 0.43358055878153412 0.26648832257796429 0 0.44285636301006648 0.2975099544025685 0 0.41760231516954321 0.28795375624503672 0 0.40741878708023538 0.26033295739176671 0 0.41760231516954321 0.28795375624503672 0 0.43358055878153412 0.26648832257796429 0 0.40741878708023538 0.26033295739176671 0 0.39579141488576458 0.28726443808203628 0 0.41760231516954321 0.28795375624503672 0 0.40741878708023538 0.26033295739176671 0 0.43358055878153412 0.26648832257796429 0 0.40741878708023538 0.26033295739176671 0 0.41697898989259552 0.2411205159443833 0 0.43358055878153412 0.26648832257796429 0 0.4364808034378429 0.24279813918634921 0 0.41697898989259552 0.2411205159443833 0 0.43358055878153412 0.26648832257796429 0 0.45265058905914229 0.25041858092155223 0 0.4364808034378429 0.24279813918634921 0 0.45265058905914229 0.25041858092155223 0 0.47289252882010568 0.25761516153415509 0 0.46215850355791649 0.28406087509804739 0 0.43358055878153412 0.26648832257796429 0 0.45265058905914229 0.25041858092155223 0 0.46215850355791649 0.28406087509804739 0 0.47289252882010568 0.25761516153415509 0 0.5 0.25820470379876048 0 0.4771563458419712 0.2385321447755672 0 0.47289252882010568 0.25761516153415509 0 0.48300010911807861 0.27541734435653642 0 0.46215850355791649 0.28406087509804739 0 0.48300010911807861 0.27541734435653642 0 0.5 0.25820470379876048 0 0.5 0.28570940986788917 0 0.47289252882010568 0.25761516153415509 0 0.48300010911807861 0.27541734435653642 0 0.5 0.25820470379876048 0 0.48536254280176427 0.305094307140789 0 0.5 0.28570940986788917 0 0.5 0.31321411593701798 0 0.48300010911807861 0.27541734435653642 0 0.5 0.28570940986788917 0 0.47994951321237073 0.29149657148382968 0 0.48536254280176427 0.305094307140789 0 0.5 0.28570940986788917 0 0.47994951321237073 0.29149657148382968 0 0.48300010911807861 0.27541734435653642 0 0.47994951321237073 0.29149657148382968 0 0.46215850355791649 0.28406087509804739 0 0.47994951321237073 0.29149657148382968 0 0.47038622573571692 0.31010883449225229 0 0.46215850355791649 0.28406087509804739 0 0.48536254280176427 0.305094307140789 0 0.47994951321237073 0.29149657148382968 0 0.47038622573571692 0.31010883449225229 0 0.48536254280176427 0.305094307140789 0 0.47038622573571692 0.31010883449225229 0 0.48431533362791213 0.32003248979995119 0 0.47038622573571692 0.31010883449225229 0 0.45822616873111233 0.30030257713831371 0 0.46215850355791649 0.28406087509804739 0 0.47038622573571692 0.31010883449225229 0 0.45822616873111233 0.30030257713831371 0 0.45751799767071749 0.31590796605996913 0 0.47038622573571692 0.31010883449225229 0 0.46215850355791649 0.28406087509804739 0 0.45822616873111233 0.30030257713831371 0 0.46215850355791649 0.28406087509804739 0 0.44285636301006648 0.2975099544025685 0 0.43358055878153412 0.26648832257796429 0 0.46215850355791649 0.28406087509804739 0 0.44285636301006648 0.2975099544025685 0 0.44285636301006648 0.2975099544025685 0 0.45751799767071749 0.31590796605996913 0 0.42778584325884822 0.31557455509830767 0 0.45822616873111233 0.30030257713831371 0 0.44285636301006648 0.2975099544025685 0 0.45751799767071749 0.31590796605996913 0 0.44662413980042248 0.32783918953121149 0 0.45751799767071749 0.31590796605996913 0 0.42778584325884822 0.31557455509830767 0 0.45751799767071749 0.31590796605996913 0 0.42778584325884822 0.31557455509830767 0 0.45113062581250418 0.34321587639346501 0 0.43439015164247091 0.33348743085503257 0 0.44662413980042248 0.32783918953121149 0 0.45113062581250418 0.34321587639346501 0 0.43439015164247091 0.33348743085503257 0 0.45113062581250418 0.34321587639346501 0 0.46229608061756999 0.33101011924928347 0 0.46787109998253679 0.35294432193189867 0 0.44662413980042248 0.32783918953121149 0 0.45113062581250418 0.34321587639346501 0 0.46229608061756999 0.33101011924928347 0 0.44662413980042248 0.32783918953121149 0 0.46229608061756999 0.33101011924928347 0 0.45751799767071749 0.31590796605996913 0 0.47038622573571692 0.31010883449225229 0 0.46229608061756999 0.33101011924928347 0 0.45751799767071749 0.31590796605996913 0 0.47038622573571692 0.31010883449225229 0 0.4786139479135173 0.33615679388645719 0 0.47038622573571692 0.31010883449225229 0 0.46229608061756999 0.33101011924928347 0 0.4786139479135173 0.33615679388645719 0 0.47038622573571692 0.31010883449225229 0 0.48431533362791213 0.32003248979995119 0 0.4786139479135173 0.33615679388645719 0 0.46229608061756999 0.33101011924928347 0 0.4786139479135173 0.33615679388645719 0 0.46787109998253679 0.35294432193189867 0 0.48431533362791213 0.32003248979995119 0 0.4786139479135173 0.33615679388645719 0 0.5 0.34071882200614673 0 0.48431533362791213 0.32003248979995119 0 0.5 0.34071882200614673 0 0.5 0.31321411593701798 0 0.48536254280176427 0.305094307140789 0 0.48431533362791213 0.32003248979995119 0 0.5 0.31321411593701798 0 0.48684167009131762 0.36220475328066187 0 0.5 0.36822352807527547 0 0.48347873919881201 0.37403433370194578 0 0.5 0.36822352807527547 0 0.48347873919881201 0.37403433370194578 0 0.49153844573945199 0.38197588110983982 0 0.4786139479135173 0.33615679388645719 0 0.5 0.34071882200614673 0 0.48684167009131762 0.36220475328066187 0 0.5 0.34071882200614673 0 0.48684167009131762 0.36220475328066187 0 0.5 0.36822352807527547 0 0.4786139479135173 0.33615679388645719 0 0.48684167009131762 0.36220475328066187 0 0.46787109998253679 0.35294432193189867 0 0.4786139479135173 0.33615679388645719 0 0.48684167009131762 0.36220475328066187 0 0.48684167009131762 0.36220475328066187 0 0.48347873919881201 0.37403433370194578 0 0.47074924702163629 0.3717794886876713 0 0.48684167009131762 0.36220475328066187 0 0.47074924702163629 0.3717794886876713 0 0.46787109998253679 0.35294432193189867 0 0.47074924702163629 0.3717794886876713 0 0.45840762096375498 0.3640278926468602 0 0.45421117884620332 0.38724803333565699 0 0.47074924702163629 0.3717794886876713 0 0.45840762096375498 0.3640278926468602 0 0.46787109998253679 0.35294432193189867 0 0.45113062581250418 0.34321587639346501 0 0.46787109998253679 0.35294432193189867 0 0.45113062581250418 0.34321587639346501 0 0.45840762096375498 0.3640278926468602 0 0.46787109998253679 0.35294432193189867 0 0.44430066524433698 0.36036773209534467 0 0.43439015164247091 0.33348743085503257 0 0.45113062581250418 0.34321587639346501 0 0.45840762096375498 0.3640278926468602 0 0.44430066524433698 0.36036773209534467 0 0.45113062581250418 0.34321587639346501 0 0.44430066524433698 0.36036773209534467 0 0.43439015164247091 0.33348743085503257 0 0.44430066524433698 0.36036773209534467 0 0.43454302316624371 0.37264346727180148 0 0.45421117884620332 0.38724803333565699 0 0.44430066524433698 0.36036773209534467 0 0.45421117884620332 0.38724803333565699 0 0.45840762096375498 0.3640278926468602 0 0.44430066524433698 0.36036773209534467 0 0.45421117884620332 0.38724803333565699 0 0.43454302316624371 0.37264346727180148 0 0.4173290549533169 0.36509182629494791 0 0.42609964739919171 0.34754003233131869 0 0.43454302316624371 0.37264346727180148 0 0.4173290549533169 0.36509182629494791 0 0.4174484875962593 0.38729715085364502 0 0.43454302316624371 0.37264346727180148 0 0.42609964739919171 0.34754003233131869 0 0.44430066524433698 0.36036773209534467 0 0.43454302316624371 0.37264346727180148 0 0.42609964739919171 0.34754003233131869 0 0.4173290549533169 0.36509182629494791 0 0.3989736506563431 0.3702410969628756 0 0.4174484875962593 0.38729715085364502 0 0.4173290549533169 0.36509182629494791 0 0.40958046594854608 0.34773738405509941 0 0.3989736506563431 0.3702410969628756 0 0.4173290549533169 0.36509182629494791 0 0.40958046594854608 0.34773738405509941 0 0.42609964739919171 0.34754003233131869 0 0.44430066524433698 0.36036773209534467 0 0.42609964739919171 0.34754003233131869 0 0.43439015164247091 0.33348743085503257 0 0.42609964739919171 0.34754003233131869 0 0.43439015164247091 0.33348743085503257 0 0.420187281240752 0.3252336711473246 0 0.43439015164247091 0.33348743085503257 0 0.420187281240752 0.3252336711473246 0 0.43439015164247091 0.33348743085503257 0 0.42778584325884822 0.31557455509830767 0 0.44662413980042248 0.32783918953121149 0 0.43439015164247091 0.33348743085503257 0 0.42778584325884822 0.31557455509830767 0 0.43439015164247091 0.33348743085503257 0 0.42778584325884822 0.31557455509830767 0 0.4219734683390472 0.32144404716008051 0 0.43439015164247091 0.33348743085503257 0 0.4219734683390472 0.32144404716008051 0 0.420187281240752 0.3252336711473246 0 0.42778584325884822 0.31557455509830767 0 0.4030895565033813 0.31529761543890827 0 0.420187281240752 0.3252336711473246 0 0.4030895565033813 0.31529761543890827 0 0.4219734683390472 0.32144404716008051 0 0.420187281240752 0.3252336711473246 0 0.4030895565033813 0.31529761543890827 0 0.42778584325884822 0.31557455509830767 0 0.4219734683390472 0.32144404716008051 0 0.4030895565033813 0.31529761543890827 0 0.420187281240752 0.3252336711473246 0 0.40631370185353849 0.32828785702905439 0 0.4030895565033813 0.31529761543890827 0 0.4219734683390472 0.32144404716008051 0 0.420187281240752 0.3252336711473246 0 0.40958046594854608 0.34773738405509941 0 0.420187281240752 0.3252336711473246 0 0.40958046594854608 0.34773738405509941 0 0.420187281240752 0.3252336711473246 0 0.40631370185353849 0.32828785702905439 0 0.40958046594854608 0.34773738405509941 0 0.42609964739919171 0.34754003233131869 0 0.420187281240752 0.3252336711473246 0 0.40958046594854608 0.34773738405509941 0 0.40631370185353849 0.32828785702905439 0 0.39717543747291512 0.33500042856877482 0 0.40958046594854608 0.34773738405509941 0 0.39717543747291512 0.33500042856877482 0 0.3949724140948509 0.34494793939848822 0 0.40631370185353849 0.32828785702905439 0 0.39717543747291512 0.33500042856877482 0 0.39107717742649672 0.32622252022815001 0 0.39717543747291512 0.33500042856877482 0 0.38205499985883618 0.33859476847568148 0 0.3949724140948509 0.34494793939848822 0 0.4030895565033813 0.31529761543890827 0 0.39107717742649672 0.32622252022815001 0 0.38600381902590719 0.31510601909226899 0 0.4030895565033813 0.31529761543890827 0 0.38600381902590719 0.31510601909226899 0 0.40631370185353849 0.32828785702905439 0 0.4030895565033813 0.31529761543890827 0 0.39107717742649672 0.32622252022815001 0 0.36891808154843297 0.31491442274563353 0 0.38600381902590719 0.31510601909226899 0 0.37547604290798409 0.32536411734344328 0 0.36891808154843297 0.31491442274563353 0 0.37959352223106441 0.30883418286701508 0 0.38600381902590719 0.31510601909226899 0 0.36891808154843297 0.31491442274563353 0 0.38600381902590719 0.31510601909226899 0 0.39107717742649672 0.32622252022815001 0 0.38600381902590719 0.31510601909226899 0 0.37547604290798409 0.32536411734344328 0 0.39717543747291512 0.33500042856877482 0 0.39107717742649672 0.32622252022815001 0 0.38205499985883618 0.33859476847568148 0 0.39107717742649672 0.32622252022815001 0 0.37547604290798409 0.32536411734344328 0 0.38205499985883618 0.33859476847568148 0 0.38205499985883618 0.33859476847568148 0 0.38685322466088212 0.3507424794498965 0 0.37502222645091138 0.35209631528788943 0 0.38205499985883618 0.33859476847568148 0 0.38685322466088212 0.3507424794498965 0 0.3949724140948509 0.34494793939848822 0 0.38685322466088212 0.3507424794498965 0 0.38542250821372848 0.36283676629295958 0 0.39919794253307478 0.35266463644298879 0 0.38685322466088212 0.3507424794498965 0 0.37502222645091138 0.35209631528788943 0 0.38542250821372848 0.36283676629295958 0 0.37164707389438162 0.37300889614292948 0 0.37502222645091138 0.35209631528788943 0 0.38542250821372848 0.36283676629295958 0 0.37164707389438162 0.37300889614292948 0 0.38542250821372848 0.36283676629295958 0 0.37164707389438162 0.37300889614292948 0 0.38542250821372848 0.36283676629295958 0 0.38540225129715872 0.37612168333401741 0 0.38542250821372848 0.36283676629295958 0 0.39161197753678462 0.3693237442567861 0 0.38540225129715872 0.37612168333401741 0 0.38542250821372848 0.36283676629295958 0 0.39664949997990739 0.36809543043729259 0 0.39919794253307478 0.35266463644298879 0 0.39664949997990739 0.36809543043729259 0 0.3989736506563431 0.3702410969628756 0 0.39919794253307478 0.35266463644298879 0 0.38542250821372848 0.36283676629295958 0 0.39161197753678462 0.3693237442567861 0 0.39664949997990739 0.36809543043729259 0 0.39161197753678462 0.3693237442567861 0 0.3989736506563431 0.3702410969628756 0 0.38540225129715872 0.37612168333401741 0 0.39161197753678462 0.3693237442567861 0 0.39664949997990739 0.36809543043729259 0 0.3989736506563431 0.3702410969628756 0 0.39664949997990739 0.36809543043729259 0 0.3989736506563431 0.3702410969628756 0 0.40958046594854608 0.34773738405509941 0 0.3989736506563431 0.3702410969628756 0 0.40958046594854608 0.34773738405509941 0 0.3989736506563431 0.3702410969628756 0 0.39919794253307478 0.35266463644298879 0 0.40958046594854608 0.34773738405509941 0 0.39919794253307478 0.35266463644298879 0 0.3949724140948509 0.34494793939848822 0 0.38685322466088212 0.3507424794498965 0 0.39919794253307478 0.35266463644298879 0 0.3949724140948509 0.34494793939848822 0 0.38542250821372848 0.36283676629295958 0 0.39919794253307478 0.35266463644298879 0 0.403573720170605 0.39855488889144192 0 0.4013199402743009 0.38623348129643342 0 0.3874914291352532 0.39460209595603019 0 0.403573720170605 0.39855488889144192 0 0.3874914291352532 0.39460209595603019 0 0.39389212082124742 0.41068738066363342 0 0.403573720170605 0.39855488889144192 0 0.39389212082124742 0.41068738066363342 0 0.4048971677100151 0.4086302400632098 0 0.3989736506563431 0.3702410969628756 0 0.4013199402743009 0.38623348129643342 0 0.3874914291352532 0.39460209595603019 0 0.3989736506563431 0.3702410969628756 0 0.38540225129715872 0.37612168333401741 0 0.3874914291352532 0.39460209595603019 0 0.3989736506563431 0.3702410969628756 0 0.4013199402743009 0.38623348129643342 0 0.4174484875962593 0.38729715085364502 0 0.3989736506563431 0.3702410969628756 0 0.3874914291352532 0.39460209595603019 0 0.38540225129715872 0.37612168333401741 0 0.37954667404006182 0.38693754742685732 0 0.3874914291352532 0.39460209595603019 0 0.37164707389438162 0.37300889614292948 0 0.37954667404006182 0.38693754742685732 0 0.37164707389438162 0.37300889614292948 0 0.38540225129715872 0.37612168333401741 0 0.37954667404006182 0.38693754742685732 0 0.37234689329828258 0.40235042049070202 0 0.37954667404006182 0.38693754742685732 0 0.3874914291352532 0.39460209595603019 0 0.37234689329828258 0.40235042049070202 0 0.3874914291352532 0.39460209595603019 0 0.37600920761416617 0.4189630949491861 0 0.37600920761416617 0.4189630949491861 0 0.39223207249375353 0.4240980677545354 0 0.39389212082124742 0.41068738066363342 0 0.3874914291352532 0.39460209595603019 0 0.37600920761416617 0.4189630949491861 0 0.3874914291352532 0.39460209595603019 0 0.37600920761416617 0.4189630949491861 0 0.39389212082124742 0.41068738066363342 0 0.37600920761416617 0.4189630949491861 0 0.39223207249375353 0.4240980677545354 0 0.38831176678627888 0.43826958822440631 0 0.36270600567134031 0.42996737180436151 0 0.37600920761416617 0.4189630949491861 0 0.38831176678627888 0.43826958822440631 0 0.39223207249375353 0.4240980677545354 0 0.40150532955207952 0.43286765077168909 0 0.38831176678627888 0.43826958822440631 0 0.39223207249375353 0.4240980677545354 0 0.40150532955207952 0.43286765077168909 0 0.40369755363436821 0.42130381586277288 0 0.40150532955207952 0.43286765077168909 0 0.40369755363436821 0.42130381586277288 0 0.40864750117719001 0.43107274132327922 0 0.39223207249375353 0.4240980677545354 0 0.39389212082124742 0.41068738066363342 0 0.40369755363436821 0.42130381586277288 0 0.39389212082124742 0.41068738066363342 0 0.40369755363436821 0.42130381586277288 0 0.4048971677100151 0.4086302400632098 0 0.4048971677100151 0.4086302400632098 0 0.41257827687390253 0.41516320556354308 0 0.41639317548655441 0.40387898451569948 0 0.40369755363436821 0.42130381586277288 0 0.4048971677100151 0.4086302400632098 0 0.41257827687390253 0.41516320556354308 0 0.40369755363436821 0.42130381586277288 0 0.41257827687390253 0.41516320556354308 0 0.41213040681238922 0.42660742489951969 0 0.41213040681238922 0.42660742489951969 0 0.42402686567428183 0.41548031482196768 0 0.41257827687390253 0.41516320556354308 0 0.41213040681238922 0.42660742489951969 0 0.42402686567428183 0.41548031482196768 0 0.41257827687390253 0.41516320556354308 0 0.42402686567428183 0.41548031482196768 0 0.41639317548655441 0.40387898451569948 0 0.40903021675449291 0.43653261923087461 0 0.41431047855908348 0.43105351633466638 0 0.4134391081656314 0.44032890296073479 0 0.40150532955207952 0.43286765077168909 0 0.40903021675449291 0.43653261923087461 0 0.40864750117719001 0.43107274132327922 0 0.40903021675449291 0.43653261923087461 0 0.40864750117719001 0.43107274132327922 0 0.41431047855908348 0.43105351633466638 0 0.40369755363436821 0.42130381586277288 0 0.40864750117719001 0.43107274132327922 0 0.41213040681238922 0.42660742489951969 0 0.40864750117719001 0.43107274132327922 0 0.41213040681238922 0.42660742489951969 0 0.41431047855908348 0.43105351633466638 0 0.41213040681238922 0.42660742489951969 0 0.4215441978853729 0.42474904678633441 0 0.42402686567428183 0.41548031482196768 0 0.41213040681238922 0.42660742489951969 0 0.4215441978853729 0.42474904678633441 0 0.41431047855908348 0.43105351633466638 0 0.4215441978853729 0.42474904678633441 0 0.41431047855908348 0.43105351633466638 0 0.42894039754425772 0.42704122494494212 0 0.41431047855908348 0.43105351633466638 0 0.42894039754425772 0.42704122494494212 0 0.43843700993025758 0.43561500846718543 0 0.41431047855908348 0.43105351633466638 0 0.43843700993025758 0.43561500846718543 0 0.4215441978853729 0.42474904678633441 0 0.42894039754425772 0.42704122494494212 0 0.42402686567428183 0.41548031482196768 0 0.42894039754425772 0.42704122494494212 0 0.43670876034161182 0.42043616256322142 0 0.43843700993025758 0.43561500846718543 0 0.42402686567428183 0.41548031482196768 0 0.43670876034161182 0.42043616256322142 0 0.43592332453617438 0.40435320474441561 0 0.42402686567428183 0.41548031482196768 0 0.43592332453617438 0.40435320474441561 0 0.41639317548655441 0.40387898451569948 0 0.42894039754425772 0.42704122494494212 0 0.42402686567428183 0.41548031482196768 0 0.43670876034161182 0.42043616256322142 0 0.42402686567428183 0.41548031482196768 0 0.43592332453617438 0.40435320474441561 0 0.43592332453617438 0.40435320474441561 0 0.41639317548655441 0.40387898451569948 0 0.4174484875962593 0.38729715085364502 0 0.43592332453617438 0.40435320474441561 0 0.4174484875962593 0.38729715085364502 0 0.43232987626371272 0.38735949923631008 0 0.43592332453617438 0.40435320474441561 0 0.4174484875962593 0.38729715085364502 0 0.43592332453617438 0.40435320474441561 0 0.43232987626371272 0.38735949923631008 0 0.44298639893329628 0.3977469022122842 0 0.403573720170605 0.39855488889144192 0 0.4013199402743009 0.38623348129643342 0 0.4174484875962593 0.38729715085364502 0 0.403573720170605 0.39855488889144192 0 0.41639317548655441 0.40387898451569948 0 0.4174484875962593 0.38729715085364502 0 0.403573720170605 0.39855488889144192 0 0.4048971677100151 0.4086302400632098 0 0.41639317548655441 0.40387898451569948 0 0.3989736506563431 0.3702410969628756 0 0.4174484875962593 0.38729715085364502 0 0.43454302316624371 0.37264346727180148 0 0.43232987626371272 0.38735949923631008 0 0.44298639893329628 0.3977469022122842 0 0.43454302316624371 0.37264346727180148 0 0.4174484875962593 0.38729715085364502 0 0.43232987626371272 0.38735949923631008 0 0.43454302316624371 0.37264346727180148 0 0.44298639893329628 0.3977469022122842 0 0.45421117884620332 0.38724803333565699 0 0.43454302316624371 0.37264346727180148 0 0.44298639893329628 0.3977469022122842 0 0.43592332453617438 0.40435320474441561 0 0.44298639893329628 0.3977469022122842 0 0.44938996245640939 0.41678566641333242 0 0.44298639893329628 0.3977469022122842 0 0.46074515945061112 0.40497015894897692 0 0.45421117884620332 0.38724803333565699 0 0.43592332453617438 0.40435320474441561 0 0.44298639893329628 0.3977469022122842 0 0.44298639893329628 0.3977469022122842 0 0.45421117884620332 0.38724803333565699 0 0.46074515945061112 0.40497015894897692 0 0.45421117884620332 0.38724803333565699 0 0.46074515945061112 0.40497015894897692 0 0.46583068662590371 0.39302960170769241 0 0.45421117884620332 0.38724803333565699 0 0.46074515945061112 0.40497015894897692 0 0.46583068662590371 0.39302960170769241 0 0.47873167952879703 0.40699890220475932 0 0.47074924702163629 0.3717794886876713 0 0.46583068662590371 0.39302960170769241 0 0.45421117884620332 0.38724803333565699 0 0.47074924702163629 0.3717794886876713 0 0.45421117884620332 0.38724803333565699 0 0.47074924702163629 0.3717794886876713 0 0.46583068662590371 0.39302960170769241 0 0.47875444671192707 0.39183967770930961 0 0.48347873919881201 0.37403433370194578 0 0.47074924702163629 0.3717794886876713 0 0.47875444671192707 0.39183967770930961 0 0.46583068662590371 0.39302960170769241 0 0.47875444671192707 0.39183967770930961 0 0.47873167952879703 0.40699890220475932 0 0.47875444671192707 0.39183967770930961 0 0.48891798831619832 0.39638857543861272 0 0.47873167952879703 0.40699890220475932 0 0.48891798831619832 0.39638857543861272 0 0.49556536960081521 0.40540018202475081 0 0.47873167952879703 0.40699890220475932 0 0.48891798831619832 0.39638857543861272 0 0.49556536960081521 0.40540018202475081 0 0.5 0.39572823414440422 0 0.48891798831619832 0.39638857543861272 0 0.5 0.39572823414440422 0 0.49153844573945199 0.38197588110983982 0 0.48347873919881201 0.37403433370194578 0 0.47875444671192707 0.39183967770930961 0 0.49153844573945199 0.38197588110983982 0 0.5 0.36822352807527547 0 0.5 0.39572823414440422 0 0.49153844573945199 0.38197588110983982 0 0.47875444671192707 0.39183967770930961 0 0.48891798831619832 0.39638857543861272 0 0.49153844573945199 0.38197588110983982 0 0.4915734018360095 0.42309370524459577 0 0.48669007267260578 0.44473799273222359 0 0.4915734018360095 0.42309370524459577 0 0.49999999999999939 0.42323294021353258 0 0.49999999999999961 0.44702424381682121 0 0.4915734018360095 0.42309370524459577 0 0.47543678151971941 0.42960265282875831 0 0.48669007267260578 0.44473799273222359 0 0.4915734018360095 0.42309370524459577 0 0.49999999999999939 0.42323294021353258 0 0.49556536960081521 0.40540018202475081 0 0.5 0.39572823414440422 0 0.49999999999999939 0.42323294021353258 0 0.49556536960081521 0.40540018202475081 0 0.4915734018360095 0.42309370524459577 0 0.49999999999999939 0.42323294021353258 0 0.49556536960081521 0.40540018202475081 0 0.4915734018360095 0.42309370524459577 0 0.49556536960081521 0.40540018202475081 0 0.4915734018360095 0.42309370524459577 0 0.47873167952879703 0.40699890220475932 0 0.4915734018360095 0.42309370524459577 0 0.47873167952879703 0.40699890220475932 0 0.46727914005501642 0.4226922845622979 0 0.46074515945061112 0.40497015894897692 0 0.47873167952879703 0.40699890220475932 0 0.46727914005501642 0.4226922845622979 0 0.47543678151971941 0.42960265282875831 0 0.46860851305142781 0.42890944896091798 0 0.46727914005501642 0.4226922845622979 0 0.4915734018360095 0.42309370524459577 0 0.47543678151971941 0.42960265282875831 0 0.46727914005501642 0.4226922845622979 0 0.47543678151971941 0.42960265282875831 0 0.4710393143091145 0.43508035278505203 0 0.48669007267260578 0.44473799273222359 0 0.4915734018360095 0.42309370524459577 0 0.46727914005501642 0.4226922845622979 0 0.47543678151971941 0.42960265282875831 0 0.4710393143091145 0.43508035278505203 0 0.46860851305142781 0.42890944896091798 0 0.4710393143091145 0.43508035278505203 0 0.46259041840011622 0.43462777854270379 0 0.46256354130143168 0.44017650059970448 0 0.4710393143091145 0.43508035278505203 0 0.46259041840011622 0.43462777854270379 0 0.46577372771668141 0.43127505122874782 0 0.45525873249270521 0.42220374173043268 0 0.45577011684632651 0.4357548317159714 0 0.44938996245640939 0.41678566641333242 0 0.46242413578781888 0.43079263503256321 0 0.46143535424135779 0.42783316027644669 0 0.46004570527671412 0.43146044539215389 0 0.46259041840011622 0.43462777854270379 0 0.46242413578781888 0.43079263503256321 0 0.46004570527671412 0.43146044539215389 0 0.46259041840011622 0.43462777854270379 0 0.46242413578781888 0.43079263503256321 0 0.46577372771668141 0.43127505122874782 0 0.46242413578781888 0.43079263503256321 0 0.46577372771668141 0.43127505122874782 0 0.46450018085941991 0.42818946077764342 0 0.4710393143091145 0.43508035278505203 0 0.46577372771668141 0.43127505122874782 0 0.46860851305142781 0.42890944896091798 0 0.46727914005501642 0.4226922845622979 0 0.45889903782331409 0.42255381785827739 0 0.46727914005501642 0.4226922845622979 0 0.46298466850416381 0.42532474796287167 0 0.45889903782331409 0.42255381785827739 0 0.46860851305142781 0.42890944896091798 0 0.46592164776731482 0.42561393118188412 0 0.46450018085941991 0.42818946077764342 0 0.46577372771668141 0.43127505122874782 0 0.46860851305142781 0.42890944896091798 0 0.46450018085941991 0.42818946077764342 0 0.46860851305142781 0.42890944896091798 0 0.46727914005501642 0.4226922845622979 0 0.46592164776731482 0.42561393118188412 0 0.46727914005501642 0.4226922845622979 0 0.46592164776731482 0.42561393118188412 0 0.46298466850416381 0.42532474796287167 0 0.46592164776731482 0.42561393118188412 0 0.46298466850416381 0.42532474796287167 0 0.46450018085941991 0.42818946077764342 0 0.46298466850416381 0.42532474796287167 0 0.46450018085941991 0.42818946077764342 0 0.46143535424135779 0.42783316027644669 0 0.46298466850416381 0.42532474796287167 0 0.46143535424135779 0.42783316027644669 0 0.46041553056351708 0.42583476081018728 0 0.46242413578781888 0.43079263503256321 0 0.46450018085941991 0.42818946077764342 0 0.46143535424135779 0.42783316027644669 0 0.46143535424135779 0.42783316027644669 0 0.45834306168523298 0.42762731714315338 0 0.46004570527671412 0.43146044539215389 0 0.45834306168523298 0.42762731714315338 0 0.45525873249270521 0.42220374173043268 0 0.45577011684632651 0.4357548317159714 0 0.46143535424135779 0.42783316027644669 0 0.45834306168523298 0.42762731714315338 0 0.46041553056351708 0.42583476081018728 0 0.45834306168523298 0.42762731714315338 0 0.45889903782331409 0.42255381785827739 0 0.46041553056351708 0.42583476081018728 0 0.45834306168523298 0.42762731714315338 0 0.45889903782331409 0.42255381785827739 0 0.45525873249270521 0.42220374173043268 0 0.46298466850416381 0.42532474796287167 0 0.45889903782331409 0.42255381785827739 0 0.46041553056351708 0.42583476081018728 0 0.45834306168523298 0.42762731714315338 0 0.45577011684632651 0.4357548317159714 0 0.46004570527671412 0.43146044539215389 0 0.46259041840011622 0.43462777854270379 0 0.45577011684632651 0.4357548317159714 0 0.46004570527671412 0.43146044539215389 0 0.46259041840011622 0.43462777854270379 0 0.45577011684632651 0.4357548317159714 0 0.46256354130143168 0.44017650059970448 0 0.46074515945061112 0.40497015894897692 0 0.46727914005501642 0.4226922845622979 0 0.46074515945061112 0.40497015894897692 0 0.45889903782331409 0.42255381785827739 0 0.45525873249270521 0.42220374173043268 0 0.46074515945061112 0.40497015894897692 0 0.46727914005501642 0.4226922845622979 0 0.45889903782331409 0.42255381785827739 0 0.46074515945061112 0.40497015894897692 0 0.45525873249270521 0.42220374173043268 0 0.44938996245640939 0.41678566641333242 0 0.44298639893329628 0.3977469022122842 0 0.46074515945061112 0.40497015894897692 0 0.44938996245640939 0.41678566641333242 0 0.43670876034161182 0.42043616256322142 0 0.43592332453617438 0.40435320474441561 0 0.44938996245640939 0.41678566641333242 0 0.44298639893329628 0.3977469022122842 0 0.44938996245640939 0.41678566641333242 0 0.45525873249270521 0.42220374173043268 0 0.44938996245640939 0.41678566641333242 0 0.43670876034161182 0.42043616256322142 0 0.44938996245640939 0.41678566641333242 0 0.44502505921314539 0.42706921059896408 0 0.43592332453617438 0.40435320474441561 0 0.44938996245640939 0.41678566641333242 0 0.45577011684632651 0.4357548317159714 0 0.44938996245640939 0.41678566641333242 0 0.44502505921314539 0.42706921059896408 0 0.45577011684632651 0.4357548317159714 0 0.44502505921314539 0.42706921059896408 0 0.43843700993025758 0.43561500846718543 0 0.45577011684632651 0.4357548317159714 0 0.43843700993025758 0.43561500846718543 0 0.46256354130143168 0.44017650059970448 0 0.45577011684632651 0.4357548317159714 0 0.44938996245640939 0.41678566641333242 0 0.43670876034161182 0.42043616256322142 0 0.44502505921314539 0.42706921059896408 0 0.43843700993025758 0.43561500846718543 0 0.43843700993025758 0.43561500846718543 0 0.46256354130143168 0.44017650059970448 0 0.43843700993025758 0.43561500846718543 0 0.44894628741766102 0.44788873493812292 0 0.46256354130143168 0.44017650059970448 0 0.43843700993025758 0.43561500846718543 0 0.43756765820723859 0.45130310499630732 0 0.44894628741766102 0.44788873493812292 0 0.44815511948895692 0.46165076659685839 0 0.43467097589855552 0.47912136782413611 0 0.43320836749209818 0.46252949751487071 0 0.43756765820723859 0.45130310499630732 0 0.44894628741766102 0.44788873493812292 0 0.44815511948895692 0.46165076659685839 0 0.43756765820723859 0.45130310499630732 0 0.44815511948895692 0.46165076659685839 0 0.43320836749209818 0.46252949751487071 0 0.44894628741766102 0.44788873493812292 0 0.44815511948895692 0.46165076659685839 0 0.45870187278163271 0.45225281107035931 0 0.44815511948895692 0.46165076659685839 0 0.46312057246757488 0.46278908181048473 0 0.45796853447786617 0.47935009503847242 0 0.44815511948895692 0.46165076659685839 0 0.46312057246757488 0.46278908181048473 0 0.45870187278163271 0.45225281107035931 0 0.46312057246757488 0.46278908181048473 0 0.45870187278163271 0.45225281107035931 0 0.4705108716896762 0.45167024952353962 0 0.44894628741766102 0.44788873493812292 0 0.45870187278163271 0.45225281107035931 0 0.46256354130143168 0.44017650059970448 0 0.45870187278163271 0.45225281107035931 0 0.46256354130143168 0.44017650059970448 0 0.4705108716896762 0.45167024952353962 0 0.46256354130143168 0.44017650059970448 0 0.4705108716896762 0.45167024952353962 0 0.48669007267260578 0.44473799273222359 0 0.4710393143091145 0.43508035278505203 0 0.46256354130143168 0.44017650059970448 0 0.48669007267260578 0.44473799273222359 0 0.46256354130143168 0.44017650059970448 0 0.48669007267260578 0.44473799273222359 0 0.48669007267260578 0.44473799273222359 0 0.48045603581939361 0.47236899636611118 0 0.46312057246757488 0.46278908181048473 0 0.4705108716896762 0.45167024952353962 0 0.48045603581939361 0.47236899636611118 0 0.4705108716896762 0.45167024952353962 0 0.48669007267260578 0.44473799273222359 0 0.48045603581939361 0.47236899636611118 0 0.49999999999999961 0.44702424381682121 0 0.48669007267260578 0.44473799273222359 0 0.48045603581939361 0.47236899636611118 0 0.4915734018360095 0.42309370524459577 0 0.49999999999999961 0.44702424381682121 0 0.48669007267260578 0.44473799273222359 0 0.49999999999999961 0.44702424381682121 0 0.48669007267260578 0.44473799273222359 0 0.49999999999999961 0.44702424381682121 0 0.5 0.5 0 0.48045603581939361 0.47236899636611118 0 0.5 0.5 0 0.48045603581939361 0.47236899636611118 0 0.47422199896618 0.49999999999999839 0 0.48045603581939361 0.47236899636611118 0 0.47422199896618 0.49999999999999839 0 0.45796853447786617 0.47935009503847242 0 0.48045603581939361 0.47236899636611118 0 0.47422199896618 0.49999999999999839 0 0.47422199896618 0.49999999999999839 0 0.45796853447786617 0.47935009503847242 0 0.44569846007358122 0.5 0 0.46312057246757488 0.46278908181048473 0 0.48045603581939361 0.47236899636611118 0 0.45796853447786617 0.47935009503847242 0 0.44815511948895692 0.46165076659685839 0 0.45796853447786617 0.47935009503847242 0 0.43467097589855552 0.47912136782413611 0 0.45796853447786617 0.47935009503847242 0 0.44569846007358122 0.5 0 0.43467097589855552 0.47912136782413611 0 0.44569846007358122 0.5 0 0.41717492118098243 0.5 0 0.43467097589855552 0.47912136782413611 0 0.41717492118098243 0.5 0 0.40962755479106577 0.48129043243430669 0 0.43467097589855552 0.47912136782413611 0 0.40962755479106577 0.48129043243430669 0 0.42068383059162401 0.465717066278929 0 0.40604782091115837 0.46154904410783848 0 0.40962755479106577 0.48129043243430669 0 0.43467097589855552 0.47912136782413611 0 0.42068383059162401 0.465717066278929 0 0.43467097589855552 0.47912136782413611 0 0.43320836749209818 0.46252949751487071 0 0.42068383059162401 0.465717066278929 0 0.43320836749209818 0.46252949751487071 0 0.42377835562160621 0.44706172771613689 0 0.42068383059162401 0.465717066278929 0 0.43756765820723859 0.45130310499630732 0 0.43320836749209818 0.46252949751487071 0 0.42377835562160621 0.44706172771613689 0 0.41431047855908348 0.43105351633466638 0 0.43843700993025758 0.43561500846718543 0 0.42377835562160621 0.44706172771613689 0 0.43843700993025758 0.43561500846718543 0 0.43756765820723859 0.45130310499630732 0 0.42377835562160621 0.44706172771613689 0 0.42377835562160621 0.44706172771613689 0 0.40647651736125451 0.44649076535001331 0 0.4134391081656314 0.44032890296073479 0 0.42377835562160621 0.44706172771613689 0 0.40647651736125451 0.44649076535001331 0 0.40604782091115837 0.46154904410783848 0 0.41431047855908348 0.43105351633466638 0 0.42377835562160621 0.44706172771613689 0 0.4134391081656314 0.44032890296073479 0 0.40903021675449291 0.43653261923087461 0 0.40647651736125451 0.44649076535001331 0 0.4134391081656314 0.44032890296073479 0 0.42377835562160621 0.44706172771613689 0 0.42068383059162401 0.465717066278929 0 0.40604782091115837 0.46154904410783848 0 0.40647651736125451 0.44649076535001331 0 0.40604782091115837 0.46154904410783848 0 0.38962552293673391 0.45504833748508777 0 0.40604782091115837 0.46154904410783848 0 0.38962552293673391 0.45504833748508777 0 0.39213222748349108 0.47198874966980309 0 0.40647651736125451 0.44649076535001331 0 0.38831176678627888 0.43826958822440631 0 0.38962552293673391 0.45504833748508777 0 0.40150532955207952 0.43286765077168909 0 0.40647651736125451 0.44649076535001331 0 0.38831176678627888 0.43826958822440631 0 0.40150532955207952 0.43286765077168909 0 0.40903021675449291 0.43653261923087461 0 0.40647651736125451 0.44649076535001331 0 0.3739039730899622 0.44823051421869181 0 0.38831176678627888 0.43826958822440631 0 0.38962552293673391 0.45504833748508777 0 0.37088083198825822 0.46376136333977419 0 0.3739039730899622 0.44823051421869181 0 0.38962552293673391 0.45504833748508777 0 0.37088083198825822 0.46376136333977419 0 0.38962552293673391 0.45504833748508777 0 0.39213222748349108 0.47198874966980309 0 0.37088083198825822 0.46376136333977419 0 0.37556414921668291 0.48330088294525653 0 0.39213222748349108 0.47198874966980309 0 0.37556414921668291 0.48330088294525653 0 0.38865138228838358 0.5 0 0.39213222748349108 0.47198874966980309 0 0.41717492118098243 0.5 0 0.40962755479106577 0.48129043243430669 0 0.38865138228838358 0.5 0 0.40962755479106577 0.48129043243430669 0 0.40604782091115837 0.46154904410783848 0 0.39213222748349108 0.47198874966980309 0 0.40962755479106577 0.48129043243430669 0 0.38865138228838358 0.5 0 0.39213222748349108 0.47198874966980309 0 0.3403608261391935 0.078451547096677232 0 0.32656803168052218 0.1002994036551232 0 0.34880492419268699 0.10135448719635801 0 0.3403608261391935 0.078451547096677232 0 0.31750541221942602 0.084143423796299341 0 0.32656803168052218 0.1002994036551232 0 0.3403608261391935 0.078451547096677232 0 0.33191672808570072 0.055548606996996243 0 0.3403608261391935 0.078451547096677232 0 0.31750541221942602 0.084143423796299341 0 0.33191672808570072 0.055548606996996243 0 0.3403608261391935 0.078451547096677232 0 0.35305130297395793 0.064549435541271974 0 0.33191672808570072 0.055548606996996243 0 0.31750541221942602 0.084143423796299341 0 0.33191672808570072 0.055548606996996243 0 0.30894835104249507 0.065785031816358003 0 0.32656803168052218 0.1002994036551232 0 0.31401299032084079 0.1125619465882338 0 0.30435722602815668 0.099550534231245408 0 0.31750541221942602 0.084143423796299341 0 0.32656803168052218 0.1002994036551232 0 0.30435722602815668 0.099550534231245408 0 0.31401299032084079 0.1125619465882338 0 0.33490557415103578 0.11569719087526061 0 0.32158723913775961 0.12645730826143101 0 0.32656803168052218 0.1002994036551232 0 0.31401299032084079 0.1125619465882338 0 0.33490557415103578 0.11569719087526061 0 0.31401299032084079 0.1125619465882338 0 0.3028000926279425 0.1253139296816112 0 0.32158723913775961 0.12645730826143101 0 0.33490557415103578 0.11569719087526061 0 0.33800044150047293 0.13153308807959971 0 0.32158723913775961 0.12645730826143101 0 0.33490557415103578 0.11569719087526061 0 0.35724902224618049 0.1242574272960387 0 0.33800044150047293 0.13153308807959971 0 0.32656803168052218 0.1002994036551232 0 0.33490557415103578 0.11569719087526061 0 0.34880492419268699 0.10135448719635801 0 0.34880492419268699 0.10135448719635801 0 0.35724902224618049 0.1242574272960387 0 0.36927554414063513 0.10255083054878281 0 0.33490557415103578 0.11569719087526061 0 0.34880492419268699 0.10135448719635801 0 0.35724902224618049 0.1242574272960387 0 0.34880492419268699 0.10135448719635801 0 0.35724902224618049 0.1242574272960387 0 0.35724902224618049 0.1242574272960387 0 0.37438887325428699 0.1198095785569543 0 0.36927554414063513 0.10255083054878281 0 0.34880492419268699 0.10135448719635801 0 0.36927554414063513 0.10255083054878281 0 0.3637048882315343 0.082885104833996831 0 0.36927554414063513 0.10255083054878281 0 0.3637048882315343 0.082885104833996831 0 0.38148175571998499 0.084553222446755311 0 0.3403608261391935 0.078451547096677232 0 0.34880492419268699 0.10135448719635801 0 0.3403608261391935 0.078451547096677232 0 0.34880492419268699 0.10135448719635801 0 0.3637048882315343 0.082885104833996831 0 0.3403608261391935 0.078451547096677232 0 0.3637048882315343 0.082885104833996831 0 0.35305130297395793 0.064549435541271974 0 0.3637048882315343 0.082885104833996831 0 0.35305130297395793 0.064549435541271974 0 0.37385769338344932 0.060786511943751093 0 0.3637048882315343 0.082885104833996831 0 0.37385769338344932 0.060786511943751093 0 0.38148175571998499 0.084553222446755311 0 0.35305130297395793 0.064549435541271974 0 0.37385769338344932 0.060786511943751093 0 0.35541637902991208 0.045075406834938193 0 0.35541637902991208 0.045075406834938193 0 0.378916029974119 0.034602206672870207 0 0.35541637902991208 0.045075406834938193 0 0.36392847794991978 0.017386800626596519 0 0.378916029974119 0.034602206672870207 0 0.37385769338344932 0.060786511943751093 0 0.35541637902991208 0.045075406834938193 0 0.378916029974119 0.034602206672870207 0 0.35541637902991208 0.045075406834938193 0 0.36392847794991978 0.017386800626596519 0 0.34150959738319547 0.039573075725816698 0 0.35305130297395793 0.064549435541271974 0 0.35541637902991208 0.045075406834938193 0 0.33191672808570072 0.055548606996996243 0 0.36234135482611102 0.00074738726826526489 0 0.36392847794991978 0.017386800626596519 0 0.37378227755250659 -0.00013570250308337939 0 0.36392847794991978 0.017386800626596519 0 0.33636350869076032 0.02553056902033729 0 0.34150959738319547 0.039573075725816698 0 0.36392847794991978 0.017386800626596519 0 0.33636350869076032 0.02553056902033729 0 0.36392847794991978 0.017386800626596519 0 0.3422325857100178 0.01142471519111206 0 0.33636350869076032 0.02553056902033729 0 0.36392847794991978 0.017386800626596519 0 0.3511842398881892 0.0023449734811356029 0 0.3422325857100178 0.01142471519111206 0 0.36234135482611102 0.00074738726826526489 0 0.36392847794991978 0.017386800626596519 0 0.3511842398881892 0.0023449734811356029 0 0.3422325857100178 0.01142471519111206 0 0.32303578384916998 0.01471805636546536 0 0.33665091817204978 -0.0028568235379744611 0 0.3511842398881892 0.0023449734811356029 0 0.3422325857100178 0.01142471519111206 0 0.33665091817204978 -0.0028568235379744611 0 0.3422325857100178 0.01142471519111206 0 0.33636350869076032 0.02553056902033729 0 0.32303578384916998 0.01471805636546536 0 0.33636350869076032 0.02553056902033729 0 0.30879853943160052 0.033674337414078118 0 0.32303578384916998 0.01471805636546536 0 0.30879853943160052 0.033674337414078118 0 0.30572016649667377 0.01072875714941081 0 0.33636350869076032 0.02553056902033729 0 0.32303578384916998 0.01471805636546536 0 0.30879853943160052 0.033674337414078118 0 0.32303578384916998 0.01471805636546536 0 0.30572016649667377 0.01072875714941081 0 0.32006958300034688 -0.0039555539418603229 0 0.32303578384916998 0.01471805636546536 0 0.33665091817204978 -0.0028568235379744611 0 0.32006958300034688 -0.0039555539418603229 0 0.32910937464870421 0.047934217964701098 0 0.33191672808570072 0.055548606996996243 0 0.34150959738319547 0.039573075725816698 0 0.35541637902991208 0.045075406834938193 0 0.33191672808570072 0.055548606996996243 0 0.32910937464870421 0.047934217964701098 0 0.33191672808570072 0.055548606996996243 0 0.35541637902991208 0.045075406834938193 0 0.33191672808570072 0.055548606996996243 0 0.34150959738319547 0.039573075725816698 0 0.33636350869076032 0.02553056902033729 0 0.32910937464870421 0.047934217964701098 0 0.34150959738319547 0.039573075725816698 0 0.32910937464870421 0.047934217964701098 0 0.31473329737523131 0.051394421811525717 0 0.30879853943160052 0.033674337414078118 0 0.33636350869076032 0.02553056902033729 0 0.32910937464870421 0.047934217964701098 0 0.30879853943160052 0.033674337414078118 0 0.33191672808570072 0.055548606996996243 0 0.31473329737523131 0.051394421811525717 0 0.30894835104249507 0.065785031816358003 0 0.33191672808570072 0.055548606996996243 0 0.30894835104249507 0.065785031816358003 0 0.32910937464870421 0.047934217964701098 0 0.33191672808570072 0.055548606996996243 0 0.31473329737523131 0.051394421811525717 0 0.31473329737523131 0.051394421811525717 0 0.29430301174571177 0.055174877013740381 0 0.30894835104249507 0.065785031816358003 0 0.31473329737523131 0.051394421811525717 0 0.30879853943160052 0.033674337414078118 0 0.29430301174571177 0.055174877013740381 0 0.30879853943160052 0.033674337414078118 0 0.2925668588277156 0.022669808786877969 0 0.28123357017244072 0.041818105807818938 0 0.30879853943160052 0.033674337414078118 0 0.29430301174571177 0.055174877013740381 0 0.28123357017244072 0.041818105807818938 0 0.30879853943160052 0.033674337414078118 0 0.28123357017244072 0.041818105807818938 0 0.30572016649667377 0.01072875714941081 0 0.28646043770179691 0.0034415334885622329 0 0.30151794338883681 -0.0081949219969716623 0 0.30879853943160052 0.033674337414078118 0 0.30572016649667377 0.01072875714941081 0 0.2925668588277156 0.022669808786877969 0 0.2925668588277156 0.022669808786877969 0 0.27687787477491288 0.019647744513893461 0 0.28123357017244072 0.041818105807818938 0 0.30572016649667377 0.01072875714941081 0 0.2925668588277156 0.022669808786877969 0 0.28646043770179691 0.0034415334885622329 0 0.2925668588277156 0.022669808786877969 0 0.28646043770179691 0.0034415334885622329 0 0.27687787477491288 0.019647744513893461 0 0.26770177198798989 0.0049541517600587117 0 0.27687787477491288 0.019647744513893461 0 0.26002912385580129 0.01522474402357569 0 0.28646043770179691 0.0034415334885622329 0 0.26770177198798989 0.0049541517600587117 0 0.27687787477491288 0.019647744513893461 0 0.28646043770179691 0.0034415334885622329 0 0.26770177198798989 0.0049541517600587117 0 0.27499521198922261 -0.0055023354309521044 0 0.27687787477491288 0.019647744513893461 0 0.26312714772785961 0.028627027444891009 0 0.28123357017244072 0.041818105807818938 0 0.27687787477491288 0.019647744513893461 0 0.26312714772785961 0.028627027444891009 0 0.26002912385580129 0.01522474402357569 0 0.26312714772785961 0.028627027444891009 0 0.25231904427849411 0.021983750114194719 0 0.25145097858043691 0.033250747220101663 0 0.26312714772785961 0.028627027444891009 0 0.25231904427849411 0.021983750114194719 0 0.26002912385580129 0.01522474402357569 0 0.26770177198798989 0.0049541517600587117 0 0.26002912385580129 0.01522474402357569 0 0.25847524534168298 0.0068080678867071956 0 0.24919497150951991 0.0083708591586718235 0 0.25231904427849411 0.021983750114194719 0 0.26002912385580129 0.01522474402357569 0 0.24919497150951991 0.0083708591586718235 0 0.26002912385580129 0.01522474402357569 0 0.25847524534168298 0.0068080678867071956 0 0.24919497150951991 0.0083708591586718235 0 0.25697511401342082 -0.00131748339547743 0 0.2443368381618172 -0.0014217291461706941 0 0.24919497150951991 0.0083708591586718235 0 0.25847524534168298 0.0068080678867071956 0 0.25697511401342082 -0.00131748339547743 0 0.26770177198798989 0.0049541517600587117 0 0.25847524534168298 0.0068080678867071956 0 0.25697511401342082 -0.00131748339547743 0 0.26612433845321792 0.062355908596951712 0 0.28123357017244072 0.041818105807818938 0 0.26075896480600769 0.043165937090930917 0 0.29430301174571177 0.055174877013740381 0 0.26612433845321792 0.062355908596951712 0 0.28123357017244072 0.041818105807818938 0 0.26312714772785961 0.028627027444891009 0 0.28123357017244072 0.041818105807818938 0 0.26075896480600769 0.043165937090930917 0 0.242793264139128 0.046571216962303708 0 0.26075896480600769 0.043165937090930917 0 0.25145097858043691 0.033250747220101663 0 0.26312714772785961 0.028627027444891009 0 0.26075896480600769 0.043165937090930917 0 0.25145097858043691 0.033250747220101663 0 0.242793264139128 0.046571216962303708 0 0.26612433845321792 0.062355908596951712 0 0.26075896480600769 0.043165937090930917 0 0.24236200917689829 0.071146248962842704 0 0.242793264139128 0.046571216962303708 0 0.26612433845321792 0.062355908596951712 0 0.24236200917689829 0.071146248962842704 0 0.26612433845321792 0.062355908596951712 0 0.26301159695607512 0.086257881455061719 0 0.2400432199128654 0.096494306274414576 0 0.26301159695607512 0.086257881455061719 0 0.26301159695607512 0.086257881455061719 0 0.28597997399928521 0.076021456635709833 0 0.26301159695607512 0.086257881455061719 0 0.28597997399928521 0.076021456635709833 0 0.28108914138756202 0.10209683475519329 0 0.26612433845321792 0.062355908596951712 0 0.26301159695607512 0.086257881455061719 0 0.28597997399928521 0.076021456635709833 0 0.29430301174571177 0.055174877013740381 0 0.28597997399928521 0.076021456635709833 0 0.30894835104249507 0.065785031816358003 0 0.31750541221942602 0.084143423796299341 0 0.28597997399928521 0.076021456635709833 0 0.30435722602815668 0.099550534231245408 0 0.29430301174571177 0.055174877013740381 0 0.26612433845321792 0.062355908596951712 0 0.28597997399928521 0.076021456635709833 0 0.31750541221942602 0.084143423796299341 0 0.28597997399928521 0.076021456635709833 0 0.30894835104249507 0.065785031816358003 0 0.28597997399928521 0.076021456635709833 0 0.30435722602815668 0.099550534231245408 0 0.28108914138756202 0.10209683475519329 0 0.28597997399928521 0.076021456635709833 0 0.30894835104249507 0.065785031816358003 0 0.31401299032084079 0.1125619465882338 0 0.29430318797304061 0.1114569608681354 0 0.3028000926279425 0.1253139296816112 0 0.31401299032084079 0.1125619465882338 0 0.30435722602815668 0.099550534231245408 0 0.29430318797304061 0.1114569608681354 0 0.30435722602815668 0.099550534231245408 0 0.29430318797304061 0.1114569608681354 0 0.28108914138756202 0.10209683475519329 0 0.29430318797304061 0.1114569608681354 0 0.28594004410105139 0.1230483701846541 0 0.3028000926279425 0.1253139296816112 0 0.29430318797304061 0.1114569608681354 0 0.28594004410105139 0.1230483701846541 0 0.28108914138756202 0.10209683475519329 0 0.28594004410105139 0.1230483701846541 0 0.26951846525329209 0.1172829376241894 0 0.28108914138756202 0.10209683475519329 0 0.28594004410105139 0.1230483701846541 0 0.26951846525329209 0.1172829376241894 0 0.27293426593656211 0.13150065345081249 0 0.26301159695607512 0.086257881455061719 0 0.28108914138756202 0.10209683475519329 0 0.2643322645272323 0.102198402076584 0 0.26951846525329209 0.1172829376241894 0 0.28108914138756202 0.10209683475519329 0 0.2643322645272323 0.102198402076584 0 0.2400432199128654 0.096494306274414576 0 0.26301159695607512 0.086257881455061719 0 0.25023704899119109 0.1052469062197824 0 0.26301159695607512 0.086257881455061719 0 0.2643322645272323 0.102198402076584 0 0.25023704899119109 0.1052469062197824 0 0.2643322645272323 0.102198402076584 0 0.25023704899119109 0.1052469062197824 0 0.25622030190123501 0.1174027948650358 0 0.26951846525329209 0.1172829376241894 0 0.25622030190123501 0.1174027948650358 0 0.26135835007107328 0.1317600125771706 0 0.26951846525329209 0.1172829376241894 0 0.2643322645272323 0.102198402076584 0 0.25622030190123501 0.1174027948650358 0 0.24429656870276231 0.1190170070957627 0 0.25023704899119109 0.1052469062197824 0 0.25622030190123501 0.1174027948650358 0 0.24429656870276231 0.1190170070957627 0 0.25622030190123501 0.1174027948650358 0 0.25025677146151371 0.12896077062257741 0 0.25622030190123501 0.1174027948650358 0 0.25025677146151371 0.12896077062257741 0 0.26135835007107328 0.1317600125771706 0 0.26135835007107328 0.1317600125771706 0 0.26868215914139798 0.1455470718107551 0 0.25126119266682923 0.14355190786909219 0 0.25025677146151371 0.12896077062257741 0 0.26135835007107328 0.1317600125771706 0 0.25126119266682923 0.14355190786909219 0 0.26951846525329209 0.1172829376241894 0 0.26135835007107328 0.1317600125771706 0 0.27293426593656211 0.13150065345081249 0 0.28594004410105139 0.1230483701846541 0 0.27293426593656211 0.13150065345081249 0 0.28102494862952099 0.13894162707095811 0 0.26135835007107328 0.1317600125771706 0 0.27293426593656211 0.13150065345081249 0 0.26868215914139798 0.1455470718107551 0 0.27293426593656211 0.13150065345081249 0 0.28102494862952099 0.13894162707095811 0 0.26868215914139798 0.1455470718107551 0 0.26868215914139798 0.1455470718107551 0 0.25926820998011912 0.15747411832697761 0 0.27653043984613279 0.16281568909105551 0 0.28102494862952099 0.13894162707095811 0 0.26868215914139798 0.1455470718107551 0 0.28432680797583149 0.15053023263041301 0 0.26868215914139798 0.1455470718107551 0 0.27653043984613279 0.16281568909105551 0 0.28432680797583149 0.15053023263041301 0 0.26868215914139798 0.1455470718107551 0 0.25126119266682923 0.14355190786909219 0 0.25926820998011912 0.15747411832697761 0 0.245332083239199 0.16387733992730119 0 0.25126119266682923 0.14355190786909219 0 0.25926820998011912 0.15747411832697761 0 0.245332083239199 0.16387733992730119 0 0.25926820998011912 0.15747411832697761 0 0.26609091292880988 0.1698860796760043 0 0.245332083239199 0.16387733992730119 0 0.2586352776645402 0.18376471114627199 0 0.26609091292880988 0.1698860796760043 0 0.2586352776645402 0.18376471114627199 0 0.28091934678278291 0.17952816900799201 0 0.26609091292880988 0.1698860796760043 0 0.2586352776645402 0.18376471114627199 0 0.28091934678278291 0.17952816900799201 0 0.27031445723132458 0.19433824760897589 0 0.28091934678278291 0.17952816900799201 0 0.26609091292880988 0.1698860796760043 0 0.27653043984613279 0.16281568909105551 0 0.25926820998011912 0.15747411832697761 0 0.26609091292880988 0.1698860796760043 0 0.27653043984613279 0.16281568909105551 0 0.28091934678278291 0.17952816900799201 0 0.27653043984613279 0.16281568909105551 0 0.28985704967115727 0.16275042361355249 0 0.28985704967115727 0.16275042361355249 0 0.30425365709561419 0.16902202023685431 0 0.29642052240437577 0.15330131381835929 0 0.27653043984613279 0.16281568909105551 0 0.28985704967115727 0.16275042361355249 0 0.28432680797583149 0.15053023263041301 0 0.28985704967115727 0.16275042361355249 0 0.29324783222645001 0.17462648228459091 0 0.30425365709561419 0.16902202023685431 0 0.28091934678278291 0.17952816900799201 0 0.28985704967115727 0.16275042361355249 0 0.29324783222645001 0.17462648228459091 0 0.28091934678278291 0.17952816900799201 0 0.29324783222645001 0.17462648228459091 0 0.29924055071366568 0.18856891344364721 0 0.29324783222645001 0.17462648228459091 0 0.30425365709561419 0.16902202023685431 0 0.29924055071366568 0.18856891344364721 0 0.30425365709561419 0.16902202023685431 0 0.29924055071366568 0.18856891344364721 0 0.30425365709561419 0.16902202023685431 0 0.29924055071366568 0.18856891344364721 0 0.31426831070563249 0.18186980892836949 0 0.30425365709561419 0.16902202023685431 0 0.30742276695010717 0.15666516060399649 0 0.29642052240437577 0.15330131381835929 0 0.30425365709561419 0.16902202023685431 0 0.30742276695010717 0.15666516060399649 0 0.32259963093656913 0.16095631230938551 0 0.28985704967115727 0.16275042361355249 0 0.30425365709561419 0.16902202023685431 0 0.30425365709561419 0.16902202023685431 0 0.30742276695010717 0.15666516060399649 0 0.30742276695010717 0.15666516060399649 0 0.30828488186862513 0.14060752736385509 0 0.29642052240437577 0.15330131381835929 0 0.30828488186862513 0.14060752736385509 0 0.29285696639692599 0.13916965150810959 0 0.29642052240437577 0.15330131381835929 0 0.30828488186862513 0.14060752736385509 0 0.3028000926279425 0.1253139296816112 0 0.32158723913775961 0.12645730826143101 0 0.30828488186862513 0.14060752736385509 0 0.3028000926279425 0.1253139296816112 0 0.29285696639692599 0.13916965150810959 0 0.28594004410105139 0.1230483701846541 0 0.28102494862952099 0.13894162707095811 0 0.29285696639692599 0.13916965150810959 0 0.28594004410105139 0.1230483701846541 0 0.3028000926279425 0.1253139296816112 0 0.29285696639692599 0.13916965150810959 0 0.28102494862952099 0.13894162707095811 0 0.29285696639692599 0.13916965150810959 0 0.28432680797583149 0.15053023263041301 0 0.28985704967115727 0.16275042361355249 0 0.28432680797583149 0.15053023263041301 0 0.29642052240437577 0.15330131381835929 0 0.29285696639692599 0.13916965150810959 0 0.28432680797583149 0.15053023263041301 0 0.29642052240437577 0.15330131381835929 0 0.26286204550881048 0.23380675144995419 0 0.27519877774680518 0.22638752632141329 0 0.28442486254224258 0.2463376205898751 0 0.26286204550881048 0.23380675144995419 0 0.28442486254224258 0.2463376205898751 0 0.26100036705339191 0.25593539236450208 0 0.26286204550881048 0.23380675144995419 0 0.28442486254224258 0.2463376205898751 0 0.2401615503470183 0.2458573091102893 0 0.26100036705339191 0.25593539236450208 0 0.26286204550881048 0.23380675144995419 0 0.2412992284753788 0.22127588231003251 0 0.26286204550881048 0.23380675144995419 0 0.25972824514266152 0.21313008597689859 0 0.2412992284753788 0.22127588231003251 0 0.26286204550881048 0.23380675144995419 0 0.26286204550881048 0.23380675144995419 0 0.27519877774680518 0.22638752632141329 0 0.25972824514266152 0.21313008597689859 0 0.279764397590547 0.21100047373310399 0 0.25972824514266152 0.21313008597689859 0 0.27031445723132458 0.19433824760897589 0 0.27519877774680518 0.22638752632141329 0 0.279764397590547 0.21100047373310399 0 0.25972824514266152 0.21313008597689859 0 0.2421304067638739 0.2033168939570765 0 0.25972824514266152 0.21313008597689859 0 0.25516797988164652 0.19677723396004301 0 0.24296158505236981 0.18535790560412049 0 0.2586352776645402 0.18376471114627199 0 0.25516797988164652 0.19677723396004301 0 0.25972824514266152 0.21313008597689859 0 0.25516797988164652 0.19677723396004301 0 0.27031445723132458 0.19433824760897589 0 0.2586352776645402 0.18376471114627199 0 0.25516797988164652 0.19677723396004301 0 0.27031445723132458 0.19433824760897589 0 0.28091934678278291 0.17952816900799201 0 0.27031445723132458 0.19433824760897589 0 0.28489323933000721 0.19631032208883181 0 0.279764397590547 0.21100047373310399 0 0.27031445723132458 0.19433824760897589 0 0.279764397590547 0.21100047373310399 0 0.27031445723132458 0.19433824760897589 0 0.28489323933000721 0.19631032208883181 0 0.28091934678278291 0.17952816900799201 0 0.28489323933000721 0.19631032208883181 0 0.29924055071366568 0.18856891344364721 0 0.29924055071366568 0.18856891344364721 0 0.29422744433171572 0.20811580665043969 0 0.28489323933000721 0.19631032208883181 0 0.29924055071366568 0.18856891344364721 0 0.29422744433171572 0.20811580665043969 0 0.29924055071366568 0.18856891344364721 0 0.31061892845463568 0.20000113780432421 0 0.29422744433171572 0.20811580665043969 0 0.29924055071366568 0.18856891344364721 0 0.31061892845463568 0.20000113780432421 0 0.31426831070563249 0.18186980892836949 0 0.31061892845463568 0.20000113780432421 0 0.29422744433171572 0.20811580665043969 0 0.30916098073731169 0.22039282680330391 0 0.29422744433171572 0.20811580665043969 0 0.28921433794976792 0.22766269985723281 0 0.30916098073731169 0.22039282680330391 0 0.279764397590547 0.21100047373310399 0 0.29422744433171572 0.20811580665043969 0 0.28921433794976792 0.22766269985723281 0 0.29422744433171572 0.20811580665043969 0 0.28921433794976792 0.22766269985723281 0 0.279764397590547 0.21100047373310399 0 0.28489323933000721 0.19631032208883181 0 0.29422744433171572 0.20811580665043969 0 0.27519877774680518 0.22638752632141329 0 0.28921433794976792 0.22766269985723281 0 0.28442486254224258 0.2463376205898751 0 0.279764397590547 0.21100047373310399 0 0.28921433794976792 0.22766269985723281 0 0.27519877774680518 0.22638752632141329 0 0.279764397590547 0.21100047373310399 0 0.28921433794976792 0.22766269985723281 0 0.28921433794976792 0.22766269985723281 0 0.30916098073731169 0.22039282680330391 0 0.30588532862812551 0.2328038334257331 0 0.30588532862812551 0.2328038334257331 0 0.30129484237942677 0.24896316196057619 0 0.32387115344599432 0.23419664508182009 0 0.28921433794976792 0.22766269985723281 0 0.30588532862812551 0.2328038334257331 0 0.30129484237942677 0.24896316196057619 0 0.28921433794976792 0.22766269985723281 0 0.28442486254224258 0.2463376205898751 0 0.29548352595208072 0.25276417718664501 0 0.30129484237942677 0.24896316196057619 0 0.28442486254224258 0.2463376205898751 0 0.28921433794976792 0.22766269985723281 0 0.30129484237942677 0.24896316196057619 0 0.28921433794976792 0.22766269985723281 0 0.30129484237942677 0.24896316196057619 0 0.28442486254224258 0.2463376205898751 0 0.29548352595208072 0.25276417718664501 0 0.28442486254224258 0.2463376205898751 0 0.32645287516793792 0.2534464880952344 0 0.34353276186511927 0.2376624453472102 0 0.32387115344599432 0.23419664508182009 0 0.32645287516793792 0.2534464880952344 0 0.30129484237942677 0.24896316196057619 0 0.32387115344599432 0.23419664508182009 0 0.30129484237942677 0.24896316196057619 0 0.32387115344599432 0.23419664508182009 0 0.30916098073731169 0.22039282680330391 0 0.30588532862812551 0.2328038334257331 0 0.32387115344599432 0.23419664508182009 0 0.30916098073731169 0.22039282680330391 0 0.32387115344599432 0.23419664508182009 0 0.33103858943529119 0.219973449338664 0 0.34353276186511927 0.2376624453472102 0 0.32387115344599432 0.23419664508182009 0 0.33103858943529119 0.219973449338664 0 0.34353276186511927 0.2376624453472102 0 0.33103858943529119 0.219973449338664 0 0.34976882245585772 0.21670882293860219 0 0.33103858943529119 0.219973449338664 0 0.33966110329704308 0.20298858533014319 0 0.34976882245585772 0.21670882293860219 0 0.33103858943529119 0.219973449338664 0 0.32292825375706818 0.2071902500860569 0 0.33966110329704308 0.20298858533014319 0 0.31061892845463568 0.20000113780432421 0 0.30916098073731169 0.22039282680330391 0 0.32292825375706818 0.2071902500860569 0 0.30916098073731169 0.22039282680330391 0 0.33103858943529119 0.219973449338664 0 0.32292825375706818 0.2071902500860569 0 0.31061892845463568 0.20000113780432421 0 0.32527070428273541 0.19225461912216649 0 0.31426831070563249 0.18186980892836949 0 0.31061892845463568 0.20000113780432421 0 0.32292825375706818 0.2071902500860569 0 0.32527070428273541 0.19225461912216649 0 0.32527070428273541 0.19225461912216649 0 0.33966110329704308 0.20298858533014319 0 0.34362292293366359 0.18617246043517141 0 0.32292825375706818 0.2071902500860569 0 0.32527070428273541 0.19225461912216649 0 0.33966110329704308 0.20298858533014319 0 0.36533732691764281 0.19563191006019839 0 0.34362292293366359 0.18617246043517141 0 0.33966110329704308 0.20298858533014319 0 0.36533732691764281 0.19563191006019839 0 0.34362292293366359 0.18617246043517141 0 0.36533732691764281 0.19563191006019839 0 0.37043085873871168 0.22617568111747199 0 0.38705173090162143 0.2050913596852264 0 0.36533732691764281 0.19563191006019839 0 0.34976882245585772 0.21670882293860219 0 0.37043085873871168 0.22617568111747199 0 0.33966110329704308 0.20298858533014319 0 0.36533732691764281 0.19563191006019839 0 0.34976882245585772 0.21670882293860219 0 0.34353276186511927 0.2376624453472102 0 0.34976882245585772 0.21670882293860219 0 0.37043085873871168 0.22617568111747199 0 0.37043085873871168 0.22617568111747199 0 0.36346140581198227 0.2489327044989503 0 0.38313168943010789 0.24915105822936001 0 0.34353276186511927 0.2376624453472102 0 0.37043085873871168 0.22617568111747199 0 0.36346140581198227 0.2489327044989503 0 0.32768831369378598 0.14585361052300841 0 0.32259963093656913 0.16095631230938551 0 0.3438008196246764 0.16193668910293141 0 0.32768831369378598 0.14585361052300841 0 0.3438008196246764 0.16193668910293141 0 0.34781195812759541 0.14421489361616649 0 0.33800044150047293 0.13153308807959971 0 0.32768831369378598 0.14585361052300841 0 0.34781195812759541 0.14421489361616649 0 0.33800044150047293 0.13153308807959971 0 0.32158723913775961 0.12645730826143101 0 0.32768831369378598 0.14585361052300841 0 0.30828488186862513 0.14060752736385509 0 0.32158723913775961 0.12645730826143101 0 0.32768831369378598 0.14585361052300841 0 0.30742276695010717 0.15666516060399649 0 0.30828488186862513 0.14060752736385509 0 0.32768831369378598 0.14585361052300841 0 0.30742276695010717 0.15666516060399649 0 0.32768831369378598 0.14585361052300841 0 0.32259963093656913 0.16095631230938551 0 0.30425365709561419 0.16902202023685431 0 0.32259963093656913 0.16095631230938551 0 0.32190851894968359 0.17671301081014651 0 0.30425365709561419 0.16902202023685431 0 0.31426831070563249 0.18186980892836949 0 0.32190851894968359 0.17671301081014651 0 0.30425365709561419 0.16902202023685431 0 0.32190851894968359 0.17671301081014651 0 0.31426831070563249 0.18186980892836949 0 0.32190851894968359 0.17671301081014651 0 0.32527070428273541 0.19225461912216649 0 0.31426831070563249 0.18186980892836949 0 0.32190851894968359 0.17671301081014651 0 0.32190851894968359 0.17671301081014651 0 0.34362292293366359 0.18617246043517141 0 0.32190851894968359 0.17671301081014651 0 0.34362292293366359 0.18617246043517141 0 0.3438008196246764 0.16193668910293141 0 0.32527070428273541 0.19225461912216649 0 0.32190851894968359 0.17671301081014651 0 0.34362292293366359 0.18617246043517141 0 0.32259963093656913 0.16095631230938551 0 0.32190851894968359 0.17671301081014651 0 0.3438008196246764 0.16193668910293141 0 0.32190851894968359 0.17671301081014651 0 0.3438008196246764 0.16193668910293141 0 0.3438008196246764 0.16193668910293141 0 0.35980649408084758 0.17867537119523791 0 0.3728126571669893 0.1664706981588886 0 0.34362292293366359 0.18617246043517141 0 0.3438008196246764 0.16193668910293141 0 0.35980649408084758 0.17867537119523791 0 0.36533732691764281 0.19563191006019839 0 0.34362292293366359 0.18617246043517141 0 0.35980649408084758 0.17867537119523791 0 0.36533732691764281 0.19563191006019839 0 0.35980649408084758 0.17867537119523791 0 0.37993219403430473 0.18578102892205781 0 0.35980649408084758 0.17867537119523791 0 0.3728126571669893 0.1664706981588886 0 0.37993219403430473 0.18578102892205781 0 0.3728126571669893 0.1664706981588886 0 0.36569312029967188 0.14716036739572019 0 0.3438008196246764 0.16193668910293141 0 0.3728126571669893 0.1664706981588886 0 0.36569312029967188 0.14716036739572019 0 0.3728126571669893 0.1664706981588886 0 0.36569312029967188 0.14716036739572019 0 0.38508292456619669 0.152813363367755 0 0.3438008196246764 0.16193668910293141 0 0.36569312029967188 0.14716036739572019 0 0.34781195812759541 0.14421489361616649 0 0.3438008196246764 0.16193668910293141 0 0.36569312029967188 0.14716036739572019 0 0.35724902224618049 0.1242574272960387 0 0.36569312029967188 0.14716036739572019 0 0.34781195812759541 0.14421489361616649 0 0.35724902224618049 0.1242574272960387 0 0.33800044150047293 0.13153308807959971 0 0.34781195812759541 0.14421489361616649 0 0.35724902224618049 0.1242574272960387 0 0.36569312029967188 0.14716036739572019 0 0.35724902224618049 0.1242574272960387 0 0.37438887325428699 0.1198095785569543 0 0.36569312029967188 0.14716036739572019 0 0.37438887325428699 0.1198095785569543 0 0.36569312029967188 0.14716036739572019 0 0.38706864713890621 0.1327328448649846 0 0.36569312029967188 0.14716036739572019 0 0.38706864713890621 0.1327328448649846 0 0.38706864713890621 0.1327328448649846 0 0.41462743281309822 0.1318645721239024 0 0.40981498018493079 0.15061749384490039 0 0.38706864713890621 0.1327328448649846 0 0.41462743281309822 0.1318645721239024 0 0.40844417397814581 0.1183053223342567 0 0.38706864713890621 0.1327328448649846 0 0.40844417397814581 0.1183053223342567 0 0.38706864713890621 0.1327328448649846 0 0.38508292456619669 0.152813363367755 0 0.40981498018493079 0.15061749384490039 0 0.36569312029967188 0.14716036739572019 0 0.38706864713890621 0.1327328448649846 0 0.38508292456619669 0.152813363367755 0 0.3728126571669893 0.1664706981588886 0 0.38508292456619669 0.152813363367755 0 0.39345112515908481 0.16949074399214051 0 0.3728126571669893 0.1664706981588886 0 0.37993219403430473 0.18578102892205781 0 0.37993219403430473 0.18578102892205781 0 0.39345112515908481 0.16949074399214051 0 0.39774382828626348 0.18793301248771771 0 0.3728126571669893 0.1664706981588886 0 0.37993219403430473 0.18578102892205781 0 0.39345112515908481 0.16949074399214051 0 0.39345112515908481 0.16949074399214051 0 0.41703312027512429 0.17453153288045289 0 0.39774382828626348 0.18793301248771771 0 0.38508292456619669 0.152813363367755 0 0.39345112515908481 0.16949074399214051 0 0.40981498018493079 0.15061749384490039 0 0.41703312027512429 0.17453153288045289 0 0.43632241226398499 0.16113005327318811 0 0.40981498018493079 0.15061749384490039 0 0.39345112515908481 0.16949074399214051 0 0.41703312027512429 0.17453153288045289 0 0.40981498018493079 0.15061749384490039 0 0.41703312027512429 0.17453153288045289 0 0.39774382828626348 0.18793301248771771 0 0.41703312027512429 0.17453153288045289 0 0.39774382828626348 0.18793301248771771 0 0.41108805514564067 0.1978798657858534 0 0.41703312027512429 0.17453153288045289 0 0.4285941367189352 0.19863764702444389 0 0.43839798550278969 0.17961467819316179 0 0.41703312027512429 0.17453153288045289 0 0.43632241226398499 0.16113005327318811 0 0.41703312027512429 0.17453153288045289 0 0.43632241226398499 0.16113005327318811 0 0.43839798550278969 0.17961467819316179 0 0.43632241226398499 0.16113005327318811 0 0.43408285867340918 0.13674184292503899 0 0.40981498018493079 0.15061749384490039 0 0.43408285867340918 0.13674184292503899 0 0.41462743281309822 0.1318645721239024 0 0.42432326589957642 0.1205474715483494 0 0.43408285867340918 0.13674184292503899 0 0.41462743281309822 0.1318645721239024 0 0.40981498018493079 0.15061749384490039 0 0.40741878708023538 0.26033295739176671 0 0.38313168943010789 0.24915105822936001 0 0.39723525899092771 0.2327121585384968 0 0.40741878708023538 0.26033295739176671 0 0.39723525899092771 0.2327121585384968 0 0.37043085873871168 0.22617568111747199 0 0.38313168943010789 0.24915105822936001 0 0.39723525899092771 0.2327121585384968 0 0.37043085873871168 0.22617568111747199 0 0.39723525899092771 0.2327121585384968 0 0.38705173090162143 0.2050913596852264 0 0.39723525899092771 0.2327121585384968 0 0.38705173090162143 0.2050913596852264 0 0.38705173090162143 0.2050913596852264 0 0.41108805514564067 0.1978798657858534 0 0.40806981443216161 0.2142474711087046 0 0.39723525899092771 0.2327121585384968 0 0.38705173090162143 0.2050913596852264 0 0.40806981443216161 0.2142474711087046 0 0.38705173090162143 0.2050913596852264 0 0.40806981443216161 0.2142474711087046 0 0.36533732691764281 0.19563191006019839 0 0.38705173090162143 0.2050913596852264 0 0.36533732691764281 0.19563191006019839 0 0.37993219403430473 0.18578102892205781 0 0.38705173090162143 0.2050913596852264 0 0.37993219403430473 0.18578102892205781 0 0.38705173090162143 0.2050913596852264 0 0.37993219403430473 0.18578102892205781 0 0.38705173090162143 0.2050913596852264 0 0.39774382828626348 0.18793301248771771 0 0.38705173090162143 0.2050913596852264 0 0.39774382828626348 0.18793301248771771 0 0.41108805514564067 0.1978798657858534 0 0.41703312027512429 0.17453153288045289 0 0.41108805514564067 0.1978798657858534 0 0.4285941367189352 0.19863764702444389 0 0.4285941367189352 0.19863764702444389 0 0.40806981443216161 0.2142474711087046 0 0.42908789796270141 0.2234035825321837 0 0.4285941367189352 0.19863764702444389 0 0.42908789796270141 0.2234035825321837 0 0.44722926665117729 0.21224757579824649 0 0.41108805514564067 0.1978798657858534 0 0.4285941367189352 0.19863764702444389 0 0.40806981443216161 0.2142474711087046 0 0.40806981443216161 0.2142474711087046 0 0.42908789796270141 0.2234035825321837 0 0.41697898989259552 0.2411205159443833 0 0.39723525899092771 0.2327121585384968 0 0.40806981443216161 0.2142474711087046 0 0.41697898989259552 0.2411205159443833 0 0.40806981443216161 0.2142474711087046 0 0.42908789796270141 0.2234035825321837 0 0.42908789796270141 0.2234035825321837 0 0.4364808034378429 0.24279813918634921 0 0.41697898989259552 0.2411205159443833 0 0.40741878708023538 0.26033295739176671 0 0.39723525899092771 0.2327121585384968 0 0.41697898989259552 0.2411205159443833 0 0.45265058905914229 0.25041858092155223 0 0.45010598149324132 0.23255969395566281 0 0.4771563458419712 0.2385321447755672 0 0.45265058905914229 0.25041858092155223 0 0.47289252882010568 0.25761516153415509 0 0.4771563458419712 0.2385321447755672 0 0.45265058905914229 0.25041858092155223 0 0.4364808034378429 0.24279813918634921 0 0.45010598149324132 0.23255969395566281 0 0.42908789796270141 0.2234035825321837 0 0.45010598149324132 0.23255969395566281 0 0.42908789796270141 0.2234035825321837 0 0.4364808034378429 0.24279813918634921 0 0.45010598149324132 0.23255969395566281 0 0.42908789796270141 0.2234035825321837 0 0.45010598149324132 0.23255969395566281 0 0.44722926665117729 0.21224757579824649 0 0.45010598149324132 0.23255969395566281 0 0.44722926665117729 0.21224757579824649 0 0.47293294921353007 0.21487603124898111 0 0.45010598149324132 0.23255969395566281 0 0.47293294921353007 0.21487603124898111 0 0.4771563458419712 0.2385321447755672 0 0.44722926665117729 0.21224757579824649 0 0.45542536786747861 0.19176092422996119 0 0.47293294921353007 0.21487603124898111 0 0.4285941367189352 0.19863764702444389 0 0.44722926665117729 0.21224757579824649 0 0.45542536786747861 0.19176092422996119 0 0.4285941367189352 0.19863764702444389 0 0.45542536786747861 0.19176092422996119 0 0.43839798550278969 0.17961467819316179 0 0.45542536786747861 0.19176092422996119 0 0.47996377725968919 0.1914610463388596 0 0.47293294921353007 0.21487603124898111 0 0.47996377725968919 0.1914610463388596 0 0.5 0.2031952916605031 0 0.5 0.1756905855913744 0 0.5 0.2031952916605031 0 0.47293294921353007 0.21487603124898111 0 0.5 0.23069999772963179 0 0.47996377725968919 0.1914610463388596 0 0.5 0.2031952916605031 0 0.47293294921353007 0.21487603124898111 0 0.47293294921353007 0.21487603124898111 0 0.5 0.23069999772963179 0 0.4771563458419712 0.2385321447755672 0 0.5 0.25820470379876048 0 0.5 0.23069999772963179 0 0.4771563458419712 0.2385321447755672 0 0.45561170425284581 0.1477285736659234 0 0.47490099624170717 0.13432709405865961 0 0.47490099624170717 0.13432709405865961 0 0.4570645398281219 0.1244784313289783 0 0.45561170425284581 0.1477285736659234 0 0.47490099624170717 0.13432709405865961 0 0.4570645398281219 0.1244784313289783 0 0.43408285867340918 0.13674184292503899 0 0.45561170425284581 0.1477285736659234 0 0.4570645398281219 0.1244784313289783 0 0.43408285867340918 0.13674184292503899 0 0.4570645398281219 0.1244784313289783 0 0.4392280834145369 0.11462976859929649 0 0.43632241226398499 0.16113005327318811 0 0.45561170425284581 0.1477285736659234 0 0.43632241226398499 0.16113005327318811 0 0.43408285867340918 0.13674184292503899 0 0.45561170425284581 0.1477285736659234 0 0.43632241226398499 0.16113005327318811 0 0.45144360782090731 0.1704033256651426 0 0.43839798550278969 0.17961467819316179 0 0.43632241226398499 0.16113005327318811 0 0.45561170425284581 0.1477285736659234 0 0.45144360782090731 0.1704033256651426 0 0.45542536786747861 0.19176092422996119 0 0.45144360782090731 0.1704033256651426 0 0.43839798550278969 0.17961467819316179 0 0.45542536786747861 0.19176092422996119 0 0.45144360782090731 0.1704033256651426 0 0.47146056921743751 0.17178239896347841 0 0.45561170425284581 0.1477285736659234 0 0.45144360782090731 0.1704033256651426 0 0.47146056921743751 0.17178239896347841 0 0.47146056921743751 0.17178239896347841 0 0.5 0.1756905855913744 0 0.48056157119626203 0.15373270292247071 0 0.45561170425284581 0.1477285736659234 0 0.47146056921743751 0.17178239896347841 0 0.48056157119626203 0.15373270292247071 0 0.47996377725968919 0.1914610463388596 0 0.47146056921743751 0.17178239896347841 0 0.5 0.1756905855913744 0 0.45542536786747861 0.19176092422996119 0 0.47996377725968919 0.1914610463388596 0 0.47146056921743751 0.17178239896347841 0 0.5 0.1756905855913744 0 0.50000000000000133 0.14818587952224571 0 0.48056157119626203 0.15373270292247071 0 0.50000000000000133 0.14818587952224571 0 0.48056157119626203 0.15373270292247071 0 0.47490099624170717 0.13432709405865961 0 0.50000000000000133 0.14818587952224571 0 0.47490099624170717 0.13432709405865961 0 0.45561170425284581 0.1477285736659234 0 0.48056157119626203 0.15373270292247071 0 0.47490099624170717 0.13432709405865961 0 0.47490099624170717 0.13432709405865961 0 0.47539285610177301 0.1199563779136837 0 0.4570645398281219 0.1244784313289783 0 0.47490099624170717 0.13432709405865961 0 0.48745049812085312 0.12560816888443049 0 0.47539285610177301 0.1199563779136837 0 0.47490099624170717 0.13432709405865961 0 0.48745049812085312 0.12560816888443049 0 0.50000000000000133 0.14818587952224571 0 0.47490099624170717 0.13432709405865961 0 0.5 0.13253756161622421 0 0.47490099624170717 0.13432709405865961 0 0.48745049812085312 0.12560816888443049 0 0.5 0.13253756161622421 0 0.48745049812085312 0.12560816888443049 0 0.5 0.13253756161622421 0 0.49999999999999972 0.11688924371020271 0 0.48745049812085312 0.12560816888443049 0 0.49999999999999972 0.11688924371020271 0 0.48745049812085312 0.12560816888443049 0 0.48628347409551997 0.1099016003484882 0 0.49999999999999972 0.11688924371020271 0 0.48628347409551997 0.1099016003484882 0 0.5 0.095790056084337882 0 0.48575244945363 0.093204934006353796 0 0.48628347409551997 0.1099016003484882 0 0.49999999999999972 0.11688924371020271 0 0.5 0.095790056084337882 0 0.48628347409551997 0.1099016003484882 0 0.47126477222266278 0.1054665949478613 0 0.48575244945363 0.093204934006353796 0 0.48745049812085312 0.12560816888443049 0 0.48628347409551997 0.1099016003484882 0 0.47539285610177301 0.1199563779136837 0 0.48628347409551997 0.1099016003484882 0 0.47126477222266278 0.1054665949478613 0 0.47539285610177301 0.1199563779136837 0 0.49999999999999772 0.074690868458473073 0 0.47121400094996713 0.08017555019260858 0 0.49999999999999772 0.074690868458473073 0 0.48575244945363 0.093204934006353796 0 0.47121400094996713 0.08017555019260858 0 0.5 0.095790056084337882 0 0.49999999999999772 0.074690868458473073 0 0.48575244945363 0.093204934006353796 0 0.47126477222266278 0.1054665949478613 0 0.48575244945363 0.093204934006353796 0 0.47121400094996713 0.08017555019260858 0 0.49999999999999772 0.074690868458473073 0 0.47121400094996713 0.08017555019260858 0 0.48163788683881098 0.056019187176130511 0 0.47121400094996713 0.08017555019260858 0 0.46396714977145692 0.055648484723071823 0 0.48163788683881098 0.056019187176130511 0 0.47121400094996713 0.08017555019260858 0 0.44242800189993658 0.085660231926744504 0 0.4489294390676789 0.064159471050271824 0 0.47121400094996713 0.08017555019260858 0 0.4489294390676789 0.064159471050271824 0 0.46396714977145692 0.055648484723071823 0 0.47121400094996713 0.08017555019260858 0 0.44242800189993658 0.085660231926744504 0 0.47121400094996713 0.08017555019260858 0 0.44242800189993658 0.085660231926744504 0 0.45353677771505552 0.1015997059304275 0 0.44242800189993658 0.085660231926744504 0 0.4489294390676789 0.064159471050271824 0 0.43329691641467022 0.068535806900018634 0 0.4489294390676789 0.064159471050271824 0 0.43329691641467022 0.068535806900018634 0 0.43580461931973241 0.055098080055632312 0 0.47126477222266278 0.1054665949478613 0 0.4570645398281219 0.1244784313289783 0 0.45353677771505552 0.1015997059304275 0 0.47126477222266278 0.1054665949478613 0 0.47539285610177301 0.1199563779136837 0 0.4570645398281219 0.1244784313289783 0 0.47126477222266278 0.1054665949478613 0 0.47121400094996713 0.08017555019260858 0 0.45353677771505552 0.1015997059304275 0 0.44242800189993658 0.085660231926744504 0 0.45353677771505552 0.1015997059304275 0 0.43404529857607738 0.099563145197392719 0 0.45353677771505552 0.1015997059304275 0 0.4392280834145369 0.11462976859929649 0 0.43404529857607738 0.099563145197392719 0 0.4570645398281219 0.1244784313289783 0 0.4392280834145369 0.11462976859929649 0 0.4570645398281219 0.1244784313289783 0 0.45353677771505552 0.1015997059304275 0 0.4392280834145369 0.11462976859929649 0 0.4392280834145369 0.11462976859929649 0 0.42139162700095179 0.1047811058696147 0 0.4392280834145369 0.11462976859929649 0 0.42432326589957642 0.1205474715483494 0 0.42139162700095179 0.1047811058696147 0 0.43408285867340918 0.13674184292503899 0 0.4392280834145369 0.11462976859929649 0 0.42432326589957642 0.1205474715483494 0 0.42432326589957642 0.1205474715483494 0 0.40844417397814581 0.1183053223342567 0 0.42139162700095179 0.1047811058696147 0 0.41462743281309822 0.1318645721239024 0 0.42432326589957642 0.1205474715483494 0 0.40844417397814581 0.1183053223342567 0 0.40844417397814581 0.1183053223342567 0 0.42139162700095179 0.1047811058696147 0 0.40403374906824557 0.10301864173870461 0 0.42139162700095179 0.1047811058696147 0 0.41364200284990599 0.091144913660880456 0 0.40403374906824557 0.10301864173870461 0 0.4392280834145369 0.11462976859929649 0 0.42139162700095179 0.1047811058696147 0 0.43404529857607738 0.099563145197392719 0 0.42139162700095179 0.1047811058696147 0 0.43404529857607738 0.099563145197392719 0 0.41364200284990599 0.091144913660880456 0 0.44242800189993658 0.085660231926744504 0 0.43404529857607738 0.099563145197392719 0 0.41364200284990599 0.091144913660880456 0 0.44242800189993658 0.085660231926744504 0 0.41955165579074982 0.078259190897350506 0 0.41364200284990599 0.091144913660880456 0 0.44242800189993658 0.085660231926744504 0 0.41364200284990599 0.091144913660880456 0 0.44242800189993658 0.085660231926744504 0 0.43329691641467022 0.068535806900018634 0 0.41955165579074982 0.078259190897350506 0 0.43329691641467022 0.068535806900018634 0 0.41955165579074982 0.078259190897350506 0 0.42135269578552298 0.059975218228521879 0 0.41862302142131169 0.065782907600163323 0 0.41955165579074982 0.078259190897350506 0 0.42135269578552298 0.059975218228521879 0 0.41955165579074982 0.078259190897350506 0 0.42135269578552298 0.059975218228521879 0 0.41862302142131169 0.065782907600163323 0 0.42135269578552298 0.059975218228521879 0 0.41862302142131169 0.065782907600163323 0 0.41320430736835589 0.07304397474181934 0 0.41955165579074982 0.078259190897350506 0 0.41320430736835589 0.07304397474181934 0 0.41955165579074982 0.078259190897350506 0 0.41054971073159269 0.081928721453413622 0 0.41320430736835589 0.07304397474181934 0 0.41054971073159269 0.081928721453413622 0 0.40603046007780402 0.073463766035951228 0 0.41320430736835589 0.07304397474181934 0 0.41028143954377982 0.066669107234177363 0 0.40603046007780402 0.073463766035951228 0 0.41028143954377982 0.066669107234177363 0 0.40196413380207952 0.062988501443327446 0 0.41069650986198869 0.058500656892173819 0 0.41862302142131169 0.065782907600163323 0 0.41028143954377982 0.066669107234177363 0 0.41069650986198869 0.058500656892173819 0 0.41862302142131169 0.065782907600163323 0 0.41320430736835589 0.07304397474181934 0 0.41028143954377982 0.066669107234177363 0 0.41955165579074982 0.078259190897350506 0 0.41054971073159269 0.081928721453413622 0 0.41364200284990599 0.091144913660880456 0 0.41054971073159269 0.081928721453413622 0 0.41364200284990599 0.091144913660880456 0 0.40074389855622511 0.085989293443378911 0 0.41364200284990599 0.091144913660880456 0 0.40074389855622511 0.085989293443378911 0 0.40403374906824557 0.10301864173870461 0 0.40074389855622511 0.085989293443378911 0 0.39315516671573858 0.073951231941620801 0 0.38148175571998499 0.084553222446755311 0 0.41054971073159269 0.081928721453413622 0 0.40074389855622511 0.085989293443378911 0 0.40603046007780402 0.073463766035951228 0 0.40196413380207952 0.062988501443327446 0 0.39315516671573858 0.073951231941620801 0 0.39061376796590458 0.054252798003922909 0 0.41028143954377982 0.066669107234177363 0 0.40196413380207952 0.062988501443327446 0 0.40603046007780402 0.073463766035951228 0 0.40196413380207952 0.062988501443327446 0 0.40603046007780402 0.073463766035951228 0 0.39315516671573858 0.073951231941620801 0 0.40074389855622511 0.085989293443378911 0 0.40603046007780402 0.073463766035951228 0 0.39315516671573858 0.073951231941620801 0 0.37385769338344932 0.060786511943751093 0 0.39315516671573858 0.073951231941620801 0 0.39061376796590458 0.054252798003922909 0 0.37385769338344932 0.060786511943751093 0 0.39315516671573858 0.073951231941620801 0 0.38148175571998499 0.084553222446755311 0 0.40074389855622511 0.085989293443378911 0 0.38148175571998499 0.084553222446755311 0 0.38815334329232781 0.1011563619690015 0 0.37438887325428699 0.1198095785569543 0 0.36927554414063513 0.10255083054878281 0 0.38815334329232781 0.1011563619690015 0 0.36927554414063513 0.10255083054878281 0 0.38148175571998499 0.084553222446755311 0 0.38815334329232781 0.1011563619690015 0 0.37438887325428699 0.1198095785569543 0 0.38706864713890621 0.1327328448649846 0 0.39182744873191788 0.1167348531550952 0 0.37438887325428699 0.1198095785569543 0 0.38815334329232781 0.1011563619690015 0 0.39182744873191788 0.1167348531550952 0 0.38706864713890621 0.1327328448649846 0 0.40844417397814581 0.1183053223342567 0 0.39182744873191788 0.1167348531550952 0 0.40844417397814581 0.1183053223342567 0 0.39182744873191788 0.1167348531550952 0 0.40403374906824557 0.10301864173870461 0 0.40074389855622511 0.085989293443378911 0 0.38815334329232781 0.1011563619690015 0 0.40403374906824557 0.10301864173870461 0 0.38815334329232781 0.1011563619690015 0 0.39182744873191788 0.1167348531550952 0 0.40403374906824557 0.10301864173870461 0 0.40241568091832591 0.024129006510802301 0 0.378916029974119 0.034602206672870207 0 0.40241568091832591 0.024129006510802301 0 0.39149344720907941 0.0092430322328557434 0 0.378916029974119 0.034602206672870207 0 0.40241568091832591 0.024129006510802301 0 0.39149344720907941 0.0092430322328557434 0 0.40931641480716052 0.0008437092888607643 0 0.36392847794991978 0.017386800626596519 0 0.39149344720907941 0.0092430322328557434 0 0.39149344720907941 0.0092430322328557434 0 0.38513078397851142 -0.0076072966754338282 0 0.37378227755250659 -0.00013570250308337939 0 0.36392847794991978 0.017386800626596519 0 0.39149344720907941 0.0092430322328557434 0 0.37378227755250659 -0.00013570250308337939 0 0.36392847794991978 0.017386800626596519 0 0.39149344720907941 0.0092430322328557434 0 0.378916029974119 0.034602206672870207 0 0.378916029974119 0.034602206672870207 0 0.39061376796590458 0.054252798003922909 0 0.39586385863850487 0.040761518988478927 0 0.37385769338344932 0.060786511943751093 0 0.378916029974119 0.034602206672870207 0 0.39061376796590458 0.054252798003922909 0 0.40196413380207952 0.062988501443327446 0 0.39061376796590458 0.054252798003922909 0 0.40100745864726117 0.051093448552118607 0 0.39061376796590458 0.054252798003922909 0 0.40100745864726117 0.051093448552118607 0 0.39586385863850487 0.040761518988478927 0 0.40196413380207952 0.062988501443327446 0 0.40100745864726117 0.051093448552118607 0 0.41069650986198869 0.058500656892173819 0 0.40241568091832591 0.024129006510802301 0 0.39586385863850487 0.040761518988478927 0 0.41131021338107182 0.044141717827366408 0 0.40241568091832591 0.024129006510802301 0 0.378916029974119 0.034602206672870207 0 0.39586385863850487 0.040761518988478927 0 0.40100745864726117 0.051093448552118607 0 0.39586385863850487 0.040761518988478927 0 0.41131021338107182 0.044141717827366408 0 0.40241568091832591 0.024129006510802301 0 0.41131021338107182 0.044141717827366408 0 0.42363401382402749 0.036815512288627963 0 0.41131021338107182 0.044141717827366408 0 0.42135269578552298 0.059975218228521879 0 0.42363401382402749 0.036815512288627963 0 0.41131021338107182 0.044141717827366408 0 0.41069650986198869 0.058500656892173819 0 0.42135269578552298 0.059975218228521879 0 0.40100745864726117 0.051093448552118607 0 0.41131021338107182 0.044141717827366408 0 0.41069650986198869 0.058500656892173819 0 0.41862302142131169 0.065782907600163323 0 0.41069650986198869 0.058500656892173819 0 0.42135269578552298 0.059975218228521879 0 0.42135269578552298 0.059975218228521879 0 0.43580461931973241 0.055098080055632312 0 0.43012946901374982 0.041301645562428602 0 0.42135269578552298 0.059975218228521879 0 0.43012946901374982 0.041301645562428602 0 0.42135269578552298 0.059975218228521879 0 0.42363401382402749 0.036815512288627963 0 0.43329691641467022 0.068535806900018634 0 0.42135269578552298 0.059975218228521879 0 0.43580461931973241 0.055098080055632312 0 0.42135269578552298 0.059975218228521879 0 0.42363401382402749 0.036815512288627963 0 0.43012946901374982 0.041301645562428602 0 0.43012946901374982 0.041301645562428602 0 0.43890624224197627 0.02262807289633521 0 0.42363401382402749 0.036815512288627963 0 0.43012946901374982 0.041301645562428602 0 0.43890624224197627 0.02262807289633521 0 0.42363401382402749 0.036815512288627963 0 0.42591533186253261 0.013655806348733991 0 0.42363401382402749 0.036815512288627963 0 0.42591533186253261 0.013655806348733991 0 0.43890624224197627 0.02262807289633521 0 0.40241568091832591 0.024129006510802301 0 0.42363401382402749 0.036815512288627963 0 0.42591533186253261 0.013655806348733991 0 0.40241568091832591 0.024129006510802301 0 0.42591533186253261 0.013655806348733991 0 0.40241568091832591 0.024129006510802301 0 0.40931641480716052 0.0008437092888607643 0 0.42591533186253261 0.013655806348733991 0 0.40931641480716052 0.0008437092888607643 0 0.42591533186253261 0.013655806348733991 0 0.42800852844673509 -0.0075941099480287266 0 0.42591533186253261 0.013655806348733991 0 0.44768301547019768 0.0039545002302394114 0 0.42800852844673509 -0.0075941099480287266 0 0.42591533186253261 0.013655806348733991 0 0.44768301547019768 0.0039545002302394114 0 0.42591533186253261 0.013655806348733991 0 0.42800852844673509 -0.0075941099480287266 0 0.44768301547019768 0.0039545002302394114 0 0.43890624224197627 0.02262807289633521 0 0.42591533186253261 0.013655806348733991 0 0.44768301547019768 0.0039545002302394114 0 0.43890624224197627 0.02262807289633521 0 0.44768301547019768 0.0039545002302394114 0 0.43890624224197627 0.02262807289633521 0 0.4542257078502811 0.02375297217669432 0 0.43890624224197627 0.02262807289633521 0 0.4542257078502811 0.02375297217669432 0 0.44847823589757918 0.042464573853776257 0 0.4542257078502811 0.02375297217669432 0 0.46648485953840552 0.01429407256055271 0 0.46957618610324842 0.035423641342571949 0 0.44768301547019768 0.0039545002302394114 0 0.46648485953840552 0.01429407256055271 0 0.47384150773509121 -0.0077036782711643881 0 0.44768301547019768 0.0039545002302394114 0 0.4542257078502811 0.02375297217669432 0 0.46648485953840552 0.01429407256055271 0 0.4489294390676789 0.064159471050271824 0 0.43580461931973241 0.055098080055632312 0 0.44847823589757918 0.042464573853776257 0 0.43012946901374982 0.041301645562428602 0 0.43890624224197627 0.02262807289633521 0 0.44847823589757918 0.042464573853776257 0 0.43580461931973241 0.055098080055632312 0 0.43012946901374982 0.041301645562428602 0 0.44847823589757918 0.042464573853776257 0 0.4542257078502811 0.02375297217669432 0 0.44847823589757918 0.042464573853776257 0 0.46957618610324842 0.035423641342571949 0 0.44847823589757918 0.042464573853776257 0 0.46396714977145692 0.055648484723071823 0 0.46957618610324842 0.035423641342571949 0 0.4489294390676789 0.064159471050271824 0 0.44847823589757918 0.042464573853776257 0 0.46396714977145692 0.055648484723071823 0 0.46396714977145692 0.055648484723071823 0 0.48163788683881098 0.056019187176130511 0 0.46957618610324842 0.035423641342571949 0 0.48163788683881098 0.056019187176130511 0 0.46957618610324842 0.035423641342571949 0 0.48718684262746992 0.037862161385017593 0 0.48718684262746992 0.037862161385017593 0 0.5 0.051177687150714912 0 0.5 0.027664505842956651 0 0.48163788683881098 0.056019187176130511 0 0.48718684262746992 0.037862161385017593 0 0.5 0.051177687150714912 0 0.49999999999999772 0.074690868458473073 0 0.48163788683881098 0.056019187176130511 0 0.5 0.051177687150714912 0 0.46648485953840552 0.01429407256055271 0 0.48461754007380631 0.017289253306481251 0 0.47384150773509121 -0.0077036782711643881 0 0.46957618610324842 0.035423641342571949 0 0.48718684262746992 0.037862161385017593 0 0.48461754007380631 0.017289253306481251 0 0.46648485953840552 0.01429407256055271 0 0.46957618610324842 0.035423641342571949 0 0.48461754007380631 0.017289253306481251 0 0.48718684262746992 0.037862161385017593 0 0.48461754007380631 0.017289253306481251 0 0.5 0.027664505842956651 0 0.48461754007380631 0.017289253306481251 0 0.5 0.027664505842956651 0 0.5 0.0041513245351983974 0 0.48461754007380631 0.017289253306481251 0 0.5 0.0041513245351983974 0 0.47384150773509121 -0.0077036782711643881 0 0.47384150773509121 -0.0077036782711643881 0 0.49999999999998829 -0.01936185677255987 0 0.5 0.0041513245351983974 0 0.47384150773509121 -0.0077036782711643881 0 0.49999999999998829 -0.01936185677255987 0 0.47384150773509121 -0.0077036782711643881 0 0.48097930053004823 -0.028324423960057691 0 0.46015545986201428 -0.022582028698780461 0 0.47384150773509121 -0.0077036782711643881 0 0.48097930053004823 -0.028324423960057691 0 0.49999999999998829 -0.01936185677255987 0 0.48097930053004823 -0.028324423960057691 0 0.49999999999998829 -0.01936185677255987 0 0.5 -0.045987289928878461 0 0.48097930053004823 -0.028324423960057691 0 0.5 -0.045987289928878461 0 0.47262790425382589 -0.049118557627802838 0 0.5 -0.045987289928878461 0 0.48952123698066641 -0.059300006507038143 0 0.47262790425382589 -0.049118557627802838 0 0.5 -0.045987289928878461 0 0.48952123698066641 -0.059300006507038143 0 0.50000000000000089 -0.072612723085196951 0 0.48952123698066641 -0.059300006507038143 0 0.47262790425382589 -0.049118557627802838 0 0.48510034864563678 -0.075655086556825429 0 0.47262790425382589 -0.049118557627802838 0 0.48510034864563678 -0.075655086556825429 0 0.48097930053004823 -0.028324423960057691 0 0.47262790425382589 -0.049118557627802838 0 0.46015545986201428 -0.022582028698780461 0 0.47262790425382589 -0.049118557627802838 0 0.45015077892247918 -0.040110854316927062 0 0.46015545986201428 -0.022582028698780461 0 0.47262790425382589 -0.049118557627802838 0 0.46015545986201428 -0.022582028698780461 0 0.47262790425382589 -0.049118557627802838 0 0.45256704136488018 -0.058501556399642482 0 0.45015077892247918 -0.040110854316927062 0 0.47262790425382589 -0.049118557627802838 0 0.45256704136488018 -0.058501556399642482 0 0.46842013911402741 -0.067761792843408747 0 0.45256704136488018 -0.058501556399642482 0 0.43826234487632998 -0.070324325223781931 0 0.43219492161514028 -0.050093942541554137 0 0.45256704136488018 -0.058501556399642482 0 0.45015077892247918 -0.040110854316927062 0 0.43219492161514028 -0.050093942541554137 0 0.45015077892247918 -0.040110854316927062 0 0.44327529253491599 -0.016818328344993541 0 0.46015545986201428 -0.022582028698780461 0 0.45015077892247918 -0.040110854316927062 0 0.44327529253491599 -0.016818328344993541 0 0.43010172503093769 -0.028844026244791428 0 0.44768301547019768 0.0039545002302394114 0 0.44327529253491599 -0.016818328344993541 0 0.42800852844673509 -0.0075941099480287266 0 0.44768301547019768 0.0039545002302394114 0 0.44327529253491599 -0.016818328344993541 0 0.46015545986201428 -0.022582028698780461 0 0.44768301547019768 0.0039545002302394114 0 0.47384150773509121 -0.0077036782711643881 0 0.46015545986201428 -0.022582028698780461 0 0.44768301547019768 0.0039545002302394114 0 0.46015545986201428 -0.022582028698780461 0 0.44768301547019768 0.0039545002302394114 0 0.47384150773509121 -0.0077036782711643881 0 0.47866475737878661 -0.119913460570227 0 0.47646043162061208 -0.1028658093870269 0 0.46489337107132062 -0.1095450812078604 0 0.47866475737878661 -0.119913460570227 0 0.48799158047813201 -0.1100113873087083 0 0.47646043162061208 -0.1028658093870269 0 0.47866475737878661 -0.119913460570227 0 0.46489337107132062 -0.1095450812078604 0 0.46441013443710838 -0.1249183798069777 0 0.48799158047813201 -0.1100113873087083 0 0.5 -0.10158745934561821 0 0.5 -0.13056219560603949 0 0.47866475737878661 -0.119913460570227 0 0.48799158047813201 -0.1100113873087083 0 0.5 -0.13056219560603949 0 0.48799158047813201 -0.1100113873087083 0 0.5 -0.10158745934561821 0 0.48483271339126088 -0.095128011634630055 0 0.48483271339126088 -0.095128011634630055 0 0.47646043162061208 -0.1028658093870269 0 0.47404287358340552 -0.087981027095711067 0 0.48799158047813201 -0.1100113873087083 0 0.48483271339126088 -0.095128011634630055 0 0.47646043162061208 -0.1028658093870269 0 0.47646043162061208 -0.1028658093870269 0 0.46508350621890931 -0.096615615686762274 0 0.46489337107132062 -0.1095450812078604 0 0.47646043162061208 -0.1028658093870269 0 0.47404287358340552 -0.087981027095711067 0 0.46508350621890931 -0.096615615686762274 0 0.48510034864563678 -0.075655086556825429 0 0.46055926472057912 -0.080666136514440503 0 0.47404287358340552 -0.087981027095711067 0 0.48510034864563678 -0.075655086556825429 0 0.46055926472057912 -0.080666136514440503 0 0.47404287358340552 -0.087981027095711067 0 0.48279056582094421 -0.085986941699434979 0 0.48510034864563678 -0.075655086556825429 0 0.48483271339126088 -0.095128011634630055 0 0.47404287358340552 -0.087981027095711067 0 0.48279056582094421 -0.085986941699434979 0 0.48483271339126088 -0.095128011634630055 0 0.48279056582094421 -0.085986941699434979 0 0.48854926074309091 -0.082993035139527674 0 0.5 -0.10158745934561821 0 0.48483271339126088 -0.095128011634630055 0 0.48854926074309091 -0.082993035139527674 0 0.5 -0.10158745934561821 0 0.48854926074309091 -0.082993035139527674 0 0.50000000000000089 -0.072612723085196951 0 0.48279056582094421 -0.085986941699434979 0 0.48854926074309091 -0.082993035139527674 0 0.48510034864563678 -0.075655086556825429 0 0.48854926074309091 -0.082993035139527674 0 0.48510034864563678 -0.075655086556825429 0 0.48952123698066641 -0.059300006507038143 0 0.48510034864563678 -0.075655086556825429 0 0.50000000000000089 -0.072612723085196951 0 0.48854926074309091 -0.082993035139527674 0 0.48510034864563678 -0.075655086556825429 0 0.50000000000000089 -0.072612723085196951 0 0.48510034864563678 -0.075655086556825429 0 0.50000000000000089 -0.072612723085196951 0 0.48510034864563678 -0.075655086556825429 0 0.46842013911402741 -0.067761792843408747 0 0.46055926472057912 -0.080666136514440503 0 0.47262790425382589 -0.049118557627802838 0 0.48510034864563678 -0.075655086556825429 0 0.46842013911402741 -0.067761792843408747 0 0.46842013911402741 -0.067761792843408747 0 0.452614388255829 -0.0712299127838978 0 0.46055926472057912 -0.080666136514440503 0 0.45256704136488018 -0.058501556399642482 0 0.46842013911402741 -0.067761792843408747 0 0.452614388255829 -0.0712299127838978 0 0.4468635446620649 -0.076974390248543897 0 0.452614388255829 -0.0712299127838978 0 0.46055926472057912 -0.080666136514440503 0 0.45256704136488018 -0.058501556399642482 0 0.43826234487632998 -0.070324325223781931 0 0.452614388255829 -0.0712299127838978 0 0.43826234487632998 -0.070324325223781931 0 0.4468635446620649 -0.076974390248543897 0 0.43601818079552151 -0.085677186472055369 0 0.43826234487632998 -0.070324325223781931 0 0.4468635446620649 -0.076974390248543897 0 0.452614388255829 -0.0712299127838978 0 0.46055926472057912 -0.080666136514440503 0 0.43601818079552151 -0.085677186472055369 0 0.45423397549956218 -0.0911794337432075 0 0.46055926472057912 -0.080666136514440503 0 0.43601818079552151 -0.085677186472055369 0 0.4468635446620649 -0.076974390248543897 0 0.46055926472057912 -0.080666136514440503 0 0.43601818079552151 -0.085677186472055369 0 0.45423397549956218 -0.0911794337432075 0 0.46347990500561398 -0.089110553260030326 0 0.46508350621890931 -0.096615615686762274 0 0.45423397549956218 -0.0911794337432075 0 0.46055926472057912 -0.080666136514440503 0 0.46347990500561398 -0.089110553260030326 0 0.47404287358340552 -0.087981027095711067 0 0.46055926472057912 -0.080666136514440503 0 0.46347990500561398 -0.089110553260030326 0 0.47404287358340552 -0.087981027095711067 0 0.46347990500561398 -0.089110553260030326 0 0.46508350621890931 -0.096615615686762274 0 0.46508350621890931 -0.096615615686762274 0 0.45591551385380918 -0.1050002411691591 0 0.46489337107132062 -0.1095450812078604 0 0.45423397549956218 -0.0911794337432075 0 0.46508350621890931 -0.096615615686762274 0 0.45591551385380918 -0.1050002411691591 0 0.45423397549956218 -0.0911794337432075 0 0.44753800254596199 -0.1085568054845248 0 0.43257621930520218 -0.10922446522704909 0 0.45423397549956218 -0.0911794337432075 0 0.45591551385380918 -0.1050002411691591 0 0.44753800254596199 -0.1085568054845248 0 0.45423397549956218 -0.0911794337432075 0 0.43257621930520218 -0.10922446522704909 0 0.43601818079552151 -0.085677186472055369 0 0.45423397549956218 -0.0911794337432075 0 0.43257621930520218 -0.10922446522704909 0 0.44753800254596199 -0.1085568054845248 0 0.44159002387344187 -0.1213829702657743 0 0.45337428019779452 -0.11599691701743391 0 0.45591551385380918 -0.1050002411691591 0 0.44753800254596199 -0.1085568054845248 0 0.45337428019779452 -0.11599691701743391 0 0.44753800254596199 -0.1085568054845248 0 0.44159002387344187 -0.1213829702657743 0 0.43257621930520218 -0.10922446522704909 0 0.44159002387344187 -0.1213829702657743 0 0.45337428019779452 -0.11599691701743391 0 0.45197104021009732 -0.1297866206243361 0 0.45337428019779452 -0.11599691701743391 0 0.46441013443710838 -0.1249183798069777 0 0.45197104021009732 -0.1297866206243361 0 0.45591551385380918 -0.1050002411691591 0 0.45337428019779452 -0.11599691701743391 0 0.46489337107132062 -0.1095450812078604 0 0.45337428019779452 -0.11599691701743391 0 0.46489337107132062 -0.1095450812078604 0 0.46441013443710838 -0.1249183798069777 0 0.41505227724946581 -0.1100274134661261 0 0.43257621930520218 -0.10922446522704909 0 0.41095195339919349 -0.12724159292887649 0 0.41505227724946581 -0.1100274134661261 0 0.4016669304468839 -0.118003868578144 0 0.41095195339919349 -0.12724159292887649 0 0.43257621930520218 -0.10922446522704909 0 0.41095195339919349 -0.12724159292887649 0 0.43257621930520218 -0.10922446522704909 0 0.42947322839580138 -0.13045276546324991 0 0.42535055115134007 -0.11854013211556209 0 0.43257621930520218 -0.10922446522704909 0 0.41095195339919349 -0.12724159292887649 0 0.44159002387344187 -0.1213829702657743 0 0.43257621930520218 -0.10922446522704909 0 0.42947322839580138 -0.13045276546324991 0 0.42535055115134007 -0.11854013211556209 0 0.43257621930520218 -0.10922446522704909 0 0.42947322839580138 -0.13045276546324991 0 0.43257621930520218 -0.10922446522704909 0 0.42203755685191019 -0.10147756875195239 0 0.43347819188330228 -0.090255551602059031 0 0.41505227724946581 -0.1100274134661261 0 0.43257621930520218 -0.10922446522704909 0 0.42203755685191019 -0.10147756875195239 0 0.43257621930520218 -0.10922446522704909 0 0.43347819188330228 -0.090255551602059031 0 0.43601818079552151 -0.085677186472055369 0 0.43257621930520218 -0.10922446522704909 0 0.43601818079552151 -0.085677186472055369 0 0.41505227724946581 -0.1100274134661261 0 0.40704353896967049 -0.096402844712575639 0 0.4016669304468839 -0.118003868578144 0 0.42203755685191019 -0.10147756875195239 0 0.40704353896967049 -0.096402844712575639 0 0.43347819188330228 -0.090255551602059031 0 0.41505227724946581 -0.1100274134661261 0 0.42203755685191019 -0.10147756875195239 0 0.40704353896967049 -0.096402844712575639 0 0.40704353896967049 -0.096402844712575639 0 0.41600475231343031 -0.079053357186786508 0 0.43347819188330228 -0.090255551602059031 0 0.40704353896967049 -0.096402844712575639 0 0.43347819188330228 -0.090255551602059031 0 0.41600475231343031 -0.079053357186786508 0 0.43347819188330228 -0.090255551602059031 0 0.43098739446860262 -0.078978999981146797 0 0.43347819188330228 -0.090255551602059031 0 0.43098739446860262 -0.078978999981146797 0 0.43601818079552151 -0.085677186472055369 0 0.43826234487632998 -0.070324325223781931 0 0.43098739446860262 -0.078978999981146797 0 0.43601818079552151 -0.085677186472055369 0 0.41600475231343031 -0.079053357186786508 0 0.43098739446860262 -0.078978999981146797 0 0.42664160152912739 -0.062784525401469435 0 0.43826234487632998 -0.070324325223781931 0 0.43098739446860262 -0.078978999981146797 0 0.42664160152912739 -0.062784525401469435 0 0.43826234487632998 -0.070324325223781931 0 0.43601818079552151 -0.085677186472055369 0 0.41600475231343031 -0.079053357186786508 0 0.42664160152912739 -0.062784525401469435 0 0.41193226077549389 -0.05686483444150179 0 0.41600475231343031 -0.079053357186786508 0 0.39224299197285428 -0.067601485151461263 0 0.41193226077549389 -0.05686483444150179 0 0.41600475231343031 -0.079053357186786508 0 0.39224299197285428 -0.067601485151461263 0 0.39106687414105468 -0.085504972507515292 0 0.39224299197285428 -0.067601485151461263 0 0.36860292664027122 -0.065968725110588086 0 0.37346069529248521 -0.082049458216582563 0 0.39224299197285428 -0.067601485151461263 0 0.39106687414105468 -0.085504972507515292 0 0.37346069529248521 -0.082049458216582563 0 0.38086372985856992 -0.092058689967441681 0 0.37831846394470081 -0.09813019132257661 0 0.37346069529248521 -0.082049458216582563 0 0.37831846394470081 -0.09813019132257661 0 0.37346069529248521 -0.082049458216582563 0 0.38086372985856992 -0.092058689967441681 0 0.39106687414105468 -0.085504972507515292 0 0.37346069529248521 -0.082049458216582563 0 0.38086372985856992 -0.092058689967441681 0 0.39106687414105468 -0.085504972507515292 0 0.38060888605603882 -0.1025501378230923 0 0.40704353896967049 -0.096402844712575639 0 0.41600475231343031 -0.079053357186786508 0 0.39106687414105468 -0.085504972507515292 0 0.40704353896967049 -0.096402844712575639 0 0.38060888605603882 -0.1025501378230923 0 0.40704353896967049 -0.096402844712575639 0 0.39106687414105468 -0.085504972507515292 0 0.38060888605603882 -0.1025501378230923 0 0.40704353896967049 -0.096402844712575639 0 0.39220057476159381 -0.1094571064211964 0 0.4016669304468839 -0.118003868578144 0 0.40704353896967049 -0.096402844712575639 0 0.38060888605603882 -0.1025501378230923 0 0.39220057476159381 -0.1094571064211964 0 0.38086372985856992 -0.092058689967441681 0 0.37831846394470081 -0.09813019132257661 0 0.38060888605603882 -0.1025501378230923 0 0.37831846394470081 -0.09813019132257661 0 0.38060888605603882 -0.1025501378230923 0 0.36814437039120379 -0.098971037106231841 0 0.38060888605603882 -0.1025501378230923 0 0.38373264842515298 -0.1103516083894274 0 0.37692150664171048 -0.1111942642614612 0 0.38060888605603882 -0.1025501378230923 0 0.37692150664171048 -0.1111942642614612 0 0.36905511877313579 -0.11053119746291459 0 0.38060888605603882 -0.1025501378230923 0 0.38373264842515298 -0.1103516083894274 0 0.39220057476159381 -0.1094571064211964 0 0.38373264842515298 -0.1103516083894274 0 0.37954614204083659 -0.1158132695650981 0 0.38763710598076351 -0.1211819530494572 0 0.38373264842515298 -0.1103516083894274 0 0.38763710598076351 -0.1211819530494572 0 0.39220057476159381 -0.1094571064211964 0 0.38373264842515298 -0.1103516083894274 0 0.37954614204083659 -0.1158132695650981 0 0.37692150664171048 -0.1111942642614612 0 0.37954614204083659 -0.1158132695650981 0 0.37692150664171048 -0.1111942642614612 0 0.37166473791338872 -0.1167251080667738 0 0.37954614204083659 -0.1158132695650981 0 0.37690317713408772 -0.1222977117636227 0 0.38763710598076351 -0.1211819530494572 0 0.37954614204083659 -0.1158132695650981 0 0.37690317713408772 -0.1222977117636227 0 0.37166473791338872 -0.1167251080667738 0 0.38763710598076351 -0.1211819530494572 0 0.4016669304468839 -0.118003868578144 0 0.39639467592149358 -0.1284483734250037 0 0.38763710598076351 -0.1211819530494572 0 0.39220057476159381 -0.1094571064211964 0 0.4016669304468839 -0.118003868578144 0 0.4016669304468839 -0.118003868578144 0 0.39639467592149358 -0.1284483734250037 0 0.41095195339919349 -0.12724159292887649 0 0.40874876474289401 -0.02238153719427264 0 0.43010172503093769 -0.028844026244791428 0 0.41476006013110078 -0.039617228857881187 0 0.40931641480716052 0.0008437092888607643 0 0.40874876474289401 -0.02238153719427264 0 0.42800852844673509 -0.0075941099480287266 0 0.44327529253491599 -0.016818328344993541 0 0.42800852844673509 -0.0075941099480287266 0 0.43010172503093769 -0.028844026244791428 0 0.42800852844673509 -0.0075941099480287266 0 0.43010172503093769 -0.028844026244791428 0 0.40874876474289401 -0.02238153719427264 0 0.42800852844673509 -0.0075941099480287266 0 0.43010172503093769 -0.028844026244791428 0 0.43010172503093769 -0.028844026244791428 0 0.43219492161514028 -0.050093942541554137 0 0.41476006013110078 -0.039617228857881187 0 0.45015077892247918 -0.040110854316927062 0 0.43010172503093769 -0.028844026244791428 0 0.43219492161514028 -0.050093942541554137 0 0.43010172503093769 -0.028844026244791428 0 0.43219492161514028 -0.050093942541554137 0 0.43826234487632998 -0.070324325223781931 0 0.42664160152912739 -0.062784525401469435 0 0.43219492161514028 -0.050093942541554137 0 0.42664160152912739 -0.062784525401469435 0 0.43219492161514028 -0.050093942541554137 0 0.41193226077549389 -0.05686483444150179 0 0.43219492161514028 -0.050093942541554137 0 0.41193226077549389 -0.05686483444150179 0 0.41476006013110078 -0.039617228857881187 0 0.40874876474289401 -0.02238153719427264 0 0.41476006013110078 -0.039617228857881187 0 0.38867584569158292 -0.04417513115243063 0 0.40874876474289401 -0.02238153719427264 0 0.38867584569158292 -0.04417513115243063 0 0.41193226077549389 -0.05686483444150179 0 0.41476006013110078 -0.039617228857881187 0 0.38867584569158292 -0.04417513115243063 0 0.39224299197285428 -0.067601485151461263 0 0.41193226077549389 -0.05686483444150179 0 0.38867584569158292 -0.04417513115243063 0 0.38867584569158292 -0.04417513115243063 0 0.36860292664027122 -0.065968725110588086 0 0.38867584569158292 -0.04417513115243063 0 0.37525078491369551 -0.038041508705652233 0 0.36860292664027122 -0.065968725110588086 0 0.39224299197285428 -0.067601485151461263 0 0.38867584569158292 -0.04417513115243063 0 0.36860292664027122 -0.065968725110588086 0 0.38867584569158292 -0.04417513115243063 0 0.37525078491369551 -0.038041508705652233 0 0.38742199521823811 -0.021499890801610029 0 0.37525078491369551 -0.038041508705652233 0 0.37587617809310853 -0.024201119587408108 0 0.38742199521823811 -0.021499890801610029 0 0.37587617809310853 -0.024201119587408108 0 0.38742199521823811 -0.021499890801610029 0 0.37363946424933608 -0.01365398008840504 0 0.40874876474289401 -0.02238153719427264 0 0.38742199521823811 -0.021499890801610029 0 0.39856328541552583 -0.01102431706412384 0 0.40874876474289401 -0.02238153719427264 0 0.38867584569158292 -0.04417513115243063 0 0.38742199521823811 -0.021499890801610029 0 0.39149344720907941 0.0092430322328557434 0 0.40931641480716052 0.0008437092888607643 0 0.39856328541552583 -0.01102431706412384 0 0.39149344720907941 0.0092430322328557434 0 0.39856328541552583 -0.01102431706412384 0 0.38513078397851142 -0.0076072966754338282 0 0.40931641480716052 0.0008437092888607643 0 0.40874876474289401 -0.02238153719427264 0 0.39856328541552583 -0.01102431706412384 0 0.38742199521823811 -0.021499890801610029 0 0.39856328541552583 -0.01102431706412384 0 0.38513078397851142 -0.0076072966754338282 0 0.38742199521823811 -0.021499890801610029 0 0.38513078397851142 -0.0076072966754338282 0 0.37363946424933608 -0.01365398008840504 0 0.38513078397851142 -0.0076072966754338282 0 0.37378227755250659 -0.00013570250308337939 0 0.37363946424933608 -0.01365398008840504 0 0.37378227755250659 -0.00013570250308337939 0 0.37363946424933608 -0.01365398008840504 0 0.36394696822204647 -0.0086334128336824807 0 0.36394696822204647 -0.0086334128336824807 0 0.35602744723572788 -0.0062321018227241556 0 0.35821572360096599 -0.01221429151786798 0 0.36394696822204647 -0.0086334128336824807 0 0.36298500857916249 -0.016607051349926929 0 0.35821572360096599 -0.01221429151786798 0 0.37363946424933608 -0.01365398008840504 0 0.36394696822204647 -0.0086334128336824807 0 0.36298500857916249 -0.016607051349926929 0 0.36298500857916249 -0.016607051349926929 0 0.35852853082143388 -0.016207167657810349 0 0.35821572360096599 -0.01221429151786798 0 0.36234135482611102 0.00074738726826526489 0 0.37378227755250659 -0.00013570250308337939 0 0.36394696822204647 -0.0086334128336824807 0 0.36234135482611102 0.00074738726826526489 0 0.36394696822204647 -0.0086334128336824807 0 0.35602744723572788 -0.0062321018227241556 0 0.37587617809310853 -0.024201119587408108 0 0.36930839759229012 -0.029553228907550941 0 0.36865504388760861 -0.021526166610278522 0 0.37525078491369551 -0.038041508705652233 0 0.37587617809310853 -0.024201119587408108 0 0.36930839759229012 -0.029553228907550941 0 0.37587617809310853 -0.024201119587408108 0 0.37363946424933608 -0.01365398008840504 0 0.36865504388760861 -0.021526166610278522 0 0.37363946424933608 -0.01365398008840504 0 0.36865504388760861 -0.021526166610278522 0 0.36298500857916249 -0.016607051349926929 0 0.36298500857916249 -0.016607051349926929 0 0.35993111651305421 -0.019614001581370739 0 0.35852853082143388 -0.016207167657810349 0 0.36298500857916249 -0.016607051349926929 0 0.35993111651305421 -0.019614001581370739 0 0.36146617092414579 -0.023615453118101599 0 0.35993111651305421 -0.019614001581370739 0 0.36146617092414579 -0.023615453118101599 0 0.3579967537951842 -0.020244948672220871 0 0.36865504388760861 -0.021526166610278522 0 0.36298500857916249 -0.016607051349926929 0 0.36146617092414579 -0.023615453118101599 0 0.36930839759229012 -0.029553228907550941 0 0.36865504388760861 -0.021526166610278522 0 0.36146617092414579 -0.023615453118101599 0 0.35463580585309729 -0.019733188238062381 0 0.34351703691333529 -0.016441911751832301 0 0.34084277107474931 -0.037690143674182323 0 0.35463580585309729 -0.019733188238062381 0 0.34084277107474931 -0.037690143674182323 0 0.36146617092414579 -0.023615453118101599 0 0.35463580585309729 -0.019733188238062381 0 0.361619366246683 -0.042850956674325577 0 0.36146617092414579 -0.023615453118101599 0 0.35463580585309729 -0.019733188238062381 0 0.3579967537951842 -0.020244948672220871 0 0.35463580585309729 -0.019733188238062381 0 0.3579967537951842 -0.020244948672220871 0 0.35595392189043967 -0.018017151751348801 0 0.35463580585309729 -0.019733188238062381 0 0.35595392189043967 -0.018017151751348801 0 0.35597876128746447 -0.015806567855077249 0 0.35993111651305421 -0.019614001581370739 0 0.35595392189043967 -0.018017151751348801 0 0.35852853082143388 -0.016207167657810349 0 0.35993111651305421 -0.019614001581370739 0 0.3579967537951842 -0.020244948672220871 0 0.35595392189043967 -0.018017151751348801 0 0.35595392189043967 -0.018017151751348801 0 0.35852853082143388 -0.016207167657810349 0 0.35597876128746447 -0.015806567855077249 0 0.35463580585309729 -0.019733188238062381 0 0.35597876128746447 -0.015806567855077249 0 0.3525598242713861 -0.01286104011029676 0 0.35463580585309729 -0.019733188238062381 0 0.3525598242713861 -0.01286104011029676 0 0.35463580585309729 -0.019733188238062381 0 0.35595392189043967 -0.018017151751348801 0 0.35463580585309729 -0.019733188238062381 0 0.3525598242713861 -0.01286104011029676 0 0.34351703691333529 -0.016441911751832301 0 0.36234135482611102 0.00074738726826526489 0 0.3511842398881892 0.0023449734811356029 0 0.35602744723572788 -0.0062321018227241556 0 0.3511842398881892 0.0023449734811356029 0 0.35602744723572788 -0.0062321018227241556 0 0.34798789329613772 -0.0072093807483384134 0 0.35602744723572788 -0.0062321018227241556 0 0.35821572360096599 -0.01221429151786798 0 0.3525598242713861 -0.01286104011029676 0 0.35602744723572788 -0.0062321018227241556 0 0.3525598242713861 -0.01286104011029676 0 0.34798789329613772 -0.0072093807483384134 0 0.35852853082143388 -0.016207167657810349 0 0.35597876128746447 -0.015806567855077249 0 0.35821572360096599 -0.01221429151786798 0 0.35597876128746447 -0.015806567855077249 0 0.35821572360096599 -0.01221429151786798 0 0.3525598242713861 -0.01286104011029676 0 0.3525598242713861 -0.01286104011029676 0 0.34798789329613772 -0.0072093807483384134 0 0.34351703691333529 -0.016441911751832301 0 0.3511842398881892 0.0023449734811356029 0 0.34798789329613772 -0.0072093807483384134 0 0.33665091817204978 -0.0028568235379744611 0 0.33665091817204978 -0.0028568235379744611 0 0.32991501114414301 -0.01923085803003715 0 0.32006958300034688 -0.0039555539418603229 0 0.33665091817204978 -0.0028568235379744611 0 0.34351703691333529 -0.016441911751832301 0 0.32991501114414301 -0.01923085803003715 0 0.34798789329613772 -0.0072093807483384134 0 0.33665091817204978 -0.0028568235379744611 0 0.34351703691333529 -0.016441911751832301 0 0.32991501114414301 -0.01923085803003715 0 0.32066036240605428 -0.033932398068078573 0 0.34084277107474931 -0.037690143674182323 0 0.34351703691333529 -0.016441911751832301 0 0.32991501114414301 -0.01923085803003715 0 0.34084277107474931 -0.037690143674182323 0 0.32991501114414301 -0.01923085803003715 0 0.31454170909054069 -0.0193447198848089 0 0.32066036240605428 -0.033932398068078573 0 0.32991501114414301 -0.01923085803003715 0 0.31454170909054069 -0.0193447198848089 0 0.32006958300034688 -0.0039555539418603229 0 0.3270497362964 -0.055647099110301357 0 0.32066036240605428 -0.033932398068078573 0 0.30915730089378812 -0.051630931402563002 0 0.3270497362964 -0.055647099110301357 0 0.3132567015180508 -0.073604054546420369 0 0.30915730089378812 -0.051630931402563002 0 0.3270497362964 -0.055647099110301357 0 0.32066036240605428 -0.033932398068078573 0 0.34084277107474931 -0.037690143674182323 0 0.3270497362964 -0.055647099110301357 0 0.34084277107474931 -0.037690143674182323 0 0.3270497362964 -0.055647099110301357 0 0.34084277107474931 -0.037690143674182323 0 0.34826628012747712 -0.059498443694411519 0 0.35463580585309729 -0.019733188238062381 0 0.34084277107474931 -0.037690143674182323 0 0.361619366246683 -0.042850956674325577 0 0.34084277107474931 -0.037690143674182323 0 0.34826628012747712 -0.059498443694411519 0 0.361619366246683 -0.042850956674325577 0 0.35463580585309729 -0.019733188238062381 0 0.361619366246683 -0.042850956674325577 0 0.36930839759229012 -0.029553228907550941 0 0.36146617092414579 -0.023615453118101599 0 0.361619366246683 -0.042850956674325577 0 0.37525078491369551 -0.038041508705652233 0 0.36930839759229012 -0.029553228907550941 0 0.361619366246683 -0.042850956674325577 0 0.34826628012747712 -0.059498443694411519 0 0.361619366246683 -0.042850956674325577 0 0.36860292664027122 -0.065968725110588086 0 0.37525078491369551 -0.038041508705652233 0 0.361619366246683 -0.042850956674325577 0 0.36860292664027122 -0.065968725110588086 0 0.361619366246683 -0.042850956674325577 0 0.36860292664027122 -0.065968725110588086 0 0.36860292664027122 -0.065968725110588086 0 0.37346069529248521 -0.082049458216582563 0 0.35638355587753662 -0.079235555119044412 0 0.36860292664027122 -0.065968725110588086 0 0.37346069529248521 -0.082049458216582563 0 0.36860292664027122 -0.065968725110588086 0 0.35638355587753662 -0.079235555119044412 0 0.37831846394470081 -0.09813019132257661 0 0.37346069529248521 -0.082049458216582563 0 0.36850794224712041 -0.09102139210661013 0 0.37346069529248521 -0.082049458216582563 0 0.36850794224712041 -0.09102139210661013 0 0.35638355587753662 -0.079235555119044412 0 0.36850794224712041 -0.09102139210661013 0 0.35638355587753662 -0.079235555119044412 0 0.35911232656575209 -0.094456033345271334 0 0.35638355587753662 -0.079235555119044412 0 0.3441641851148014 -0.09250238512750017 0 0.33329953426632059 -0.078283831989338415 0 0.35638355587753662 -0.079235555119044412 0 0.3441641851148014 -0.09250238512750017 0 0.35911232656575209 -0.094456033345271334 0 0.35638355587753662 -0.079235555119044412 0 0.3441641851148014 -0.09250238512750017 0 0.34826628012747712 -0.059498443694411519 0 0.35638355587753662 -0.079235555119044412 0 0.33329953426632059 -0.078283831989338415 0 0.34826628012747712 -0.059498443694411519 0 0.36860292664027122 -0.065968725110588086 0 0.35638355587753662 -0.079235555119044412 0 0.36210983418206122 -0.11740939208029651 0 0.36746293228242261 -0.12355698237555079 0 0.37166473791338872 -0.1167251080667738 0 0.36210983418206122 -0.11740939208029651 0 0.36746293228242261 -0.12355698237555079 0 0.35745480695362442 -0.13016305203082479 0 0.37690317713408772 -0.1222977117636227 0 0.36746293228242261 -0.12355698237555079 0 0.37166473791338872 -0.1167251080667738 0 0.36210983418206122 -0.11740939208029651 0 0.37166473791338872 -0.1167251080667738 0 0.36905511877313579 -0.11053119746291459 0 0.37692150664171048 -0.1111942642614612 0 0.37166473791338872 -0.1167251080667738 0 0.36905511877313579 -0.11053119746291459 0 0.36210983418206122 -0.11740939208029651 0 0.36905511877313579 -0.11053119746291459 0 0.35417423314240692 -0.1086974309336089 0 0.38060888605603882 -0.1025501378230923 0 0.35417423314240692 -0.1086974309336089 0 0.38060888605603882 -0.1025501378230923 0 0.36905511877313579 -0.11053119746291459 0 0.35417423314240692 -0.1086974309336089 0 0.38060888605603882 -0.1025501378230923 0 0.36814437039120379 -0.098971037106231841 0 0.35417423314240692 -0.1086974309336089 0 0.37831846394470081 -0.09813019132257661 0 0.36850794224712041 -0.09102139210661013 0 0.36814437039120379 -0.098971037106231841 0 0.36850794224712041 -0.09102139210661013 0 0.36814437039120379 -0.098971037106231841 0 0.35911232656575209 -0.094456033345271334 0 0.36814437039120379 -0.098971037106231841 0 0.35911232656575209 -0.094456033345271334 0 0.35417423314240692 -0.1086974309336089 0 0.3441641851148014 -0.09250238512750017 0 0.35417423314240692 -0.1086974309336089 0 0.33843470349248739 -0.10368567882431 0 0.3441641851148014 -0.09250238512750017 0 0.35911232656575209 -0.094456033345271334 0 0.35417423314240692 -0.1086974309336089 0 0.36210983418206122 -0.11740939208029651 0 0.35417423314240692 -0.1086974309336089 0 0.35391892927541668 -0.11781878038423679 0 0.35417423314240692 -0.1086974309336089 0 0.34065708727569521 -0.11654837904588269 0 0.34238340667691891 -0.11627032931393839 0 0.35417423314240692 -0.1086974309336089 0 0.35391892927541668 -0.11781878038423679 0 0.34238340667691891 -0.11627032931393839 0 0.34238340667691891 -0.11627032931393839 0 0.35745480695362442 -0.13016305203082479 0 0.35391892927541668 -0.11781878038423679 0 0.34238340667691891 -0.11627032931393839 0 0.35745480695362442 -0.13016305203082479 0 0.34238340667691891 -0.11627032931393839 0 0.35745480695362442 -0.13016305203082479 0 0.34562067203974622 -0.12583860049684939 0 0.36210983418206122 -0.11740939208029651 0 0.35391892927541668 -0.11781878038423679 0 0.35745480695362442 -0.13016305203082479 0 0.35417423314240692 -0.1086974309336089 0 0.34065708727569521 -0.11654837904588269 0 0.32773958022877492 -0.1148447240441256 0 0.35417423314240692 -0.1086974309336089 0 0.32773958022877492 -0.1148447240441256 0 0.34065708727569521 -0.11654837904588269 0 0.32773958022877492 -0.1148447240441256 0 0.33244958873092573 -0.12895594156981971 0 0.34065708727569521 -0.11654837904588269 0 0.34238340667691891 -0.11627032931393839 0 0.34562067203974622 -0.12583860049684939 0 0.3441641851148014 -0.09250238512750017 0 0.33843470349248739 -0.10368567882431 0 0.32766081548396653 -0.098698175192005244 0 0.35417423314240692 -0.1086974309336089 0 0.33843470349248739 -0.10368567882431 0 0.32773958022877492 -0.1148447240441256 0 0.33843470349248739 -0.10368567882431 0 0.32766081548396653 -0.098698175192005244 0 0.32773958022877492 -0.1148447240441256 0 0.32766081548396653 -0.098698175192005244 0 0.32773958022877492 -0.1148447240441256 0 0.31790394115621851 -0.11163882208368241 0 0.32766081548396653 -0.098698175192005244 0 0.31279177307916678 -0.10113372465461 0 0.31631546544601252 -0.088801111135685826 0 0.32766081548396653 -0.098698175192005244 0 0.31279177307916678 -0.10113372465461 0 0.31790394115621851 -0.11163882208368241 0 0.32773958022877492 -0.1148447240441256 0 0.31790394115621851 -0.11163882208368241 0 0.32235966697723062 -0.1244956984284933 0 0.31790394115621851 -0.11163882208368241 0 0.31348553918016059 -0.1222753444614357 0 0.32235966697723062 -0.1244956984284933 0 0.32773958022877492 -0.1148447240441256 0 0.32235966697723062 -0.1244956984284933 0 0.33244958873092573 -0.12895594156981971 0 0.3270497362964 -0.055647099110301357 0 0.34826628012747712 -0.059498443694411519 0 0.33329953426632059 -0.078283831989338415 0 0.3441641851148014 -0.09250238512750017 0 0.32766081548396653 -0.098698175192005244 0 0.33329953426632059 -0.078283831989338415 0 0.32766081548396653 -0.098698175192005244 0 0.33329953426632059 -0.078283831989338415 0 0.31631546544601252 -0.088801111135685826 0 0.33329953426632059 -0.078283831989338415 0 0.31631546544601252 -0.088801111135685826 0 0.3132567015180508 -0.073604054546420369 0 0.3270497362964 -0.055647099110301357 0 0.33329953426632059 -0.078283831989338415 0 0.3132567015180508 -0.073604054546420369 0 0.3270497362964 -0.055647099110301357 0 0.3132567015180508 -0.073604054546420369 0 0.3132567015180508 -0.073604054546420369 0 0.2986585628208574 -0.069574274434017785 0 0.30915730089378812 -0.051630931402563002 0 0.31631546544601252 -0.088801111135685826 0 0.3132567015180508 -0.073604054546420369 0 0.29946366673970148 -0.091561009982539437 0 0.3132567015180508 -0.073604054546420369 0 0.29946366673970148 -0.091561009982539437 0 0.3132567015180508 -0.073604054546420369 0 0.2986585628208574 -0.069574274434017785 0 0.29946366673970148 -0.091561009982539437 0 0.28518132899708881 -0.078105231606254349 0 0.29026995651824539 -0.098464347858879003 0 0.27749917073897729 -0.1014529137158349 0 0.28518132899708881 -0.078105231606254349 0 0.27749917073897729 -0.1014529137158349 0 0.29946366673970148 -0.091561009982539437 0 0.28518132899708881 -0.078105231606254349 0 0.29026995651824539 -0.098464347858879003 0 0.2986585628208574 -0.069574274434017785 0 0.29946366673970148 -0.091561009982539437 0 0.28518132899708881 -0.078105231606254349 0 0.28518132899708881 -0.078105231606254349 0 0.28016798871516257 -0.064367825235831913 0 0.29286348725520539 -0.05475754949667562 0 0.2986585628208574 -0.069574274434017785 0 0.28518132899708881 -0.078105231606254349 0 0.29286348725520539 -0.05475754949667562 0 0.28518132899708881 -0.078105231606254349 0 0.29286348725520539 -0.05475754949667562 0 0.31348553918016059 -0.1222753444614357 0 0.30132220979911373 -0.12079637543379559 0 0.31348553918016059 -0.1222753444614357 0 0.30132220979911373 -0.12079637543379559 0 0.30338627198801188 -0.1083852657214244 0 0.31790394115621851 -0.11163882208368241 0 0.31348553918016059 -0.1222753444614357 0 0.30338627198801188 -0.1083852657214244 0 0.30132220979911373 -0.12079637543379559 0 0.30338627198801188 -0.1083852657214244 0 0.28941069026904642 -0.11112464457481409 0 0.31279177307916678 -0.10113372465461 0 0.31631546544601252 -0.088801111135685826 0 0.29946366673970148 -0.091561009982539437 0 0.31279177307916678 -0.10113372465461 0 0.29946366673970148 -0.091561009982539437 0 0.30338627198801188 -0.1083852657214244 0 0.29946366673970148 -0.091561009982539437 0 0.30338627198801188 -0.1083852657214244 0 0.29026995651824539 -0.098464347858879003 0 0.31279177307916678 -0.10113372465461 0 0.31790394115621851 -0.11163882208368241 0 0.30338627198801188 -0.1083852657214244 0 0.29026995651824539 -0.098464347858879003 0 0.28941069026904642 -0.11112464457481409 0 0.27749917073897729 -0.1014529137158349 0 0.28941069026904642 -0.11112464457481409 0 0.27749917073897729 -0.1014529137158349 0 0.30338627198801188 -0.1083852657214244 0 0.29026995651824539 -0.098464347858879003 0 0.28941069026904642 -0.11112464457481409 0 0.30132220979911373 -0.12079637543379559 0 0.27229581902450262 -0.11726698544566549 0 0.30132220979911373 -0.12079637543379559 0 0.28941069026904642 -0.11112464457481409 0 0.27229581902450262 -0.11726698544566549 0 0.30132220979911373 -0.12079637543379559 0 0.27229581902450262 -0.11726698544566549 0 0.27899961788560279 -0.12582867294549421 0 0.30132220979911373 -0.12079637543379559 0 0.28941069026904642 -0.11112464457481409 0 0.27229581902450262 -0.11726698544566549 0 0.27749917073897729 -0.1014529137158349 0 0.28941069026904642 -0.11112464457481409 0 0.27229581902450262 -0.11726698544566549 0 0.27749917073897729 -0.1014529137158349 0 0.26649561327193638 -0.12100667635923371 0 0.26375614166209482 -0.12684189785870739 0 0.27071636032101187 -0.12639367660335599 0 0.26649561327193638 -0.12100667635923371 0 0.27229581902450262 -0.11726698544566549 0 0.27157045020067738 -0.1194715326759913 0 0.27229581902450262 -0.11726698544566549 0 0.27157045020067738 -0.1194715326759913 0 0.27364484127571748 -0.1225481944252807 0 0.27229581902450262 -0.11726698544566549 0 0.27157045020067738 -0.1194715326759913 0 0.26649561327193638 -0.12100667635923371 0 0.27157045020067738 -0.1194715326759913 0 0.27071636032101187 -0.12639367660335599 0 0.27157045020067738 -0.1194715326759913 0 0.27364484127571748 -0.1225481944252807 0 0.27071636032101187 -0.12639367660335599 0 0.27229581902450262 -0.11726698544566549 0 0.27364484127571748 -0.1225481944252807 0 0.27899961788560279 -0.12582867294549421 0 0.27364484127571748 -0.1225481944252807 0 0.27899961788560279 -0.12582867294549421 0 0.27071636032101187 -0.12639367660335599 0 0.27229581902450262 -0.11726698544566549 0 0.27749917073897729 -0.1014529137158349 0 0.26383541654185411 -0.10465616931522979 0 0.27749917073897729 -0.1014529137158349 0 0.26383541654185411 -0.10465616931522979 0 0.26435756066830318 -0.090782393020602106 0 0.27749917073897729 -0.1014529137158349 0 0.26435756066830318 -0.090782393020602106 0 0.25088523712609029 -0.098719265181599597 0 0.26383541654185411 -0.10465616931522979 0 0.25413929515139538 -0.1150592892124483 0 0.25088523712609029 -0.098719265181599597 0 0.26383541654185411 -0.10465616931522979 0 0.26435756066830318 -0.090782393020602106 0 0.27229581902450262 -0.11726698544566549 0 0.26383541654185411 -0.10465616931522979 0 0.25413929515139538 -0.1150592892124483 0 0.26649561327193638 -0.12100667635923371 0 0.27229581902450262 -0.11726698544566549 0 0.25413929515139538 -0.1150592892124483 0 0.27229581902450262 -0.11726698544566549 0 0.25413929515139538 -0.1150592892124483 0 0.25413929515139538 -0.1150592892124483 0 0.26375614166209482 -0.12684189785870739 0 0.2536752578795437 -0.1305515451499529 0 0.26649561327193638 -0.12100667635923371 0 0.25413929515139538 -0.1150592892124483 0 0.26375614166209482 -0.12684189785870739 0 0.28518132899708881 -0.078105231606254349 0 0.28016798871516257 -0.064367825235831913 0 0.26909093935854878 -0.070215171828802173 0 0.28518132899708881 -0.078105231606254349 0 0.26909093935854878 -0.070215171828802173 0 0.27229336497431478 -0.082562188659956084 0 0.28016798871516257 -0.064367825235831913 0 0.26909093935854878 -0.070215171828802173 0 0.27353619924980738 -0.05439334801159549 0 0.28518132899708881 -0.078105231606254349 0 0.27749917073897729 -0.1014529137158349 0 0.27229336497431478 -0.082562188659956084 0 0.27749917073897729 -0.1014529137158349 0 0.27229336497431478 -0.082562188659956084 0 0.26435756066830318 -0.090782393020602106 0 0.27229336497431478 -0.082562188659956084 0 0.26435756066830318 -0.090782393020602106 0 0.25121595059762658 -0.08011187232537241 0 0.25088523712609029 -0.098719265181599597 0 0.26435756066830318 -0.090782393020602106 0 0.25121595059762658 -0.08011187232537241 0 0.26435756066830318 -0.090782393020602106 0 0.25121595059762658 -0.08011187232537241 0 0.26909093935854878 -0.070215171828802173 0 0.25121595059762658 -0.08011187232537241 0 0.26909093935854878 -0.070215171828802173 0 0.25121595059762658 -0.08011187232537241 0 0.25384440802733849 -0.059479789847577097 0 0.26909093935854878 -0.070215171828802173 0 0.27229336497431478 -0.082562188659956084 0 0.25121595059762658 -0.08011187232537241 0 0.27353619924980738 -0.05439334801159549 0 0.25696371130683121 -0.039704838371586719 0 0.26909093935854878 -0.070215171828802173 0 0.25384440802733849 -0.059479789847577097 0 0.27353619924980738 -0.05439334801159549 0 0.25384440802733849 -0.059479789847577097 0 0.27353619924980738 -0.05439334801159549 0 0.25696371130683121 -0.039704838371586719 0 0.27353619924980738 -0.05439334801159549 0 0.27528308868181112 -0.032895348868380067 0 0.29286348725520539 -0.05475754949667562 0 0.27353619924980738 -0.05439334801159549 0 0.27528308868181112 -0.032895348868380067 0 0.25696371130683121 -0.039704838371586719 0 0.27528308868181112 -0.032895348868380067 0 0.25696371130683121 -0.039704838371586719 0 0.25726128205146648 -0.02472902709960445 0 0.25696371130683121 -0.039704838371586719 0 0.25726128205146648 -0.02472902709960445 0 0.24039122336385491 -0.025016328731577941 0 0.25726128205146648 -0.02472902709960445 0 0.26576862082992658 -0.01403504657299064 0 0.2478997660749088 -0.01199357295348687 0 0.25697511401342082 -0.00131748339547743 0 0.26576862082992658 -0.01403504657299064 0 0.2478997660749088 -0.01199357295348687 0 0.26770177198798989 0.0049541517600587117 0 0.25697511401342082 -0.00131748339547743 0 0.27499521198922261 -0.0055023354309521044 0 0.26576862082992658 -0.01403504657299064 0 0.27499521198922261 -0.0055023354309521044 0 0.28383332294298791 -0.01480824715661923 0 0.25697511401342082 -0.00131748339547743 0 0.26576862082992658 -0.01403504657299064 0 0.27499521198922261 -0.0055023354309521044 0 0.27528308868181112 -0.032895348868380067 0 0.25726128205146648 -0.02472902709960445 0 0.26576862082992658 -0.01403504657299064 0 0.27528308868181112 -0.032895348868380067 0 0.26576862082992658 -0.01403504657299064 0 0.28383332294298791 -0.01480824715661923 0 0.27528308868181112 -0.032895348868380067 0 0.28383332294298791 -0.01480824715661923 0 0.30054564551332208 -0.031409867387096772 0 0.28383332294298791 -0.01480824715661923 0 0.30151794338883681 -0.0081949219969716623 0 0.30054564551332208 -0.031409867387096772 0 0.28646043770179691 0.0034415334885622329 0 0.28383332294298791 -0.01480824715661923 0 0.30151794338883681 -0.0081949219969716623 0 0.28646043770179691 0.0034415334885622329 0 0.27499521198922261 -0.0055023354309521044 0 0.28383332294298791 -0.01480824715661923 0 0.30572016649667377 0.01072875714941081 0 0.32006958300034688 -0.0039555539418603229 0 0.30151794338883681 -0.0081949219969716623 0 0.31454170909054069 -0.0193447198848089 0 0.32006958300034688 -0.0039555539418603229 0 0.30151794338883681 -0.0081949219969716623 0 0.31454170909054069 -0.0193447198848089 0 0.30151794338883681 -0.0081949219969716623 0 0.30054564551332208 -0.031409867387096772 0 0.31454170909054069 -0.0193447198848089 0 0.32066036240605428 -0.033932398068078573 0 0.30054564551332208 -0.031409867387096772 0 0.32066036240605428 -0.033932398068078573 0 0.30054564551332208 -0.031409867387096772 0 0.30915730089378812 -0.051630931402563002 0 0.30054564551332208 -0.031409867387096772 0 0.30915730089378812 -0.051630931402563002 0 0.29286348725520539 -0.05475754949667562 0 0.2986585628208574 -0.069574274434017785 0 0.30915730089378812 -0.051630931402563002 0 0.29286348725520539 -0.05475754949667562 0 0.28016798871516257 -0.064367825235831913 0 0.27353619924980738 -0.05439334801159549 0 0.29286348725520539 -0.05475754949667562 0 0.30054564551332208 -0.031409867387096772 0 0.29286348725520539 -0.05475754949667562 0 0.27528308868181112 -0.032895348868380067 0 0.30054564551332208 -0.031409867387096772 0 0.29286348725520539 -0.05475754949667562 0 0.28962476240694079 -0.2134468598953882 0 0.29358903104036771 -0.19087803179815241 0 0.28062559600331582 -0.1964003202334772 0 0.29358903104036771 -0.19087803179815241 0 0.28062559600331582 -0.1964003202334772 0 0.28077417924946968 -0.1790897044896399 0 0.28962476240694079 -0.2134468598953882 0 0.29358903104036771 -0.19087803179815241 0 0.31008634201274771 -0.19895639803808901 0 0.29358903104036771 -0.19087803179815241 0 0.31008634201274771 -0.19895639803808901 0 0.30530534687668742 -0.1802748843298593 0 0.28962476240694079 -0.2134468598953882 0 0.31008634201274771 -0.19895639803808901 0 0.28962476240694079 -0.2134468598953882 0 0.31008634201274771 -0.19895639803808901 0 0.31239540020471351 -0.22181725365993599 0 0.31239540020471351 -0.22181725365993599 0 0.30063535053619073 -0.23125295388427991 0 0.31142496719684643 -0.24222813569118609 0 0.28962476240694079 -0.2134468598953882 0 0.31239540020471351 -0.22181725365993599 0 0.30063535053619073 -0.23125295388427991 0 0.30063535053619073 -0.23125295388427991 0 0.31142496719684643 -0.24222813569118609 0 0.2940086542031955 -0.24888242052267159 0 0.28709823578863303 -0.23691048900917511 0 0.27724512123053158 -0.25750334182104839 0 0.30063535053619073 -0.23125295388427991 0 0.28709823578863303 -0.23691048900917511 0 0.2940086542031955 -0.24888242052267159 0 0.28709823578863303 -0.23691048900917511 0 0.2940086542031955 -0.24888242052267159 0 0.27724512123053158 -0.25750334182104839 0 0.28962476240694079 -0.2134468598953882 0 0.28709823578863303 -0.23691048900917511 0 0.26916318280113383 -0.22793732175268749 0 0.28962476240694079 -0.2134468598953882 0 0.30063535053619073 -0.23125295388427991 0 0.28709823578863303 -0.23691048900917511 0 0.28962476240694079 -0.2134468598953882 0 0.26916318280113383 -0.22793732175268749 0 0.28709823578863303 -0.23691048900917511 0 0.26916318280113383 -0.22793732175268749 0 0.26268245050989442 -0.24934744598758921 0 0.28709823578863303 -0.23691048900917511 0 0.26268245050989442 -0.24934744598758921 0 0.27724512123053158 -0.25750334182104839 0 0.26916318280113383 -0.22793732175268749 0 0.2487016031953268 -0.24242778360998679 0 0.26916318280113383 -0.22793732175268749 0 0.26268245050989442 -0.24934744598758921 0 0.2487016031953268 -0.24242778360998679 0 0.26268245050989442 -0.24934744598758921 0 0.25263242868506919 -0.2575241993518359 0 0.2487016031953268 -0.24242778360998679 0 0.26916318280113383 -0.22793732175268749 0 0.2468955789815907 -0.21314817564740571 0 0.2487016031953268 -0.24242778360998679 0 0.26916318280113383 -0.22793732175268749 0 0.27104218741395703 -0.2088987664151718 0 0.2468955789815907 -0.21314817564740571 0 0.27104218741395703 -0.2088987664151718 0 0.25504538993481529 -0.1984662779270023 0 0.2468955789815907 -0.21314817564740571 0 0.28962476240694079 -0.2134468598953882 0 0.27104218741395703 -0.2088987664151718 0 0.28062559600331582 -0.1964003202334772 0 0.28962476240694079 -0.2134468598953882 0 0.26916318280113383 -0.22793732175268749 0 0.27104218741395703 -0.2088987664151718 0 0.28062559600331582 -0.1964003202334772 0 0.26809781990584403 -0.1896882385690338 0 0.28077417924946968 -0.1790897044896399 0 0.27104218741395703 -0.2088987664151718 0 0.28062559600331582 -0.1964003202334772 0 0.26809781990584403 -0.1896882385690338 0 0.27104218741395703 -0.2088987664151718 0 0.26809781990584403 -0.1896882385690338 0 0.25504538993481529 -0.1984662779270023 0 0.26809781990584403 -0.1896882385690338 0 0.25504538993481529 -0.1984662779270023 0 0.25259120948828062 -0.1836903746716112 0 0.25259120948828062 -0.1836903746716112 0 0.26684855958863629 -0.1690683127767853 0 0.2437523598962367 -0.16819249339514139 0 0.26809781990584403 -0.1896882385690338 0 0.25259120948828062 -0.1836903746716112 0 0.26684855958863629 -0.1690683127767853 0 0.26684855958863629 -0.1690683127767853 0 0.25258679472742501 -0.1513124129151564 0 0.2437523598962367 -0.16819249339514139 0 0.27136774448079909 -0.14825149732067519 0 0.28906023108205448 -0.1659514494913974 0 0.26684855958863629 -0.1690683127767853 0 0.27136774448079909 -0.14825149732067519 0 0.28906023108205448 -0.1659514494913974 0 0.26684855958863629 -0.1690683127767853 0 0.28077417924946968 -0.1790897044896399 0 0.28906023108205448 -0.1659514494913974 0 0.26809781990584403 -0.1896882385690338 0 0.26684855958863629 -0.1690683127767853 0 0.28077417924946968 -0.1790897044896399 0 0.2536752578795437 -0.1305515451499529 0 0.27136774448079909 -0.14825149732067519 0 0.26375614166209482 -0.12684189785870739 0 0.2536752578795437 -0.1305515451499529 0 0.27188446222811702 -0.1338644405348845 0 0.26684855958863629 -0.1690683127767853 0 0.25258679472742501 -0.1513124129151564 0 0.27136774448079909 -0.14825149732067519 0 0.2536752578795437 -0.1305515451499529 0 0.25258679472742501 -0.1513124129151564 0 0.27136774448079909 -0.14825149732067519 0 0.27136774448079909 -0.14825149732067519 0 0.27188446222811702 -0.1338644405348845 0 0.28763103760754899 -0.1446118633219102 0 0.2536752578795437 -0.1305515451499529 0 0.27136774448079909 -0.14825149732067519 0 0.27188446222811702 -0.1338644405348845 0 0.27188446222811702 -0.1338644405348845 0 0.27899961788560279 -0.12582867294549421 0 0.27071636032101187 -0.12639367660335599 0 0.27188446222811702 -0.1338644405348845 0 0.27899961788560279 -0.12582867294549421 0 0.28665508780811849 -0.13163024824967501 0 0.26375614166209482 -0.12684189785870739 0 0.27188446222811702 -0.1338644405348845 0 0.27071636032101187 -0.12639367660335599 0 0.30132220979911373 -0.12079637543379559 0 0.27899961788560279 -0.12582867294549421 0 0.28665508780811849 -0.13163024824967501 0 0.27188446222811702 -0.1338644405348845 0 0.28665508780811849 -0.13163024824967501 0 0.28763103760754899 -0.1446118633219102 0 0.30132220979911373 -0.12079637543379559 0 0.28665508780811849 -0.13163024824967501 0 0.29817227447607958 -0.13273200579302161 0 0.28665508780811849 -0.13163024824967501 0 0.28763103760754899 -0.1446118633219102 0 0.29817227447607958 -0.13273200579302161 0 0.28763103760754899 -0.1446118633219102 0 0.29818292902206261 -0.1553371468427685 0 0.28906023108205448 -0.1659514494913974 0 0.27136774448079909 -0.14825149732067519 0 0.28763103760754899 -0.1446118633219102 0 0.28906023108205448 -0.1659514494913974 0 0.28763103760754899 -0.1446118633219102 0 0.29818292902206261 -0.1553371468427685 0 0.29809453415561249 -0.1445162550209495 0 0.28763103760754899 -0.1446118633219102 0 0.29809453415561249 -0.1445162550209495 0 0.29817227447607958 -0.13273200579302161 0 0.29818292902206261 -0.1553371468427685 0 0.30996464082095199 -0.14499717345415769 0 0.31696211126309332 -0.15689109144613869 0 0.30996464082095199 -0.14499717345415769 0 0.29809453415561249 -0.1445162550209495 0 0.30619005451630638 -0.1356205393034409 0 0.29818292902206261 -0.1553371468427685 0 0.30996464082095199 -0.14499717345415769 0 0.29809453415561249 -0.1445162550209495 0 0.31348553918016059 -0.1222753444614357 0 0.30132220979911373 -0.12079637543379559 0 0.31708887016899789 -0.13359834375173621 0 0.30132220979911373 -0.12079637543379559 0 0.30619005451630638 -0.1356205393034409 0 0.31708887016899789 -0.13359834375173621 0 0.30132220979911373 -0.12079637543379559 0 0.31708887016899789 -0.13359834375173621 0 0.29809453415561249 -0.1445162550209495 0 0.30619005451630638 -0.1356205393034409 0 0.29817227447607958 -0.13273200579302161 0 0.30996464082095199 -0.14499717345415769 0 0.30619005451630638 -0.1356205393034409 0 0.31708887016899789 -0.13359834375173621 0 0.30132220979911373 -0.12079637543379559 0 0.30619005451630638 -0.1356205393034409 0 0.29817227447607958 -0.13273200579302161 0 0.29358903104036771 -0.19087803179815241 0 0.28077417924946968 -0.1790897044896399 0 0.29396198003812218 -0.17647368188841511 0 0.28077417924946968 -0.1790897044896399 0 0.29396198003812218 -0.17647368188841511 0 0.28906023108205448 -0.1659514494913974 0 0.29818292902206261 -0.1553371468427685 0 0.28906023108205448 -0.1659514494913974 0 0.30106869198730368 -0.1673818708225962 0 0.29396198003812218 -0.17647368188841511 0 0.28906023108205448 -0.1659514494913974 0 0.30106869198730368 -0.1673818708225962 0 0.30106869198730368 -0.1673818708225962 0 0.31696211126309332 -0.15689109144613869 0 0.29818292902206261 -0.1553371468427685 0 0.30106869198730368 -0.1673818708225962 0 0.31696211126309332 -0.15689109144613869 0 0.30106869198730368 -0.1673818708225962 0 0.31625807385923588 -0.16932359434029251 0 0.31696211126309332 -0.15689109144613869 0 0.30106869198730368 -0.1673818708225962 0 0.30530534687668742 -0.1802748843298593 0 0.31625807385923588 -0.16932359434029251 0 0.31008634201274771 -0.19895639803808901 0 0.30530534687668742 -0.1802748843298593 0 0.31977198030437348 -0.17986300100465011 0 0.29396198003812218 -0.17647368188841511 0 0.30106869198730368 -0.1673818708225962 0 0.30530534687668742 -0.1802748843298593 0 0.29358903104036771 -0.19087803179815241 0 0.29396198003812218 -0.17647368188841511 0 0.30530534687668742 -0.1802748843298593 0 0.31977198030437348 -0.17986300100465011 0 0.3311447232765472 -0.17248953036049761 0 0.33170278278812482 -0.18962851983111961 0 0.31977198030437348 -0.17986300100465011 0 0.31625807385923588 -0.16932359434029251 0 0.3311447232765472 -0.17248953036049761 0 0.30530534687668742 -0.1802748843298593 0 0.31977198030437348 -0.17986300100465011 0 0.31625807385923588 -0.16932359434029251 0 0.31625807385923588 -0.16932359434029251 0 0.31696211126309332 -0.15689109144613869 0 0.32894203945271472 -0.15983587534700611 0 0.31625807385923588 -0.16932359434029251 0 0.32894203945271472 -0.15983587534700611 0 0.3311447232765472 -0.17248953036049761 0 0.32894203945271472 -0.15983587534700611 0 0.3311447232765472 -0.17248953036049761 0 0.34277363238595437 -0.15445345855990381 0 0.3311447232765472 -0.17248953036049761 0 0.34277363238595437 -0.15445345855990381 0 0.3442083978355242 -0.1801485869964492 0 0.34277363238595437 -0.15445345855990381 0 0.3442083978355242 -0.1801485869964492 0 0.3311447232765472 -0.17248953036049761 0 0.3442083978355242 -0.1801485869964492 0 0.33170278278812482 -0.18962851983111961 0 0.31708887016899789 -0.13359834375173621 0 0.3276784116562288 -0.13422109629036269 0 0.33285553053888078 -0.14640031206967841 0 0.31708887016899789 -0.13359834375173621 0 0.33285553053888078 -0.14640031206967841 0 0.32235966697723062 -0.1244956984284933 0 0.31708887016899789 -0.13359834375173621 0 0.3276784116562288 -0.13422109629036269 0 0.32235966697723062 -0.1244956984284933 0 0.3276784116562288 -0.13422109629036269 0 0.33244958873092573 -0.12895594156981971 0 0.31348553918016059 -0.1222753444614357 0 0.32235966697723062 -0.1244956984284933 0 0.31708887016899789 -0.13359834375173621 0 0.31696211126309332 -0.15689109144613869 0 0.32894203945271472 -0.15983587534700611 0 0.33285553053888078 -0.14640031206967841 0 0.31708887016899789 -0.13359834375173621 0 0.31921778819798108 -0.1454717301804275 0 0.33285553053888078 -0.14640031206967841 0 0.31696211126309332 -0.15689109144613869 0 0.33285553053888078 -0.14640031206967841 0 0.31696211126309332 -0.15689109144613869 0 0.31921778819798108 -0.1454717301804275 0 0.33285553053888078 -0.14640031206967841 0 0.30996464082095199 -0.14499717345415769 0 0.31708887016899789 -0.13359834375173621 0 0.31921778819798108 -0.1454717301804275 0 0.30996464082095199 -0.14499717345415769 0 0.31696211126309332 -0.15689109144613869 0 0.31921778819798108 -0.1454717301804275 0 0.32894203945271472 -0.15983587534700611 0 0.34277363238595437 -0.15445345855990381 0 0.33285553053888078 -0.14640031206967841 0 0.34277363238595437 -0.15445345855990381 0 0.33285553053888078 -0.14640031206967841 0 0.34277363238595437 -0.15445345855990381 0 0.3419873872527458 -0.14037264159675139 0 0.33285553053888078 -0.14640031206967841 0 0.3419873872527458 -0.14037264159675139 0 0.33285553053888078 -0.14640031206967841 0 0.33363840186510829 -0.13765518563208659 0 0.3419873872527458 -0.14037264159675139 0 0.34277363238595437 -0.15445345855990381 0 0.33285553053888078 -0.14640031206967841 0 0.3419873872527458 -0.14037264159675139 0 0.34065708727569521 -0.11654837904588269 0 0.3419873872527458 -0.14037264159675139 0 0.34562067203974622 -0.12583860049684939 0 0.34065708727569521 -0.11654837904588269 0 0.3419873872527458 -0.14037264159675139 0 0.33244958873092573 -0.12895594156981971 0 0.34065708727569521 -0.11654837904588269 0 0.3419873872527458 -0.14037264159675139 0 0.3276784116562288 -0.13422109629036269 0 0.33285553053888078 -0.14640031206967841 0 0.33363840186510829 -0.13765518563208659 0 0.3276784116562288 -0.13422109629036269 0 0.33363840186510829 -0.13765518563208659 0 0.33244958873092573 -0.12895594156981971 0 0.33363840186510829 -0.13765518563208659 0 0.3419873872527458 -0.14037264159675139 0 0.33244958873092573 -0.12895594156981971 0 0.3419873872527458 -0.14037264159675139 0 0.35745480695362442 -0.13016305203082479 0 0.35676761944587349 -0.14696124346368331 0 0.3419873872527458 -0.14037264159675139 0 0.35745480695362442 -0.13016305203082479 0 0.34562067203974622 -0.12583860049684939 0 0.3419873872527458 -0.14037264159675139 0 0.35745480695362442 -0.13016305203082479 0 0.34277363238595437 -0.15445345855990381 0 0.3419873872527458 -0.14037264159675139 0 0.35676761944587349 -0.14696124346368331 0 0.35745480695362442 -0.13016305203082479 0 0.35676761944587349 -0.14696124346368331 0 0.37398976802662609 -0.14540487595588941 0 0.35676761944587349 -0.14696124346368331 0 0.37398976802662609 -0.14540487595588941 0 0.36160452928663328 -0.1697434781243147 0 0.35745480695362442 -0.13016305203082479 0 0.37398976802662609 -0.14540487595588941 0 0.3775753466606227 -0.13185955422043091 0 0.36746293228242261 -0.12355698237555079 0 0.35745480695362442 -0.13016305203082479 0 0.3775753466606227 -0.13185955422043091 0 0.35745480695362442 -0.13016305203082479 0 0.37398976802662609 -0.14540487595588941 0 0.37690317713408772 -0.1222977117636227 0 0.36746293228242261 -0.12355698237555079 0 0.3775753466606227 -0.13185955422043091 0 0.36746293228242261 -0.12355698237555079 0 0.35745480695362442 -0.13016305203082479 0 0.3442083978355242 -0.1801485869964492 0 0.36155089002841378 -0.18420731622823669 0 0.3548679355285046 -0.1933757727374894 0 0.3442083978355242 -0.1801485869964492 0 0.36160452928663328 -0.1697434781243147 0 0.36155089002841378 -0.18420731622823669 0 0.34277363238595437 -0.15445345855990381 0 0.35676761944587349 -0.14696124346368331 0 0.36160452928663328 -0.1697434781243147 0 0.34277363238595437 -0.15445345855990381 0 0.3442083978355242 -0.1801485869964492 0 0.36160452928663328 -0.1697434781243147 0 0.34277363238595437 -0.15445345855990381 0 0.36160452928663328 -0.1697434781243147 0 0.36160452928663328 -0.1697434781243147 0 0.36155089002841378 -0.18420731622823669 0 0.38043542618731307 -0.18503349768872451 0 0.36160452928663328 -0.1697434781243147 0 0.38043542618731307 -0.18503349768872451 0 0.36155089002841378 -0.18420731622823669 0 0.36615122676013512 -0.19552293070318891 0 0.38043542618731307 -0.18503349768872451 0 0.36615122676013512 -0.19552293070318891 0 0.3651471435695145 -0.2071574742542992 0 0.37967264823571367 -0.20490341219650671 0 0.36615122676013512 -0.19552293070318891 0 0.3651471435695145 -0.2071574742542992 0 0.35654253246137713 -0.20255015688106889 0 0.36155089002841378 -0.18420731622823669 0 0.36615122676013512 -0.19552293070318891 0 0.3548679355285046 -0.1933757727374894 0 0.3520495150724926 -0.2126983621002394 0 0.3713197953178542 -0.22011250939049201 0 0.3651471435695145 -0.2071574742542992 0 0.3520495150724926 -0.2126983621002394 0 0.3713197953178542 -0.22011250939049201 0 0.3651471435695145 -0.2071574742542992 0 0.3713197953178542 -0.22011250939049201 0 0.37967264823571367 -0.20490341219650671 0 0.3651471435695145 -0.2071574742542992 0 0.3520495150724926 -0.2126983621002394 0 0.35654253246137713 -0.20255015688106889 0 0.3520495150724926 -0.2126983621002394 0 0.34564316328509309 -0.20584371543299471 0 0.35654253246137713 -0.20255015688106889 0 0.3520495150724926 -0.2126983621002394 0 0.34240833053443681 -0.2155447499677495 0 0.34806367058790982 -0.22399364904937261 0 0.3442083978355242 -0.1801485869964492 0 0.34564316328509309 -0.20584371543299471 0 0.3548679355285046 -0.1933757727374894 0 0.3442083978355242 -0.1801485869964492 0 0.34564316328509309 -0.20584371543299471 0 0.34564316328509309 -0.20584371543299471 0 0.3548679355285046 -0.1933757727374894 0 0.35654253246137713 -0.20255015688106889 0 0.36615122676013512 -0.19552293070318891 0 0.3548679355285046 -0.1933757727374894 0 0.35654253246137713 -0.20255015688106889 0 0.3442083978355242 -0.1801485869964492 0 0.34564316328509309 -0.20584371543299471 0 0.33170278278812482 -0.18962851983111961 0 0.34564316328509309 -0.20584371543299471 0 0.33170278278812482 -0.18962851983111961 0 0.33277923482713101 -0.20528421480998679 0 0.3520495150724926 -0.2126983621002394 0 0.34564316328509309 -0.20584371543299471 0 0.33277923482713101 -0.20528421480998679 0 0.3520495150724926 -0.2126983621002394 0 0.34240833053443681 -0.2155447499677495 0 0.33277923482713101 -0.20528421480998679 0 0.3520495150724926 -0.2126983621002394 0 0.33277923482713101 -0.20528421480998679 0 0.34240833053443681 -0.2155447499677495 0 0.33277923482713101 -0.20528421480998679 0 0.33674090165021392 -0.220202773911399 0 0.33277923482713101 -0.20528421480998679 0 0.32391095272644838 -0.21472883072907009 0 0.33674090165021392 -0.220202773911399 0 0.31008634201274771 -0.19895639803808901 0 0.31239540020471351 -0.22181725365993599 0 0.32391095272644838 -0.21472883072907009 0 0.31008634201274771 -0.19895639803808901 0 0.33277923482713101 -0.20528421480998679 0 0.32391095272644838 -0.21472883072907009 0 0.31008634201274771 -0.19895639803808901 0 0.33170278278812482 -0.18962851983111961 0 0.33277923482713101 -0.20528421480998679 0 0.31008634201274771 -0.19895639803808901 0 0.31977198030437348 -0.17986300100465011 0 0.33170278278812482 -0.18962851983111961 0 0.31142496719684643 -0.24222813569118609 0 0.33042557080642287 -0.24315064574926751 0 0.31853563878910368 -0.25774835206947638 0 0.31142496719684643 -0.24222813569118609 0 0.3258475405736137 -0.22913391672037919 0 0.33042557080642287 -0.24315064574926751 0 0.31239540020471351 -0.22181725365993599 0 0.31142496719684643 -0.24222813569118609 0 0.3258475405736137 -0.22913391672037919 0 0.31239540020471351 -0.22181725365993599 0 0.32391095272644838 -0.21472883072907009 0 0.3258475405736137 -0.22913391672037919 0 0.3258475405736137 -0.22913391672037919 0 0.33674090165021392 -0.220202773911399 0 0.34018745085703739 -0.2326758605814169 0 0.32391095272644838 -0.21472883072907009 0 0.3258475405736137 -0.22913391672037919 0 0.33674090165021392 -0.220202773911399 0 0.33674090165021392 -0.220202773911399 0 0.34018745085703739 -0.2326758605814169 0 0.34806367058790982 -0.22399364904937261 0 0.34240833053443681 -0.2155447499677495 0 0.33674090165021392 -0.220202773911399 0 0.34806367058790982 -0.22399364904937261 0 0.34018745085703739 -0.2326758605814169 0 0.33042557080642287 -0.24315064574926751 0 0.34336738700494301 -0.24456987520111051 0 0.3258475405736137 -0.22913391672037919 0 0.34018745085703739 -0.2326758605814169 0 0.33042557080642287 -0.24315064574926751 0 0.33042557080642287 -0.24315064574926751 0 0.34336738700494301 -0.24456987520111051 0 0.33735714006296069 -0.25666736057948658 0 0.34336738700494301 -0.24456987520111051 0 0.35326694512129192 -0.236979453662575 0 0.35559982817700192 -0.25337605543280639 0 0.35326694512129192 -0.236979453662575 0 0.3679425094737202 -0.24269626993342461 0 0.35559982817700192 -0.25337605543280639 0 0.34018745085703739 -0.2326758605814169 0 0.34336738700494301 -0.24456987520111051 0 0.35326694512129192 -0.236979453662575 0 0.34018745085703739 -0.2326758605814169 0 0.35326694512129192 -0.236979453662575 0 0.34806367058790982 -0.22399364904937261 0 0.35326694512129192 -0.236979453662575 0 0.34806367058790982 -0.22399364904937261 0 0.36159963987810229 -0.22815663986162471 0 0.3520495150724926 -0.2126983621002394 0 0.34806367058790982 -0.22399364904937261 0 0.36159963987810229 -0.22815663986162471 0 0.3520495150724926 -0.2126983621002394 0 0.36159963987810229 -0.22815663986162471 0 0.3713197953178542 -0.22011250939049201 0 0.36159963987810229 -0.22815663986162471 0 0.3713197953178542 -0.22011250939049201 0 0.37695540369534541 -0.23245959503364441 0 0.35326694512129192 -0.236979453662575 0 0.36159963987810229 -0.22815663986162471 0 0.3679425094737202 -0.24269626993342461 0 0.36159963987810229 -0.22815663986162471 0 0.3679425094737202 -0.24269626993342461 0 0.37695540369534541 -0.23245959503364441 0 0.3679425094737202 -0.24269626993342461 0 0.38524374560404362 -0.24428931345025909 0 0.37370526739500132 -0.25695533472129339 0 0.3679425094737202 -0.24269626993342461 0 0.38524374560404362 -0.24428931345025909 0 0.37695540369534541 -0.23245959503364441 0 0.38524374560404362 -0.24428931345025909 0 0.39059007556321579 -0.2275266566807447 0 0.37695540369534541 -0.23245959503364441 0 0.38524374560404362 -0.24428931345025909 0 0.39059007556321579 -0.2275266566807447 0 0.38524374560404362 -0.24428931345025909 0 0.40482471362102651 -0.23300336495069551 0 0.39059007556321579 -0.2275266566807447 0 0.38524374560404362 -0.24428931345025909 0 0.40432710488521362 -0.24824992017021499 0 0.40482471362102651 -0.23300336495069551 0 0.40482471362102651 -0.23300336495069551 0 0.39059007556321579 -0.2275266566807447 0 0.4029475596913647 -0.21664517753736909 0 0.40482471362102651 -0.23300336495069551 0 0.39059007556321579 -0.2275266566807447 0 0.3713197953178542 -0.22011250939049201 0 0.39059007556321579 -0.2275266566807447 0 0.3713197953178542 -0.22011250939049201 0 0.39059007556321579 -0.2275266566807447 0 0.37695540369534541 -0.23245959503364441 0 0.39059007556321579 -0.2275266566807447 0 0.37967264823571367 -0.20490341219650671 0 0.3992663230879947 -0.20032351725313211 0 0.3713197953178542 -0.22011250939049201 0 0.39059007556321579 -0.2275266566807447 0 0.37967264823571367 -0.20490341219650671 0 0.37967264823571367 -0.20490341219650671 0 0.3992663230879947 -0.20032351725313211 0 0.38043542618731307 -0.18503349768872451 0 0.3992663230879947 -0.20032351725313211 0 0.38043542618731307 -0.18503349768872451 0 0.36615122676013512 -0.19552293070318891 0 0.37967264823571367 -0.20490341219650671 0 0.38043542618731307 -0.18503349768872451 0 0.3992663230879947 -0.20032351725313211 0 0.40705969017262972 -0.17588852380601791 0 0.39059007556321579 -0.2275266566807447 0 0.3992663230879947 -0.20032351725313211 0 0.39059007556321579 -0.2275266566807447 0 0.3992663230879947 -0.20032351725313211 0 0.4029475596913647 -0.21664517753736909 0 0.3992663230879947 -0.20032351725313211 0 0.41941305847039528 -0.216681950936917 0 0.42632113792154841 -0.19364360613338019 0 0.3992663230879947 -0.20032351725313211 0 0.41941305847039528 -0.216681950936917 0 0.3992663230879947 -0.20032351725313211 0 0.4029475596913647 -0.21664517753736909 0 0.41941305847039528 -0.216681950936917 0 0.3992663230879947 -0.20032351725313211 0 0.42632113792154841 -0.19364360613338019 0 0.40705969017262972 -0.17588852380601791 0 0.42632113792154841 -0.19364360613338019 0 0.44558258567046782 -0.21139868846074181 0 0.41941305847039528 -0.216681950936917 0 0.42632113792154841 -0.19364360613338019 0 0.44558258567046782 -0.21139868846074181 0 0.41941305847039528 -0.216681950936917 0 0.43955979385279792 -0.2330403846206999 0 0.41941305847039528 -0.216681950936917 0 0.43955979385279792 -0.2330403846206999 0 0.44558258567046782 -0.21139868846074181 0 0.41941305847039528 -0.216681950936917 0 0.41905935167883712 -0.2384800732206464 0 0.43955979385279792 -0.2330403846206999 0 0.41905935167883712 -0.2384800732206464 0 0.4194226021379755 -0.25620125026357371 0 0.43525063582752987 -0.25156675733937423 0 0.41905935167883712 -0.2384800732206464 0 0.43955979385279792 -0.2330403846206999 0 0.43525063582752987 -0.25156675733937423 0 0.40432710488521362 -0.24824992017021499 0 0.41905935167883712 -0.2384800732206464 0 0.4194226021379755 -0.25620125026357371 0 0.40432710488521362 -0.24824992017021499 0 0.40482471362102651 -0.23300336495069551 0 0.41905935167883712 -0.2384800732206464 0 0.40482471362102651 -0.23300336495069551 0 0.41905935167883712 -0.2384800732206464 0 0.40482471362102651 -0.23300336495069551 0 0.4029475596913647 -0.21664517753736909 0 0.41941305847039528 -0.216681950936917 0 0.40482471362102651 -0.23300336495069551 0 0.41941305847039528 -0.216681950936917 0 0.41905935167883712 -0.2384800732206464 0 0.38932768749318558 -0.14525872063070469 0 0.41095195339919349 -0.12724159292887649 0 0.39639467592149358 -0.1284483734250037 0 0.38825103715550802 -0.1315614371765588 0 0.38932768749318558 -0.14525872063070469 0 0.39639467592149358 -0.1284483734250037 0 0.38932768749318558 -0.14525872063070469 0 0.41095195339919349 -0.12724159292887649 0 0.38763710598076351 -0.1211819530494572 0 0.39639467592149358 -0.1284483734250037 0 0.38825103715550802 -0.1315614371765588 0 0.38763710598076351 -0.1211819530494572 0 0.38825103715550802 -0.1315614371765588 0 0.3775753466606227 -0.13185955422043091 0 0.37690317713408772 -0.1222977117636227 0 0.38763710598076351 -0.1211819530494572 0 0.3775753466606227 -0.13185955422043091 0 0.38825103715550802 -0.1315614371765588 0 0.3775753466606227 -0.13185955422043091 0 0.38932768749318558 -0.14525872063070469 0 0.37398976802662609 -0.14540487595588941 0 0.38932768749318558 -0.14525872063070469 0 0.39052472909962749 -0.16064669988095401 0 0.37398976802662609 -0.14540487595588941 0 0.39052472909962749 -0.16064669988095401 0 0.37398976802662609 -0.14540487595588941 0 0.3775753466606227 -0.13185955422043091 0 0.38932768749318558 -0.14525872063070469 0 0.38932768749318558 -0.14525872063070469 0 0.40234804146405417 -0.15198640721576601 0 0.41095195339919349 -0.12724159292887649 0 0.38932768749318558 -0.14525872063070469 0 0.40234804146405417 -0.15198640721576601 0 0.39052472909962749 -0.16064669988095401 0 0.40234804146405417 -0.15198640721576601 0 0.39052472909962749 -0.16064669988095401 0 0.40705969017262972 -0.17588852380601791 0 0.39052472909962749 -0.16064669988095401 0 0.40705969017262972 -0.17588852380601791 0 0.37398976802662609 -0.14540487595588941 0 0.36160452928663328 -0.1697434781243147 0 0.39052472909962749 -0.16064669988095401 0 0.36160452928663328 -0.1697434781243147 0 0.39052472909962749 -0.16064669988095401 0 0.38043542618731307 -0.18503349768872451 0 0.39052472909962749 -0.16064669988095401 0 0.38043542618731307 -0.18503349768872451 0 0.40705969017262972 -0.17588852380601791 0 0.3992663230879947 -0.20032351725313211 0 0.38043542618731307 -0.18503349768872451 0 0.40705969017262972 -0.17588852380601791 0 0.42632113792154841 -0.19364360613338019 0 0.40705969017262972 -0.17588852380601791 0 0.42632113792154841 -0.19364360613338019 0 0.40705969017262972 -0.17588852380601791 0 0.42445985093351718 -0.16737745842564669 0 0.42632113792154841 -0.19364360613338019 0 0.42445985093351718 -0.16737745842564669 0 0.43983605296360739 -0.17267812073442421 0 0.42632113792154841 -0.19364360613338019 0 0.43983605296360739 -0.17267812073442421 0 0.44359441925494553 -0.1899396459288924 0 0.42445985093351718 -0.16737745842564669 0 0.43961466575996161 -0.15618427435628651 0 0.43983605296360739 -0.17267812073442421 0 0.42445985093351718 -0.16737745842564669 0 0.42637023748639918 -0.1516810656994505 0 0.43961466575996161 -0.15618427435628651 0 0.40705969017262972 -0.17588852380601791 0 0.41620512066198589 -0.1472143279607904 0 0.40705969017262972 -0.17588852380601791 0 0.42445985093351718 -0.16737745842564669 0 0.41620512066198589 -0.1472143279607904 0 0.40234804146405417 -0.15198640721576601 0 0.40705969017262972 -0.17588852380601791 0 0.41620512066198589 -0.1472143279607904 0 0.40234804146405417 -0.15198640721576601 0 0.41620512066198589 -0.1472143279607904 0 0.41095195339919349 -0.12724159292887649 0 0.42637023748639918 -0.1516810656994505 0 0.42947322839580138 -0.13045276546324991 0 0.42637023748639918 -0.1516810656994505 0 0.43695120740492599 -0.14263883695726209 0 0.42947322839580138 -0.13045276546324991 0 0.41620512066198589 -0.1472143279607904 0 0.42637023748639918 -0.1516810656994505 0 0.42947322839580138 -0.13045276546324991 0 0.42445985093351718 -0.16737745842564669 0 0.41620512066198589 -0.1472143279607904 0 0.42637023748639918 -0.1516810656994505 0 0.42637023748639918 -0.1516810656994505 0 0.43695120740492599 -0.14263883695726209 0 0.43961466575996161 -0.15618427435628651 0 0.42535055115134007 -0.11854013211556209 0 0.41620512066198589 -0.1472143279607904 0 0.42947322839580138 -0.13045276546324991 0 0.43695120740492599 -0.14263883695726209 0 0.42947322839580138 -0.13045276546324991 0 0.44084139809499279 -0.13264631133583021 0 0.44159002387344187 -0.1213829702657743 0 0.42947322839580138 -0.13045276546324991 0 0.44084139809499279 -0.13264631133583021 0 0.42535055115134007 -0.11854013211556209 0 0.41620512066198589 -0.1472143279607904 0 0.41095195339919349 -0.12724159292887649 0 0.42535055115134007 -0.11854013211556209 0 0.41620512066198589 -0.1472143279607904 0 0.46297207685201558 -0.14047645694181229 0 0.45197104021009732 -0.1297866206243361 0 0.44863832780523111 -0.1432986883781884 0 0.46441013443710838 -0.1249183798069777 0 0.46297207685201558 -0.14047645694181229 0 0.45197104021009732 -0.1297866206243361 0 0.44159002387344187 -0.1213829702657743 0 0.45197104021009732 -0.1297866206243361 0 0.44084139809499279 -0.13264631133583021 0 0.43695120740492599 -0.14263883695726209 0 0.44084139809499279 -0.13264631133583021 0 0.44863832780523111 -0.1432986883781884 0 0.45197104021009732 -0.1297866206243361 0 0.44084139809499279 -0.13264631133583021 0 0.44863832780523111 -0.1432986883781884 0 0.44863832780523111 -0.1432986883781884 0 0.43961466575996161 -0.15618427435628651 0 0.46066595045601327 -0.16126644344741911 0 0.43695120740492599 -0.14263883695726209 0 0.44863832780523111 -0.1432986883781884 0 0.43961466575996161 -0.15618427435628651 0 0.46297207685201558 -0.14047645694181229 0 0.46066595045601327 -0.16126644344741911 0 0.47907434228402368 -0.1443185734870796 0 0.46297207685201558 -0.14047645694181229 0 0.44863832780523111 -0.1432986883781884 0 0.46066595045601327 -0.16126644344741911 0 0.43961466575996161 -0.15618427435628651 0 0.46066595045601327 -0.16126644344741911 0 0.43983605296360739 -0.17267812073442421 0 0.43983605296360739 -0.17267812073442421 0 0.44359441925494553 -0.1899396459288924 0 0.46124830433411079 -0.18928702748695769 0 0.46066595045601327 -0.16126644344741911 0 0.43983605296360739 -0.17267812073442421 0 0.46124830433411079 -0.18928702748695769 0 0.46066595045601327 -0.16126644344741911 0 0.48056843563063878 -0.1752922273120483 0 0.46124830433411079 -0.18928702748695769 0 0.48056843563063878 -0.1752922273120483 0 0.5 -0.15953693186646081 0 0.4999999999999965 -0.18851166812688211 0 0.48056843563063878 -0.1752922273120483 0 0.5 -0.15953693186646081 0 0.47907434228402368 -0.1443185734870796 0 0.46066595045601327 -0.16126644344741911 0 0.48056843563063878 -0.1752922273120483 0 0.47907434228402368 -0.1443185734870796 0 0.5 -0.15953693186646081 0 0.47907434228402368 -0.1443185734870796 0 0.5 -0.13056219560603949 0 0.47866475737878661 -0.119913460570227 0 0.47907434228402368 -0.1443185734870796 0 0.5 -0.13056219560603949 0 0.47866475737878661 -0.119913460570227 0 0.46441013443710838 -0.1249183798069777 0 0.47907434228402368 -0.1443185734870796 0 0.46441013443710838 -0.1249183798069777 0 0.46297207685201558 -0.14047645694181229 0 0.47907434228402368 -0.1443185734870796 0 0.46484403341938718 -0.22915377078810339 0 0.44558258567046782 -0.21139868846074181 0 0.46484403341938718 -0.22915377078810339 0 0.45062813877201841 -0.22924668237659751 0 0.44558258567046782 -0.21139868846074181 0 0.46484403341938718 -0.22915377078810339 0 0.45244064693917058 -0.24349917990462591 0 0.45062813877201841 -0.22924668237659751 0 0.46484403341938718 -0.22915377078810339 0 0.46670221866604461 -0.23580096895239341 0 0.47015426925884929 -0.2329310206391951 0 0.46670221866604461 -0.23580096895239341 0 0.46225831965791542 -0.24037965767077829 0 0.47088079272060901 -0.2459499529473389 0 0.46484403341938718 -0.22915377078810339 0 0.46670221866604461 -0.23580096895239341 0 0.46225831965791542 -0.24037965767077829 0 0.46225831965791542 -0.24037965767077829 0 0.45970652923520039 -0.24939881830448271 0 0.47088079272060901 -0.2459499529473389 0 0.46225831965791542 -0.24037965767077829 0 0.45970652923520039 -0.24939881830448271 0 0.45244064693917058 -0.24349917990462591 0 0.45970652923520039 -0.24939881830448271 0 0.45244064693917058 -0.24349917990462591 0 0.46484403341938718 -0.22915377078810339 0 0.45244064693917058 -0.24349917990462591 0 0.46484403341938718 -0.22915377078810339 0 0.46225831965791542 -0.24037965767077829 0 0.45244064693917058 -0.24349917990462591 0 0.45244064693917058 -0.24349917990462591 0 0.43955979385279792 -0.2330403846206999 0 0.43525063582752987 -0.25156675733937423 0 0.45244064693917058 -0.24349917990462591 0 0.43955979385279792 -0.2330403846206999 0 0.45062813877201841 -0.22924668237659751 0 0.45970652923520039 -0.24939881830448271 0 0.45244064693917058 -0.24349917990462591 0 0.43525063582752987 -0.25156675733937423 0 0.45244064693917058 -0.24349917990462591 0 0.43955979385279792 -0.2330403846206999 0 0.43955979385279792 -0.2330403846206999 0 0.45062813877201841 -0.22924668237659751 0 0.44558258567046782 -0.21139868846074181 0 0.42632113792154841 -0.19364360613338019 0 0.44558258567046782 -0.21139868846074181 0 0.44359441925494553 -0.1899396459288924 0 0.44558258567046782 -0.21139868846074181 0 0.44359441925494553 -0.1899396459288924 0 0.46383581727534412 -0.2077255064593547 0 0.44359441925494553 -0.1899396459288924 0 0.46124830433411079 -0.18928702748695769 0 0.46383581727534412 -0.2077255064593547 0 0.46484403341938718 -0.22915377078810339 0 0.44558258567046782 -0.21139868846074181 0 0.46383581727534412 -0.2077255064593547 0 0.48056843563063878 -0.1752922273120483 0 0.46124830433411079 -0.18928702748695769 0 0.48242201670969093 -0.2088327194574921 0 0.46484403341938718 -0.22915377078810339 0 0.46383581727534412 -0.2077255064593547 0 0.48242201670969093 -0.2088327194574921 0 0.48056843563063878 -0.1752922273120483 0 0.48242201670969093 -0.2088327194574921 0 0.4999999999999965 -0.18851166812688211 0 0.46124830433411079 -0.18928702748695769 0 0.46383581727534412 -0.2077255064593547 0 0.48242201670969093 -0.2088327194574921 0 0.48242201670969093 -0.2088327194574921 0 0.4999999999999965 -0.18851166812688211 0 0.48242201670969093 -0.2088327194574921 0 0.4999999999999965 -0.18851166812688211 0 0.5 -0.21191267251317419 0 0.48242201670969093 -0.2088327194574921 0 0.5 -0.21191267251317419 0 0.48765231993410207 -0.22419124917821931 0 0.5 -0.21191267251317419 0 0.48765231993410207 -0.22419124917821931 0 0.5 -0.23531367689946639 0 0.48765231993410207 -0.22419124917821931 0 0.4838912318768045 -0.23442185659741169 0 0.5 -0.23531367689946639 0 0.46484403341938718 -0.22915377078810339 0 0.48242201670969093 -0.2088327194574921 0 0.46484403341938718 -0.22915377078810339 0 0.48242201670969093 -0.2088327194574921 0 0.4750394153030294 -0.22824133614125941 0 0.48242201670969093 -0.2088327194574921 0 0.48765231993410207 -0.22419124917821931 0 0.4750394153030294 -0.22824133614125941 0 0.48765231993410207 -0.22419124917821931 0 0.4750394153030294 -0.22824133614125941 0 0.4838912318768045 -0.23442185659741169 0 0.4750394153030294 -0.22824133614125941 0 0.47321180225993009 -0.23777249770071959 0 0.4838912318768045 -0.23442185659741169 0 0.46484403341938718 -0.22915377078810339 0 0.4750394153030294 -0.22824133614125941 0 0.47015426925884929 -0.2329310206391951 0 0.4750394153030294 -0.22824133614125941 0 0.47015426925884929 -0.2329310206391951 0 0.47321180225993009 -0.23777249770071959 0 0.47088079272060901 -0.2459499529473389 0 0.47321180225993009 -0.23777249770071959 0 0.48355262188696091 -0.24659052306739379 0 0.46670221866604461 -0.23580096895239341 0 0.47088079272060901 -0.2459499529473389 0 0.47321180225993009 -0.23777249770071959 0 0.46670221866604461 -0.23580096895239341 0 0.47015426925884929 -0.2329310206391951 0 0.47321180225993009 -0.23777249770071959 0 0.47321180225993009 -0.23777249770071959 0 0.4838912318768045 -0.23442185659741169 0 0.48355262188696091 -0.24659052306739379 0 0.4838912318768045 -0.23442185659741169 0 0.48355262188696091 -0.24659052306739379 0 0.5 -0.23531367689946639 0 0.48355262188696091 -0.24659052306739379 0 0.5 -0.23531367689946639 0 0.5 -0.25871468128575842 0 0.48355262188696091 -0.24659052306739379 0 0.5 -0.25871468128575842 0 0.47985326461760303 -0.26575725198826561 0 0.47985326461760303 -0.26575725198826561 0 0.500000000000004 -0.28211568567205042 0 0.5 -0.25871468128575842 0 0.47985326461760303 -0.26575725198826561 0 0.500000000000004 -0.28211568567205042 0 0.47985326461760303 -0.26575725198826561 0 0.47746518501633373 -0.29482445222130538 0 0.500000000000004 -0.28211568567205042 0 0.47985326461760303 -0.26575725198826561 0 0.45710434692920132 -0.27853391768334612 0 0.47746518501633373 -0.29482445222130538 0 0.47088079272060901 -0.2459499529473389 0 0.48355262188696091 -0.24659052306739379 0 0.47985326461760303 -0.26575725198826561 0 0.45970652923520039 -0.24939881830448271 0 0.47088079272060901 -0.2459499529473389 0 0.47985326461760303 -0.26575725198826561 0 0.45970652923520039 -0.24939881830448271 0 0.47985326461760303 -0.26575725198826561 0 0.45970652923520039 -0.24939881830448271 0 0.47985326461760303 -0.26575725198826561 0 0.45710434692920132 -0.27853391768334612 0 0.45970652923520039 -0.24939881830448271 0 0.45710434692920132 -0.27853391768334612 0 0.44697066495878413 -0.26258602852217772 0 0.45710434692920132 -0.27853391768334612 0 0.44697066495878413 -0.26258602852217772 0 0.4342069528447306 -0.27012596966592151 0 0.45710434692920132 -0.27853391768334612 0 0.4342069528447306 -0.27012596966592151 0 0.43424028155945449 -0.29098529834933612 0 0.45970652923520039 -0.24939881830448271 0 0.44697066495878413 -0.26258602852217772 0 0.43525063582752987 -0.25156675733937423 0 0.44697066495878413 -0.26258602852217772 0 0.43525063582752987 -0.25156675733937423 0 0.4342069528447306 -0.27012596966592151 0 0.45425353511113808 -0.30446901579874752 0 0.43424028155945449 -0.29098529834933612 0 0.42999115297691659 -0.31221924472473728 0 0.45710434692920132 -0.27853391768334612 0 0.45425353511113808 -0.30446901579874752 0 0.43424028155945449 -0.29098529834933612 0 0.45710434692920132 -0.27853391768334612 0 0.45425353511113808 -0.30446901579874752 0 0.47746518501633373 -0.29482445222130538 0 0.45425353511113808 -0.30446901579874752 0 0.47746518501633373 -0.29482445222130538 0 0.47357996344005471 -0.32382001522219778 0 0.47746518501633373 -0.29482445222130538 0 0.5 -0.31425082696322731 0 0.47357996344005471 -0.32382001522219778 0 0.47746518501633373 -0.29482445222130538 0 0.500000000000004 -0.28211568567205042 0 0.5 -0.31425082696322731 0 0.5 -0.31425082696322731 0 0.48236366796469238 -0.3431351943057781 0 0.47357996344005471 -0.32382001522219778 0 0.5 -0.31425082696322731 0 0.48236366796469238 -0.3431351943057781 0 0.5 -0.35814521541417887 0 0.48236366796469238 -0.3431351943057781 0 0.47357996344005471 -0.32382001522219778 0 0.46592770491830149 -0.35135969968358932 0 0.5 -0.35814521541417887 0 0.47231067146510619 -0.36810021424569761 0 0.47756373257846541 -0.39682819980628109 0 0.48236366796469238 -0.3431351943057781 0 0.5 -0.35814521541417887 0 0.47231067146510619 -0.36810021424569761 0 0.48236366796469238 -0.3431351943057781 0 0.47231067146510619 -0.36810021424569761 0 0.46592770491830149 -0.35135969968358932 0 0.46592770491830149 -0.35135969968358932 0 0.45000923999056419 -0.36796204441545199 0 0.47231067146510619 -0.36810021424569761 0 0.46592770491830149 -0.35135969968358932 0 0.45000923999056419 -0.36796204441545199 0 0.45000923999056419 -0.36796204441545199 0 0.44290617837391372 -0.34333122351702039 0 0.43684942113035458 -0.35811790603038479 0 0.46592770491830149 -0.35135969968358932 0 0.45000923999056419 -0.36796204441545199 0 0.44290617837391372 -0.34333122351702039 0 0.45000923999056419 -0.36796204441545199 0 0.43031640878717692 -0.3685479064212559 0 0.43409077506282701 -0.38456438914731461 0 0.45000923999056419 -0.36796204441545199 0 0.43031640878717692 -0.3685479064212559 0 0.43684942113035458 -0.35811790603038479 0 0.45425353511113808 -0.30446901579874752 0 0.47357996344005471 -0.32382001522219778 0 0.45208886578080959 -0.32596591698931698 0 0.47357996344005471 -0.32382001522219778 0 0.46592770491830149 -0.35135969968358932 0 0.45208886578080959 -0.32596591698931698 0 0.46592770491830149 -0.35135969968358932 0 0.44290617837391372 -0.34333122351702039 0 0.45208886578080959 -0.32596591698931698 0 0.44290617837391372 -0.34333122351702039 0 0.45208886578080959 -0.32596591698931698 0 0.43537445384396029 -0.32858269157712622 0 0.45208886578080959 -0.32596591698931698 0 0.43537445384396029 -0.32858269157712622 0 0.42999115297691659 -0.31221924472473728 0 0.45425353511113808 -0.30446901579874752 0 0.45208886578080959 -0.32596591698931698 0 0.42999115297691659 -0.31221924472473728 0 0.43537445384396029 -0.32858269157712622 0 0.41979649173798239 -0.33556015553506419 0 0.42999115297691659 -0.31221924472473728 0 0.44290617837391372 -0.34333122351702039 0 0.43537445384396029 -0.32858269157712622 0 0.41979649173798239 -0.33556015553506419 0 0.41979649173798239 -0.33556015553506419 0 0.40588002759030251 -0.32030274256601021 0 0.40350512412404788 -0.33649187772235989 0 0.41979649173798239 -0.33556015553506419 0 0.40742431786960148 -0.34902519329093279 0 0.40350512412404788 -0.33649187772235989 0 0.41979649173798239 -0.33556015553506419 0 0.40588002759030251 -0.32030274256601021 0 0.42999115297691659 -0.31221924472473728 0 0.43031640878717692 -0.3685479064212559 0 0.41765003651554933 -0.36703694136242848 0 0.4200038076190386 -0.37933119148023858 0 0.43031640878717692 -0.3685479064212559 0 0.42332864873551412 -0.35505094888734429 0 0.43684942113035458 -0.35811790603038479 0 0.43031640878717692 -0.3685479064212559 0 0.42332864873551412 -0.35505094888734429 0 0.41765003651554933 -0.36703694136242848 0 0.44290617837391372 -0.34333122351702039 0 0.41979649173798239 -0.33556015553506419 0 0.42332864873551412 -0.35505094888734429 0 0.44290617837391372 -0.34333122351702039 0 0.42332864873551412 -0.35505094888734429 0 0.43684942113035458 -0.35811790603038479 0 0.42332864873551412 -0.35505094888734429 0 0.40742431786960148 -0.34902519329093279 0 0.40990017249845617 -0.36002780319592531 0 0.41979649173798239 -0.33556015553506419 0 0.42332864873551412 -0.35505094888734429 0 0.40742431786960148 -0.34902519329093279 0 0.42332864873551412 -0.35505094888734429 0 0.41765003651554933 -0.36703694136242848 0 0.40990017249845617 -0.36002780319592531 0 0.41765003651554933 -0.36703694136242848 0 0.40990017249845617 -0.36002780319592531 0 0.40565272868260371 -0.37111416337195519 0 0.41765003651554933 -0.36703694136242848 0 0.40565272868260371 -0.37111416337195519 0 0.4200038076190386 -0.37933119148023858 0 0.39130164974616771 -0.36289713526367362 0 0.40282419468191072 -0.38402689579459831 0 0.40565272868260371 -0.37111416337195519 0 0.39130164974616771 -0.36289713526367362 0 0.40282419468191072 -0.38402689579459831 0 0.40565272868260371 -0.37111416337195519 0 0.39130164974616771 -0.36289713526367362 0 0.39952910175049572 -0.35766480192895261 0 0.40565272868260371 -0.37111416337195519 0 0.39130164974616771 -0.36289713526367362 0 0.40990017249845617 -0.36002780319592531 0 0.40565272868260371 -0.37111416337195519 0 0.39952910175049572 -0.35766480192895261 0 0.39130164974616771 -0.36289713526367362 0 0.39952910175049572 -0.35766480192895261 0 0.38801185198465898 -0.35686438474862331 0 0.39952910175049572 -0.35766480192895261 0 0.39488388972148769 -0.34606013170260469 0 0.38801185198465898 -0.35686438474862331 0 0.40742431786960148 -0.34902519329093279 0 0.40990017249845617 -0.36002780319592531 0 0.39952910175049572 -0.35766480192895261 0 0.40742431786960148 -0.34902519329093279 0 0.39952910175049572 -0.35766480192895261 0 0.39488388972148769 -0.34606013170260469 0 0.40742431786960148 -0.34902519329093279 0 0.39488388972148769 -0.34606013170260469 0 0.40350512412404788 -0.33649187772235989 0 0.39130164974616771 -0.36289713526367362 0 0.38801185198465898 -0.35686438474862331 0 0.36928642654333582 -0.35029183160190053 0 0.39130164974616771 -0.36289713526367362 0 0.36928642654333582 -0.35029183160190053 0 0.3820441661052193 -0.34411713656500931 0 0.38801185198465898 -0.35686438474862331 0 0.36928642654333582 -0.35029183160190053 0 0.39488388972148769 -0.34606013170260469 0 0.3820441661052193 -0.34411713656500931 0 0.38801185198465898 -0.35686438474862331 0 0.39130164974616771 -0.36289713526367362 0 0.3773010266139154 -0.37904134570775289 0 0.36928642654333582 -0.35029183160190053 0 0.39130164974616771 -0.36289713526367362 0 0.38801185198465898 -0.35686438474862331 0 0.40588002759030251 -0.32030274256601021 0 0.38954089370086542 -0.33151116551718729 0 0.38052084063157299 -0.30776748558769262 0 0.40588002759030251 -0.32030274256601021 0 0.40350512412404788 -0.33649187772235989 0 0.38954089370086542 -0.33151116551718729 0 0.39488388972148769 -0.34606013170260469 0 0.40350512412404788 -0.33649187772235989 0 0.38954089370086542 -0.33151116551718729 0 0.3820441661052193 -0.34411713656500931 0 0.38954089370086542 -0.33151116551718729 0 0.37012320384522962 -0.33165039796497042 0 0.39488388972148769 -0.34606013170260469 0 0.3820441661052193 -0.34411713656500931 0 0.38954089370086542 -0.33151116551718729 0 0.38954089370086542 -0.33151116551718729 0 0.38052084063157299 -0.30776748558769262 0 0.37012320384522962 -0.33165039796497042 0 0.38052084063157299 -0.30776748558769262 0 0.40815327087852438 -0.29911061624236152 0 0.40588002759030251 -0.32030274256601021 0 0.38052084063157299 -0.30776748558769262 0 0.40815327087852438 -0.29911061624236152 0 0.38052084063157299 -0.30776748558769262 0 0.39346514406432309 -0.28116357729501962 0 0.40815327087852438 -0.29911061624236152 0 0.39346514406432309 -0.28116357729501962 0 0.41602171729167481 -0.27604821085685838 0 0.40815327087852438 -0.29911061624236152 0 0.38052084063157299 -0.30776748558769262 0 0.39346514406432309 -0.28116357729501962 0 0.37187804895054721 -0.28686610270275381 0 0.37956303889575871 -0.27163288434970229 0 0.39346514406432309 -0.28116357729501962 0 0.37187804895054721 -0.28686610270275381 0 0.37956303889575871 -0.27163288434970229 0 0.3903687019426556 -0.26087583328958452 0 0.39346514406432309 -0.28116357729501962 0 0.37956303889575871 -0.27163288434970229 0 0.3903687019426556 -0.26087583328958452 0 0.37370526739500132 -0.25695533472129339 0 0.38524374560404362 -0.24428931345025909 0 0.3903687019426556 -0.26087583328958452 0 0.37370526739500132 -0.25695533472129339 0 0.38524374560404362 -0.24428931345025909 0 0.40432710488521362 -0.24824992017021499 0 0.3903687019426556 -0.26087583328958452 0 0.40432710488521362 -0.24824992017021499 0 0.3903687019426556 -0.26087583328958452 0 0.4059079108115935 -0.26296396975101799 0 0.4059079108115935 -0.26296396975101799 0 0.39346514406432309 -0.28116357729501962 0 0.41602171729167481 -0.27604821085685838 0 0.3903687019426556 -0.26087583328958452 0 0.4059079108115935 -0.26296396975101799 0 0.39346514406432309 -0.28116357729501962 0 0.4059079108115935 -0.26296396975101799 0 0.41602171729167481 -0.27604821085685838 0 0.4194226021379755 -0.25620125026357371 0 0.40432710488521362 -0.24824992017021499 0 0.4059079108115935 -0.26296396975101799 0 0.4194226021379755 -0.25620125026357371 0 0.4194226021379755 -0.25620125026357371 0 0.43525063582752987 -0.25156675733937423 0 0.4342069528447306 -0.27012596966592151 0 0.41602171729167481 -0.27604821085685838 0 0.4194226021379755 -0.25620125026357371 0 0.4342069528447306 -0.27012596966592151 0 0.41602171729167481 -0.27604821085685838 0 0.4342069528447306 -0.27012596966592151 0 0.43424028155945449 -0.29098529834933612 0 0.43424028155945449 -0.29098529834933612 0 0.42999115297691659 -0.31221924472473728 0 0.40815327087852438 -0.29911061624236152 0 0.40588002759030251 -0.32030274256601021 0 0.42999115297691659 -0.31221924472473728 0 0.40815327087852438 -0.29911061624236152 0 0.41602171729167481 -0.27604821085685838 0 0.43424028155945449 -0.29098529834933612 0 0.40815327087852438 -0.29911061624236152 0 0.5 -0.5 0 0.47832353862489302 -0.46359197518209089 0 0.5 -0.41810121042673187 0 0.45429394902818637 -0.47841086999361149 0 0.46606699871600132 -0.49999999999999739 0 0.47832353862489302 -0.46359197518209089 0 0.44089572902239688 -0.50000000000000133 0 0.45429394902818637 -0.47841086999361149 0 0.43634884304873489 -0.47599381083660258 0 0.44089572902239688 -0.50000000000000133 0 0.45429394902818637 -0.47841086999361149 0 0.45429394902818637 -0.47841086999361149 0 0.44386029304456442 -0.45927788733870489 0 0.45429394902818637 -0.47841086999361149 0 0.44386029304456442 -0.45927788733870489 0 0.43634884304873489 -0.47599381083660258 0 0.45429394902818637 -0.47841086999361149 0 0.46606699871600132 -0.49999999999999739 0 0.44089572902239688 -0.50000000000000133 0 0.45429394902818637 -0.47841086999361149 0 0.46606699871600132 -0.49999999999999739 0 0.46606699871600132 -0.49999999999999739 0 0.5 -0.5 0 0.47832353862489302 -0.46359197518209089 0 0.46973917790336811 -0.45352330627091342 0 0.47832353862489302 -0.46359197518209089 0 0.47984110610180047 -0.43151646440129199 0 0.47832353862489302 -0.46359197518209089 0 0.47984110610180047 -0.43151646440129199 0 0.5 -0.41810121042673187 0 0.46973917790336811 -0.45352330627091342 0 0.45430763749262593 -0.4370499496983305 0 0.47984110610180047 -0.43151646440129199 0 0.46973917790336811 -0.45352330627091342 0 0.44386029304456442 -0.45927788733870489 0 0.45430763749262593 -0.4370499496983305 0 0.45429394902818637 -0.47841086999361149 0 0.46973917790336811 -0.45352330627091342 0 0.44386029304456442 -0.45927788733870489 0 0.45429394902818637 -0.47841086999361149 0 0.46973917790336811 -0.45352330627091342 0 0.45429394902818637 -0.47841086999361149 0 0.46973917790336811 -0.45352330627091342 0 0.47832353862489302 -0.46359197518209089 0 0.44386029304456442 -0.45927788733870489 0 0.45430763749262593 -0.4370499496983305 0 0.43342663706094209 -0.44014490468379852 0 0.44386029304456442 -0.45927788733870489 0 0.43342663706094209 -0.44014490468379852 0 0.43990522403057009 -0.42103792158120479 0 0.45838344958350402 -0.41401273986542608 0 0.45430763749262593 -0.4370499496983305 0 0.43990522403057009 -0.42103792158120479 0 0.45430763749262593 -0.4370499496983305 0 0.43342663706094209 -0.44014490468379852 0 0.43990522403057009 -0.42103792158120479 0 0.45838344958350402 -0.41401273986542608 0 0.44260122273942148 -0.40465230564401983 0 0.43990522403057009 -0.42103792158120479 0 0.44260122273942148 -0.40465230564401983 0 0.43077788333749961 -0.40893045312275228 0 0.45838344958350402 -0.41401273986542608 0 0.45430763749262593 -0.4370499496983305 0 0.47984110610180047 -0.43151646440129199 0 0.47984110610180047 -0.43151646440129199 0 0.5 -0.41810121042673187 0 0.47756373257846541 -0.39682819980628109 0 0.45838344958350402 -0.41401273986542608 0 0.47984110610180047 -0.43151646440129199 0 0.47756373257846541 -0.39682819980628109 0 0.5 -0.35814521541417887 0 0.5 -0.41810121042673187 0 0.47756373257846541 -0.39682819980628109 0 0.47231067146510619 -0.36810021424569761 0 0.47756373257846541 -0.39682819980628109 0 0.45484716832038169 -0.39109335448436072 0 0.47231067146510619 -0.36810021424569761 0 0.45000923999056419 -0.36796204441545199 0 0.45484716832038169 -0.39109335448436072 0 0.45838344958350402 -0.41401273986542608 0 0.47756373257846541 -0.39682819980628109 0 0.45484716832038169 -0.39109335448436072 0 0.45838344958350402 -0.41401273986542608 0 0.45484716832038169 -0.39109335448436072 0 0.44260122273942148 -0.40465230564401983 0 0.45484716832038169 -0.39109335448436072 0 0.44260122273942148 -0.40465230564401983 0 0.44127927591064059 -0.39473686561637061 0 0.44260122273942148 -0.40465230564401983 0 0.44127927591064059 -0.39473686561637061 0 0.43357793751993251 -0.39863741318978729 0 0.45000923999056419 -0.36796204441545199 0 0.43409077506282701 -0.38456438914731461 0 0.45484716832038169 -0.39109335448436072 0 0.44127927591064059 -0.39473686561637061 0 0.43409077506282701 -0.38456438914731461 0 0.45000923999056419 -0.36796204441545199 0 0.45484716832038169 -0.39109335448436072 0 0.43409077506282701 -0.38456438914731461 0 0.43031640878717692 -0.3685479064212559 0 0.43409077506282701 -0.38456438914731461 0 0.4200038076190386 -0.37933119148023858 0 0.43409077506282701 -0.38456438914731461 0 0.41817231013508971 -0.40116673387917717 0 0.4200038076190386 -0.37933119148023858 0 0.44127927591064059 -0.39473686561637061 0 0.43409077506282701 -0.38456438914731461 0 0.43357793751993251 -0.39863741318978729 0 0.43409077506282701 -0.38456438914731461 0 0.41817231013508971 -0.40116673387917717 0 0.43409077506282701 -0.38456438914731461 0 0.43357793751993251 -0.39863741318978729 0 0.41817231013508971 -0.40116673387917717 0 0.44260122273942148 -0.40465230564401983 0 0.43357793751993251 -0.39863741318978729 0 0.43077788333749961 -0.40893045312275228 0 0.43357793751993251 -0.39863741318978729 0 0.41817231013508971 -0.40116673387917717 0 0.43077788333749961 -0.40893045312275228 0 0.41434673961765328 -0.40515665632552289 0 0.40282419468191072 -0.38402689579459831 0 0.41817231013508971 -0.40116673387917717 0 0.41434673961765328 -0.40515665632552289 0 0.40282419468191072 -0.38402689579459831 0 0.41817231013508971 -0.40116673387917717 0 0.41434673961765328 -0.40515665632552289 0 0.41817231013508971 -0.40116673387917717 0 0.4200038076190386 -0.37933119148023858 0 0.41231702062237352 -0.37706234603703281 0 0.41817231013508971 -0.40116673387917717 0 0.41231702062237352 -0.37706234603703281 0 0.41817231013508971 -0.40116673387917717 0 0.41231702062237352 -0.37706234603703281 0 0.40282419468191072 -0.38402689579459831 0 0.40565272868260371 -0.37111416337195519 0 0.4200038076190386 -0.37933119148023858 0 0.41231702062237352 -0.37706234603703281 0 0.40565272868260371 -0.37111416337195519 0 0.4200038076190386 -0.37933119148023858 0 0.40565272868260371 -0.37111416337195519 0 0.41231702062237352 -0.37706234603703281 0 0.40282419468191072 -0.38402689579459831 0 0.40282419468191072 -0.38402689579459831 0 0.3773010266139154 -0.37904134570775289 0 0.393556852135311 -0.40236099019313493 0 0.39130164974616771 -0.36289713526367362 0 0.40282419468191072 -0.38402689579459831 0 0.3773010266139154 -0.37904134570775289 0 0.3773010266139154 -0.37904134570775289 0 0.393556852135311 -0.40236099019313493 0 0.37392217404960898 -0.4028242056209263 0 0.41434673961765328 -0.40515665632552289 0 0.40282419468191072 -0.38402689579459831 0 0.393556852135311 -0.40236099019313493 0 0.41434673961765328 -0.40515665632552289 0 0.393556852135311 -0.40236099019313493 0 0.39824406234837012 -0.42195112742208718 0 0.393556852135311 -0.40236099019313493 0 0.37851404563230417 -0.42416527968138662 0 0.39824406234837012 -0.42195112742208718 0 0.393556852135311 -0.40236099019313493 0 0.37851404563230417 -0.42416527968138662 0 0.37392217404960898 -0.4028242056209263 0 0.37851404563230417 -0.42416527968138662 0 0.39824406234837012 -0.42195112742208718 0 0.39590524446459358 -0.4453908984965434 0 0.39824406234837012 -0.42195112742208718 0 0.41248011545763003 -0.4378307382435585 0 0.39590524446459358 -0.4453908984965434 0 0.42299298107732031 -0.42101192202889182 0 0.42967091206302788 -0.44850286643274723 0 0.41248011545763003 -0.4378307382435585 0 0.39824406234837012 -0.42195112742208718 0 0.42299298107732031 -0.42101192202889182 0 0.41248011545763003 -0.4378307382435585 0 0.41817231013508971 -0.40116673387917717 0 0.42299298107732031 -0.42101192202889182 0 0.41434673961765328 -0.40515665632552289 0 0.39824406234837012 -0.42195112742208718 0 0.42299298107732031 -0.42101192202889182 0 0.41817231013508971 -0.40116673387917717 0 0.41434673961765328 -0.40515665632552289 0 0.42299298107732031 -0.42101192202889182 0 0.41434673961765328 -0.40515665632552289 0 0.39824406234837012 -0.42195112742208718 0 0.41434673961765328 -0.40515665632552289 0 0.42299298107732031 -0.42101192202889182 0 0.43990522403057009 -0.42103792158120479 0 0.42299298107732031 -0.42101192202889182 0 0.43077788333749961 -0.40893045312275228 0 0.41817231013508971 -0.40116673387917717 0 0.42299298107732031 -0.42101192202889182 0 0.43077788333749961 -0.40893045312275228 0 0.42299298107732031 -0.42101192202889182 0 0.43342663706094209 -0.44014490468379852 0 0.42967091206302788 -0.44850286643274723 0 0.43990522403057009 -0.42103792158120479 0 0.42299298107732031 -0.42101192202889182 0 0.43342663706094209 -0.44014490468379852 0 0.42299298107732031 -0.42101192202889182 0 0.43342663706094209 -0.44014490468379852 0 0.42299298107732031 -0.42101192202889182 0 0.42967091206302788 -0.44850286643274723 0 0.44386029304456442 -0.45927788733870489 0 0.43342663706094209 -0.44014490468379852 0 0.42967091206302788 -0.44850286643274723 0 0.42967091206302788 -0.44850286643274723 0 0.42209632826390991 -0.46439646076621383 0 0.41460675504392452 -0.4510354426092234 0 0.42967091206302788 -0.44850286643274723 0 0.42209632826390991 -0.46439646076621383 0 0.43634884304873489 -0.47599381083660258 0 0.42967091206302788 -0.44850286643274723 0 0.43634884304873489 -0.47599381083660258 0 0.44386029304456442 -0.45927788733870489 0 0.42967091206302788 -0.44850286643274723 0 0.43634884304873489 -0.47599381083660258 0 0.42209632826390991 -0.46439646076621383 0 0.40961271734162569 -0.46289801691544308 0 0.41460675504392452 -0.4510354426092234 0 0.41248011545763003 -0.4378307382435585 0 0.41460675504392452 -0.4510354426092234 0 0.39590524446459358 -0.4453908984965434 0 0.40961271734162569 -0.46289801691544308 0 0.41460675504392452 -0.4510354426092234 0 0.39590524446459358 -0.4453908984965434 0 0.42967091206302788 -0.44850286643274723 0 0.41248011545763003 -0.4378307382435585 0 0.41460675504392452 -0.4510354426092234 0 0.37851404563230417 -0.42416527968138662 0 0.39590524446459358 -0.4453908984965434 0 0.37460903697736447 -0.44917324779894602 0 0.39590524446459358 -0.4453908984965434 0 0.39096376519371412 -0.47269544924827123 0 0.37460903697736447 -0.44917324779894602 0 0.39096376519371412 -0.47269544924827123 0 0.36421271319295351 -0.46922574975807352 0 0.37460903697736447 -0.44917324779894602 0 0.39590524446459358 -0.4453908984965434 0 0.39096376519371412 -0.47269544924827123 0 0.40961271734162569 -0.46289801691544308 0 0.39590524446459358 -0.4453908984965434 0 0.39096376519371412 -0.47269544924827123 0 0.39096376519371412 -0.47269544924827123 0 0.37256898249647619 -0.48641377800784508 0 0.36421271319295351 -0.46922574975807352 0 0.39096376519371412 -0.47269544924827123 0 0.38602228592283472 -0.49999999999999911 0 0.37256898249647619 -0.48641377800784508 0 0.39096376519371412 -0.47269544924827123 0 0.38602228592283472 -0.49999999999999911 0 0.39096376519371412 -0.47269544924827123 0 0.38602228592283472 -0.49999999999999911 0 0.41345900747261582 -0.5 0 0.40961271734162569 -0.46289801691544308 0 0.39096376519371412 -0.47269544924827123 0 0.41889606505716631 -0.47933062296108869 0 0.39096376519371412 -0.47269544924827123 0 0.41345900747261582 -0.5 0 0.41889606505716631 -0.47933062296108869 0 0.42209632826390991 -0.46439646076621383 0 0.40961271734162569 -0.46289801691544308 0 0.41889606505716631 -0.47933062296108869 0 0.42209632826390991 -0.46439646076621383 0 0.41889606505716631 -0.47933062296108869 0 0.43634884304873489 -0.47599381083660258 0 0.44089572902239688 -0.50000000000000133 0 0.41345900747261582 -0.5 0 0.41889606505716631 -0.47933062296108869 0 0.44089572902239688 -0.50000000000000133 0 0.41889606505716631 -0.47933062296108869 0 0.43634884304873489 -0.47599381083660258 0 0.31267918262080668 -0.5 0 0.32623944247773168 -0.48089058819485708 0 0.33712688372148281 -0.5 0 0.31267918262080668 -0.5 0 0.32623944247773168 -0.48089058819485708 0 0.30250096524746012 -0.48147532188351427 0 0.32623944247773168 -0.48089058819485708 0 0.31549058186814027 -0.46119525704266512 0 0.30250096524746012 -0.48147532188351427 0 0.32623944247773168 -0.48089058819485708 0 0.34935073427182067 -0.48537635608385449 0 0.34028830713667968 -0.45729659415910928 0 0.32623944247773168 -0.48089058819485708 0 0.33712688372148281 -0.5 0 0.34935073427182067 -0.48537635608385449 0 0.33712688372148281 -0.5 0 0.34935073427182067 -0.48537635608385449 0 0.36157458482215882 -0.5 0 0.34935073427182067 -0.48537635608385449 0 0.37256898249647619 -0.48641377800784508 0 0.36157458482215882 -0.5 0 0.38602228592283472 -0.49999999999999911 0 0.37256898249647619 -0.48641377800784508 0 0.36157458482215882 -0.5 0 0.34935073427182067 -0.48537635608385449 0 0.37256898249647619 -0.48641377800784508 0 0.36421271319295351 -0.46922574975807352 0 0.34935073427182067 -0.48537635608385449 0 0.36421271319295351 -0.46922574975807352 0 0.34028830713667968 -0.45729659415910928 0 0.36421271319295351 -0.46922574975807352 0 0.35746494989476962 -0.4513800389125554 0 0.34028830713667968 -0.45729659415910928 0 0.36421271319295351 -0.46922574975807352 0 0.37460903697736447 -0.44917324779894602 0 0.35746494989476962 -0.4513800389125554 0 0.37460903697736447 -0.44917324779894602 0 0.35746494989476962 -0.4513800389125554 0 0.3602521603017288 -0.43476886745020521 0 0.35746494989476962 -0.4513800389125554 0 0.34028830713667968 -0.45729659415910928 0 0.34083668343400059 -0.4341949263218926 0 0.35746494989476962 -0.4513800389125554 0 0.34083668343400059 -0.4341949263218926 0 0.3602521603017288 -0.43476886745020521 0 0.34028830713667968 -0.45729659415910928 0 0.31405451954891189 -0.43693821222098289 0 0.34083668343400059 -0.4341949263218926 0 0.34028830713667968 -0.45729659415910928 0 0.31549058186814027 -0.46119525704266512 0 0.32623944247773168 -0.48089058819485708 0 0.34028830713667968 -0.45729659415910928 0 0.31549058186814027 -0.46119525704266512 0 0.34028830713667968 -0.45729659415910928 0 0.31549058186814027 -0.46119525704266512 0 0.31405451954891189 -0.43693821222098289 0 0.31405451954891189 -0.43693821222098289 0 0.32670226749232262 -0.41332079396623073 0 0.34083668343400059 -0.4341949263218926 0 0.31405451954891189 -0.43693821222098289 0 0.32670226749232262 -0.41332079396623073 0 0.30329614980860292 -0.41155657773388821 0 0.32670226749232262 -0.41332079396623073 0 0.353108789149152 -0.41268762078786342 0 0.33764792453432052 -0.3941981862995943 0 0.32670226749232262 -0.41332079396623073 0 0.34083668343400059 -0.4341949263218926 0 0.353108789149152 -0.41268762078786342 0 0.34083668343400059 -0.4341949263218926 0 0.3602521603017288 -0.43476886745020521 0 0.353108789149152 -0.41268762078786342 0 0.37851404563230417 -0.42416527968138662 0 0.37460903697736447 -0.44917324779894602 0 0.3602521603017288 -0.43476886745020521 0 0.37851404563230417 -0.42416527968138662 0 0.3602521603017288 -0.43476886745020521 0 0.353108789149152 -0.41268762078786342 0 0.37851404563230417 -0.42416527968138662 0 0.353108789149152 -0.41268762078786342 0 0.37392217404960898 -0.4028242056209263 0 0.353108789149152 -0.41268762078786342 0 0.35467841854771692 -0.38560565421242848 0 0.33764792453432052 -0.3941981862995943 0 0.353108789149152 -0.41268762078786342 0 0.37392217404960898 -0.4028242056209263 0 0.35467841854771692 -0.38560565421242848 0 0.37392217404960898 -0.4028242056209263 0 0.35467841854771692 -0.38560565421242848 0 0.3773010266139154 -0.37904134570775289 0 0.37392217404960898 -0.4028242056209263 0 0.35467841854771692 -0.38560565421242848 0 0.3773010266139154 -0.37904134570775289 0 0.35467841854771692 -0.38560565421242848 0 0.35643523989685899 -0.36451112525733692 0 0.35467841854771692 -0.38560565421242848 0 0.33543466304582481 -0.36838710280393089 0 0.35467841854771692 -0.38560565421242848 0 0.33764792453432052 -0.3941981862995943 0 0.33543466304582481 -0.36838710280393089 0 0.33764792453432052 -0.3941981862995943 0 0.3183154844365863 -0.39098975972751798 0 0.33543466304582481 -0.36838710280393089 0 0.32670226749232262 -0.41332079396623073 0 0.33764792453432052 -0.3941981862995943 0 0.3183154844365863 -0.39098975972751798 0 0.32670226749232262 -0.41332079396623073 0 0.3183154844365863 -0.39098975972751798 0 0.30329614980860292 -0.41155657773388821 0 0.3183154844365863 -0.39098975972751798 0 0.33543466304582481 -0.36838710280393089 0 0.31688348939894601 -0.37122921338219828 0 0.3183154844365863 -0.39098975972751798 0 0.29134285677724708 -0.38759120903257338 0 0.31688348939894601 -0.37122921338219828 0 0.3183154844365863 -0.39098975972751798 0 0.29134285677724708 -0.38759120903257338 0 0.30329614980860292 -0.41155657773388821 0 0.29134285677724708 -0.38759120903257338 0 0.28452055823151112 -0.41024075845607882 0 0.30329614980860292 -0.41155657773388821 0 0.29134285677724708 -0.38759120903257338 0 0.27141318643561713 -0.39883409361897387 0 0.28452055823151112 -0.41024075845607882 0 0.29134285677724708 -0.38759120903257338 0 0.27141318643561713 -0.39883409361897387 0 0.29134285677724708 -0.38759120903257338 0 0.26585621628047651 -0.38290750340658009 0 0.27141318643561713 -0.39883409361897387 0 0.29134285677724708 -0.38759120903257338 0 0.26585621628047651 -0.38290750340658009 0 0.27966663507896639 -0.36810219924290288 0 0.26585621628047651 -0.38290750340658009 0 0.25859912728986689 -0.39588521810156108 0 0.2456435903493869 -0.39172229717531593 0 0.26585621628047651 -0.38290750340658009 0 0.25190729546770829 -0.37177056320457008 0 0.2456435903493869 -0.39172229717531593 0 0.25859912728986689 -0.39588521810156108 0 0.25148351609398711 -0.41007697820537448 0 0.2456435903493869 -0.39172229717531593 0 0.26585621628047651 -0.38290750340658009 0 0.25859912728986689 -0.39588521810156108 0 0.27141318643561713 -0.39883409361897387 0 0.25859912728986689 -0.39588521810156108 0 0.27141318643561713 -0.39883409361897387 0 0.25148351609398711 -0.41007697820537448 0 0.27141318643561713 -0.39883409361897387 0 0.25148351609398711 -0.41007697820537448 0 0.27141318643561713 -0.39883409361897387 0 0.27267547654644658 -0.41893632537797332 0 0.26091522747717322 -0.41830298317036813 0 0.27267547654644658 -0.41893632537797332 0 0.28628078115937422 -0.42958814651571642 0 0.28452055823151112 -0.41024075845607882 0 0.27141318643561713 -0.39883409361897387 0 0.27267547654644658 -0.41893632537797332 0 0.28452055823151112 -0.41024075845607882 0 0.25148351609398711 -0.41007697820537448 0 0.26091522747717322 -0.41830298317036813 0 0.24989084696786101 -0.42678548658759008 0 0.27141318643561713 -0.39883409361897387 0 0.25148351609398711 -0.41007697820537448 0 0.26091522747717322 -0.41830298317036813 0 0.26452617529655981 -0.43273615630968099 0 0.2487244885417072 -0.44515622280077161 0 0.24989084696786101 -0.42678548658759008 0 0.26091522747717322 -0.41830298317036813 0 0.26452617529655981 -0.43273615630968099 0 0.24989084696786101 -0.42678548658759008 0 0.26452617529655981 -0.43273615630968099 0 0.28628078115937422 -0.42958814651571642 0 0.275149596401778 -0.4485991132665238 0 0.27267547654644658 -0.41893632537797332 0 0.26452617529655981 -0.43273615630968099 0 0.28628078115937422 -0.42958814651571642 0 0.27267547654644658 -0.41893632537797332 0 0.26091522747717322 -0.41830298317036813 0 0.26452617529655981 -0.43273615630968099 0 0.28628078115937422 -0.42958814651571642 0 0.28452055823151112 -0.41024075845607882 0 0.30329614980860292 -0.41155657773388821 0 0.31405451954891189 -0.43693821222098289 0 0.28628078115937422 -0.42958814651571642 0 0.30329614980860292 -0.41155657773388821 0 0.31549058186814027 -0.46119525704266512 0 0.31405451954891189 -0.43693821222098289 0 0.29635015937306441 -0.44712110029405111 0 0.31405451954891189 -0.43693821222098289 0 0.28628078115937422 -0.42958814651571642 0 0.29635015937306441 -0.44712110029405111 0 0.31549058186814027 -0.46119525704266512 0 0.29069285659960092 -0.46509391992622101 0 0.29635015937306441 -0.44712110029405111 0 0.31549058186814027 -0.46119525704266512 0 0.29069285659960092 -0.46509391992622101 0 0.29069285659960092 -0.46509391992622101 0 0.29635015937306441 -0.44712110029405111 0 0.275149596401778 -0.4485991132665238 0 0.28628078115937422 -0.42958814651571642 0 0.29635015937306441 -0.44712110029405111 0 0.275149596401778 -0.4485991132665238 0 0.26452617529655981 -0.43273615630968099 0 0.275149596401778 -0.4485991132665238 0 0.2487244885417072 -0.44515622280077161 0 0.275149596401778 -0.4485991132665238 0 0.26589513133106157 -0.46899258280977701 0 0.2487244885417072 -0.44515622280077161 0 0.26589513133106157 -0.46899258280977701 0 0.2487244885417072 -0.44515622280077161 0 0.26589513133106157 -0.46899258280977701 0 0.26267917762634829 -0.46949819044951091 0 0.2487244885417072 -0.44515622280077161 0 0.26267917762634829 -0.46949819044951091 0 0.24448467661682541 -0.46126560583513659 0 0.2487244885417072 -0.44515622280077161 0 0.29069285659960092 -0.46509391992622101 0 0.275149596401778 -0.4485991132665238 0 0.26589513133106157 -0.46899258280977701 0 0.29069285659960092 -0.46509391992622101 0 0.26589513133106157 -0.46899258280977701 0 0.29069285659960092 -0.46509391992622101 0 0.26589513133106157 -0.46899258280977701 0 0.27706330642559551 -0.48449629140489031 0 0.26589513133106157 -0.46899258280977701 0 0.27706330642559551 -0.48449629140489031 0 0.26589513133106157 -0.46899258280977701 0 0.26193558570745012 -0.48063280291756871 0 0.27706330642559551 -0.48449629140489031 0 0.26589513133106157 -0.46899258280977701 0 0.26267917762634829 -0.46949819044951091 0 0.26193558570745012 -0.48063280291756871 0 0.26589513133106157 -0.46899258280977701 0 0.26267917762634829 -0.46949819044951091 0 0.26267917762634829 -0.46949819044951091 0 0.26193558570745012 -0.48063280291756871 0 0.24448467661682541 -0.46126560583513659 0 0.26193558570745012 -0.48063280291756871 0 0.24448467661682541 -0.46126560583513659 0 0.26193558570745012 -0.48063280291756871 0 0.25227544134082031 -0.50000000000000022 0 0.2397654126660492 -0.48419337146826508 0 0.26193558570745012 -0.48063280291756871 0 0.25227544134082031 -0.50000000000000022 0 0.27938649479807492 -0.50000000000000044 0 0.26193558570745012 -0.48063280291756871 0 0.27938649479807492 -0.50000000000000044 0 0.26193558570745012 -0.48063280291756871 0 0.27706330642559551 -0.48449629140489031 0 0.27938649479807492 -0.50000000000000044 0 0.27706330642559551 -0.48449629140489031 0 0.28823148152013078 -0.50000000000000244 0 0.27706330642559551 -0.48449629140489031 0 0.27938649479807492 -0.50000000000000044 0 0.28823148152013078 -0.50000000000000244 0 0.27706330642559551 -0.48449629140489031 0 0.28823148152013078 -0.50000000000000244 0 0.30250096524746012 -0.48147532188351427 0 0.29069285659960092 -0.46509391992622101 0 0.27706330642559551 -0.48449629140489031 0 0.30250096524746012 -0.48147532188351427 0 0.31549058186814027 -0.46119525704266512 0 0.29069285659960092 -0.46509391992622101 0 0.30250096524746012 -0.48147532188351427 0 0.31267918262080668 -0.5 0 0.28823148152013078 -0.50000000000000244 0 0.30250096524746012 -0.48147532188351427 0 0.33491478709878197 -0.29463968994288758 0 0.33849042542331109 -0.28126488927698418 0 0.35235506150376938 -0.28767157648361208 0 0.33491478709878197 -0.29463968994288758 0 0.34224474236913521 -0.30571677079688742 0 0.35235506150376938 -0.28767157648361208 0 0.33491478709878197 -0.29463968994288758 0 0.33849042542331109 -0.28126488927698418 0 0.32751257197611239 -0.28615156335101738 0 0.33491478709878197 -0.29463968994288758 0 0.34224474236913521 -0.30571677079688742 0 0.3280095209441608 -0.30935317458405848 0 0.33491478709878197 -0.29463968994288758 0 0.3280095209441608 -0.30935317458405848 0 0.31986089815396818 -0.29690925529456552 0 0.3280095209441608 -0.30935317458405848 0 0.31558535637781071 -0.30846476466395661 0 0.31986089815396818 -0.29690925529456552 0 0.31558535637781071 -0.30846476466395661 0 0.31986089815396818 -0.29690925529456552 0 0.30729156703991528 -0.29621903393578108 0 0.31986089815396818 -0.29690925529456552 0 0.31552103743671878 -0.28294706181386942 0 0.30729156703991528 -0.29621903393578108 0 0.33491478709878197 -0.29463968994288758 0 0.31986089815396818 -0.29690925529456552 0 0.32751257197611239 -0.28615156335101738 0 0.31986089815396818 -0.29690925529456552 0 0.32751257197611239 -0.28615156335101738 0 0.31552103743671878 -0.28294706181386942 0 0.31552103743671878 -0.28294706181386942 0 0.32782907694059171 -0.27149670904789241 0 0.30899189932738752 -0.27064265230963358 0 0.32782907694059171 -0.27149670904789241 0 0.31853563878910368 -0.25774835206947638 0 0.30899189932738752 -0.27064265230963358 0 0.32751257197611239 -0.28615156335101738 0 0.31552103743671878 -0.28294706181386942 0 0.32782907694059171 -0.27149670904789241 0 0.32782907694059171 -0.27149670904789241 0 0.31853563878910368 -0.25774835206947638 0 0.33735714006296069 -0.25666736057948658 0 0.33042557080642287 -0.24315064574926751 0 0.31853563878910368 -0.25774835206947638 0 0.33735714006296069 -0.25666736057948658 0 0.32782907694059171 -0.27149670904789241 0 0.33735714006296069 -0.25666736057948658 0 0.34667799362569401 -0.26988727328752921 0 0.33849042542331109 -0.28126488927698418 0 0.32782907694059171 -0.27149670904789241 0 0.34667799362569401 -0.26988727328752921 0 0.33849042542331109 -0.28126488927698418 0 0.32751257197611239 -0.28615156335101738 0 0.32782907694059171 -0.27149670904789241 0 0.34667799362569401 -0.26988727328752921 0 0.36311231821512552 -0.27091451935039101 0 0.35235506150376938 -0.28767157648361208 0 0.33849042542331109 -0.28126488927698418 0 0.34667799362569401 -0.26988727328752921 0 0.35235506150376938 -0.28767157648361208 0 0.34336738700494301 -0.24456987520111051 0 0.33735714006296069 -0.25666736057948658 0 0.35559982817700192 -0.25337605543280639 0 0.34667799362569401 -0.26988727328752921 0 0.35559982817700192 -0.25337605543280639 0 0.36311231821512552 -0.27091451935039101 0 0.33735714006296069 -0.25666736057948658 0 0.34667799362569401 -0.26988727328752921 0 0.35559982817700192 -0.25337605543280639 0 0.35559982817700192 -0.25337605543280639 0 0.37370526739500132 -0.25695533472129339 0 0.36311231821512552 -0.27091451935039101 0 0.3679425094737202 -0.24269626993342461 0 0.35559982817700192 -0.25337605543280639 0 0.37370526739500132 -0.25695533472129339 0 0.37956303889575871 -0.27163288434970229 0 0.37370526739500132 -0.25695533472129339 0 0.36311231821512552 -0.27091451935039101 0 0.37956303889575871 -0.27163288434970229 0 0.36311231821512552 -0.27091451935039101 0 0.37187804895054721 -0.28686610270275381 0 0.37187804895054721 -0.28686610270275381 0 0.35235506150376938 -0.28767157648361208 0 0.36004469414580742 -0.30113060455938789 0 0.36311231821512552 -0.27091451935039101 0 0.37187804895054721 -0.28686610270275381 0 0.35235506150376938 -0.28767157648361208 0 0.34224474236913521 -0.30571677079688742 0 0.36004469414580742 -0.30113060455938789 0 0.35288841038462171 -0.31642435493302379 0 0.34224474236913521 -0.30571677079688742 0 0.35235506150376938 -0.28767157648361208 0 0.36004469414580742 -0.30113060455938789 0 0.38052084063157299 -0.30776748558769262 0 0.37187804895054721 -0.28686610270275381 0 0.36004469414580742 -0.30113060455938789 0 0.38052084063157299 -0.30776748558769262 0 0.36004469414580742 -0.30113060455938789 0 0.35288841038462171 -0.31642435493302379 0 0.38052084063157299 -0.30776748558769262 0 0.35288841038462171 -0.31642435493302379 0 0.38052084063157299 -0.30776748558769262 0 0.37012320384522962 -0.33165039796497042 0 0.35288841038462171 -0.31642435493302379 0 0.3820441661052193 -0.34411713656500931 0 0.37012320384522962 -0.33165039796497042 0 0.36928642654333582 -0.35029183160190053 0 0.37012320384522962 -0.33165039796497042 0 0.34727120334050282 -0.33768652794012921 0 0.36928642654333582 -0.35029183160190053 0 0.37012320384522962 -0.33165039796497042 0 0.34727120334050282 -0.33768652794012921 0 0.35288841038462171 -0.31642435493302379 0 0.3773010266139154 -0.37904134570775289 0 0.36928642654333582 -0.35029183160190053 0 0.35643523989685899 -0.36451112525733692 0 0.34727120334050282 -0.33768652794012921 0 0.36928642654333582 -0.35029183160190053 0 0.35643523989685899 -0.36451112525733692 0 0.34727120334050282 -0.33768652794012921 0 0.35643523989685899 -0.36451112525733692 0 0.33543466304582481 -0.36838710280393089 0 0.34727120334050282 -0.33768652794012921 0 0.36928642654333582 -0.35029183160190053 0 0.35467841854771692 -0.38560565421242848 0 0.35643523989685899 -0.36451112525733692 0 0.33543466304582481 -0.36838710280393089 0 0.34727120334050282 -0.33768652794012921 0 0.33543466304582481 -0.36838710280393089 0 0.3161909075439327 -0.35116855139543318 0 0.33543466304582481 -0.36838710280393089 0 0.3161909075439327 -0.35116855139543318 0 0.33543466304582481 -0.36838710280393089 0 0.3161909075439327 -0.35116855139543318 0 0.31688348939894601 -0.37122921338219828 0 0.34727120334050282 -0.33768652794012921 0 0.35288841038462171 -0.31642435493302379 0 0.32525598013767082 -0.32508122427835617 0 0.35288841038462171 -0.31642435493302379 0 0.32525598013767082 -0.32508122427835617 0 0.34224474236913521 -0.30571677079688742 0 0.3280095209441608 -0.30935317458405848 0 0.32525598013767082 -0.32508122427835617 0 0.34224474236913521 -0.30571677079688742 0 0.35288841038462171 -0.31642435493302379 0 0.32525598013767082 -0.32508122427835617 0 0.34727120334050282 -0.33768652794012921 0 0.32525598013767082 -0.32508122427835617 0 0.34727120334050282 -0.33768652794012921 0 0.3161909075439327 -0.35116855139543318 0 0.32525598013767082 -0.32508122427835617 0 0.3161909075439327 -0.35116855139543318 0 0.32525598013767082 -0.32508122427835617 0 0.2969471520420382 -0.33394999998693797 0 0.3280095209441608 -0.30935317458405848 0 0.31749431027863828 -0.32063710828670539 0 0.32525598013767082 -0.32508122427835617 0 0.31749431027863828 -0.32063710828670539 0 0.32525598013767082 -0.32508122427835617 0 0.2969471520420382 -0.33394999998693797 0 0.31749431027863828 -0.32063710828670539 0 0.32525598013767082 -0.32508122427835617 0 0.3280095209441608 -0.30935317458405848 0 0.31558535637781071 -0.30846476466395661 0 0.31749431027863828 -0.32063710828670539 0 0.31558535637781071 -0.30846476466395661 0 0.31749431027863828 -0.32063710828670539 0 0.30621324187867333 -0.31646310974783509 0 0.30621324187867333 -0.31646310974783509 0 0.2904053224311704 -0.32809662955467772 0 0.30621324187867333 -0.31646310974783509 0 0.2969471520420382 -0.33394999998693797 0 0.2904053224311704 -0.32809662955467772 0 0.31749431027863828 -0.32063710828670539 0 0.30621324187867333 -0.31646310974783509 0 0.2969471520420382 -0.33394999998693797 0 0.30621324187867333 -0.31646310974783509 0 0.29281896608550317 -0.31397598710645452 0 0.30386116534365099 -0.30755776810030189 0 0.3161909075439327 -0.35116855139543318 0 0.2969471520420382 -0.33394999998693797 0 0.32525598013767082 -0.32508122427835617 0 0.2969471520420382 -0.33394999998693797 0 0.2969471520420382 -0.33394999998693797 0 0.2904053224311704 -0.32809662955467772 0 0.27170672199909651 -0.34185748778837333 0 0.2969471520420382 -0.33394999998693797 0 0.2904053224311704 -0.32809662955467772 0 0.2969471520420382 -0.33394999998693797 0 0.28936701770794948 -0.35270638412541172 0 0.27170672199909651 -0.34185748778837333 0 0.2969471520420382 -0.33394999998693797 0 0.27170672199909651 -0.34185748778837333 0 0.2904053224311704 -0.32809662955467772 0 0.27397210727274879 -0.31339283849973559 0 0.29281896608550317 -0.31397598710645452 0 0.2904053224311704 -0.32809662955467772 0 0.27397210727274879 -0.31339283849973559 0 0.30621324187867333 -0.31646310974783509 0 0.29281896608550317 -0.31397598710645452 0 0.2904053224311704 -0.32809662955467772 0 0.3161909075439327 -0.35116855139543318 0 0.31688348939894601 -0.37122921338219828 0 0.29885142690896782 -0.36602648731086918 0 0.29134285677724708 -0.38759120903257338 0 0.31688348939894601 -0.37122921338219828 0 0.29885142690896782 -0.36602648731086918 0 0.3161909075439327 -0.35116855139543318 0 0.2969471520420382 -0.33394999998693797 0 0.28936701770794948 -0.35270638412541172 0 0.3161909075439327 -0.35116855139543318 0 0.29885142690896782 -0.36602648731086918 0 0.28936701770794948 -0.35270638412541172 0 0.29885142690896782 -0.36602648731086918 0 0.28936701770794948 -0.35270638412541172 0 0.27966663507896639 -0.36810219924290288 0 0.29134285677724708 -0.38759120903257338 0 0.29885142690896782 -0.36602648731086918 0 0.27966663507896639 -0.36810219924290288 0 0.26585621628047651 -0.38290750340658009 0 0.27966663507896639 -0.36810219924290288 0 0.26498664928760912 -0.36549527316121527 0 0.27966663507896639 -0.36810219924290288 0 0.27277960493193082 -0.35599603471034591 0 0.26498664928760912 -0.36549527316121527 0 0.28936701770794948 -0.35270638412541172 0 0.27966663507896639 -0.36810219924290288 0 0.27277960493193082 -0.35599603471034591 0 0.28936701770794948 -0.35270638412541172 0 0.27277960493193082 -0.35599603471034591 0 0.27170672199909651 -0.34185748778837333 0 0.27277960493193082 -0.35599603471034591 0 0.2581710005860316 -0.3518188292338249 0 0.27170672199909651 -0.34185748778837333 0 0.2601629119886546 -0.34547400845320603 0 0.24047176103938259 -0.3516429816308696 0 0.2601629119886546 -0.34547400845320603 0 0.2581710005860316 -0.3518188292338249 0 0.24047176103938259 -0.3516429816308696 0 0.2601629119886546 -0.34547400845320603 0 0.2581710005860316 -0.3518188292338249 0 0.27170672199909651 -0.34185748778837333 0 0.2581710005860316 -0.3518188292338249 0 0.27170672199909651 -0.34185748778837333 0 0.2601629119886546 -0.34547400845320603 0 0.2581710005860316 -0.3518188292338249 0 0.27277960493193082 -0.35599603471034591 0 0.2581710005860316 -0.3518188292338249 0 0.26498664928760912 -0.36549527316121527 0 0.2581710005860316 -0.3518188292338249 0 0.26498664928760912 -0.36549527316121527 0 0.25190729546770829 -0.37177056320457008 0 0.2581710005860316 -0.3518188292338249 0 0.25190729546770829 -0.37177056320457008 0 0.2581710005860316 -0.3518188292338249 0 0.25190729546770829 -0.37177056320457008 0 0.24146598496200589 -0.36411254889637368 0 0.26585621628047651 -0.38290750340658009 0 0.26498664928760912 -0.36549527316121527 0 0.25190729546770829 -0.37177056320457008 0 0.2904053224311704 -0.32809662955467772 0 0.27397210727274879 -0.31339283849973559 0 0.26512424170232168 -0.32967072130630942 0 0.27397210727274879 -0.31339283849973559 0 0.26512424170232168 -0.32967072130630942 0 0.26094121867519138 -0.31535282269022419 0 0.2904053224311704 -0.32809662955467772 0 0.27170672199909651 -0.34185748778837333 0 0.2601629119886546 -0.34547400845320603 0 0.27170672199909651 -0.34185748778837333 0 0.26512424170232168 -0.32967072130630942 0 0.2904053224311704 -0.32809662955467772 0 0.27170672199909651 -0.34185748778837333 0 0.26512424170232168 -0.32967072130630942 0 0.2601629119886546 -0.34547400845320603 0 0.27170672199909651 -0.34185748778837333 0 0.2601629119886546 -0.34547400845320603 0 0.26512424170232168 -0.32967072130630942 0 0.25483137275842388 -0.33462596871293221 0 0.26512424170232168 -0.32967072130630942 0 0.25483137275842388 -0.33462596871293221 0 0.25359624740287762 -0.32344822482654528 0 0.2601629119886546 -0.34547400845320603 0 0.26512424170232168 -0.32967072130630942 0 0.2601629119886546 -0.34547400845320603 0 0.25483137275842388 -0.33462596871293221 0 0.24778652996150041 -0.34100038757193951 0 0.25483137275842388 -0.33462596871293221 0 0.25359624740287762 -0.32344822482654528 0 0.24463449472280871 -0.33176062141936191 0 0.26512424170232168 -0.32967072130630942 0 0.25359624740287762 -0.32344822482654528 0 0.26094121867519138 -0.31535282269022419 0 0.25359624740287762 -0.32344822482654528 0 0.26094121867519138 -0.31535282269022419 0 0.25146536696828148 -0.311382618461781 0 0.26094121867519138 -0.31535282269022419 0 0.25146536696828148 -0.311382618461781 0 0.25753889211432701 -0.29868904744479402 0 0.27397210727274879 -0.31339283849973559 0 0.26094121867519138 -0.31535282269022419 0 0.25753889211432701 -0.29868904744479402 0 0.25146536696828148 -0.311382618461781 0 0.25753889211432701 -0.29868904744479402 0 0.25146536696828148 -0.311382618461781 0 0.25753889211432701 -0.29868904744479402 0 0.2426408128535564 -0.30047328696598619 0 0.25753889211432701 -0.29868904744479402 0 0.25175723827891727 -0.28401037683988128 0 0.26526217823433329 -0.28254750221507069 0 0.25753889211432701 -0.29868904744479402 0 0.26526217823433329 -0.28254750221507069 0 0.25753889211432701 -0.29868904744479402 0 0.26526217823433329 -0.28254750221507069 0 0.27101414994607959 -0.29126827483728879 0 0.25753889211432701 -0.29868904744479402 0 0.27101414994607959 -0.29126827483728879 0 0.27353865935125599 -0.30061780100081142 0 0.27101414994607959 -0.29126827483728879 0 0.2776161308857924 -0.28375544195961921 0 0.26739200667243013 -0.27809619463292162 0 0.26526217823433329 -0.28254750221507069 0 0.27101414994607959 -0.29126827483728879 0 0.26739200667243013 -0.27809619463292162 0 0.27101414994607959 -0.29126827483728879 0 0.27353865935125599 -0.30061780100081142 0 0.28125569093507591 -0.2936128342641332 0 0.27101414994607959 -0.29126827483728879 0 0.2776161308857924 -0.28375544195961921 0 0.28125569093507591 -0.2936128342641332 0 0.27397210727274879 -0.31339283849973559 0 0.25753889211432701 -0.29868904744479402 0 0.27353865935125599 -0.30061780100081142 0 0.27397210727274879 -0.31339283849973559 0 0.25753889211432701 -0.29868904744479402 0 0.27353865935125599 -0.30061780100081142 0 0.28555838963728708 -0.30363819015503041 0 0.28125569093507591 -0.2936128342641332 0 0.27397210727274879 -0.31339283849973559 0 0.27353865935125599 -0.30061780100081142 0 0.28555838963728708 -0.30363819015503041 0 0.29281896608550317 -0.31397598710645452 0 0.27397210727274879 -0.31339283849973559 0 0.28555838963728708 -0.30363819015503041 0 0.29281896608550317 -0.31397598710645452 0 0.28555838963728708 -0.30363819015503041 0 0.29739669533635271 -0.30266594504748218 0 0.28555838963728708 -0.30363819015503041 0 0.29431320744298228 -0.29365136168937123 0 0.29739669533635271 -0.30266594504748218 0 0.28555838963728708 -0.30363819015503041 0 0.28125569093507591 -0.2936128342641332 0 0.29431320744298228 -0.29365136168937123 0 0.28125569093507591 -0.2936128342641332 0 0.28929766439643861 -0.28467289343278662 0 0.29431320744298228 -0.29365136168937123 0 0.2776161308857924 -0.28375544195961921 0 0.28929766439643861 -0.28467289343278662 0 0.28464003869408261 -0.27668085890719069 0 0.2776161308857924 -0.28375544195961921 0 0.28125569093507591 -0.2936128342641332 0 0.28929766439643861 -0.28467289343278662 0 0.28929766439643861 -0.28467289343278662 0 0.29431320744298228 -0.29365136168937123 0 0.30093215520620142 -0.28353296524306992 0 0.29431320744298228 -0.29365136168937123 0 0.30093215520620142 -0.28353296524306992 0 0.30729156703991528 -0.29621903393578108 0 0.31552103743671878 -0.28294706181386942 0 0.30093215520620142 -0.28353296524306992 0 0.30729156703991528 -0.29621903393578108 0 0.31558535637781071 -0.30846476466395661 0 0.30729156703991528 -0.29621903393578108 0 0.30386116534365099 -0.30755776810030189 0 0.31558535637781071 -0.30846476466395661 0 0.30621324187867333 -0.31646310974783509 0 0.30386116534365099 -0.30755776810030189 0 0.29281896608550317 -0.31397598710645452 0 0.30386116534365099 -0.30755776810030189 0 0.29739669533635271 -0.30266594504748218 0 0.29431320744298228 -0.29365136168937123 0 0.30729156703991528 -0.29621903393578108 0 0.29739669533635271 -0.30266594504748218 0 0.30729156703991528 -0.29621903393578108 0 0.30386116534365099 -0.30755776810030189 0 0.29739669533635271 -0.30266594504748218 0 0.31142496719684643 -0.24222813569118609 0 0.2940086542031955 -0.24888242052267159 0 0.30160354126031041 -0.25992615835042049 0 0.31853563878910368 -0.25774835206947638 0 0.30160354126031041 -0.25992615835042049 0 0.30899189932738752 -0.27064265230963358 0 0.31142496719684643 -0.24222813569118609 0 0.31853563878910368 -0.25774835206947638 0 0.30160354126031041 -0.25992615835042049 0 0.31552103743671878 -0.28294706181386942 0 0.30093215520620142 -0.28353296524306992 0 0.30899189932738752 -0.27064265230963358 0 0.30093215520620142 -0.28353296524306992 0 0.30899189932738752 -0.27064265230963358 0 0.29563362564211793 -0.27279555217010232 0 0.30160354126031041 -0.25992615835042049 0 0.30899189932738752 -0.27064265230963358 0 0.29563362564211793 -0.27279555217010232 0 0.30160354126031041 -0.25992615835042049 0 0.29563362564211793 -0.27279555217010232 0 0.28671501702667412 -0.26526734630585552 0 0.28929766439643861 -0.28467289343278662 0 0.29563362564211793 -0.27279555217010232 0 0.28464003869408261 -0.27668085890719069 0 0.28929766439643861 -0.28467289343278662 0 0.30093215520620142 -0.28353296524306992 0 0.29563362564211793 -0.27279555217010232 0 0.28464003869408261 -0.27668085890719069 0 0.28671501702667412 -0.26526734630585552 0 0.27858760133789962 -0.27230185634013993 0 0.29563362564211793 -0.27279555217010232 0 0.28464003869408261 -0.27668085890719069 0 0.28671501702667412 -0.26526734630585552 0 0.2940086542031955 -0.24888242052267159 0 0.30160354126031041 -0.25992615835042049 0 0.28671501702667412 -0.26526734630585552 0 0.2940086542031955 -0.24888242052267159 0 0.28671501702667412 -0.26526734630585552 0 0.27724512123053158 -0.25750334182104839 0 0.26268245050989442 -0.24934744598758921 0 0.27724512123053158 -0.25750334182104839 0 0.26187373521819768 -0.26563934327865302 0 0.28671501702667412 -0.26526734630585552 0 0.27724512123053158 -0.25750334182104839 0 0.27858760133789962 -0.27230185634013993 0 0.27724512123053158 -0.25750334182104839 0 0.26739200667243013 -0.27809619463292162 0 0.26187373521819768 -0.26563934327865302 0 0.27724512123053158 -0.25750334182104839 0 0.26739200667243013 -0.27809619463292162 0 0.27724512123053158 -0.25750334182104839 0 0.27858760133789962 -0.27230185634013993 0 0.26739200667243013 -0.27809619463292162 0 0.2776161308857924 -0.28375544195961921 0 0.27858760133789962 -0.27230185634013993 0 0.26739200667243013 -0.27809619463292162 0 0.2776161308857924 -0.28375544195961921 0 0.28464003869408261 -0.27668085890719069 0 0.27858760133789962 -0.27230185634013993 0 0.26526217823433329 -0.28254750221507069 0 0.26739200667243013 -0.27809619463292162 0 0.26526217823433329 -0.28254750221507069 0 0.25548147986079228 -0.27482558281646041 0 0.24314117507413391 -0.27430172371603162 0 0.26526217823433329 -0.28254750221507069 0 0.24314117507413391 -0.27430172371603162 0 0.25175723827891727 -0.28401037683988128 0 0.26526217823433329 -0.28254750221507069 0 0.24314117507413391 -0.27430172371603162 0 0.26526217823433329 -0.28254750221507069 0 0.26208442204062388 -0.27595363768355441 0 0.25548147986079228 -0.27482558281646041 0 0.26526217823433329 -0.28254750221507069 0 0.26739200667243013 -0.27809619463292162 0 0.26208442204062388 -0.27595363768355441 0 0.26739200667243013 -0.27809619463292162 0 0.26208442204062388 -0.27595363768355441 0 0.26187373521819768 -0.26563934327865302 0 0.26208442204062388 -0.27595363768355441 0 0.26187373521819768 -0.26563934327865302 0 0.25548147986079228 -0.27482558281646041 0 0.26187373521819768 -0.26563934327865302 0 0.25041081755491829 -0.26703854025063328 0 0.25548147986079228 -0.27482558281646041 0 0.26268245050989442 -0.24934744598758921 0 0.26187373521819768 -0.26563934327865302 0 0.25263242868506919 -0.2575241993518359 0 0.26187373521819768 -0.26563934327865302 0 0.25041081755491829 -0.26703854025063328 0 0.25263242868506919 -0.2575241993518359 0 0.25263242868506919 -0.2575241993518359 0 0.24057087964953891 -0.26088709268020033 0 0.2487016031953268 -0.24242778360998679 0 0.24057087964953891 -0.26088709268020033 0 0.22824002358951981 -0.25691824546728609 0 0.2487016031953268 -0.24242778360998679 0 0.25041081755491829 -0.26703854025063328 0 0.25263242868506919 -0.2575241993518359 0 0.24057087964953891 -0.26088709268020033 0 0.24314117507413391 -0.27430172371603162 0 0.22112203515483481 -0.26610468398043619 0 0.23933046363458099 -0.28239686571261502 0 0.24057087964953891 -0.26088709268020033 0 0.24314117507413391 -0.27430172371603162 0 0.22112203515483481 -0.26610468398043619 0 0.25175723827891727 -0.28401037683988128 0 0.24314117507413391 -0.27430172371603162 0 0.23933046363458099 -0.28239686571261502 0 0.25041081755491829 -0.26703854025063328 0 0.24057087964953891 -0.26088709268020033 0 0.24314117507413391 -0.27430172371603162 0 0.25041081755491829 -0.26703854025063328 0 0.25548147986079228 -0.27482558281646041 0 0.24314117507413391 -0.27430172371603162 0 0.22112203515483481 -0.26610468398043619 0 0.22251182704624031 -0.28200197536713978 0 0.23933046363458099 -0.28239686571261502 0 0.22112203515483481 -0.26610468398043619 0 0.23933046363458099 -0.28239686571261502 0 0.24314117507413391 -0.27430172371603162 0 0.22112203515483481 -0.26610468398043619 0 0.24057087964953891 -0.26088709268020033 0 0.22112203515483481 -0.26610468398043619 0 0.22824002358951981 -0.25691824546728609 0 0.22112203515483481 -0.26610468398043619 0 0.22824002358951981 -0.25691824546728609 0 0.21687744589983871 -0.25222819469780228 0 0.22824002358951981 -0.25691824546728609 0 0.21687744589983871 -0.25222819469780228 0 0.2222449605538882 -0.24652785509083011 0 0.22112203515483481 -0.26610468398043619 0 0.21687744589983871 -0.25222819469780228 0 0.20273920809173551 -0.24965645729264649 0 0.22112203515483481 -0.26610468398043619 0 0.20538005720077651 -0.26024443606525099 0 0.20273920809173551 -0.24965645729264649 0 0.22112203515483481 -0.26610468398043619 0 0.20273920809173551 -0.24965645729264649 0 0.22112203515483481 -0.26610468398043619 0 0.20538005720077651 -0.26024443606525099 0 0.22112203515483481 -0.26610468398043619 0 0.20724853317873229 -0.27595835706624611 0 0.22251182704624031 -0.28200197536713978 0 0.22112203515483481 -0.26610468398043619 0 0.20538005720077651 -0.26024443606525099 0 0.20724853317873229 -0.27595835706624611 0 0.20724853317873229 -0.27595835706624611 0 0.18938478975216491 -0.26959117801576182 0 0.1960201820069159 -0.28327650833581769 0 0.20724853317873229 -0.27595835706624611 0 0.18938478975216491 -0.26959117801576182 0 0.18963807924671869 -0.25438418815006431 0 0.20538005720077651 -0.26024443606525099 0 0.20724853317873229 -0.27595835706624611 0 0.18963807924671869 -0.25438418815006431 0 0.20538005720077651 -0.26024443606525099 0 0.18963807924671869 -0.25438418815006431 0 0.20538005720077651 -0.26024443606525099 0 0.18963807924671869 -0.25438418815006431 0 0.20273920809173551 -0.24965645729264649 0 0.20724853317873229 -0.27595835706624611 0 0.18963807924671869 -0.25438418815006431 0 0.1996419219496402 -0.30032416250819399 0 0.19575483119092241 -0.31477202809319288 0 0.18392485775987391 -0.30478761472482713 0 0.1996419219496402 -0.30032416250819399 0 0.207496847066823 -0.31197484668785258 0 0.19575483119092241 -0.31477202809319288 0 0.19575483119092241 -0.31477202809319288 0 0.18496657547759079 -0.31425121246610221 0 0.18392485775987391 -0.30478761472482713 0 0.1996419219496402 -0.30032416250819399 0 0.17559499016115329 -0.2896017615384186 0 0.1996419219496402 -0.30032416250819399 0 0.1960201820069159 -0.28327650833581769 0 0.18465163540903709 -0.2844690950240496 0 0.20724853317873229 -0.27595835706624611 0 0.22485898711074559 -0.29753252598242819 0 0.22251182704624031 -0.28200197536713978 0 0.20724853317873229 -0.27595835706624611 0 0.22485898711074559 -0.29753252598242819 0 0.20724853317873229 -0.27595835706624611 0 0.1960201820069159 -0.28327650833581769 0 0.21786439549878331 -0.2968698988880818 0 0.1996419219496402 -0.30032416250819399 0 0.1960201820069159 -0.28327650833581769 0 0.21786439549878331 -0.2968698988880818 0 0.20724853317873229 -0.27595835706624611 0 0.21786439549878331 -0.2968698988880818 0 0.22485898711074559 -0.29753252598242819 0 0.1960201820069159 -0.28327650833581769 0 0.21786439549878331 -0.2968698988880818 0 0.1996419219496402 -0.30032416250819399 0 0.207496847066823 -0.31197484668785258 0 0.22368885373812711 -0.31104656347796961 0 0.1996419219496402 -0.30032416250819399 0 0.22368885373812711 -0.31104656347796961 0 0.2199754930695276 -0.30269234390691607 0 0.1996419219496402 -0.30032416250819399 0 0.21786439549878331 -0.2968698988880818 0 0.2199754930695276 -0.30269234390691607 0 0.1996419219496402 -0.30032416250819399 0 0.22368885373812711 -0.31104656347796961 0 0.22368885373812711 -0.31104656347796961 0 0.2199754930695276 -0.30269234390691607 0 0.2323356113358164 -0.30510972431349292 0 0.2199754930695276 -0.30269234390691607 0 0.22485898711074559 -0.29753252598242819 0 0.2323356113358164 -0.30510972431349292 0 0.21786439549878331 -0.2968698988880818 0 0.2199754930695276 -0.30269234390691607 0 0.22485898711074559 -0.29753252598242819 0 0.22485898711074559 -0.29753252598242819 0 0.2323356113358164 -0.30510972431349292 0 0.2333678816841176 -0.29540242923671622 0 0.22368885373812711 -0.31104656347796961 0 0.2323356113358164 -0.30510972431349292 0 0.23808957306242701 -0.31806920935398159 0 0.22251182704624031 -0.28200197536713978 0 0.22885084763584471 -0.2890205155665363 0 0.23933046363458099 -0.28239686571261502 0 0.22485898711074559 -0.29753252598242819 0 0.22251182704624031 -0.28200197536713978 0 0.22885084763584471 -0.2890205155665363 0 0.22485898711074559 -0.29753252598242819 0 0.2333678816841176 -0.29540242923671622 0 0.22885084763584471 -0.2890205155665363 0 0.2333678816841176 -0.29540242923671622 0 0.22885084763584471 -0.2890205155665363 0 0.23933046363458099 -0.28239686571261502 0 0.25753889211432701 -0.29868904744479402 0 0.23933046363458099 -0.28239686571261502 0 0.2426408128535564 -0.30047328696598619 0 0.25753889211432701 -0.29868904744479402 0 0.23933046363458099 -0.28239686571261502 0 0.25753889211432701 -0.29868904744479402 0 0.25175723827891727 -0.28401037683988128 0 0.23933046363458099 -0.28239686571261502 0 0.2333678816841176 -0.29540242923671622 0 0.23933046363458099 -0.28239686571261502 0 0.2426408128535564 -0.30047328696598619 0 0.2323356113358164 -0.30510972431349292 0 0.24113284105502031 -0.30875870977381042 0 0.23808957306242701 -0.31806920935398159 0 0.2323356113358164 -0.30510972431349292 0 0.24113284105502031 -0.30875870977381042 0 0.2426408128535564 -0.30047328696598619 0 0.2323356113358164 -0.30510972431349292 0 0.2333678816841176 -0.29540242923671622 0 0.2426408128535564 -0.30047328696598619 0 0.25146536696828148 -0.311382618461781 0 0.24113284105502031 -0.30875870977381042 0 0.2426408128535564 -0.30047328696598619 0 0.25359624740287762 -0.32344822482654528 0 0.25146536696828148 -0.311382618461781 0 0.23808957306242701 -0.31806920935398159 0 0.25146536696828148 -0.311382618461781 0 0.24113284105502031 -0.30875870977381042 0 0.23808957306242701 -0.31806920935398159 0 0.23808957306242701 -0.31806920935398159 0 0.24463449472280871 -0.33176062141936191 0 0.23406103644257631 -0.32880946810439882 0 0.25359624740287762 -0.32344822482654528 0 0.23808957306242701 -0.31806920935398159 0 0.24463449472280871 -0.33176062141936191 0 0.25483137275842388 -0.33462596871293221 0 0.24463449472280871 -0.33176062141936191 0 0.24778652996150041 -0.34100038757193951 0 0.24463449472280871 -0.33176062141936191 0 0.24778652996150041 -0.34100038757193951 0 0.23713801195345449 -0.34012384461201728 0 0.24463449472280871 -0.33176062141936191 0 0.23713801195345449 -0.34012384461201728 0 0.23406103644257631 -0.32880946810439882 0 0.23713801195345449 -0.34012384461201728 0 0.23406103644257631 -0.32880946810439882 0 0.2233009606400938 -0.33291347610124261 0 0.2233009606400938 -0.33291347610124261 0 0.2263824340864336 -0.34630989490781328 0 0.20789080604716029 -0.34843247942462802 0 0.23713801195345449 -0.34012384461201728 0 0.2233009606400938 -0.33291347610124261 0 0.2263824340864336 -0.34630989490781328 0 0.2233009606400938 -0.33291347610124261 0 0.22633235556286019 -0.32213653254006103 0 0.2109017813886023 -0.32175663267205379 0 0.22368885373812711 -0.31104656347796961 0 0.22633235556286019 -0.32213653254006103 0 0.2109017813886023 -0.32175663267205379 0 0.22368885373812711 -0.31104656347796961 0 0.23808957306242701 -0.31806920935398159 0 0.22633235556286019 -0.32213653254006103 0 0.23406103644257631 -0.32880946810439882 0 0.2233009606400938 -0.33291347610124261 0 0.22633235556286019 -0.32213653254006103 0 0.23808957306242701 -0.31806920935398159 0 0.23406103644257631 -0.32880946810439882 0 0.22633235556286019 -0.32213653254006103 0 0.24146598496200589 -0.36411254889637368 0 0.23912447091982281 -0.37871657610652432 0 0.22476096933797921 -0.37640626855892112 0 0.25190729546770829 -0.37177056320457008 0 0.24146598496200589 -0.36411254889637368 0 0.23912447091982281 -0.37871657610652432 0 0.2581710005860316 -0.3518188292338249 0 0.24146598496200589 -0.36411254889637368 0 0.24047176103938259 -0.3516429816308696 0 0.2601629119886546 -0.34547400845320603 0 0.24778652996150041 -0.34100038757193951 0 0.24047176103938259 -0.3516429816308696 0 0.2581710005860316 -0.3518188292338249 0 0.24146598496200589 -0.36411254889637368 0 0.24146598496200589 -0.36411254889637368 0 0.24047176103938259 -0.3516429816308696 0 0.2249418751801508 -0.35915563034921227 0 0.24778652996150041 -0.34100038757193951 0 0.23713801195345449 -0.34012384461201728 0 0.24047176103938259 -0.3516429816308696 0 0.23713801195345449 -0.34012384461201728 0 0.24047176103938259 -0.3516429816308696 0 0.2263824340864336 -0.34630989490781328 0 0.2263824340864336 -0.34630989490781328 0 0.2249418751801508 -0.35915563034921227 0 0.20789080604716029 -0.34843247942462802 0 0.24047176103938259 -0.3516429816308696 0 0.2263824340864336 -0.34630989490781328 0 0.2249418751801508 -0.35915563034921227 0 0.24146598496200589 -0.36411254889637368 0 0.2249418751801508 -0.35915563034921227 0 0.22476096933797921 -0.37640626855892112 0 0.24146598496200589 -0.36411254889637368 0 0.22476096933797921 -0.37640626855892112 0 0.2249418751801508 -0.35915563034921227 0 0.21120728553081389 -0.36737319844216287 0 0.22476096933797921 -0.37640626855892112 0 0.21120728553081389 -0.36737319844216287 0 0.20789080604716029 -0.34843247942462802 0 0.19038682337482821 -0.36417162565658379 0 0.21120728553081389 -0.36737319844216287 0 0.19038682337482821 -0.36417162565658379 0 0.20805595371395241 -0.38869998822146862 0 0.2249418751801508 -0.35915563034921227 0 0.21120728553081389 -0.36737319844216287 0 0.20789080604716029 -0.34843247942462802 0 0.20789080604716029 -0.34843247942462802 0 0.19038682337482821 -0.36417162565658379 0 0.20789080604716029 -0.34843247942462802 0 0.19038682337482821 -0.36417162565658379 0 0.17901347699933939 -0.34838309740874729 0 0.207496847066823 -0.31197484668785258 0 0.22368885373812711 -0.31104656347796961 0 0.2109017813886023 -0.32175663267205379 0 0.207496847066823 -0.31197484668785258 0 0.2109017813886023 -0.32175663267205379 0 0.19575483119092241 -0.31477202809319288 0 0.2233009606400938 -0.33291347610124261 0 0.20789080604716029 -0.34843247942462802 0 0.2109017813886023 -0.32175663267205379 0 0.20789080604716029 -0.34843247942462802 0 0.2109017813886023 -0.32175663267205379 0 0.19248017579521731 -0.3321635174076184 0 0.20789080604716029 -0.34843247942462802 0 0.19248017579521731 -0.3321635174076184 0 0.17901347699933939 -0.34838309740874729 0 0.2109017813886023 -0.32175663267205379 0 0.19248017579521731 -0.3321635174076184 0 0.19575483119092241 -0.31477202809319288 0 0.19248017579521731 -0.3321635174076184 0 0.19575483119092241 -0.31477202809319288 0 0.1816974809073858 -0.32368329862704909 0 0.19575483119092241 -0.31477202809319288 0 0.1816974809073858 -0.32368329862704909 0 0.19575483119092241 -0.31477202809319288 0 0.18496657547759079 -0.31425121246610221 0 0.1816974809073858 -0.32368329862704909 0 0.18496657547759079 -0.31425121246610221 0 0.1816974809073858 -0.32368329862704909 0 0.17144694916196479 -0.31981184956978148 0 0.18496657547759079 -0.31425121246610221 0 0.17144694916196479 -0.31981184956978148 0 0.17389593342071849 -0.30918044489691487 0 0.1816974809073858 -0.32368329862704909 0 0.16764013062385219 -0.3325945691609099 0 0.17144694916196479 -0.31981184956978148 0 0.19248017579521731 -0.3321635174076184 0 0.1816974809073858 -0.32368329862704909 0 0.17983592089225031 -0.33531674330423827 0 0.17983592089225031 -0.33531674330423827 0 0.16764013062385219 -0.3325945691609099 0 0.17901347699933939 -0.34838309740874729 0 0.16764013062385219 -0.3325945691609099 0 0.17901347699933939 -0.34838309740874729 0 0.19248017579521731 -0.3321635174076184 0 0.17983592089225031 -0.33531674330423827 0 0.17901347699933939 -0.34838309740874729 0 0.1816974809073858 -0.32368329862704909 0 0.16764013062385219 -0.3325945691609099 0 0.1816974809073858 -0.32368329862704909 0 0.17983592089225031 -0.33531674330423827 0 0.16764013062385219 -0.3325945691609099 0 0.16764013062385219 -0.3325945691609099 0 0.15464732660253941 -0.32680785299590009 0 0.14694060468228551 -0.33416367566000887 0 0.16764013062385219 -0.3325945691609099 0 0.16282049263822251 -0.32590392702549931 0 0.16764013062385219 -0.3325945691609099 0 0.16282049263822251 -0.32590392702549931 0 0.15464732660253941 -0.32680785299590009 0 0.16282049263822251 -0.32590392702549931 0 0.15534564103898191 -0.31753715555771972 0 0.15464732660253941 -0.32680785299590009 0 0.16282049263822251 -0.32590392702549931 0 0.1635419837454842 -0.31876575550157282 0 0.15534564103898191 -0.31753715555771972 0 0.1635419837454842 -0.31876575550157282 0 0.15534564103898191 -0.31753715555771972 0 0.1645548521427678 -0.31181008985329062 0 0.17144694916196479 -0.31981184956978148 0 0.17389593342071849 -0.30918044489691487 0 0.1645548521427678 -0.31181008985329062 0 0.1635419837454842 -0.31876575550157282 0 0.17144694916196479 -0.31981184956978148 0 0.1645548521427678 -0.31181008985329062 0 0.16282049263822251 -0.32590392702549931 0 0.1635419837454842 -0.31876575550157282 0 0.17144694916196479 -0.31981184956978148 0 0.16764013062385219 -0.3325945691609099 0 0.16282049263822251 -0.32590392702549931 0 0.17144694916196479 -0.31981184956978148 0 0.19038682337482821 -0.36417162565658379 0 0.1728128378695751 -0.36416853085440481 0 0.16978454160986309 -0.3826966854376338 0 0.19038682337482821 -0.36417162565658379 0 0.16978454160986309 -0.3826966854376338 0 0.19038682337482821 -0.36417162565658379 0 0.1728128378695751 -0.36416853085440481 0 0.17901347699933939 -0.34838309740874729 0 0.19038682337482821 -0.36417162565658379 0 0.17901347699933939 -0.34838309740874729 0 0.1728128378695751 -0.36416853085440481 0 0.17901347699933939 -0.34838309740874729 0 0.164917938703248 -0.35381332168036128 0 0.16764013062385219 -0.3325945691609099 0 0.17901347699933939 -0.34838309740874729 0 0.164917938703248 -0.35381332168036128 0 0.16764013062385219 -0.3325945691609099 0 0.164917938703248 -0.35381332168036128 0 0.14280157288908751 -0.34834028959760122 0 0.1728128378695751 -0.36416853085440481 0 0.164917938703248 -0.35381332168036128 0 0.15996140866059799 -0.37177792408869681 0 0.1728128378695751 -0.36416853085440481 0 0.15996140866059799 -0.37177792408869681 0 0.16978454160986309 -0.3826966854376338 0 0.15996140866059799 -0.37177792408869681 0 0.14027506293359071 -0.36547259065621862 0 0.13749590410147369 -0.3795107903002583 0 0.15996140866059799 -0.37177792408869681 0 0.14280157288908751 -0.34834028959760122 0 0.14027506293359071 -0.36547259065621862 0 0.15996140866059799 -0.37177792408869681 0 0.14280157288908751 -0.34834028959760122 0 0.164917938703248 -0.35381332168036128 0 0.15996140866059799 -0.37177792408869681 0 0.14280157288908751 -0.34834028959760122 0 0.14280157288908751 -0.34834028959760122 0 0.1208413660832037 -0.36226135863831821 0 0.11699351622576951 -0.34403361455389231 0 0.14280157288908751 -0.34834028959760122 0 0.1208413660832037 -0.36226135863831821 0 0.14280157288908751 -0.34834028959760122 0 0.14027506293359071 -0.36547259065621862 0 0.1208413660832037 -0.36226135863831821 0 0.14027506293359071 -0.36547259065621862 0 0.13749590410147369 -0.3795107903002583 0 0.1208413660832037 -0.36226135863831821 0 0.14457120243219601 -0.32286816238034938 0 0.14633917791433981 -0.31350769914162452 0 0.13592818618865821 -0.31132803863965253 0 0.14457120243219601 -0.32286816238034938 0 0.14633917791433981 -0.31350769914162452 0 0.15534564103898191 -0.31753715555771972 0 0.14633917791433981 -0.31350769914162452 0 0.15534564103898191 -0.31753715555771972 0 0.15127704398359129 -0.30842607005049238 0 0.14457120243219601 -0.32286816238034938 0 0.15534564103898191 -0.31753715555771972 0 0.15464732660253941 -0.32680785299590009 0 0.14457120243219601 -0.32286816238034938 0 0.15464732660253941 -0.32680785299590009 0 0.14694060468228551 -0.33416367566000887 0 0.16764013062385219 -0.3325945691609099 0 0.14280157288908751 -0.34834028959760122 0 0.16764013062385219 -0.3325945691609099 0 0.14280157288908751 -0.34834028959760122 0 0.14694060468228551 -0.33416367566000887 0 0.14457120243219601 -0.32286816238034938 0 0.14694060468228551 -0.33416367566000887 0 0.12961892576368231 -0.33033486873784551 0 0.14280157288908751 -0.34834028959760122 0 0.12961892576368231 -0.33033486873784551 0 0.11699351622576951 -0.34403361455389231 0 0.14280157288908751 -0.34834028959760122 0 0.14694060468228551 -0.33416367566000887 0 0.12961892576368231 -0.33033486873784551 0 0.14280157288908751 -0.34834028959760122 0 0.12961892576368231 -0.33033486873784551 0 0.14457120243219601 -0.32286816238034938 0 0.12961892576368231 -0.33033486873784551 0 0.13592818618865821 -0.31132803863965253 0 0.12961892576368231 -0.33033486873784551 0 0.13592818618865821 -0.31132803863965253 0 0.1164362786382771 -0.31232944787808981 0 0.13592818618865821 -0.31132803863965253 0 0.14370588941086221 -0.30451327395604311 0 0.1343008787529249 -0.29565270669279531 0 0.13592818618865821 -0.31132803863965253 0 0.1343008787529249 -0.29565270669279531 0 0.1197459798455955 -0.29742202926321543 0 0.14633917791433981 -0.31350769914162452 0 0.14370588941086221 -0.30451327395604311 0 0.15127704398359129 -0.30842607005049238 0 0.14633917791433981 -0.31350769914162452 0 0.13592818618865821 -0.31132803863965253 0 0.14370588941086221 -0.30451327395604311 0 0.14370588941086221 -0.30451327395604311 0 0.15223134537103261 -0.30034908205245142 0 0.14521319615885611 -0.29622272259402788 0 0.14370588941086221 -0.30451327395604311 0 0.14521319615885611 -0.29622272259402788 0 0.1343008787529249 -0.29565270669279531 0 0.14370588941086221 -0.30451327395604311 0 0.15223134537103261 -0.30034908205245142 0 0.15127704398359129 -0.30842607005049238 0 0.15223134537103261 -0.30034908205245142 0 0.15060623729783179 -0.29341210048605082 0 0.1591301185639856 -0.2973448818877506 0 0.15534564103898191 -0.31753715555771972 0 0.15127704398359129 -0.30842607005049238 0 0.1590279289931758 -0.30546643724168537 0 0.15223134537103261 -0.30034908205245142 0 0.15127704398359129 -0.30842607005049238 0 0.1590279289931758 -0.30546643724168537 0 0.15168119798134461 -0.28523010386903269 0 0.15060623729783179 -0.29341210048605082 0 0.1591301185639856 -0.2973448818877506 0 0.15168119798134461 -0.28523010386903269 0 0.15060623729783179 -0.29341210048605082 0 0.1440943488882146 -0.28957153907736771 0 0.15223134537103261 -0.30034908205245142 0 0.15060623729783179 -0.29341210048605082 0 0.14521319615885611 -0.29622272259402788 0 0.14521319615885611 -0.29622272259402788 0 0.1440943488882146 -0.28957153907736771 0 0.1343008787529249 -0.29565270669279531 0 0.15060623729783179 -0.29341210048605082 0 0.14521319615885611 -0.29622272259402788 0 0.1440943488882146 -0.28957153907736771 0 0.15168119798134461 -0.28523010386903269 0 0.1440943488882146 -0.28957153907736771 0 0.13809932188555391 -0.283757338703231 0 0.13809932188555391 -0.283757338703231 0 0.1343008787529249 -0.29565270669279531 0 0.1282379217895048 -0.2860663123777078 0 0.1440943488882146 -0.28957153907736771 0 0.13809932188555391 -0.283757338703231 0 0.1343008787529249 -0.29565270669279531 0 0.1343008787529249 -0.29565270669279531 0 0.1282379217895048 -0.2860663123777078 0 0.1197459798455955 -0.29742202926321543 0 0.13809932188555391 -0.283757338703231 0 0.1282379217895048 -0.2860663123777078 0 0.13161107513800779 -0.27089164914675262 0 0.1282379217895048 -0.2860663123777078 0 0.13161107513800779 -0.27089164914675262 0 0.1174323533254415 -0.28260783808254508 0 0.15168119798134461 -0.28523010386903269 0 0.13809932188555391 -0.283757338703231 0 0.13161107513800779 -0.27089164914675262 0 0.13161107513800779 -0.27089164914675262 0 0.14352025240818661 -0.26105083466349449 0 0.13161107513800779 -0.27089164914675262 0 0.14352025240818661 -0.26105083466349449 0 0.1443779236123795 -0.27237156528195461 0 0.13161107513800779 -0.27089164914675262 0 0.13030530462117779 -0.25171385039249911 0 0.14352025240818661 -0.26105083466349449 0 0.13030530462117779 -0.25171385039249911 0 0.1422398969336455 -0.25095148979243781 0 0.14352025240818661 -0.26105083466349449 0 0.1422398969336455 -0.25095148979243781 0 0.14352025240818661 -0.26105083466349449 0 0.15542942967836421 -0.25121002018023469 0 0.14352025240818661 -0.26105083466349449 0 0.14950499553281019 -0.26284815503313552 0 0.14827094721741929 -0.26710049982690792 0 0.14352025240818661 -0.26105083466349449 0 0.14950499553281019 -0.26284815503313552 0 0.15233175502318111 -0.25608972723128942 0 0.14950499553281019 -0.26284815503313552 0 0.15233175502318111 -0.25608972723128942 0 0.15526452299042029 -0.26698029863988082 0 0.14352025240818661 -0.26105083466349449 0 0.15542942967836421 -0.25121002018023469 0 0.14352025240818661 -0.26105083466349449 0 0.15542942967836421 -0.25121002018023469 0 0.15233175502318111 -0.25608972723128942 0 0.15168119798134461 -0.28523010386903269 0 0.13161107513800779 -0.27089164914675262 0 0.1443779236123795 -0.27237156528195461 0 0.15168119798134461 -0.28523010386903269 0 0.13161107513800779 -0.27089164914675262 0 0.14352025240818661 -0.26105083466349449 0 0.1443779236123795 -0.27237156528195461 0 0.14827094721741929 -0.26710049982690792 0 0.1443779236123795 -0.27237156528195461 0 0.14827094721741929 -0.26710049982690792 0 0.15142203255923239 -0.27190912597413452 0 0.14827094721741929 -0.26710049982690792 0 0.15142203255923239 -0.27190912597413452 0 0.15526452299042029 -0.26698029863988082 0 0.14950499553281019 -0.26284815503313552 0 0.14827094721741929 -0.26710049982690792 0 0.15526452299042029 -0.26698029863988082 0 0.15142203255923239 -0.27190912597413452 0 0.15526452299042029 -0.26698029863988082 0 0.15901620611124281 -0.27404264578231641 0 0.15142203255923239 -0.27190912597413452 0 0.15154805837266619 -0.27887936056864299 0 0.15901620611124281 -0.27404264578231641 0 0.15168119798134461 -0.28523010386903269 0 0.1443779236123795 -0.27237156528195461 0 0.15154805837266619 -0.27887936056864299 0 0.1443779236123795 -0.27237156528195461 0 0.15142203255923239 -0.27190912597413452 0 0.15154805837266619 -0.27887936056864299 0 0.15526452299042029 -0.26698029863988082 0 0.15901620611124281 -0.27404264578231641 0 0.1741759685150486 -0.26968311778355358 0 0.15154805837266619 -0.27887936056864299 0 0.15901620611124281 -0.27404264578231641 0 0.1671240885617766 -0.27836416949673731 0 0.15901620611124281 -0.27404264578231641 0 0.1671240885617766 -0.27836416949673731 0 0.1741759685150486 -0.26968311778355358 0 0.15542942967836421 -0.25121002018023469 0 0.1741759685150486 -0.26968311778355358 0 0.1655278077511898 -0.24540868528259829 0 0.15233175502318111 -0.25608972723128942 0 0.1741759685150486 -0.26968311778355358 0 0.15542942967836421 -0.25121002018023469 0 0.15233175502318111 -0.25608972723128942 0 0.1741759685150486 -0.26968311778355358 0 0.15233175502318111 -0.25608972723128942 0 0.15526452299042029 -0.26698029863988082 0 0.1741759685150486 -0.26968311778355358 0 0.18963807924671869 -0.25438418815006431 0 0.1741759685150486 -0.26968311778355358 0 0.1655278077511898 -0.24540868528259829 0 0.18938478975216491 -0.26959117801576182 0 0.18963807924671869 -0.25438418815006431 0 0.1741759685150486 -0.26968311778355358 0 0.1960201820069159 -0.28327650833581769 0 0.1741759685150486 -0.26968311778355358 0 0.18465163540903709 -0.2844690950240496 0 0.18938478975216491 -0.26959117801576182 0 0.1960201820069159 -0.28327650833581769 0 0.1741759685150486 -0.26968311778355358 0 0.1960201820069159 -0.28327650833581769 0 0.1741759685150486 -0.26968311778355358 0 0.17544618644263529 -0.28023896133809562 0 0.1741759685150486 -0.26968311778355358 0 0.18465163540903709 -0.2844690950240496 0 0.1671240885617766 -0.27836416949673731 0 0.17544618644263529 -0.28023896133809562 0 0.1741759685150486 -0.26968311778355358 0 0.1996419219496402 -0.30032416250819399 0 0.18465163540903709 -0.2844690950240496 0 0.17559499016115329 -0.2896017615384186 0 0.1671240885617766 -0.27836416949673731 0 0.17544618644263529 -0.28023896133809562 0 0.17559499016115329 -0.2896017615384186 0 0.17544618644263529 -0.28023896133809562 0 0.18465163540903709 -0.2844690950240496 0 0.17559499016115329 -0.2896017615384186 0 0.1996419219496402 -0.30032416250819399 0 0.17559499016115329 -0.2896017615384186 0 0.18392485775987391 -0.30478761472482713 0 0.18496657547759079 -0.31425121246610221 0 0.18392485775987391 -0.30478761472482713 0 0.17389593342071849 -0.30918044489691487 0 0.17559499016115329 -0.2896017615384186 0 0.18392485775987391 -0.30478761472482713 0 0.171751320824681 -0.29956855859131332 0 0.18392485775987391 -0.30478761472482713 0 0.17389593342071849 -0.30918044489691487 0 0.171751320824681 -0.29956855859131332 0 0.171751320824681 -0.29956855859131332 0 0.16567203078906581 -0.30467408249419092 0 0.1591301185639856 -0.2973448818877506 0 0.17389593342071849 -0.30918044489691487 0 0.171751320824681 -0.29956855859131332 0 0.16567203078906581 -0.30467408249419092 0 0.17389593342071849 -0.30918044489691487 0 0.16567203078906581 -0.30467408249419092 0 0.1645548521427678 -0.31181008985329062 0 0.15534564103898191 -0.31753715555771972 0 0.1645548521427678 -0.31181008985329062 0 0.1590279289931758 -0.30546643724168537 0 0.16567203078906581 -0.30467408249419092 0 0.1645548521427678 -0.31181008985329062 0 0.1590279289931758 -0.30546643724168537 0 0.15223134537103261 -0.30034908205245142 0 0.1590279289931758 -0.30546643724168537 0 0.1591301185639856 -0.2973448818877506 0 0.16567203078906581 -0.30467408249419092 0 0.1590279289931758 -0.30546643724168537 0 0.1591301185639856 -0.2973448818877506 0 0.15154805837266619 -0.27887936056864299 0 0.1671240885617766 -0.27836416949673731 0 0.17559499016115329 -0.2896017615384186 0 0.15168119798134461 -0.28523010386903269 0 0.15154805837266619 -0.27887936056864299 0 0.17559499016115329 -0.2896017615384186 0 0.15168119798134461 -0.28523010386903269 0 0.171751320824681 -0.29956855859131332 0 0.1591301185639856 -0.2973448818877506 0 0.15154805837266619 -0.27887936056864299 0 0.17559499016115329 -0.2896017615384186 0 0.15168119798134461 -0.28523010386903269 0 0.171751320824681 -0.29956855859131332 0 0.15168119798134461 -0.28523010386903269 0 0.17559499016115329 -0.2896017615384186 0 0.171751320824681 -0.29956855859131332 0 0.1932613357559653 -0.5 0 0.20092204416280729 -0.477951249296721 0 0.18480929435454699 -0.48307757861281109 0 0.20092204416280729 -0.477951249296721 0 0.19635070587972009 -0.46154050094585369 0 0.18480929435454699 -0.48307757861281109 0 0.20092204416280729 -0.477951249296721 0 0.2118134382512247 -0.46811058602967759 0 0.19635070587972009 -0.46154050094585369 0 0.20092204416280729 -0.477951249296721 0 0.21700193675815169 -0.48301631175723347 0 0.2118134382512247 -0.46811058602967759 0 0.21700193675815169 -0.48301631175723347 0 0.22725538399127829 -0.46838674293652999 0 0.2118134382512247 -0.46811058602967759 0 0.1932613357559653 -0.5 0 0.21700193675815169 -0.48301631175723347 0 0.22276838854839279 -0.5 0 0.1932613357559653 -0.5 0 0.20092204416280729 -0.477951249296721 0 0.21700193675815169 -0.48301631175723347 0 0.21700193675815169 -0.48301631175723347 0 0.22276838854839279 -0.5 0 0.2397654126660492 -0.48419337146826508 0 0.25227544134082031 -0.50000000000000022 0 0.2397654126660492 -0.48419337146826508 0 0.25227544134082031 -0.50000000000000022 0 0.22276838854839279 -0.5 0 0.2397654126660492 -0.48419337146826508 0 0.26193558570745012 -0.48063280291756871 0 0.2397654126660492 -0.48419337146826508 0 0.24448467661682541 -0.46126560583513659 0 0.2397654126660492 -0.48419337146826508 0 0.22725538399127829 -0.46838674293652999 0 0.24448467661682541 -0.46126560583513659 0 0.21700193675815169 -0.48301631175723347 0 0.2397654126660492 -0.48419337146826508 0 0.22725538399127829 -0.46838674293652999 0 0.2397654126660492 -0.48419337146826508 0 0.22725538399127829 -0.46838674293652999 0 0.22837979586270299 -0.45603271798229161 0 0.22725538399127829 -0.46838674293652999 0 0.21474535531650751 -0.4525801144047949 0 0.22837979586270299 -0.45603271798229161 0 0.22725538399127829 -0.46838674293652999 0 0.24448467661682541 -0.46126560583513659 0 0.22725538399127829 -0.46838674293652999 0 0.21474535531650751 -0.4525801144047949 0 0.24448467661682541 -0.46126560583513659 0 0.2270337675262008 -0.44189840875270481 0 0.24448467661682541 -0.46126560583513659 0 0.2487244885417072 -0.44515622280077161 0 0.2270337675262008 -0.44189840875270481 0 0.22837979586270299 -0.45603271798229161 0 0.24448467661682541 -0.46126560583513659 0 0.2270337675262008 -0.44189840875270481 0 0.22837979586270299 -0.45603271798229161 0 0.2270337675262008 -0.44189840875270481 0 0.21474535531650751 -0.4525801144047949 0 0.2270337675262008 -0.44189840875270481 0 0.21503845148411579 -0.44058834755584081 0 0.21474535531650751 -0.4525801144047949 0 0.21474535531650751 -0.4525801144047949 0 0.19635070587972009 -0.46154050094585369 0 0.20173184014505099 -0.43814329044665062 0 0.21503845148411579 -0.44058834755584081 0 0.21474535531650751 -0.4525801144047949 0 0.20173184014505099 -0.43814329044665062 0 0.21474535531650751 -0.4525801144047949 0 0.2118134382512247 -0.46811058602967759 0 0.19635070587972009 -0.46154050094585369 0 0.22725538399127829 -0.46838674293652999 0 0.21474535531650751 -0.4525801144047949 0 0.2118134382512247 -0.46811058602967759 0 0.19635070587972009 -0.46154050094585369 0 0.20173184014505099 -0.43814329044665062 0 0.18489248577170669 -0.44492683264729932 0 0.20173184014505099 -0.43814329044665062 0 0.1875464182685864 -0.42919445327344941 0 0.20295458911210629 -0.41825892930100711 0 0.20173184014505099 -0.43814329044665062 0 0.1875464182685864 -0.42919445327344941 0 0.18489248577170669 -0.44492683264729932 0 0.1875464182685864 -0.42919445327344941 0 0.20295458911210629 -0.41825892930100711 0 0.18753249281942319 -0.40380381574376689 0 0.20295458911210629 -0.41825892930100711 0 0.20458698384465809 -0.40394316469321528 0 0.18753249281942319 -0.40380381574376689 0 0.20295458911210629 -0.41825892930100711 0 0.21664284294870401 -0.4297315766192128 0 0.21980489973315209 -0.40500992550661791 0 0.20295458911210629 -0.41825892930100711 0 0.21980489973315209 -0.40500992550661791 0 0.20458698384465809 -0.40394316469321528 0 0.20173184014505099 -0.43814329044665062 0 0.20295458911210629 -0.41825892930100711 0 0.21664284294870401 -0.4297315766192128 0 0.20173184014505099 -0.43814329044665062 0 0.21664284294870401 -0.4297315766192128 0 0.21503845148411579 -0.44058834755584081 0 0.20173184014505099 -0.43814329044665062 0 0.21664284294870401 -0.4297315766192128 0 0.2270337675262008 -0.44189840875270481 0 0.21503845148411579 -0.44058834755584081 0 0.21664284294870401 -0.4297315766192128 0 0.2270337675262008 -0.44189840875270481 0 0.21664284294870401 -0.4297315766192128 0 0.2315538457523523 -0.4213198627917667 0 0.21664284294870401 -0.4297315766192128 0 0.2315538457523523 -0.4213198627917667 0 0.2487244885417072 -0.44515622280077161 0 0.2315538457523523 -0.4213198627917667 0 0.2487244885417072 -0.44515622280077161 0 0.2270337675262008 -0.44189840875270481 0 0.2315538457523523 -0.4213198627917667 0 0.2487244885417072 -0.44515622280077161 0 0.24989084696786101 -0.42678548658759008 0 0.2315538457523523 -0.4213198627917667 0 0.25148351609398711 -0.41007697820537448 0 0.2315538457523523 -0.4213198627917667 0 0.25148351609398711 -0.41007697820537448 0 0.23937988523106549 -0.41167403114606171 0 0.2315538457523523 -0.4213198627917667 0 0.25148351609398711 -0.41007697820537448 0 0.24989084696786101 -0.42678548658759008 0 0.2315538457523523 -0.4213198627917667 0 0.2315538457523523 -0.4213198627917667 0 0.21980489973315209 -0.40500992550661791 0 0.21664284294870401 -0.4297315766192128 0 0.2315538457523523 -0.4213198627917667 0 0.21980489973315209 -0.40500992550661791 0 0.23937988523106549 -0.41167403114606171 0 0.2315538457523523 -0.4213198627917667 0 0.21980489973315209 -0.40500992550661791 0 0.21980489973315209 -0.40500992550661791 0 0.2294616282142265 -0.39203818111915162 0 0.20805595371395241 -0.38869998822146862 0 0.23937988523106549 -0.41167403114606171 0 0.21980489973315209 -0.40500992550661791 0 0.2294616282142265 -0.39203818111915162 0 0.25148351609398711 -0.41007697820537448 0 0.23937988523106549 -0.41167403114606171 0 0.2456435903493869 -0.39172229717531593 0 0.23937988523106549 -0.41167403114606171 0 0.2456435903493869 -0.39172229717531593 0 0.23937988523106549 -0.41167403114606171 0 0.2294616282142265 -0.39203818111915162 0 0.2456435903493869 -0.39172229717531593 0 0.25190729546770829 -0.37177056320457008 0 0.2456435903493869 -0.39172229717531593 0 0.2294616282142265 -0.39203818111915162 0 0.2456435903493869 -0.39172229717531593 0 0.23912447091982281 -0.37871657610652432 0 0.25190729546770829 -0.37177056320457008 0 0.2456435903493869 -0.39172229717531593 0 0.23912447091982281 -0.37871657610652432 0 0.2294616282142265 -0.39203818111915162 0 0.22476096933797921 -0.37640626855892112 0 0.20805595371395241 -0.38869998822146862 0 0.2294616282142265 -0.39203818111915162 0 0.23912447091982281 -0.37871657610652432 0 0.22476096933797921 -0.37640626855892112 0 0.22476096933797921 -0.37640626855892112 0 0.20805595371395241 -0.38869998822146862 0 0.21120728553081389 -0.36737319844216287 0 0.22476096933797921 -0.37640626855892112 0 0.20805595371395241 -0.38869998822146862 0 0.21980489973315209 -0.40500992550661791 0 0.20805595371395241 -0.38869998822146862 0 0.21980489973315209 -0.40500992550661791 0 0.20805595371395241 -0.38869998822146862 0 0.20458698384465809 -0.40394316469321528 0 0.20805595371395241 -0.38869998822146862 0 0.20458698384465809 -0.40394316469321528 0 0.18753249281942319 -0.40380381574376689 0 0.20805595371395241 -0.38869998822146862 0 0.18753249281942319 -0.40380381574376689 0 0.1880792409587915 -0.38537837461481472 0 0.20805595371395241 -0.38869998822146862 0 0.18753249281942319 -0.40380381574376689 0 0.19038682337482821 -0.36417162565658379 0 0.20805595371395241 -0.38869998822146862 0 0.1880792409587915 -0.38537837461481472 0 0.19038682337482821 -0.36417162565658379 0 0.20805595371395241 -0.38869998822146862 0 0.19038682337482821 -0.36417162565658379 0 0.1880792409587915 -0.38537837461481472 0 0.16978454160986309 -0.3826966854376338 0 0.1880792409587915 -0.38537837461481472 0 0.1708147191515601 -0.40175927590006849 0 0.16978454160986309 -0.3826966854376338 0 0.18753249281942319 -0.40380381574376689 0 0.1880792409587915 -0.38537837461481472 0 0.1708147191515601 -0.40175927590006849 0 0.1708147191515601 -0.40175927590006849 0 0.16978454160986309 -0.3826966854376338 0 0.14918225984488909 -0.40122174521867421 0 0.16978454160986309 -0.3826966854376338 0 0.14918225984488909 -0.40122174521867421 0 0.15996140866059799 -0.37177792408869681 0 0.16978454160986309 -0.3826966854376338 0 0.14918225984488909 -0.40122174521867421 0 0.15996140866059799 -0.37177792408869681 0 0.13749590410147369 -0.3795107903002583 0 0.14918225984488909 -0.40122174521867421 0 0.13749590410147369 -0.3795107903002583 0 0.1184520032127041 -0.38876161973235129 0 0.1208413660832037 -0.36226135863831821 0 0.13749590410147369 -0.3795107903002583 0 0.14918225984488909 -0.40122174521867421 0 0.1184520032127041 -0.38876161973235129 0 0.14918225984488909 -0.40122174521867421 0 0.128579978079915 -0.41974680499971451 0 0.1184520032127041 -0.38876161973235129 0 0.14918225984488909 -0.40122174521867421 0 0.14251355274475361 -0.42230368289490028 0 0.1581210986298944 -0.42220705582360568 0 0.14918225984488909 -0.40122174521867421 0 0.128579978079915 -0.41974680499971451 0 0.14918225984488909 -0.40122174521867421 0 0.128579978079915 -0.41974680499971451 0 0.14251355274475361 -0.42230368289490028 0 0.128579978079915 -0.41974680499971451 0 0.128230662296104 -0.43392855666343189 0 0.14251355274475361 -0.42230368289490028 0 0.128230662296104 -0.43392855666343189 0 0.14218790461648639 -0.43646617140533089 0 0.14251355274475361 -0.42230368289490028 0 0.14218790461648639 -0.43646617140533089 0 0.1581210986298944 -0.42220705582360568 0 0.15845405971352261 -0.44097764749030599 0 0.14218790461648639 -0.43646617140533089 0 0.14251355274475361 -0.42230368289490028 0 0.1581210986298944 -0.42220705582360568 0 0.1581210986298944 -0.42220705582360568 0 0.17178448017686179 -0.4344642975777871 0 0.17432826953300781 -0.41804144753026862 0 0.1581210986298944 -0.42220705582360568 0 0.17178448017686179 -0.4344642975777871 0 0.15845405971352261 -0.44097764749030599 0 0.1708147191515601 -0.40175927590006849 0 0.14918225984488909 -0.40122174521867421 0 0.1581210986298944 -0.42220705582360568 0 0.1708147191515601 -0.40175927590006849 0 0.1581210986298944 -0.42220705582360568 0 0.17432826953300781 -0.41804144753026862 0 0.1875464182685864 -0.42919445327344941 0 0.18753249281942319 -0.40380381574376689 0 0.17432826953300781 -0.41804144753026862 0 0.18753249281942319 -0.40380381574376689 0 0.1708147191515601 -0.40175927590006849 0 0.17432826953300781 -0.41804144753026862 0 0.1875464182685864 -0.42919445327344941 0 0.17178448017686179 -0.4344642975777871 0 0.17432826953300781 -0.41804144753026862 0 0.1875464182685864 -0.42919445327344941 0 0.17178448017686179 -0.4344642975777871 0 0.18489248577170669 -0.44492683264729932 0 0.17178448017686179 -0.4344642975777871 0 0.18489248577170669 -0.44492683264729932 0 0.16887801808421149 -0.44972215507966079 0 0.18489248577170669 -0.44492683264729932 0 0.174144600582367 -0.46745484977939372 0 0.16887801808421149 -0.44972215507966079 0 0.19635070587972009 -0.46154050094585369 0 0.18489248577170669 -0.44492683264729932 0 0.174144600582367 -0.46745484977939372 0 0.174144600582367 -0.46745484977939372 0 0.15208903751071601 -0.45772721972955638 0 0.15386301751945641 -0.47838200609423043 0 0.174144600582367 -0.46745484977939372 0 0.16887801808421149 -0.44972215507966079 0 0.15208903751071601 -0.45772721972955638 0 0.174144600582367 -0.46745484977939372 0 0.15208903751071601 -0.45772721972955638 0 0.16887801808421149 -0.44972215507966079 0 0.15845405971352261 -0.44097764749030599 0 0.15208903751071601 -0.45772721972955638 0 0.17178448017686179 -0.4344642975777871 0 0.16887801808421149 -0.44972215507966079 0 0.15845405971352261 -0.44097764749030599 0 0.13003347443906579 -0.44799958967971709 0 0.15208903751071601 -0.45772721972955638 0 0.14218790461648639 -0.43646617140533089 0 0.13003347443906579 -0.44799958967971709 0 0.15208903751071601 -0.45772721972955638 0 0.14218790461648639 -0.43646617140533089 0 0.15845405971352261 -0.44097764749030599 0 0.15208903751071601 -0.45772721972955638 0 0.128230662296104 -0.43392855666343189 0 0.14218790461648639 -0.43646617140533089 0 0.13003347443906579 -0.44799958967971709 0 0.14218790461648639 -0.43646617140533089 0 0.13003347443906579 -0.44799958967971709 0 0.13676800002255429 -0.46259755135231428 0 0.13122867703136229 -0.47781684318553741 0 0.1128821897454062 -0.46427455587949018 0 0.13003347443906579 -0.44799958967971709 0 0.13676800002255429 -0.46259755135231428 0 0.15208903751071601 -0.45772721972955638 0 0.13003347443906579 -0.44799958967971709 0 0.13676800002255429 -0.46259755135231428 0 0.1128821897454062 -0.46427455587949018 0 0.13676800002255429 -0.46259755135231428 0 0.15208903751071601 -0.45772721972955638 0 0.15386301751945641 -0.47838200609423043 0 0.13676800002255429 -0.46259755135231428 0 0.15386301751945641 -0.47838200609423043 0 0.13122867703136229 -0.47781684318553741 0 0.15386301751945641 -0.47838200609423043 0 0.13122867703136229 -0.47781684318553741 0 0.1342472301711104 -0.5 0 0.13122867703136229 -0.47781684318553741 0 0.1342472301711104 -0.5 0 0.1202854200361709 -0.48399946037215241 0 0.15386301751945641 -0.47838200609423043 0 0.1342472301711104 -0.5 0 0.16375428296353789 -0.5 0 0.15386301751945641 -0.47838200609423043 0 0.16375428296353789 -0.5 0 0.18480929435454699 -0.48307757861281109 0 0.174144600582367 -0.46745484977939372 0 0.15386301751945641 -0.47838200609423043 0 0.18480929435454699 -0.48307757861281109 0 0.19635070587972009 -0.46154050094585369 0 0.174144600582367 -0.46745484977939372 0 0.18480929435454699 -0.48307757861281109 0 0.1932613357559653 -0.5 0 0.16375428296353789 -0.5 0 0.18480929435454699 -0.48307757861281109 0 0.075233124586255612 -0.49999999999999928 0 0.078579620358088242 -0.49682448827903752 0 0.059756779632175121 -0.49720889362976839 0 0.067621638624908817 -0.4874476272432311 0 0.078325873142954874 -0.48047096443427839 0 0.078579620358088242 -0.49682448827903752 0 0.078579620358088242 -0.49682448827903752 0 0.059756779632175121 -0.49720889362976839 0 0.067621638624908817 -0.4874476272432311 0 0.078579620358088242 -0.49682448827903752 0 0.059756779632175121 -0.49720889362976839 0 0.075233124586255612 -0.49999999999999928 0 0.078579620358088242 -0.49682448827903752 0 0.067621638624908817 -0.4874476272432311 0 0.066450745843098652 -0.47297506758585067 0 0.053425478362058763 -0.48572311651788458 0 0.066450745843098652 -0.47297506758585067 0 0.078325873142954874 -0.48047096443427839 0 0.083246455836931632 -0.46455811698400939 0 0.067621638624908817 -0.4874476272432311 0 0.066450745843098652 -0.47297506758585067 0 0.078325873142954874 -0.48047096443427839 0 0.078325873142954874 -0.48047096443427839 0 0.095730905051747181 -0.48054952207926371 0 0.083246455836931632 -0.46455811698400939 0 0.075233124586255612 -0.49999999999999928 0 0.10474017737868301 -0.5 0 0.098274200944872409 -0.49642228001152938 0 0.078579620358088242 -0.49682448827903752 0 0.098274200944872409 -0.49642228001152938 0 0.078325873142954874 -0.48047096443427839 0 0.078579620358088242 -0.49682448827903752 0 0.095730905051747181 -0.48054952207926371 0 0.075233124586255612 -0.49999999999999928 0 0.078579620358088242 -0.49682448827903752 0 0.098274200944872409 -0.49642228001152938 0 0.078579620358088242 -0.49682448827903752 0 0.095730905051747181 -0.48054952207926371 0 0.078579620358088242 -0.49682448827903752 0 0.098274200944872409 -0.49642228001152938 0 0.095730905051747181 -0.48054952207926371 0 0.098274200944872409 -0.49642228001152938 0 0.1179687815316566 -0.49602007174402107 0 0.098274200944872409 -0.49642228001152938 0 0.1079277690529515 -0.48673535099972381 0 0.095730905051747181 -0.48054952207926371 0 0.10474017737868301 -0.5 0 0.098274200944872409 -0.49642228001152938 0 0.1179687815316566 -0.49602007174402107 0 0.098274200944872409 -0.49642228001152938 0 0.1079277690529515 -0.48673535099972381 0 0.1179687815316566 -0.49602007174402107 0 0.1342472301711104 -0.5 0 0.10474017737868301 -0.5 0 0.1179687815316566 -0.49602007174402107 0 0.1342472301711104 -0.5 0 0.1179687815316566 -0.49602007174402107 0 0.1202854200361709 -0.48399946037215241 0 0.1079277690529515 -0.48673535099972381 0 0.1179687815316566 -0.49602007174402107 0 0.1202854200361709 -0.48399946037215241 0 0.1079277690529515 -0.48673535099972381 0 0.1202854200361709 -0.48399946037215241 0 0.1128821897454062 -0.46427455587949018 0 0.13122867703136229 -0.47781684318553741 0 0.1202854200361709 -0.48399946037215241 0 0.1128821897454062 -0.46427455587949018 0 0.095730905051747181 -0.48054952207926371 0 0.1128821897454062 -0.46427455587949018 0 0.1079277690529515 -0.48673535099972381 0 0.095730905051747181 -0.48054952207926371 0 0.1128821897454062 -0.46427455587949018 0 0.095730905051747181 -0.48054952207926371 0 0.099341140043946577 -0.45822405309284131 0 0.1128821897454062 -0.46427455587949018 0 0.099341140043946577 -0.45822405309284131 0 0.1128821897454062 -0.46427455587949018 0 0.11073240272465119 -0.45022666798061439 0 0.13003347443906579 -0.44799958967971709 0 0.1128821897454062 -0.46427455587949018 0 0.13003347443906579 -0.44799958967971709 0 0.1128821897454062 -0.46427455587949018 0 0.11073240272465119 -0.45022666798061439 0 0.13003347443906579 -0.44799958967971709 0 0.11073240272465119 -0.45022666798061439 0 0.1079776963149409 -0.43827186478075492 0 0.128230662296104 -0.43392855666343189 0 0.13003347443906579 -0.44799958967971709 0 0.1079776963149409 -0.43827186478075492 0 0.13003347443906579 -0.44799958967971709 0 0.1079776963149409 -0.43827186478075492 0 0.099341140043946577 -0.45822405309284131 0 0.11073240272465119 -0.45022666798061439 0 0.1034275130798967 -0.44236327647026918 0 0.099341140043946577 -0.45822405309284131 0 0.1034275130798967 -0.44236327647026918 0 0.087725681442293715 -0.44638531562717182 0 0.1079776963149409 -0.43827186478075492 0 0.1034275130798967 -0.44236327647026918 0 0.1034275130798967 -0.44236327647026918 0 0.087725681442293715 -0.44638531562717182 0 0.092775330804302003 -0.43156684495924852 0 0.11073240272465119 -0.45022666798061439 0 0.1079776963149409 -0.43827186478075492 0 0.1034275130798967 -0.44236327647026918 0 0.087725681442293715 -0.44638531562717182 0 0.079614178137196873 -0.43506068448760549 0 0.092775330804302003 -0.43156684495924852 0 0.087725681442293715 -0.44638531562717182 0 0.083246455836931632 -0.46455811698400939 0 0.066618833321472198 -0.44771587494770521 0 0.095730905051747181 -0.48054952207926371 0 0.099341140043946577 -0.45822405309284131 0 0.083246455836931632 -0.46455811698400939 0 0.099341140043946577 -0.45822405309284131 0 0.087725681442293715 -0.44638531562717182 0 0.083246455836931632 -0.46455811698400939 0 0.066450745843098652 -0.47297506758585067 0 0.083246455836931632 -0.46455811698400939 0 0.066618833321472198 -0.44771587494770521 0 0.087725681442293715 -0.44638531562717182 0 0.066618833321472198 -0.44771587494770521 0 0.079614178137196873 -0.43506068448760549 0 0.066618833321472198 -0.44771587494770521 0 0.069089451329788915 -0.42119935658914021 0 0.079614178137196873 -0.43506068448760549 0 0.069089451329788915 -0.42119935658914021 0 0.087108259644590097 -0.41907880042124213 0 0.076004209027174224 -0.40197645420861039 0 0.069089451329788915 -0.42119935658914021 0 0.076004209027174224 -0.40197645420861039 0 0.056049969811074178 -0.4036190170207814 0 0.087108259644590097 -0.41907880042124213 0 0.10046198581365461 -0.40219484262099969 0 0.076004209027174224 -0.40197645420861039 0 0.087108259644590097 -0.41907880042124213 0 0.079614178137196873 -0.43506068448760549 0 0.092775330804302003 -0.43156684495924852 0 0.069089451329788915 -0.42119935658914021 0 0.087108259644590097 -0.41907880042124213 0 0.079614178137196873 -0.43506068448760549 0 0.087108259644590097 -0.41907880042124213 0 0.092775330804302003 -0.43156684495924852 0 0.10507367822392499 -0.42181603084614427 0 0.1079776963149409 -0.43827186478075492 0 0.092775330804302003 -0.43156684495924852 0 0.1079776963149409 -0.43827186478075492 0 0.092775330804302003 -0.43156684495924852 0 0.10507367822392499 -0.42181603084614427 0 0.1079776963149409 -0.43827186478075492 0 0.1034275130798967 -0.44236327647026918 0 0.092775330804302003 -0.43156684495924852 0 0.128579978079915 -0.41974680499971451 0 0.1079776963149409 -0.43827186478075492 0 0.128579978079915 -0.41974680499971451 0 0.128230662296104 -0.43392855666343189 0 0.1079776963149409 -0.43827186478075492 0 0.128579978079915 -0.41974680499971451 0 0.1079776963149409 -0.43827186478075492 0 0.10507367822392499 -0.42181603084614427 0 0.128579978079915 -0.41974680499971451 0 0.10507367822392499 -0.42181603084614427 0 0.10046198581365461 -0.40219484262099969 0 0.087108259644590097 -0.41907880042124213 0 0.10507367822392499 -0.42181603084614427 0 0.10046198581365461 -0.40219484262099969 0 0.128579978079915 -0.41974680499971451 0 0.10046198581365461 -0.40219484262099969 0 0.1184520032127041 -0.38876161973235129 0 0.1184520032127041 -0.38876161973235129 0 0.098881159277319941 -0.37618242767903559 0 0.1208413660832037 -0.36226135863831821 0 0.10046198581365461 -0.40219484262099969 0 0.1184520032127041 -0.38876161973235129 0 0.098881159277319941 -0.37618242767903559 0 0.10046198581365461 -0.40219484262099969 0 0.098881159277319941 -0.37618242767903559 0 0.079405287033449568 -0.38171494322584443 0 0.10046198581365461 -0.40219484262099969 0 0.079405287033449568 -0.38171494322584443 0 0.076004209027174224 -0.40197645420861039 0 0.076004209027174224 -0.40197645420861039 0 0.058892699543167247 -0.38210051170537018 0 0.056049969811074178 -0.4036190170207814 0 0.079405287033449568 -0.38171494322584443 0 0.076004209027174224 -0.40197645420861039 0 0.058892699543167247 -0.38210051170537018 0 0.079405287033449568 -0.38171494322584443 0 0.058892699543167247 -0.38210051170537018 0 0.080598454787140783 -0.36150369193734733 0 0.058892699543167247 -0.38210051170537018 0 0.056049969811074178 -0.4036190170207814 0 0.032548254299569347 -0.39808541797554398 0 0.058892699543167247 -0.38210051170537018 0 0.032548254299569347 -0.39808541797554398 0 0.039434335524610169 -0.36984377185063522 0 0.032548254299569347 -0.39808541797554398 0 0.039434335524610169 -0.36984377185063522 0 0.015512964788617779 -0.37327018948946311 0 0.032548254299569347 -0.39808541797554398 0 0.015512964788617779 -0.37327018948946311 0 -0.0033031809835240762 -0.3827111190810556 0 0.0098767038162855415 -0.40124885723371501 0 0.015512964788617779 -0.37327018948946311 0 0.032548254299569347 -0.39808541797554398 0 0.0098767038162855415 -0.40124885723371501 0 0.015512964788617779 -0.37327018948946311 0 0.032548254299569347 -0.39808541797554398 0 0.0098767038162855415 -0.40124885723371501 0 0.02255762737047963 -0.4289069313827053 0 -0.0073203970132289953 -0.40291480216420089 0 -0.0019565050565652298 -0.42196811447285137 0 0.0098767038162855415 -0.40124885723371501 0 -0.0019565050565652298 -0.42196811447285137 0 0.0098767038162855415 -0.40124885723371501 0 0.02255762737047963 -0.4289069313827053 0 -0.0019565050565652298 -0.42196811447285137 0 0.02255762737047963 -0.4289069313827053 0 0.002655025436317683 -0.44533851880689329 0 0.02255762737047963 -0.4289069313827053 0 0.049583543810520783 -0.42290064646162451 0 0.041715956209165878 -0.44584966551245753 0 0.032548254299569347 -0.39808541797554398 0 0.049583543810520783 -0.42290064646162451 0 0.032548254299569347 -0.39808541797554398 0 0.02255762737047963 -0.4289069313827053 0 0.049583543810520783 -0.42290064646162451 0 0.056049969811074178 -0.4036190170207814 0 0.032548254299569347 -0.39808541797554398 0 0.049583543810520783 -0.42290064646162451 0 0.069089451329788915 -0.42119935658914021 0 0.056049969811074178 -0.4036190170207814 0 0.049583543810520783 -0.42290064646162451 0 0.066618833321472198 -0.44771587494770521 0 0.069089451329788915 -0.42119935658914021 0 0.049583543810520783 -0.42290064646162451 0 0.066618833321472198 -0.44771587494770521 0 0.049583543810520783 -0.42290064646162451 0 0.066618833321472198 -0.44771587494770521 0 0.049583543810520783 -0.42290064646162451 0 0.041715956209165878 -0.44584966551245753 0 0.066618833321472198 -0.44771587494770521 0 0.041715956209165878 -0.44584966551245753 0 0.045994529174092552 -0.46995932526519463 0 0.066450745843098652 -0.47297506758585067 0 0.066618833321472198 -0.44771587494770521 0 0.045994529174092552 -0.46995932526519463 0 0.041715956209165878 -0.44584966551245753 0 0.023825247369264241 -0.45976554950505821 0 0.045994529174092552 -0.46995932526519463 0 0.02255762737047963 -0.4289069313827053 0 0.002655025436317683 -0.44533851880689329 0 0.023825247369264241 -0.45976554950505821 0 0.02255762737047963 -0.4289069313827053 0 0.041715956209165878 -0.44584966551245753 0 0.023825247369264241 -0.45976554950505821 0 -0.003129068968718052 -0.46659805368126961 0 0.002655025436317683 -0.44533851880689329 0 0.023825247369264241 -0.45976554950505821 0 0.023825247369264241 -0.45976554950505821 0 0.02737887094244448 -0.47986691014704302 0 0.0082302100783460709 -0.48347212125408712 0 -0.003129068968718052 -0.46659805368126961 0 0.023825247369264241 -0.45976554950505821 0 0.0082302100783460709 -0.48347212125408712 0 -0.0069237393158930183 -0.5 0 0.0082302100783460709 -0.48347212125408712 0 0.020461881984823242 -0.5 0 0.02737887094244448 -0.47986691014704302 0 0.020461881984823242 -0.5 0 0.037638939873936197 -0.48662853018212432 0 0.02737887094244448 -0.47986691014704302 0 0.0082302100783460709 -0.48347212125408712 0 0.020461881984823242 -0.5 0 0.020461881984823242 -0.5 0 0.037638939873936197 -0.48662853018212432 0 0.040933938906261971 -0.49759329898049898 0 0.020461881984823242 -0.5 0 0.040933938906261971 -0.49759329898049898 0 0.04784750328553955 -0.5 0 0.037638939873936197 -0.48662853018212432 0 0.040933938906261971 -0.49759329898049898 0 0.053425478362058763 -0.48572311651788458 0 0.02737887094244448 -0.47986691014704302 0 0.037638939873936197 -0.48662853018212432 0 0.045994529174092552 -0.46995932526519463 0 0.037638939873936197 -0.48662853018212432 0 0.045994529174092552 -0.46995932526519463 0 0.053425478362058763 -0.48572311651788458 0 0.023825247369264241 -0.45976554950505821 0 0.02737887094244448 -0.47986691014704302 0 0.045994529174092552 -0.46995932526519463 0 0.066450745843098652 -0.47297506758585067 0 0.045994529174092552 -0.46995932526519463 0 0.053425478362058763 -0.48572311651788458 0 0.067621638624908817 -0.4874476272432311 0 0.059756779632175121 -0.49720889362976839 0 0.053425478362058763 -0.48572311651788458 0 0.040933938906261971 -0.49759329898049898 0 0.059756779632175121 -0.49720889362976839 0 0.040933938906261971 -0.49759329898049898 0 0.059756779632175121 -0.49720889362976839 0 0.053425478362058763 -0.48572311651788458 0 0.075233124586255612 -0.49999999999999928 0 0.04784750328553955 -0.5 0 0.059756779632175121 -0.49720889362976839 0 0.040933938906261971 -0.49759329898049898 0 0.04784750328553955 -0.5 0 0.059756779632175121 -0.49720889362976839 0 0.078786809583180573 -0.28404992318985772 0 0.092692513382286179 -0.29538171851450262 0 0.077080779690401946 -0.30059345489909861 0 0.078786809583180573 -0.28404992318985772 0 0.093051164465520642 -0.28625788559004067 0 0.094014516502784057 -0.27598455054647381 0 0.078786809583180573 -0.28404992318985772 0 0.093051164465520642 -0.28625788559004067 0 0.092692513382286179 -0.29538171851450262 0 0.092692513382286179 -0.29538171851450262 0 0.090832559687494069 -0.30458783120428079 0 0.077080779690401946 -0.30059345489909861 0 0.090832559687494069 -0.30458783120428079 0 0.078411487862114382 -0.31485163539022548 0 0.090832559687494069 -0.30458783120428079 0 0.077080779690401946 -0.30059345489909861 0 0.078411487862114382 -0.31485163539022548 0 0.077080779690401946 -0.30059345489909861 0 0.063255378338087268 -0.3131287576427218 0 0.057311083243857898 -0.29979598655542339 0 0.077080779690401946 -0.30059345489909861 0 0.078411487862114382 -0.31485163539022548 0 0.063255378338087268 -0.3131287576427218 0 0.077080779690401946 -0.30059345489909861 0 0.062977212405442712 -0.28555515433662831 0 0.057311083243857898 -0.29979598655542339 0 0.078786809583180573 -0.28404992318985772 0 0.077080779690401946 -0.30059345489909861 0 0.062977212405442712 -0.28555515433662831 0 0.078786809583180573 -0.28404992318985772 0 0.063587369619326123 -0.26692110390884138 0 0.083082301640972051 -0.26063081754583461 0 0.078786809583180573 -0.28404992318985772 0 0.062977212405442712 -0.28555515433662831 0 0.063587369619326123 -0.26692110390884138 0 0.063587369619326123 -0.26692110390884138 0 0.055006190034608812 -0.25061937791984112 0 0.071541937672972511 -0.24916003153368491 0 0.063587369619326123 -0.26692110390884138 0 0.083082301640972051 -0.26063081754583461 0 0.071541937672972511 -0.24916003153368491 0 0.083082301640972051 -0.26063081754583461 0 0.1098468467805719 -0.25534289514537423 0 0.08808261842313625 -0.23979414114399519 0 0.083082301640972051 -0.26063081754583461 0 0.08808261842313625 -0.23979414114399519 0 0.078786809583180573 -0.28404992318985772 0 0.083082301640972051 -0.26063081754583461 0 0.094014516502784057 -0.27598455054647381 0 0.083082301640972051 -0.26063081754583461 0 0.094014516502784057 -0.27598455054647381 0 0.10577481072427181 -0.26937036142346787 0 0.094014516502784057 -0.27598455054647381 0 0.103240399036115 -0.28268183609758502 0 0.097909921373154574 -0.28415646148471052 0 0.094014516502784057 -0.27598455054647381 0 0.10577481072427181 -0.26937036142346787 0 0.103240399036115 -0.28268183609758502 0 0.10577481072427181 -0.26937036142346787 0 0.1174323533254415 -0.28260783808254508 0 0.103240399036115 -0.28268183609758502 0 0.083082301640972051 -0.26063081754583461 0 0.10577481072427181 -0.26937036142346787 0 0.1098468467805719 -0.25534289514537423 0 0.13161107513800779 -0.27089164914675262 0 0.13030530462117779 -0.25171385039249911 0 0.1098468467805719 -0.25534289514537423 0 0.13161107513800779 -0.27089164914675262 0 0.1098468467805719 -0.25534289514537423 0 0.13161107513800779 -0.27089164914675262 0 0.10577481072427181 -0.26937036142346787 0 0.1098468467805719 -0.25534289514537423 0 0.13161107513800779 -0.27089164914675262 0 0.10577481072427181 -0.26937036142346787 0 0.1174323533254415 -0.28260783808254508 0 0.13161107513800779 -0.27089164914675262 0 0.1174323533254415 -0.28260783808254508 0 0.1282379217895048 -0.2860663123777078 0 0.1174323533254415 -0.28260783808254508 0 0.1197459798455955 -0.29742202926321543 0 0.1174323533254415 -0.28260783808254508 0 0.1032536315128721 -0.29432402701833399 0 0.1197459798455955 -0.29742202926321543 0 0.1174323533254415 -0.28260783808254508 0 0.1032536315128721 -0.29432402701833399 0 0.1174323533254415 -0.28260783808254508 0 0.103240399036115 -0.28268183609758502 0 0.1032536315128721 -0.29432402701833399 0 0.103240399036115 -0.28268183609758502 0 0.1032536315128721 -0.29432402701833399 0 0.1013336054881986 -0.29170157370474248 0 0.1032536315128721 -0.29432402701833399 0 0.1013336054881986 -0.29170157370474248 0 0.092692513382286179 -0.29538171851450262 0 0.1032536315128721 -0.29432402701833399 0 0.1013336054881986 -0.29170157370474248 0 0.093051164465520642 -0.28625788559004067 0 0.092692513382286179 -0.29538171851450262 0 0.1013336054881986 -0.29170157370474248 0 0.093051164465520642 -0.28625788559004067 0 0.1013336054881986 -0.29170157370474248 0 0.097909921373154574 -0.28415646148471052 0 0.103240399036115 -0.28268183609758502 0 0.1013336054881986 -0.29170157370474248 0 0.097909921373154574 -0.28415646148471052 0 0.093051164465520642 -0.28625788559004067 0 0.094014516502784057 -0.27598455054647381 0 0.097909921373154574 -0.28415646148471052 0 0.1032536315128721 -0.29432402701833399 0 0.1022452834594552 -0.31220365538272798 0 0.1164362786382771 -0.31232944787808981 0 0.090832559687494069 -0.30458783120428079 0 0.1032536315128721 -0.29432402701833399 0 0.1022452834594552 -0.31220365538272798 0 0.092692513382286179 -0.29538171851450262 0 0.090832559687494069 -0.30458783120428079 0 0.1032536315128721 -0.29432402701833399 0 0.090832559687494069 -0.30458783120428079 0 0.1032536315128721 -0.29432402701833399 0 0.13592818618865821 -0.31132803863965253 0 0.1164362786382771 -0.31232944787808981 0 0.1197459798455955 -0.29742202926321543 0 0.1032536315128721 -0.29432402701833399 0 0.1164362786382771 -0.31232944787808981 0 0.1197459798455955 -0.29742202926321543 0 0.1032536315128721 -0.29432402701833399 0 0.1164362786382771 -0.31232944787808981 0 0.12961892576368231 -0.33033486873784551 0 0.1164362786382771 -0.31232944787808981 0 0.1086939787796854 -0.32725239269498069 0 0.12961892576368231 -0.33033486873784551 0 0.1164362786382771 -0.31232944787808981 0 0.12961892576368231 -0.33033486873784551 0 0.1086939787796854 -0.32725239269498069 0 0.11699351622576951 -0.34403361455389231 0 0.095965052697899678 -0.34175391614329809 0 0.1086939787796854 -0.32725239269498069 0 0.11699351622576951 -0.34403361455389231 0 0.095965052697899678 -0.34175391614329809 0 0.1086939787796854 -0.32725239269498069 0 0.090904815893028693 -0.32285885347403098 0 0.090832559687494069 -0.30458783120428079 0 0.1022452834594552 -0.31220365538272798 0 0.090904815893028693 -0.32285885347403098 0 0.1022452834594552 -0.31220365538272798 0 0.1086939787796854 -0.32725239269498069 0 0.090904815893028693 -0.32285885347403098 0 0.1022452834594552 -0.31220365538272798 0 0.1164362786382771 -0.31232944787808981 0 0.1086939787796854 -0.32725239269498069 0 0.098881159277319941 -0.37618242767903559 0 0.1208413660832037 -0.36226135863831821 0 0.1208413660832037 -0.36226135863831821 0 0.11699351622576951 -0.34403361455389231 0 0.1026559098142667 -0.35714700179037828 0 0.095965052697899678 -0.34175391614329809 0 0.11699351622576951 -0.34403361455389231 0 0.1026559098142667 -0.35714700179037828 0 0.098881159277319941 -0.37618242767903559 0 0.1026559098142667 -0.35714700179037828 0 0.080598454787140783 -0.36150369193734733 0 0.098881159277319941 -0.37618242767903559 0 0.1208413660832037 -0.36226135863831821 0 0.1026559098142667 -0.35714700179037828 0 0.098881159277319941 -0.37618242767903559 0 0.079405287033449568 -0.38171494322584443 0 0.080598454787140783 -0.36150369193734733 0 0.095965052697899678 -0.34175391614329809 0 0.1026559098142667 -0.35714700179037828 0 0.080598454787140783 -0.36150369193734733 0 0.095965052697899678 -0.34175391614329809 0 0.080598454787140783 -0.36150369193734733 0 0.076386891631226722 -0.34120732859642111 0 0.076386891631226722 -0.34120732859642111 0 0.058473573311552653 -0.33976282313837258 0 0.057326200029171617 -0.35628872104035458 0 0.080598454787140783 -0.36150369193734733 0 0.076386891631226722 -0.34120732859642111 0 0.057326200029171617 -0.35628872104035458 0 0.058892699543167247 -0.38210051170537018 0 0.080598454787140783 -0.36150369193734733 0 0.057326200029171617 -0.35628872104035458 0 0.090904815893028693 -0.32285885347403098 0 0.078411487862114382 -0.31485163539022548 0 0.069423681705011744 -0.32632521931379471 0 0.090832559687494069 -0.30458783120428079 0 0.090904815893028693 -0.32285885347403098 0 0.078411487862114382 -0.31485163539022548 0 0.090904815893028693 -0.32285885347403098 0 0.076386891631226722 -0.34120732859642111 0 0.069423681705011744 -0.32632521931379471 0 0.095965052697899678 -0.34175391614329809 0 0.090904815893028693 -0.32285885347403098 0 0.076386891631226722 -0.34120732859642111 0 0.076386891631226722 -0.34120732859642111 0 0.069423681705011744 -0.32632521931379471 0 0.058473573311552653 -0.33976282313837258 0 0.078411487862114382 -0.31485163539022548 0 0.069423681705011744 -0.32632521931379471 0 0.063255378338087268 -0.3131287576427218 0 0.069423681705011744 -0.32632521931379471 0 0.063255378338087268 -0.3131287576427218 0 0.048466419085722183 -0.32594737542750829 0 0.063255378338087268 -0.3131287576427218 0 0.048466419085722183 -0.32594737542750829 0 0.048858215904659483 -0.30923048582986801 0 0.069423681705011744 -0.32632521931379471 0 0.048466419085722183 -0.32594737542750829 0 0.058473573311552653 -0.33976282313837258 0 0.048466419085722183 -0.32594737542750829 0 0.058473573311552653 -0.33976282313837258 0 0.035153143881918307 -0.3473490632121678 0 0.048466419085722183 -0.32594737542750829 0 0.035153143881918307 -0.3473490632121678 0 0.01928507559378537 -0.32584128227888859 0 0.048466419085722183 -0.32594737542750829 0 0.01928507559378537 -0.32584128227888859 0 0.032013010228698152 -0.30882035418032278 0 0.048466419085722183 -0.32594737542750829 0 0.032013010228698152 -0.30882035418032278 0 0.048858215904659483 -0.30923048582986801 0 0.058892699543167247 -0.38210051170537018 0 0.057326200029171617 -0.35628872104035458 0 0.039434335524610169 -0.36984377185063522 0 0.058473573311552653 -0.33976282313837258 0 0.057326200029171617 -0.35628872104035458 0 0.035153143881918307 -0.3473490632121678 0 0.057326200029171617 -0.35628872104035458 0 0.035153143881918307 -0.3473490632121678 0 0.039434335524610169 -0.36984377185063522 0 0.035153143881918307 -0.3473490632121678 0 0.039434335524610169 -0.36984377185063522 0 0.015512964788617779 -0.37327018948946311 0 0.035153143881918307 -0.3473490632121678 0 0.0088522424624832632 -0.34392834343935302 0 0.015512964788617779 -0.37327018948946311 0 -0.0066744630276010571 -0.35903915010010617 0 0.0088522424624832632 -0.34392834343935302 0 0.015512964788617779 -0.37327018948946311 0 -0.0066744630276010571 -0.35903915010010617 0 -0.0033031809835240762 -0.3827111190810556 0 0.015512964788617779 -0.37327018948946311 0 0.01928507559378537 -0.32584128227888859 0 0.01451522172916052 -0.30742571072036368 0 0.032013010228698152 -0.30882035418032278 0 0.035153143881918307 -0.3473490632121678 0 0.0088522424624832632 -0.34392834343935302 0 0.01928507559378537 -0.32584128227888859 0 -0.010618265006350439 -0.33417493371896828 0 0.0088522424624832632 -0.34392834343935302 0 0.0039377926388811518 -0.32867857509459741 0 0.0088522424624832632 -0.34392834343935302 0 0.01928507559378537 -0.32584128227888859 0 0.0039377926388811518 -0.32867857509459741 0 0.01928507559378537 -0.32584128227888859 0 0.001896595321517253 -0.30626555096780689 0 -0.0054517495712185357 -0.31972239223645271 0 0.0039377926388811518 -0.32867857509459741 0 0.001896595321517253 -0.30626555096780689 0 0.01928507559378537 -0.32584128227888859 0 0.001896595321517253 -0.30626555096780689 0 0.01451522172916052 -0.30742571072036368 0 0.01928507559378537 -0.32584128227888859 0 0.0039377926388811518 -0.32867857509459741 0 0.001896595321517253 -0.30626555096780689 0 0.001517707357284237 -0.29753028005066512 0 0.0071567827838350216 -0.30225242114915951 0 0.010697606727378069 -0.29778814285780197 0 0.001896595321517253 -0.30626555096780689 0 0.001517707357284237 -0.29753028005066512 0 0.0071567827838350216 -0.30225242114915951 0 0.0071567827838350216 -0.30225242114915951 0 0.010697606727378069 -0.29778814285780197 0 0.01451522172916052 -0.30742571072036368 0 0.010697606727378069 -0.29778814285780197 0 0.01451522172916052 -0.30742571072036368 0 0.020493658677995581 -0.299138835525327 0 0.001896595321517253 -0.30626555096780689 0 0.0071567827838350216 -0.30225242114915951 0 0.01451522172916052 -0.30742571072036368 0 -0.002143095001078794 -0.290631109880501 0 -0.00061854659909016591 -0.28173529456410179 0 0.0059463542994063218 -0.28984664885058059 0 -0.00061854659909016591 -0.28173529456410179 0 0.0059463542994063218 -0.28984664885058059 0 0.0095238089825411196 -0.28197987305398498 0 -0.002143095001078794 -0.290631109880501 0 0.001517707357284237 -0.29753028005066512 0 0.0059463542994063218 -0.28984664885058059 0 0.001517707357284237 -0.29753028005066512 0 0.010697606727378069 -0.29778814285780197 0 0.0059463542994063218 -0.28984664885058059 0 0.010697606727378069 -0.29778814285780197 0 0.0059463542994063218 -0.28984664885058059 0 0.01670064432940346 -0.28941519269642901 0 0.0095238089825411196 -0.28197987305398498 0 0.01670064432940346 -0.28941519269642901 0 0.017993141228656719 -0.27876552226540968 0 0.0059463542994063218 -0.28984664885058059 0 0.0095238089825411196 -0.28197987305398498 0 0.01670064432940346 -0.28941519269642901 0 0.01670064432940346 -0.28941519269642901 0 0.027495298033050598 -0.2825029497503142 0 0.017993141228656719 -0.27876552226540968 0 0.01670064432940346 -0.28941519269642901 0 0.030528670468323839 -0.29327985325038292 0 0.020493658677995581 -0.299138835525327 0 0.010697606727378069 -0.29778814285780197 0 0.01670064432940346 -0.28941519269642901 0 0.020493658677995581 -0.299138835525327 0 0.01670064432940346 -0.28941519269642901 0 0.030528670468323839 -0.29327985325038292 0 0.027495298033050598 -0.2825029497503142 0 0.01451522172916052 -0.30742571072036368 0 0.020493658677995581 -0.299138835525327 0 0.032013010228698152 -0.30882035418032278 0 0.030528670468323839 -0.29327985325038292 0 0.020493658677995581 -0.299138835525327 0 0.032013010228698152 -0.30882035418032278 0 0.032013010228698152 -0.30882035418032278 0 0.043245188626931899 -0.29845995534336339 0 0.048858215904659483 -0.30923048582986801 0 0.030528670468323839 -0.29327985325038292 0 0.032013010228698152 -0.30882035418032278 0 0.043245188626931899 -0.29845995534336339 0 0.030528670468323839 -0.29327985325038292 0 0.043245188626931899 -0.29845995534336339 0 0.039600818023285217 -0.28569512366302469 0 0.030528670468323839 -0.29327985325038292 0 0.027495298033050598 -0.2825029497503142 0 0.039600818023285217 -0.28569512366302469 0 0.039600818023285217 -0.28569512366302469 0 0.050511482169300063 -0.28926085278735453 0 0.049423108546982578 -0.27679804403833252 0 0.043245188626931899 -0.29845995534336339 0 0.039600818023285217 -0.28569512366302469 0 0.050511482169300063 -0.28926085278735453 0 0.043245188626931899 -0.29845995534336339 0 0.050511482169300063 -0.28926085278735453 0 0.057311083243857898 -0.29979598655542339 0 0.062977212405442712 -0.28555515433662831 0 0.050511482169300063 -0.28926085278735453 0 0.049423108546982578 -0.27679804403833252 0 0.062977212405442712 -0.28555515433662831 0 0.050511482169300063 -0.28926085278735453 0 0.057311083243857898 -0.29979598655542339 0 0.063255378338087268 -0.3131287576427218 0 0.057311083243857898 -0.29979598655542339 0 0.048858215904659483 -0.30923048582986801 0 0.043245188626931899 -0.29845995534336339 0 0.057311083243857898 -0.29979598655542339 0 0.048858215904659483 -0.30923048582986801 0 0.063587369619326123 -0.26692110390884138 0 0.055006190034608812 -0.25061937791984112 0 0.043612288887988883 -0.26303608612114587 0 0.055006190034608812 -0.25061937791984112 0 0.043612288887988883 -0.26303608612114587 0 0.042136001546295578 -0.2498832487319777 0 0.062977212405442712 -0.28555515433662831 0 0.063587369619326123 -0.26692110390884138 0 0.049423108546982578 -0.27679804403833252 0 0.063587369619326123 -0.26692110390884138 0 0.049423108546982578 -0.27679804403833252 0 0.043612288887988883 -0.26303608612114587 0 0.049423108546982578 -0.27679804403833252 0 0.036874691267038892 -0.2745934285912956 0 0.043612288887988883 -0.26303608612114587 0 0.039600818023285217 -0.28569512366302469 0 0.049423108546982578 -0.27679804403833252 0 0.036874691267038892 -0.2745934285912956 0 0.027495298033050598 -0.2825029497503142 0 0.039600818023285217 -0.28569512366302469 0 0.036874691267038892 -0.2745934285912956 0 0.036874691267038892 -0.2745934285912956 0 0.043612288887988883 -0.26303608612114587 0 0.03105688555174967 -0.26590956058621079 0 0.043612288887988883 -0.26303608612114587 0 0.029516995170592659 -0.25497614273622449 0 0.03105688555174967 -0.26590956058621079 0 0.043612288887988883 -0.26303608612114587 0 0.029516995170592659 -0.25497614273622449 0 0.042136001546295578 -0.2498832487319777 0 0.029516995170592659 -0.25497614273622449 0 0.02086438516426669 -0.26271644999538551 0 0.03105688555174967 -0.26590956058621079 0 0.02086438516426669 -0.26271644999538551 0 0.018709301569582611 -0.25425504481858802 0 0.0081533097536586052 -0.26020052113139391 0 0.029516995170592659 -0.25497614273622449 0 0.02086438516426669 -0.26271644999538551 0 0.018709301569582611 -0.25425504481858802 0 0.029516995170592659 -0.25497614273622449 0 0.018709301569582611 -0.25425504481858802 0 0.02007133138543964 -0.24343626663881091 0 0.027495298033050598 -0.2825029497503142 0 0.036874691267038892 -0.2745934285912956 0 0.02514783221625019 -0.27269145245421827 0 0.027495298033050598 -0.2825029497503142 0 0.02514783221625019 -0.27269145245421827 0 0.017993141228656719 -0.27876552226540968 0 0.036874691267038892 -0.2745934285912956 0 0.03105688555174967 -0.26590956058621079 0 0.02514783221625019 -0.27269145245421827 0 0.02086438516426669 -0.26271644999538551 0 0.03105688555174967 -0.26590956058621079 0 0.02514783221625019 -0.27269145245421827 0 0.02086438516426669 -0.26271644999538551 0 0.02514783221625019 -0.27269145245421827 0 0.015630933957010758 -0.26969011144979721 0 0.02514783221625019 -0.27269145245421827 0 0.015630933957010758 -0.26969011144979721 0 0.017993141228656719 -0.27876552226540968 0 0.0095238089825411196 -0.28197987305398498 0 0.017993141228656719 -0.27876552226540968 0 0.01191074809938529 -0.27550372852481508 0 0.015630933957010758 -0.26969011144979721 0 0.017993141228656719 -0.27876552226540968 0 0.01191074809938529 -0.27550372852481508 0 0.0095238089825411196 -0.28197987305398498 0 0.01191074809938529 -0.27550372852481508 0 0.0057298139636822289 -0.27243225013154498 0 0.015630933957010758 -0.26969011144979721 0 0.01191074809938529 -0.27550372852481508 0 0.0057298139636822289 -0.27243225013154498 0 0.015630933957010758 -0.26969011144979721 0 0.0057298139636822289 -0.27243225013154498 0 0.0081533097536586052 -0.26020052113139391 0 -0.0047259481970078534 -0.27211653938485081 0 -0.00033550809608256442 -0.26383920917593712 0 0.0057298139636822289 -0.27243225013154498 0 -0.00061854659909016591 -0.28173529456410179 0 0.0095238089825411196 -0.28197987305398498 0 0.0057298139636822289 -0.27243225013154498 0 -0.00061854659909016591 -0.28173529456410179 0 -0.0047259481970078534 -0.27211653938485081 0 0.0057298139636822289 -0.27243225013154498 0 0.018709301569582611 -0.25425504481858802 0 0.01038187310882447 -0.2507308967861106 0 0.0081533097536586052 -0.26020052113139391 0 0.02086438516426669 -0.26271644999538551 0 0.015630933957010758 -0.26969011144979721 0 0.0081533097536586052 -0.26020052113139391 0 -0.00033550809608256442 -0.26383920917593712 0 0.0057298139636822289 -0.27243225013154498 0 0.0081533097536586052 -0.26020052113139391 0 -0.00033550809608256442 -0.26383920917593712 0 -0.001510810221741861 -0.25277351325326169 0 0.0081533097536586052 -0.26020052113139391 0 -0.001510810221741861 -0.25277351325326169 0 0.01038187310882447 -0.2507308967861106 0 0.0081533097536586052 -0.26020052113139391 0 -0.001510810221741861 -0.25277351325326169 0 0.01038187310882447 -0.2507308967861106 0 0.0052747466537700453 -0.24115656626209361 0 0.01038187310882447 -0.2507308967861106 0 0.0052747466537700453 -0.24115656626209361 0 0.02007133138543964 -0.24343626663881091 0 0.0052747466537700453 -0.24115656626209361 0 0.013140527425882609 -0.2312571003786717 0 0.02007133138543964 -0.24343626663881091 0 -0.003310131863981752 -0.22776613528545361 0 0.0067424713127868388 -0.2197088683924541 0 0.013140527425882609 -0.2312571003786717 0 -0.003310131863981752 -0.22776613528545361 0 0.0052747466537700453 -0.24115656626209361 0 0.013140527425882609 -0.2312571003786717 0 0.0067424713127868388 -0.2197088683924541 0 0.013140527425882609 -0.2312571003786717 0 0.02346195161109944 -0.21442964345982621 0 -0.003310131863981752 -0.22776613528545361 0 -0.0008570401538518773 -0.2183905809676181 0 0.0067424713127868388 -0.2197088683924541 0 0.013140527425882609 -0.2312571003786717 0 0.027681030635628549 -0.22813293009691341 0 0.02346195161109944 -0.21442964345982621 0 0.013140527425882609 -0.2312571003786717 0 0.027681030635628549 -0.22813293009691341 0 0.02007133138543964 -0.24343626663881091 0 0.027681030635628549 -0.22813293009691341 0 0.02007133138543964 -0.24343626663881091 0 0.033933036399965713 -0.2412473602047697 0 0.029516995170592659 -0.25497614273622449 0 0.02007133138543964 -0.24343626663881091 0 0.033933036399965713 -0.2412473602047697 0 0.018709301569582611 -0.25425504481858802 0 0.01038187310882447 -0.2507308967861106 0 0.02007133138543964 -0.24343626663881091 0 0.009934474062321506 -0.19420878118598259 0 0.016064684456023891 -0.201845230883683 0 0.016052248221291841 -0.18591827819781401 0 0.009934474062321506 -0.19420878118598259 0 0.0016359862684524481 -0.18942911992672809 0 0.016052248221291841 -0.18591827819781401 0 0.009934474062321506 -0.19420878118598259 0 0.0016359862684524481 -0.18942911992672809 0 0.0020611929109856921 -0.1983331527584985 0 0.009934474062321506 -0.19420878118598259 0 0.0020611929109856921 -0.1983331527584985 0 0.0081567933779213547 -0.20325359858947459 0 -0.0030319487190633601 -0.20154657226741399 0 0.0020611929109856921 -0.1983331527584985 0 0.0010677199834254151 -0.20298869294895081 0 0.0020611929109856921 -0.1983331527584985 0 0.0010677199834254151 -0.20298869294895081 0 0.0081567933779213547 -0.20325359858947459 0 0.009934474062321506 -0.19420878118598259 0 0.0081567933779213547 -0.20325359858947459 0 0.016064684456023891 -0.201845230883683 0 -0.0036492627563278128 -0.2077160902999064 0 0.02346195161109944 -0.21442964345982621 0 -0.0036492627563278128 -0.2077160902999064 0 0.0067424713127868388 -0.2197088683924541 0 0.02346195161109944 -0.21442964345982621 0 -0.0036492627563278128 -0.2077160902999064 0 0.0081567933779213547 -0.20325359858947459 0 0.02346195161109944 -0.21442964345982621 0 -0.0036492627563278128 -0.2077160902999064 0 0.0010677199834254151 -0.20298869294895081 0 0.0081567933779213547 -0.20325359858947459 0 -0.0008570401538518773 -0.2183905809676181 0 -0.0036492627563278128 -0.2077160902999064 0 0.0067424713127868388 -0.2197088683924541 0 0.02346195161109944 -0.21442964345982621 0 0.016064684456023891 -0.201845230883683 0 0.043854561874136291 -0.19872708903919631 0 0.0081567933779213547 -0.20325359858947459 0 0.02346195161109944 -0.21442964345982621 0 0.016064684456023891 -0.201845230883683 0 0.016064684456023891 -0.201845230883683 0 0.02954590911613578 -0.18860894302987399 0 0.016052248221291841 -0.18591827819781401 0 0.016064684456023891 -0.201845230883683 0 0.043854561874136291 -0.19872708903919631 0 0.016064684456023891 -0.201845230883683 0 0.02954590911613578 -0.18860894302987399 0 0.043854561874136291 -0.19872708903919631 0 0.02954590911613578 -0.18860894302987399 0 0.043854561874136291 -0.19872708903919631 0 0.044649510354758323 -0.1823768106776435 0 0.02346195161109944 -0.21442964345982621 0 0.050573165978526458 -0.22114319661974591 0 0.02346195161109944 -0.21442964345982621 0 0.041934635303736478 -0.21057013626147669 0 0.050573165978526458 -0.22114319661974591 0 0.02346195161109944 -0.21442964345982621 0 0.043854561874136291 -0.19872708903919631 0 0.041934635303736478 -0.21057013626147669 0 0.043854561874136291 -0.19872708903919631 0 0.041934635303736478 -0.21057013626147669 0 0.05249202869639303 -0.20567270686166089 0 0.041934635303736478 -0.21057013626147669 0 0.05249202869639303 -0.20567270686166089 0 0.050573165978526458 -0.22114319661974591 0 0.05249202869639303 -0.20567270686166089 0 0.050573165978526458 -0.22114319661974591 0 0.065606919616716136 -0.21114470828192061 0 0.043854561874136291 -0.19872708903919631 0 0.05249202869639303 -0.20567270686166089 0 0.071644439292248702 -0.19560894719470959 0 0.043854561874136291 -0.19872708903919631 0 0.056623924105620893 -0.1901020529857062 0 0.044649510354758323 -0.1823768106776435 0 0.043854561874136291 -0.19872708903919631 0 0.056623924105620893 -0.1901020529857062 0 0.071644439292248702 -0.19560894719470959 0 0.043854561874136291 -0.19872708903919631 0 0.071644439292248702 -0.19560894719470959 0 0.033933036399965713 -0.2412473602047697 0 0.040196226550087928 -0.23208329888507059 0 0.049211647499877678 -0.23875557133123859 0 0.042136001546295578 -0.2498832487319777 0 0.033933036399965713 -0.2412473602047697 0 0.049211647499877678 -0.23875557133123859 0 0.029516995170592659 -0.25497614273622449 0 0.042136001546295578 -0.2498832487319777 0 0.033933036399965713 -0.2412473602047697 0 0.027681030635628549 -0.22813293009691341 0 0.033933036399965713 -0.2412473602047697 0 0.040196226550087928 -0.23208329888507059 0 0.027681030635628549 -0.22813293009691341 0 0.02346195161109944 -0.21442964345982621 0 0.050573165978526458 -0.22114319661974591 0 0.040196226550087928 -0.23208329888507059 0 0.050573165978526458 -0.22114319661974591 0 0.049211647499877678 -0.23875557133123859 0 0.027681030635628549 -0.22813293009691341 0 0.040196226550087928 -0.23208329888507059 0 0.050573165978526458 -0.22114319661974591 0 0.050573165978526458 -0.22114319661974591 0 0.0624529034501419 -0.2387045228316976 0 0.049211647499877678 -0.23875557133123859 0 0.050573165978526458 -0.22114319661974591 0 0.0624529034501419 -0.2387045228316976 0 0.06902465290202528 -0.2323520585357883 0 0.055006190034608812 -0.25061937791984112 0 0.042136001546295578 -0.2498832487319777 0 0.049211647499877678 -0.23875557133123859 0 0.055006190034608812 -0.25061937791984112 0 0.0624529034501419 -0.2387045228316976 0 0.049211647499877678 -0.23875557133123859 0 0.074340968449072453 -0.2392043673375126 0 0.071541937672972511 -0.24916003153368491 0 0.08808261842313625 -0.23979414114399519 0 0.0624529034501419 -0.2387045228316976 0 0.074340968449072453 -0.2392043673375126 0 0.071541937672972511 -0.24916003153368491 0 0.055006190034608812 -0.25061937791984112 0 0.0624529034501419 -0.2387045228316976 0 0.071541937672972511 -0.24916003153368491 0 0.0624529034501419 -0.2387045228316976 0 0.074340968449072453 -0.2392043673375126 0 0.06902465290202528 -0.2323520585357883 0 0.074340968449072453 -0.2392043673375126 0 0.079540962775777088 -0.23369182957824389 0 0.06902465290202528 -0.2323520585357883 0 0.083082301640972051 -0.26063081754583461 0 0.071541937672972511 -0.24916003153368491 0 0.08808261842313625 -0.23979414114399519 0 0.08808261842313625 -0.23979414114399519 0 0.079540962775777088 -0.23369182957824389 0 0.074340968449072453 -0.2392043673375126 0 0.08808261842313625 -0.23979414114399519 0 0.079540962775777088 -0.23369182957824389 0 0.08808261842313625 -0.23979414114399519 0 0.083741997388150816 -0.2286354101243791 0 0.093196993264602859 -0.21848217668020131 0 0.08808261842313625 -0.23979414114399519 0 0.093196993264602859 -0.21848217668020131 0 0.083741997388150816 -0.2286354101243791 0 0.084806132123397937 -0.22108811044632601 0 0.093196993264602859 -0.21848217668020131 0 0.08808261842313625 -0.23979414114399519 0 0.083741997388150816 -0.2286354101243791 0 0.079540962775777088 -0.23369182957824389 0 0.083741997388150816 -0.2286354101243791 0 0.079540962775777088 -0.23369182957824389 0 0.077684380345953485 -0.22785674977966561 0 0.083741997388150816 -0.2286354101243791 0 0.080166477115863721 -0.2219835307207749 0 0.077684380345953485 -0.22785674977966561 0 0.083741997388150816 -0.2286354101243791 0 0.084806132123397937 -0.22108811044632601 0 0.080166477115863721 -0.2219835307207749 0 0.084806132123397937 -0.22108811044632601 0 0.080166477115863721 -0.2219835307207749 0 0.082753820686789187 -0.2145945089102605 0 0.080166477115863721 -0.2219835307207749 0 0.077684380345953485 -0.22785674977966561 0 0.071846055035027112 -0.2177428743432436 0 0.050573165978526458 -0.22114319661974591 0 0.077684380345953485 -0.22785674977966561 0 0.071846055035027112 -0.2177428743432436 0 0.050573165978526458 -0.22114319661974591 0 0.077684380345953485 -0.22785674977966561 0 0.06902465290202528 -0.2323520585357883 0 0.050573165978526458 -0.22114319661974591 0 0.077684380345953485 -0.22785674977966561 0 0.079540962775777088 -0.23369182957824389 0 0.077684380345953485 -0.22785674977966561 0 0.06902465290202528 -0.2323520585357883 0 0.05249202869639303 -0.20567270686166089 0 0.065606919616716136 -0.21114470828192061 0 0.075667459502108222 -0.20031401409099181 0 0.050573165978526458 -0.22114319661974591 0 0.065606919616716136 -0.21114470828192061 0 0.071846055035027112 -0.2177428743432436 0 0.075434209303281652 -0.20984905818233041 0 0.075667459502108222 -0.20031401409099181 0 0.082478647670641003 -0.20770434643211849 0 0.065606919616716136 -0.21114470828192061 0 0.075434209303281652 -0.20984905818233041 0 0.075667459502108222 -0.20031401409099181 0 0.075434209303281652 -0.20984905818233041 0 0.071846055035027112 -0.2177428743432436 0 0.082753820686789187 -0.2145945089102605 0 0.065606919616716136 -0.21114470828192061 0 0.075434209303281652 -0.20984905818233041 0 0.071846055035027112 -0.2177428743432436 0 0.05249202869639303 -0.20567270686166089 0 0.075667459502108222 -0.20031401409099181 0 0.05249202869639303 -0.20567270686166089 0 0.075667459502108222 -0.20031401409099181 0 0.071644439292248702 -0.19560894719470959 0 0.056623924105620893 -0.1901020529857062 0 0.065568378450866494 -0.1881086293542453 0 0.071644439292248702 -0.19560894719470959 0 0.065568378450866494 -0.1881086293542453 0 0.071644439292248702 -0.19560894719470959 0 0.070528021250506848 -0.1885513602907895 0 0.071644439292248702 -0.19560894719470959 0 0.085106694511227751 -0.1866457479314714 0 0.075438220569768233 -0.18735393523980201 0 0.071644439292248702 -0.19560894719470959 0 0.070528021250506848 -0.1885513602907895 0 0.075438220569768233 -0.18735393523980201 0 0.075667459502108222 -0.20031401409099181 0 0.088463972738714119 -0.2028625118372471 0 0.098842890307823117 -0.19495532132032159 0 0.075667459502108222 -0.20031401409099181 0 0.098842890307823117 -0.19495532132032159 0 0.099434316710360737 -0.1924908053502207 0 0.075667459502108222 -0.20031401409099181 0 0.071644439292248702 -0.19560894719470959 0 0.099434316710360737 -0.1924908053502207 0 0.071644439292248702 -0.19560894719470959 0 0.099434316710360737 -0.1924908053502207 0 0.085106694511227751 -0.1866457479314714 0 0.071644439292248702 -0.19560894719470959 0 0.099434316710360737 -0.1924908053502207 0 0.075667459502108222 -0.20031401409099181 0 0.098842890307823117 -0.19495532132032159 0 0.088463972738714119 -0.2028625118372471 0 0.089601066332210905 -0.2092782380664297 0 0.098842890307823117 -0.19495532132032159 0 0.080166477115863721 -0.2219835307207749 0 0.071846055035027112 -0.2177428743432436 0 0.082753820686789187 -0.2145945089102605 0 0.075667459502108222 -0.20031401409099181 0 0.088463972738714119 -0.2028625118372471 0 0.082478647670641003 -0.20770434643211849 0 0.075434209303281652 -0.20984905818233041 0 0.082753820686789187 -0.2145945089102605 0 0.082478647670641003 -0.20770434643211849 0 0.082753820686789187 -0.2145945089102605 0 0.082478647670641003 -0.20770434643211849 0 0.089601066332210905 -0.2092782380664297 0 0.088463972738714119 -0.2028625118372471 0 0.082478647670641003 -0.20770434643211849 0 0.089601066332210905 -0.2092782380664297 0 0.084806132123397937 -0.22108811044632601 0 0.082753820686789187 -0.2145945089102605 0 0.093196993264602859 -0.21848217668020131 0 0.082753820686789187 -0.2145945089102605 0 0.089601066332210905 -0.2092782380664297 0 0.093196993264602859 -0.21848217668020131 0 0.082753820686789187 -0.2145945089102605 0 0.093196993264602859 -0.21848217668020131 0 0.093196993264602859 -0.21848217668020131 0 0.1026714455760776 -0.2047030860291309 0 0.098842890307823117 -0.19495532132032159 0 0.093196993264602859 -0.21848217668020131 0 0.1026714455760776 -0.2047030860291309 0 0.10335825320856901 -0.21409497954000159 0 0.093196993264602859 -0.21848217668020131 0 0.098842890307823117 -0.19495532132032159 0 0.089601066332210905 -0.2092782380664297 0 0.093196993264602859 -0.21848217668020131 0 0.098842890307823117 -0.19495532132032159 0 0.1026714455760776 -0.2047030860291309 0 0.1114947258553544 -0.20096329752596731 0 0.1099552228531985 -0.21004751916210559 0 0.1026714455760776 -0.2047030860291309 0 0.10335825320856901 -0.21409497954000159 0 0.1099552228531985 -0.21004751916210559 0 0.099434316710360737 -0.1924908053502207 0 0.1189922780306391 -0.19029631932683899 0 0.098842890307823117 -0.19495532132032159 0 0.1189922780306391 -0.19029631932683899 0 0.098842890307823117 -0.19495532132032159 0 0.099434316710360737 -0.1924908053502207 0 0.1189922780306391 -0.19029631932683899 0 0.098842890307823117 -0.19495532132032159 0 0.099434316710360737 -0.1924908053502207 0 0.1026714455760776 -0.2047030860291309 0 0.098842890307823117 -0.19495532132032159 0 0.1114947258553544 -0.20096329752596731 0 0.099434316710360737 -0.1924908053502207 0 0.1189922780306391 -0.19029631932683899 0 0.1103370924281132 -0.18214034869537429 0 0.1196688226134556 -0.19852928657166671 0 0.1230002356096771 -0.1898466095260338 0 0.12801886311926899 -0.2063418920433803 0 0.098842890307823117 -0.19495532132032159 0 0.1114947258553544 -0.20096329752596731 0 0.1189922780306391 -0.19029631932683899 0 0.1114947258553544 -0.20096329752596731 0 0.1196688226134556 -0.19852928657166671 0 0.1189922780306391 -0.19029631932683899 0 0.1196688226134556 -0.19852928657166671 0 0.1230002356096771 -0.1898466095260338 0 0.1189922780306391 -0.19029631932683899 0 0.1230002356096771 -0.1898466095260338 0 0.1211701728431092 -0.1866805178411062 0 0.1230002356096771 -0.1898466095260338 0 0.1189922780306391 -0.19029631932683899 0 0.1230002356096771 -0.1898466095260338 0 0.1189922780306391 -0.19029631932683899 0 0.1211701728431092 -0.1866805178411062 0 0.10335825320856901 -0.21409497954000159 0 0.1099552228531985 -0.21004751916210559 0 0.11730726476013251 -0.2274576795476651 0 0.1099552228531985 -0.21004751916210559 0 0.11885045916928309 -0.21032894989521769 0 0.11730726476013251 -0.2274576795476651 0 0.1114947258553544 -0.20096329752596731 0 0.1196688226134556 -0.19852928657166671 0 0.11885045916928309 -0.21032894989521769 0 0.1114947258553544 -0.20096329752596731 0 0.1099552228531985 -0.21004751916210559 0 0.11885045916928309 -0.21032894989521769 0 0.1196688226134556 -0.19852928657166671 0 0.11885045916928309 -0.21032894989521769 0 0.12801886311926899 -0.2063418920433803 0 0.11885045916928309 -0.21032894989521769 0 0.12665785581428871 -0.21863402452052111 0 0.12801886311926899 -0.2063418920433803 0 0.11885045916928309 -0.21032894989521769 0 0.11730726476013251 -0.2274576795476651 0 0.12665785581428871 -0.21863402452052111 0 0.13030530462117779 -0.25171385039249911 0 0.1098468467805719 -0.25534289514537423 0 0.11730726476013251 -0.2274576795476651 0 0.1098468467805719 -0.25534289514537423 0 0.08808261842313625 -0.23979414114399519 0 0.1098468467805719 -0.25534289514537423 0 0.08808261842313625 -0.23979414114399519 0 0.11730726476013251 -0.2274576795476651 0 0.093196993264602859 -0.21848217668020131 0 0.11730726476013251 -0.2274576795476651 0 0.093196993264602859 -0.21848217668020131 0 0.10335825320856901 -0.21409497954000159 0 0.11730726476013251 -0.2274576795476651 0 0.08808261842313625 -0.23979414114399519 0 0.093196993264602859 -0.21848217668020131 0 0.11730726476013251 -0.2274576795476651 0 0.1067962713686072 -0.1618130156057751 0 0.095092007601663947 -0.1619273605000115 0 0.093045979163769027 -0.13802438572357231 0 0.10912614706383771 -0.1521042575344623 0 0.1067962713686072 -0.1618130156057751 0 0.093045979163769027 -0.13802438572357231 0 0.1067962713686072 -0.1618130156057751 0 0.093045979163769027 -0.13802438572357231 0 0.10912614706383771 -0.1521042575344623 0 0.1045890502912101 -0.13907905799389031 0 0.093045979163769027 -0.13802438572357231 0 0.10912614706383771 -0.1521042575344623 0 0.1045890502912101 -0.13907905799389031 0 0.1120874786856708 -0.13976417761338111 0 0.10912614706383771 -0.1521042575344623 0 0.1045890502912101 -0.13907905799389031 0 0.099909680728835923 -0.12564541852609071 0 0.1092046311408834 -0.12993949508832059 0 0.11642293311030801 -0.1216980300398442 0 0.1045890502912101 -0.13907905799389031 0 0.093045979163769027 -0.13802438572357231 0 0.099909680728835923 -0.12564541852609071 0 0.1045890502912101 -0.13907905799389031 0 0.093045979163769027 -0.13802438572357231 0 0.099909680728835923 -0.12564541852609071 0 0.089953618102384558 -0.13267446067066899 0 0.093045979163769027 -0.13802438572357231 0 0.099909680728835923 -0.12564541852609071 0 0.1092046311408834 -0.12993949508832059 0 0.1045890502912101 -0.13907905799389031 0 0.099909680728835923 -0.12564541852609071 0 0.1045890502912101 -0.13907905799389031 0 0.1092046311408834 -0.12993949508832059 0 0.1045890502912101 -0.13907905799389031 0 0.1120874786856708 -0.13976417761338111 0 0.1045890502912101 -0.13907905799389031 0 0.1120874786856708 -0.13976417761338111 0 0.1120874786856708 -0.13976417761338111 0 0.11642293311030801 -0.1216980300398442 0 0.12953710980066629 -0.12747703992295739 0 0.1120874786856708 -0.13976417761338111 0 0.11642293311030801 -0.1216980300398442 0 0.1092046311408834 -0.12993949508832059 0 0.1120874786856708 -0.13976417761338111 0 0.11642293311030801 -0.1216980300398442 0 0.10912614706383771 -0.1521042575344623 0 0.1120874786856708 -0.13976417761338111 0 0.1248017938381641 -0.15425177601001139 0 0.10912614706383771 -0.1521042575344623 0 0.1120874786856708 -0.13976417761338111 0 0.10912614706383771 -0.1521042575344623 0 0.1248017938381641 -0.15425177601001139 0 0.11514815995347311 -0.16939238768778439 0 0.1248017938381641 -0.15425177601001139 0 0.11514815995347311 -0.16939238768778439 0 0.1279792061784 -0.17002182338065941 0 0.10912614706383771 -0.1521042575344623 0 0.11514815995347311 -0.16939238768778439 0 0.1067962713686072 -0.1618130156057751 0 0.10912614706383771 -0.1521042575344623 0 0.11514815995347311 -0.16939238768778439 0 0.11514815995347311 -0.16939238768778439 0 0.1211701728431092 -0.1866805178411062 0 0.11514815995347311 -0.16939238768778439 0 0.1211701728431092 -0.1866805178411062 0 0.1279792061784 -0.17002182338065941 0 0.11514815995347311 -0.16939238768778439 0 0.1211701728431092 -0.1866805178411062 0 0.1067962713686072 -0.1618130156057751 0 0.1211701728431092 -0.1866805178411062 0 0.1103370924281132 -0.18214034869537429 0 0.1067962713686072 -0.1618130156057751 0 0.1211701728431092 -0.1866805178411062 0 0.1067962713686072 -0.1618130156057751 0 0.1189922780306391 -0.19029631932683899 0 0.1211701728431092 -0.1866805178411062 0 0.1103370924281132 -0.18214034869537429 0 0.1103370924281132 -0.18214034869537429 0 0.1031152940394847 -0.17715191047799811 0 0.1067962713686072 -0.1618130156057751 0 0.099434316710360737 -0.1924908053502207 0 0.1103370924281132 -0.18214034869537429 0 0.1031152940394847 -0.17715191047799811 0 0.1031152940394847 -0.17715191047799811 0 0.094028805343758196 -0.1830701304432793 0 0.088458916113960409 -0.17599205801342749 0 0.099434316710360737 -0.1924908053502207 0 0.1031152940394847 -0.17715191047799811 0 0.094028805343758196 -0.1830701304432793 0 0.099434316710360737 -0.1924908053502207 0 0.1031152940394847 -0.17715191047799811 0 0.10912614706383771 -0.1521042575344623 0 0.1067962713686072 -0.1618130156057751 0 0.1031152940394847 -0.17715191047799811 0 0.1067962713686072 -0.1618130156057751 0 0.1031152940394847 -0.17715191047799811 0 0.1067962713686072 -0.1618130156057751 0 0.095092007601663947 -0.1619273605000115 0 0.1031152940394847 -0.17715191047799811 0 0.095092007601663947 -0.1619273605000115 0 0.088458916113960409 -0.17599205801342749 0 0.095092007601663947 -0.1619273605000115 0 0.083733085923098582 -0.1659454228371062 0 0.071562325435092944 -0.15283575867917309 0 0.095092007601663947 -0.1619273605000115 0 0.071562325435092944 -0.15283575867917309 0 0.095092007601663947 -0.1619273605000115 0 0.083733085923098582 -0.1659454228371062 0 0.088458916113960409 -0.17599205801342749 0 0.083733085923098582 -0.1659454228371062 0 0.077081072526664102 -0.17439132914455169 0 0.073800279114056927 -0.16623731737256159 0 0.099434316710360737 -0.1924908053502207 0 0.094028805343758196 -0.1830701304432793 0 0.085106694511227751 -0.1866457479314714 0 0.094028805343758196 -0.1830701304432793 0 0.088458916113960409 -0.17599205801342749 0 0.085106694511227751 -0.1866457479314714 0 0.088458916113960409 -0.17599205801342749 0 0.080027175477577733 -0.1814174910341825 0 0.077081072526664102 -0.17439132914455169 0 0.083733085923098582 -0.1659454228371062 0 0.088458916113960409 -0.17599205801342749 0 0.077081072526664102 -0.17439132914455169 0 0.080027175477577733 -0.1814174910341825 0 0.085106694511227751 -0.1866457479314714 0 0.075438220569768233 -0.18735393523980201 0 0.088458916113960409 -0.17599205801342749 0 0.080027175477577733 -0.1814174910341825 0 0.085106694511227751 -0.1866457479314714 0 0.080027175477577733 -0.1814174910341825 0 0.075438220569768233 -0.18735393523980201 0 0.069461046689143949 -0.18313392937440121 0 0.070528021250506848 -0.1885513602907895 0 0.075438220569768233 -0.18735393523980201 0 0.069461046689143949 -0.18313392937440121 0 0.080027175477577733 -0.1814174910341825 0 0.077081072526664102 -0.17439132914455169 0 0.069461046689143949 -0.18313392937440121 0 0.077081072526664102 -0.17439132914455169 0 0.068143690751484881 -0.1744169183866198 0 0.069461046689143949 -0.18313392937440121 0 0.068143690751484881 -0.1744169183866198 0 0.069461046689143949 -0.18313392937440121 0 0.059483787581547869 -0.18170442396962291 0 0.065568378450866494 -0.1881086293542453 0 0.069461046689143949 -0.18313392937440121 0 0.059483787581547869 -0.18170442396962291 0 0.065568378450866494 -0.1881086293542453 0 0.070528021250506848 -0.1885513602907895 0 0.069461046689143949 -0.18313392937440121 0 0.065373691870598633 -0.16531244469758219 0 0.071562325435092944 -0.15283575867917309 0 0.052836605555974157 -0.15988614651918651 0 0.083733085923098582 -0.1659454228371062 0 0.073800279114056927 -0.16623731737256159 0 0.071562325435092944 -0.15283575867917309 0 0.077081072526664102 -0.17439132914455169 0 0.068143690751484881 -0.1744169183866198 0 0.073800279114056927 -0.16623731737256159 0 0.068143690751484881 -0.1744169183866198 0 0.065373691870598633 -0.16531244469758219 0 0.055082877238436009 -0.17219775707248419 0 0.068143690751484881 -0.1744169183866198 0 0.073800279114056927 -0.16623731737256159 0 0.065373691870598633 -0.16531244469758219 0 0.073800279114056927 -0.16623731737256159 0 0.065373691870598633 -0.16531244469758219 0 0.071562325435092944 -0.15283575867917309 0 0.071562325435092944 -0.15283575867917309 0 0.071190964369257453 -0.1360275273644162 0 0.048032643268521857 -0.14374415685833469 0 0.071562325435092944 -0.15283575867917309 0 0.085919091417936494 -0.1506734821475692 0 0.071190964369257453 -0.1360275273644162 0 0.085919091417936494 -0.1506734821475692 0 0.093045979163769027 -0.13802438572357231 0 0.071190964369257453 -0.1360275273644162 0 0.095092007601663947 -0.1619273605000115 0 0.085919091417936494 -0.1506734821475692 0 0.093045979163769027 -0.13802438572357231 0 0.095092007601663947 -0.1619273605000115 0 0.071562325435092944 -0.15283575867917309 0 0.085919091417936494 -0.1506734821475692 0 0.093045979163769027 -0.13802438572357231 0 0.071190964369257453 -0.1360275273644162 0 0.089953618102384558 -0.13267446067066899 0 0.093045979163769027 -0.13802438572357231 0 0.071190964369257453 -0.1360275273644162 0 0.089953618102384558 -0.13267446067066899 0 0.071190964369257453 -0.1360275273644162 0 0.080644562032837777 -0.1244758852451953 0 0.089953618102384558 -0.13267446067066899 0 0.090698233209482337 -0.1236934023489155 0 0.080644562032837777 -0.1244758852451953 0 0.099909680728835923 -0.12564541852609071 0 0.089953618102384558 -0.13267446067066899 0 0.090698233209482337 -0.1236934023489155 0 0.089953618102384558 -0.13267446067066899 0 0.093045979163769027 -0.13802438572357231 0 0.071190964369257453 -0.1360275273644162 0 0.080644562032837777 -0.1244758852451953 0 0.067731122654181797 -0.12127159924659529 0 0.071190964369257453 -0.1360275273644162 0 0.055802210644273167 -0.12941661148143671 0 0.067731122654181797 -0.12127159924659529 0 0.055802210644273167 -0.12941661148143671 0 0.048032643268521857 -0.14374415685833469 0 0.039891130144471078 -0.12770678273307881 0 0.071190964369257453 -0.1360275273644162 0 0.055802210644273167 -0.12941661148143671 0 0.048032643268521857 -0.14374415685833469 0 0.055802210644273167 -0.12941661148143671 0 0.039891130144471078 -0.12770678273307881 0 0.052165192784933617 -0.1183329912047585 0 0.071562325435092944 -0.15283575867917309 0 0.048032643268521857 -0.14374415685833469 0 0.071562325435092944 -0.15283575867917309 0 0.048032643268521857 -0.14374415685833469 0 0.052836605555974157 -0.15988614651918651 0 0.048032643268521857 -0.14374415685833469 0 0.031500123299621333 -0.1555229434395303 0 0.02450296110195082 -0.13465255503749629 0 0.048032643268521857 -0.14374415685833469 0 0.031500123299621333 -0.1555229434395303 0 0.052836605555974157 -0.15988614651918651 0 0.048032643268521857 -0.14374415685833469 0 0.039891130144471078 -0.12770678273307881 0 0.02450296110195082 -0.13465255503749629 0 0.048032643268521857 -0.14374415685833469 0 0.02450296110195082 -0.13465255503749629 0 0.056623924105620893 -0.1901020529857062 0 0.059483787581547869 -0.18170442396962291 0 0.044649510354758323 -0.1823768106776435 0 0.056623924105620893 -0.1901020529857062 0 0.065568378450866494 -0.1881086293542453 0 0.059483787581547869 -0.18170442396962291 0 0.068143690751484881 -0.1744169183866198 0 0.059483787581547869 -0.18170442396962291 0 0.055082877238436009 -0.17219775707248419 0 0.059483787581547869 -0.18170442396962291 0 0.055082877238436009 -0.17219775707248419 0 0.044649510354758323 -0.1823768106776435 0 0.055082877238436009 -0.17219775707248419 0 0.052836605555974157 -0.15988614651918651 0 0.040712396138330047 -0.1679434181381787 0 0.065373691870598633 -0.16531244469758219 0 0.055082877238436009 -0.17219775707248419 0 0.052836605555974157 -0.15988614651918651 0 0.031500123299621333 -0.1555229434395303 0 0.052836605555974157 -0.15988614651918651 0 0.040712396138330047 -0.1679434181381787 0 0.031500123299621333 -0.1555229434395303 0 0.040712396138330047 -0.1679434181381787 0 0.02710854067446853 -0.1741773063510329 0 0.040712396138330047 -0.1679434181381787 0 0.044649510354758323 -0.1823768106776435 0 0.02710854067446853 -0.1741773063510329 0 0.02954590911613578 -0.18860894302987399 0 0.044649510354758323 -0.1823768106776435 0 0.02710854067446853 -0.1741773063510329 0 0.055082877238436009 -0.17219775707248419 0 0.040712396138330047 -0.1679434181381787 0 0.044649510354758323 -0.1823768106776435 0 0.02954590911613578 -0.18860894302987399 0 0.016052248221291841 -0.18591827819781401 0 0.02710854067446853 -0.1741773063510329 0 0.016052248221291841 -0.18591827819781401 0 0.02710854067446853 -0.1741773063510329 0 0.016392003450230359 -0.17525439745689431 0 0.031500123299621333 -0.1555229434395303 0 0.02710854067446853 -0.1741773063510329 0 0.01360675259132159 -0.1620405147820331 0 0.02710854067446853 -0.1741773063510329 0 0.016392003450230359 -0.17525439745689431 0 0.01360675259132159 -0.1620405147820331 0 -0.0071662117369407511 -0.1594573083500663 0 -0.0027936417271558888 -0.17160499997831419 0 0.01360675259132159 -0.1620405147820331 0 -0.0027936417271558888 -0.17160499997831419 0 0.01360675259132159 -0.1620405147820331 0 0.0065003541806678677 -0.17804971003118211 0 0.016392003450230359 -0.17525439745689431 0 0.01360675259132159 -0.1620405147820331 0 0.0065003541806678677 -0.17804971003118211 0 0.016052248221291841 -0.18591827819781401 0 0.016392003450230359 -0.17525439745689431 0 0.0065003541806678677 -0.17804971003118211 0 0.0016359862684524481 -0.18942911992672809 0 0.016052248221291841 -0.18591827819781401 0 0.0065003541806678677 -0.17804971003118211 0 0.039891130144471078 -0.12770678273307881 0 0.02450296110195082 -0.13465255503749629 0 0.020845984505675989 -0.1194030207111056 0 0.031500123299621333 -0.1555229434395303 0 0.02450296110195082 -0.13465255503749629 0 0.01370096376678231 -0.1462165063904502 0 0.031500123299621333 -0.1555229434395303 0 0.01360675259132159 -0.1620405147820331 0 0.01370096376678231 -0.1462165063904502 0 -0.001961638116720686 -0.14592762570770251 0 0.01360675259132159 -0.1620405147820331 0 0.01370096376678231 -0.1462165063904502 0 -0.001961638116720686 -0.14592762570770251 0 -0.0071662117369407511 -0.1594573083500663 0 0.01360675259132159 -0.1620405147820331 0 -0.001961638116720686 -0.14592762570770251 0 0.01370096376678231 -0.1462165063904502 0 0.00097327893537976773 -0.12556095321665789 0 0.02450296110195082 -0.13465255503749629 0 0.01370096376678231 -0.1462165063904502 0 0.00097327893537976773 -0.12556095321665789 0 0.02450296110195082 -0.13465255503749629 0 0.00097327893537976773 -0.12556095321665789 0 0.02450296110195082 -0.13465255503749629 0 0.00097327893537976773 -0.12556095321665789 0 0.020845984505675989 -0.1194030207111056 0 0.00097327893537976773 -0.12556095321665789 0 0.0095766616345365624 -0.10943407541438099 0 0.020845984505675989 -0.1194030207111056 0 -0.0046917501264864738 -0.109536999488592 0 0.00097327893537976773 -0.12556095321665789 0 0.0095766616345365624 -0.10943407541438099 0 0.020845984505675989 -0.1194030207111056 0 0.02085337372521083 -0.1024308000074553 0 0.031805264648228797 -0.11288590966288919 0 0.039891130144471078 -0.12770678273307881 0 0.020845984505675989 -0.1194030207111056 0 0.031805264648228797 -0.11288590966288919 0 0.0095766616345365624 -0.10943407541438099 0 0.020845984505675989 -0.1194030207111056 0 0.02085337372521083 -0.1024308000074553 0 0.024655703728210712 -0.096716846110623908 0 0.02085337372521083 -0.1024308000074553 0 0.031535960934079718 -0.1005255860970397 0 0.024655703728210712 -0.096716846110623908 0 0.022818295740610561 -0.091759033940260679 0 0.028895372701738961 -0.093268235264061944 0 0.024655703728210712 -0.096716846110623908 0 0.028895372701738961 -0.093268235264061944 0 0.031535960934079718 -0.1005255860970397 0 0.02085337372521083 -0.1024308000074553 0 0.031805264648228797 -0.11288590966288919 0 0.031535960934079718 -0.1005255860970397 0 0.02085337372521083 -0.1024308000074553 0 0.01917551553941349 -0.095600575244301877 0 0.0111763630251587 -0.096810521470360789 0 0.024655703728210712 -0.096716846110623908 0 0.02085337372521083 -0.1024308000074553 0 0.01917551553941349 -0.095600575244301877 0 0.024655703728210712 -0.096716846110623908 0 0.01917551553941349 -0.095600575244301877 0 0.022818295740610561 -0.091759033940260679 0 0.0095766616345365624 -0.10943407541438099 0 0.02085337372521083 -0.1024308000074553 0 0.0111763630251587 -0.096810521470360789 0 0.0095766616345365624 -0.10943407541438099 0 0.0111763630251587 -0.096810521470360789 0 0.0035020423419337321 -0.1027647645242631 0 -0.0046917501264864738 -0.109536999488592 0 0.0095766616345365624 -0.10943407541438099 0 0.0035020423419337321 -0.1027647645242631 0 -0.001486005788280897 -0.093836698563745463 0 0.0111763630251587 -0.096810521470360789 0 0.0035020423419337321 -0.1027647645242631 0 -0.001486005788280897 -0.093836698563745463 0 0.020814034016459759 -0.087066173058126056 0 0.02006960007356872 -0.085323124788611621 0 -0.0043940961991456237 -0.077827853152212106 0 -0.001486005788280897 -0.093836698563745463 0 0.02006960007356872 -0.085323124788611621 0 -0.0043940961991456237 -0.077827853152212106 0 0.02006960007356872 -0.085323124788611621 0 -0.001486005788280897 -0.093836698563745463 0 0.0111763630251587 -0.096810521470360789 0 0.020814034016459759 -0.087066173058126056 0 -0.001486005788280897 -0.093836698563745463 0 0.020814034016459759 -0.087066173058126056 0 -0.002270358342688527 -0.056514906294131563 0 -0.0047140835063668339 -0.066015472085641277 0 0.01144204195165649 -0.06512220515280509 0 -0.0043940961991456237 -0.077827853152212106 0 0.01144204195165649 -0.06512220515280509 0 0.02006960007356872 -0.085323124788611621 0 -0.0047140835063668339 -0.066015472085641277 0 -0.0043940961991456237 -0.077827853152212106 0 0.01144204195165649 -0.06512220515280509 0 0.01144204195165649 -0.06512220515280509 0 0.02006960007356872 -0.085323124788611621 0 0.01144204195165649 -0.06512220515280509 0 0.022878622359135389 -0.075619399335460497 0 0.02006960007356872 -0.085323124788611621 0 0.01144204195165649 -0.06512220515280509 0 0.022878622359135389 -0.075619399335460497 0 0.02755138982372889 -0.068586609577214949 0 0.01144204195165649 -0.06512220515280509 0 0.02755138982372889 -0.068586609577214949 0 0.026778446426370509 -0.053980078351522437 0 0.022878622359135389 -0.075619399335460497 0 0.024700539017092741 -0.081015053061872525 0 0.031956862744491991 -0.076831087845115123 0 0.022878622359135389 -0.075619399335460497 0 0.02755138982372889 -0.068586609577214949 0 0.031956862744491991 -0.076831087845115123 0 0.023297609656272419 -0.086312133497581003 0 0.028895372701738961 -0.093268235264061944 0 0.039863527649355947 -0.091387656586172622 0 0.01917551553941349 -0.095600575244301877 0 0.020814034016459759 -0.087066173058126056 0 0.022818295740610561 -0.091759033940260679 0 0.01917551553941349 -0.095600575244301877 0 0.0111763630251587 -0.096810521470360789 0 0.020814034016459759 -0.087066173058126056 0 0.020814034016459759 -0.087066173058126056 0 0.023297609656272419 -0.086312133497581003 0 0.022818295740610561 -0.091759033940260679 0 0.020814034016459759 -0.087066173058126056 0 0.022818295740610561 -0.091759033940260679 0 0.020814034016459759 -0.087066173058126056 0 0.023297609656272419 -0.086312133497581003 0 0.02006960007356872 -0.085323124788611621 0 0.020814034016459759 -0.087066173058126056 0 0.02006960007356872 -0.085323124788611621 0 0.020814034016459759 -0.087066173058126056 0 0.023297609656272419 -0.086312133497581003 0 0.022878622359135389 -0.075619399335460497 0 0.02006960007356872 -0.085323124788611621 0 0.024700539017092741 -0.081015053061872525 0 0.023297609656272419 -0.086312133497581003 0 0.02006960007356872 -0.085323124788611621 0 0.024700539017092741 -0.081015053061872525 0 0.023297609656272419 -0.086312133497581003 0 0.02006960007356872 -0.085323124788611621 0 0.023297609656272419 -0.086312133497581003 0 0.024700539017092741 -0.081015053061872525 0 0.031956862744491991 -0.076831087845115123 0 0.023297609656272419 -0.086312133497581003 0 0.022818295740610561 -0.091759033940260679 0 0.028895372701738961 -0.093268235264061944 0 0.023297609656272419 -0.086312133497581003 0 0.039863527649355947 -0.091387656586172622 0 0.023297609656272419 -0.086312133497581003 0 0.04008312528245412 -0.081215875254676273 0 0.039863527649355947 -0.091387656586172622 0 0.023297609656272419 -0.086312133497581003 0 0.04008312528245412 -0.081215875254676273 0 0.031956862744491991 -0.076831087845115123 0 0.023297609656272419 -0.086312133497581003 0 0.04008312528245412 -0.081215875254676273 0 0.04008312528245412 -0.081215875254676273 0 0.039863527649355947 -0.091387656586172622 0 0.04935130387097339 -0.086498463696628128 0 0.02755138982372889 -0.068586609577214949 0 0.043009316057681157 -0.068672787519302933 0 0.026778446426370509 -0.053980078351522437 0 0.02755138982372889 -0.068586609577214949 0 0.031956862744491991 -0.076831087845115123 0 0.043009316057681157 -0.068672787519302933 0 0.04008312528245412 -0.081215875254676273 0 0.031956862744491991 -0.076831087845115123 0 0.043009316057681157 -0.068672787519302933 0 0.04008312528245412 -0.081215875254676273 0 0.043009316057681157 -0.068672787519302933 0 0.051865116811548567 -0.077113111900188519 0 0.043009316057681157 -0.068672787519302933 0 0.051865116811548567 -0.077113111900188519 0 0.055882918556785677 -0.064076933684176288 0 0.051865116811548567 -0.077113111900188519 0 0.055882918556785677 -0.064076933684176288 0 0.065482978514314033 -0.075136164058993302 0 0.039863527649355947 -0.091387656586172622 0 0.04935130387097339 -0.086498463696628128 0 0.056429445642439187 -0.096463179674765254 0 0.051865116811548567 -0.077113111900188519 0 0.04935130387097339 -0.086498463696628128 0 0.058409596281319788 -0.085119105832688155 0 0.04008312528245412 -0.081215875254676273 0 0.051865116811548567 -0.077113111900188519 0 0.04935130387097339 -0.086498463696628128 0 0.051865116811548567 -0.077113111900188519 0 0.058409596281319788 -0.085119105832688155 0 0.065482978514314033 -0.075136164058993302 0 0.058409596281319788 -0.085119105832688155 0 0.056429445642439187 -0.096463179674765254 0 0.068707721191825111 -0.087997831363566009 0 0.04935130387097339 -0.086498463696628128 0 0.058409596281319788 -0.085119105832688155 0 0.056429445642439187 -0.096463179674765254 0 0.039863527649355947 -0.091387656586172622 0 0.056429445642439187 -0.096463179674765254 0 0.04522948421418977 -0.1045656175993928 0 0.039863527649355947 -0.091387656586172622 0 0.056429445642439187 -0.096463179674765254 0 0.056429445642439187 -0.096463179674765254 0 0.062081714646220851 -0.1094368546060762 0 0.04522948421418977 -0.1045656175993928 0 0.062081714646220851 -0.1094368546060762 0 0.052165192784933617 -0.1183329912047585 0 0.04522948421418977 -0.1045656175993928 0 0.062081714646220851 -0.1094368546060762 0 0.052165192784933617 -0.1183329912047585 0 0.067731122654181797 -0.12127159924659529 0 0.055802210644273167 -0.12941661148143671 0 0.052165192784933617 -0.1183329912047585 0 0.067731122654181797 -0.12127159924659529 0 0.039891130144471078 -0.12770678273307881 0 0.052165192784933617 -0.1183329912047585 0 0.031805264648228797 -0.11288590966288919 0 0.052165192784933617 -0.1183329912047585 0 0.031805264648228797 -0.11288590966288919 0 0.04522948421418977 -0.1045656175993928 0 0.031805264648228797 -0.11288590966288919 0 0.031535960934079718 -0.1005255860970397 0 0.04522948421418977 -0.1045656175993928 0 0.039863527649355947 -0.091387656586172622 0 0.031535960934079718 -0.1005255860970397 0 0.04522948421418977 -0.1045656175993928 0 0.028895372701738961 -0.093268235264061944 0 0.039863527649355947 -0.091387656586172622 0 0.031535960934079718 -0.1005255860970397 0 0.015761146306078541 -0.0038236511103695108 0 0.031887799945019148 -0.025934730650830101 0 0.043869542357556447 -0.0077626595509977673 0 -0.005813074292167866 -0.02472036588119195 0 -0.003591099751689746 -0.01018299648410826 0 0.015761146306078541 -0.0038236511103695108 0 -0.005813074292167866 -0.02472036588119195 0 0.015761146306078541 -0.0038236511103695108 0 -0.003591099751689746 -0.01018299648410826 0 -0.0052482603672307157 0.002057095947941197 0 0.015761146306078541 -0.0038236511103695108 0 -0.005813074292167866 -0.02472036588119195 0 0.01198857887871106 -0.021384126848161409 0 0.01054757679505991 -0.039287369183742003 0 -0.005813074292167866 -0.02472036588119195 0 0.015761146306078541 -0.0038236511103695108 0 0.01198857887871106 -0.021384126848161409 0 0.01198857887871106 -0.021384126848161409 0 0.019951715723025541 -0.031256228063693173 0 0.01054757679505991 -0.039287369183742003 0 0.01198857887871106 -0.021384126848161409 0 0.019951715723025541 -0.031256228063693173 0 0.031887799945019148 -0.025934730650830101 0 0.015761146306078541 -0.0038236511103695108 0 0.01198857887871106 -0.021384126848161409 0 0.031887799945019148 -0.025934730650830101 0 0.01054757679505991 -0.039287369183742003 0 0.026778446426370509 -0.053980078351522437 0 0.025382907273312019 -0.038418685572039202 0 0.01054757679505991 -0.039287369183742003 0 0.026778446426370509 -0.053980078351522437 0 0.025382907273312019 -0.038418685572039202 0 0.019951715723025541 -0.031256228063693173 0 0.031887799945019148 -0.025934730650830101 0 0.025382907273312019 -0.038418685572039202 0 0.026778446426370509 -0.053980078351522437 0 0.039978175599103841 -0.039853641726578973 0 0.025382907273312019 -0.038418685572039202 0 0.019951715723025541 -0.031256228063693173 0 0.01054757679505991 -0.039287369183742003 0 -0.005813074292167866 -0.02472036588119195 0 0.01054757679505991 -0.039287369183742003 0 -0.005813074292167866 -0.02472036588119195 0 0.00046642337409628362 -0.033380920149473532 0 0.01054757679505991 -0.039287369183742003 0 0.00046642337409628362 -0.033380920149473532 0 0.002814483829744151 -0.044921285516998553 0 0.01054757679505991 -0.039287369183742003 0 0.002814483829744151 -0.044921285516998553 0 0.01054757679505991 -0.039287369183742003 0 0.01385249237214156 -0.051947849959649899 0 0.01144204195165649 -0.06512220515280509 0 0.002814483829744151 -0.044921285516998553 0 -0.002270358342688527 -0.056514906294131563 0 0.01144204195165649 -0.06512220515280509 0 0.002814483829744151 -0.044921285516998553 0 0.01144204195165649 -0.06512220515280509 0 0.002814483829744151 -0.044921285516998553 0 0.01385249237214156 -0.051947849959649899 0 0.01144204195165649 -0.06512220515280509 0 0.01385249237214156 -0.051947849959649899 0 0.026778446426370509 -0.053980078351522437 0 0.01054757679505991 -0.039287369183742003 0 0.01385249237214156 -0.051947849959649899 0 0.026778446426370509 -0.053980078351522437 0 0.043009316057681157 -0.068672787519302933 0 0.026778446426370509 -0.053980078351522437 0 0.043009316057681157 -0.068672787519302933 0 0.026778446426370509 -0.053980078351522437 0 0.043460674673095723 -0.052950365682729407 0 0.026778446426370509 -0.053980078351522437 0 0.043460674673095723 -0.052950365682729407 0 0.039978175599103841 -0.039853641726578973 0 0.055882918556785677 -0.064076933684176288 0 0.043460674673095723 -0.052950365682729407 0 0.058025021219869327 -0.048116690935826878 0 0.043009316057681157 -0.068672787519302933 0 0.055882918556785677 -0.064076933684176288 0 0.043460674673095723 -0.052950365682729407 0 0.043460674673095723 -0.052950365682729407 0 0.058025021219869327 -0.048116690935826878 0 0.039978175599103841 -0.039853641726578973 0 0.058025021219869327 -0.048116690935826878 0 0.039978175599103841 -0.039853641726578973 0 0.054907284378519217 -0.029782588519674458 0 0.039978175599103841 -0.039853641726578973 0 0.031887799945019148 -0.025934730650830101 0 0.054907284378519217 -0.029782588519674458 0 0.025382907273312019 -0.038418685572039202 0 0.039978175599103841 -0.039853641726578973 0 0.031887799945019148 -0.025934730650830101 0 0.031887799945019148 -0.025934730650830101 0 0.054907284378519217 -0.029782588519674458 0 0.031887799945019148 -0.025934730650830101 0 0.054907284378519217 -0.029782588519674458 0 0.043869542357556447 -0.0077626595509977673 0 0.054907284378519217 -0.029782588519674458 0 0.043869542357556447 -0.0077626595509977673 0 0.067144851277335119 -0.007206669998643612 0 0.053889019005023207 0.0042927930963859544 0 0.043869542357556447 -0.0077626595509977673 0 0.067144851277335119 -0.007206669998643612 0 0.084556828012583282 0.01000373329485589 0 0.089186898378300156 -0.01154008688884384 0 0.067144851277335119 -0.007206669998643612 0 0.089186898378300156 -0.01154008688884384 0 0.067144851277335119 -0.007206669998643612 0 0.077926768812019404 -0.033630446388518843 0 0.054907284378519217 -0.029782588519674458 0 0.067144851277335119 -0.007206669998643612 0 0.077926768812019404 -0.033630446388518843 0 0.089186898378300156 -0.01154008688884384 0 0.077926768812019404 -0.033630446388518843 0 0.09459958342136604 -0.025150419533090801 0 0.077926768812019404 -0.033630446388518843 0 0.1009462532455197 -0.037478304257363239 0 0.09459958342136604 -0.025150419533090801 0 0.077926768812019404 -0.033630446388518843 0 0.091386014674011709 -0.052624314090671448 0 0.1009462532455197 -0.037478304257363239 0 0.077926768812019404 -0.033630446388518843 0 0.1009462532455197 -0.037478304257363239 0 0.058025021219869327 -0.048116690935826878 0 0.054907284378519217 -0.029782588519674458 0 0.077926768812019404 -0.033630446388518843 0 0.054907284378519217 -0.029782588519674458 0 0.077926768812019404 -0.033630446388518843 0 0.058025021219869327 -0.048116690935826878 0 0.077926768812019404 -0.033630446388518843 0 0.074437849199509451 -0.060610489339682973 0 0.055882918556785677 -0.064076933684176288 0 0.058025021219869327 -0.048116690935826878 0 0.074437849199509451 -0.060610489339682973 0 0.077926768812019404 -0.033630446388518843 0 0.074437849199509451 -0.060610489339682973 0 0.091386014674011709 -0.052624314090671448 0 0.074437849199509451 -0.060610489339682973 0 0.091386014674011709 -0.052624314090671448 0 0.093152874319708576 -0.072279773013425155 0 0.091386014674011709 -0.052624314090671448 0 0.10625652198515689 -0.051961469844469102 0 0.10463441127537471 -0.063286570905653844 0 0.091386014674011709 -0.052624314090671448 0 0.10625652198515689 -0.051961469844469102 0 0.1009462532455197 -0.037478304257363239 0 0.10625652198515689 -0.051961469844469102 0 0.1169753620245431 -0.058876438298848838 0 0.10463441127537471 -0.063286570905653844 0 0.1169753620245431 -0.058876438298848838 0 0.12753710148152739 -0.064064359383813885 0 0.1263896195983534 -0.05526283316926122 0 0.1169753620245431 -0.058876438298848838 0 0.11870082575561661 -0.04838313961075396 0 0.1263896195983534 -0.05526283316926122 0 0.10625652198515689 -0.051961469844469102 0 0.1169753620245431 -0.058876438298848838 0 0.11870082575561661 -0.04838313961075396 0 0.1239657376790199 -0.041326162126207627 0 0.1141737357032048 -0.032983190586059162 0 0.1009462532455197 -0.037478304257363239 0 0.1239657376790199 -0.041326162126207627 0 0.1009462532455197 -0.037478304257363239 0 0.11870082575561661 -0.04838313961075396 0 0.1239657376790199 -0.041326162126207627 0 0.1009462532455197 -0.037478304257363239 0 0.1239657376790199 -0.041326162126207627 0 0.1141737357032048 -0.032983190586059162 0 0.1226539808874151 -0.030496225948438659 0 0.10625652198515689 -0.051961469844469102 0 0.11870082575561661 -0.04838313961075396 0 0.1009462532455197 -0.037478304257363239 0 0.1141737357032048 -0.032983190586059162 0 0.1009462532455197 -0.037478304257363239 0 0.1087586669489151 -0.0216652839100068 0 0.089186898378300156 -0.01154008688884384 0 0.09459958342136604 -0.025150419533090801 0 0.1087586669489151 -0.0216652839100068 0 0.1009462532455197 -0.037478304257363239 0 0.09459958342136604 -0.025150419533090801 0 0.1087586669489151 -0.0216652839100068 0 0.1141737357032048 -0.032983190586059162 0 0.1087586669489151 -0.0216652839100068 0 0.1226539808874151 -0.030496225948438659 0 0.1087586669489151 -0.0216652839100068 0 0.1226539808874151 -0.030496225948438659 0 0.12393650221369951 -0.021609014464034629 0 0.12393650221369951 -0.021609014464034629 0 0.11675377676727081 -0.01480818933591692 0 0.12841031517753559 -0.01227045841761109 0 0.1087586669489151 -0.0216652839100068 0 0.12393650221369951 -0.021609014464034629 0 0.11675377676727081 -0.01480818933591692 0 0.1056520675443042 0.003104773780823032 0 0.11675377676727081 -0.01480818933591692 0 0.11984634273594361 -0.0067088348150204646 0 0.1056520675443042 0.003104773780823032 0 0.12420808900298839 -0.002963763179494149 0 0.11984634273594361 -0.0067088348150204646 0 0.1056520675443042 0.003104773780823032 0 0.1087586669489151 -0.0216652839100068 0 0.11675377676727081 -0.01480818933591692 0 0.11675377676727081 -0.01480818933591692 0 0.11984634273594361 -0.0067088348150204646 0 0.12841031517753559 -0.01227045841761109 0 0.12420808900298839 -0.002963763179494149 0 0.11984634273594361 -0.0067088348150204646 0 0.12841031517753559 -0.01227045841761109 0 0.12420808900298839 -0.002963763179494149 0 0.11984634273594361 -0.0067088348150204646 0 0.1056520675443042 0.003104773780823032 0 0.1087586669489151 -0.0216652839100068 0 0.1056520675443042 0.003104773780823032 0 0.089186898378300156 -0.01154008688884384 0 0.1087586669489151 -0.0216652839100068 0 0.088462600597529292 -0.10515032802088679 0 0.072020560235780809 -0.1006098817121214 0 0.080179901683113369 -0.091831994740481676 0 0.088462600597529292 -0.10515032802088679 0 0.076086717765334516 -0.1136521205118496 0 0.072020560235780809 -0.1006098817121214 0 0.088462600597529292 -0.10515032802088679 0 0.080179901683113369 -0.091831994740481676 0 0.09207905740015801 -0.090266576987082806 0 0.088462600597529292 -0.10515032802088679 0 0.086635719936435568 -0.1178407640630784 0 0.097566293966351386 -0.1168253179435232 0 0.086635719936435568 -0.1178407640630784 0 0.090698233209482337 -0.1236934023489155 0 0.097566293966351386 -0.1168253179435232 0 0.086635719936435568 -0.1178407640630784 0 0.090698233209482337 -0.1236934023489155 0 0.080644562032837777 -0.1244758852451953 0 0.086635719936435568 -0.1178407640630784 0 0.080644562032837777 -0.1244758852451953 0 0.076086717765334516 -0.1136521205118496 0 0.088462600597529292 -0.10515032802088679 0 0.086635719936435568 -0.1178407640630784 0 0.076086717765334516 -0.1136521205118496 0 0.080644562032837777 -0.1244758852451953 0 0.076086717765334516 -0.1136521205118496 0 0.067731122654181797 -0.12127159924659529 0 0.062081714646220851 -0.1094368546060762 0 0.076086717765334516 -0.1136521205118496 0 0.067731122654181797 -0.12127159924659529 0 0.062081714646220851 -0.1094368546060762 0 0.076086717765334516 -0.1136521205118496 0 0.072020560235780809 -0.1006098817121214 0 0.056429445642439187 -0.096463179674765254 0 0.062081714646220851 -0.1094368546060762 0 0.072020560235780809 -0.1006098817121214 0 0.056429445642439187 -0.096463179674765254 0 0.072020560235780809 -0.1006098817121214 0 0.068707721191825111 -0.087997831363566009 0 0.058409596281319788 -0.085119105832688155 0 0.068707721191825111 -0.087997831363566009 0 0.065482978514314033 -0.075136164058993302 0 0.068707721191825111 -0.087997831363566009 0 0.065482978514314033 -0.075136164058993302 0 0.079404325850840618 -0.078888239618752021 0 0.068707721191825111 -0.087997831363566009 0 0.080179901683113369 -0.091831994740481676 0 0.079404325850840618 -0.078888239618752021 0 0.072020560235780809 -0.1006098817121214 0 0.068707721191825111 -0.087997831363566009 0 0.080179901683113369 -0.091831994740481676 0 0.074437849199509451 -0.060610489339682973 0 0.065482978514314033 -0.075136164058993302 0 0.079404325850840618 -0.078888239618752021 0 0.055882918556785677 -0.064076933684176288 0 0.074437849199509451 -0.060610489339682973 0 0.065482978514314033 -0.075136164058993302 0 0.074437849199509451 -0.060610489339682973 0 0.093152874319708576 -0.072279773013425155 0 0.079404325850840618 -0.078888239618752021 0 0.093152874319708576 -0.072279773013425155 0 0.079404325850840618 -0.078888239618752021 0 0.09207905740015801 -0.090266576987082806 0 0.080179901683113369 -0.091831994740481676 0 0.079404325850840618 -0.078888239618752021 0 0.09207905740015801 -0.090266576987082806 0 0.093152874319708576 -0.072279773013425155 0 0.09207905740015801 -0.090266576987082806 0 0.1080060457342391 -0.086525161866627481 0 0.091386014674011709 -0.052624314090671448 0 0.093152874319708576 -0.072279773013425155 0 0.10463441127537471 -0.063286570905653844 0 0.093152874319708576 -0.072279773013425155 0 0.1060235501964035 -0.073833675858822903 0 0.10463441127537471 -0.063286570905653844 0 0.093152874319708576 -0.072279773013425155 0 0.1080060457342391 -0.086525161866627481 0 0.1060235501964035 -0.073833675858822903 0 0.1169753620245431 -0.058876438298848838 0 0.10463441127537471 -0.063286570905653844 0 0.1183008694562916 -0.073243197649585201 0 0.1060235501964035 -0.073833675858822903 0 0.10463441127537471 -0.063286570905653844 0 0.1183008694562916 -0.073243197649585201 0 0.1080060457342391 -0.086525161866627481 0 0.1060235501964035 -0.073833675858822903 0 0.1183008694562916 -0.073243197649585201 0 0.1169753620245431 -0.058876438298848838 0 0.1183008694562916 -0.073243197649585201 0 0.12753710148152739 -0.064064359383813885 0 0.1080060457342391 -0.086525161866627481 0 0.1235955556178156 -0.084357848161504656 0 0.1272061832629191 -0.098103058097758461 0 0.1080060457342391 -0.086525161866627481 0 0.1183008694562916 -0.073243197649585201 0 0.1235955556178156 -0.084357848161504656 0 0.1183008694562916 -0.073243197649585201 0 0.1235955556178156 -0.084357848161504656 0 0.1321625882477756 -0.077281253642364545 0 0.1080060457342391 -0.086525161866627481 0 0.1032685962155173 -0.10692396466232371 0 0.1272061832629191 -0.098103058097758461 0 0.1032685962155173 -0.10692396466232371 0 0.11642293311030801 -0.1216980300398442 0 0.1272061832629191 -0.098103058097758461 0 0.1032685962155173 -0.10692396466232371 0 0.1272061832629191 -0.098103058097758461 0 0.09207905740015801 -0.090266576987082806 0 0.1080060457342391 -0.086525161866627481 0 0.1032685962155173 -0.10692396466232371 0 0.088462600597529292 -0.10515032802088679 0 0.09207905740015801 -0.090266576987082806 0 0.1032685962155173 -0.10692396466232371 0 0.1032685962155173 -0.10692396466232371 0 0.097566293966351386 -0.1168253179435232 0 0.11642293311030801 -0.1216980300398442 0 0.099909680728835923 -0.12564541852609071 0 0.097566293966351386 -0.1168253179435232 0 0.11642293311030801 -0.1216980300398442 0 0.099909680728835923 -0.12564541852609071 0 0.090698233209482337 -0.1236934023489155 0 0.097566293966351386 -0.1168253179435232 0 0.088462600597529292 -0.10515032802088679 0 0.1032685962155173 -0.10692396466232371 0 0.097566293966351386 -0.1168253179435232 0 0.13248068896082241 -0.1146307798341423 0 0.14627069365861661 -0.1189389935120195 0 0.12953710980066629 -0.12747703992295739 0 0.11642293311030801 -0.1216980300398442 0 0.13248068896082241 -0.1146307798341423 0 0.12953710980066629 -0.12747703992295739 0 0.11642293311030801 -0.1216980300398442 0 0.13248068896082241 -0.1146307798341423 0 0.1272061832629191 -0.098103058097758461 0 0.13248068896082241 -0.1146307798341423 0 0.14627069365861661 -0.1189389935120195 0 0.1423033060714782 -0.1044530059177648 0 0.14627069365861661 -0.1189389935120195 0 0.15567141389554681 -0.1023731318731408 0 0.1628793649655452 -0.11421648091732629 0 0.14627069365861661 -0.1189389935120195 0 0.15567141389554681 -0.1023731318731408 0 0.1423033060714782 -0.1044530059177648 0 0.15567141389554681 -0.1023731318731408 0 0.1423033060714782 -0.1044530059177648 0 0.15114377031032089 -0.089282151533193202 0 0.1423033060714782 -0.1044530059177648 0 0.1272061832629191 -0.098103058097758461 0 0.15114377031032089 -0.089282151533193202 0 0.13248068896082241 -0.1146307798341423 0 0.1423033060714782 -0.1044530059177648 0 0.1272061832629191 -0.098103058097758461 0 0.1272061832629191 -0.098103058097758461 0 0.15114377031032089 -0.089282151533193202 0 0.1272061832629191 -0.098103058097758461 0 0.14165450669000521 -0.086365046262992851 0 0.15114377031032089 -0.089282151533193202 0 0.1235955556178156 -0.084357848161504656 0 0.1272061832629191 -0.098103058097758461 0 0.1311547084546289 -0.086526801541155121 0 0.1235955556178156 -0.084357848161504656 0 0.1311547084546289 -0.086526801541155121 0 0.1321625882477756 -0.077281253642364545 0 0.1321625882477756 -0.077281253642364545 0 0.1442231078475644 -0.071964549884660611 0 0.14165450669000521 -0.086365046262992851 0 0.1311547084546289 -0.086526801541155121 0 0.1321625882477756 -0.077281253642364545 0 0.14165450669000521 -0.086365046262992851 0 0.1272061832629191 -0.098103058097758461 0 0.1311547084546289 -0.086526801541155121 0 0.14165450669000521 -0.086365046262992851 0 0.12753710148152739 -0.064064359383813885 0 0.1321625882477756 -0.077281253642364545 0 0.13862626605661779 -0.065843042537825552 0 0.1183008694562916 -0.073243197649585201 0 0.12753710148152739 -0.064064359383813885 0 0.1321625882477756 -0.077281253642364545 0 0.1321625882477756 -0.077281253642364545 0 0.13862626605661779 -0.065843042537825552 0 0.1442231078475644 -0.071964549884660611 0 0.1442231078475644 -0.071964549884660611 0 0.14165450669000521 -0.086365046262992851 0 0.15927827233784619 -0.070055488041857905 0 0.13862626605661779 -0.065843042537825552 0 0.1442231078475644 -0.071964549884660611 0 0.14796246809155339 -0.061430138299126837 0 0.1442231078475644 -0.071964549884660611 0 0.15927827233784619 -0.070055488041857905 0 0.14796246809155339 -0.061430138299126837 0 0.14165450669000521 -0.086365046262992851 0 0.15114377031032089 -0.089282151533193202 0 0.15927827233784619 -0.070055488041857905 0 0.14165450669000521 -0.086365046262992851 0 0.15927827233784619 -0.070055488041857905 0 0.15114377031032089 -0.089282151533193202 0 0.17508135735772279 -0.080461244968627887 0 0.16297700752441319 -0.093246359137574591 0 0.17508135735772279 -0.080461244968627887 0 0.17001148853406239 -0.1008689081753366 0 0.15114377031032089 -0.089282151533193202 0 0.15927827233784619 -0.070055488041857905 0 0.17508135735772279 -0.080461244968627887 0 0.15114377031032089 -0.089282151533193202 0 0.16297700752441319 -0.093246359137574591 0 0.17508135735772279 -0.080461244968627887 0 0.15927827233784619 -0.070055488041857905 0 0.17566099730552059 -0.068123746586664174 0 0.17508135735772279 -0.080461244968627887 0 0.15927827233784619 -0.070055488041857905 0 0.17566099730552059 -0.068123746586664174 0 0.17690203798568721 -0.053745929820722932 0 0.17566099730552059 -0.068123746586664174 0 0.17508135735772279 -0.080461244968627887 0 0.19138232154082629 -0.068232323515447932 0 0.17566099730552059 -0.068123746586664174 0 0.17690203798568721 -0.053745929820722932 0 0.19138232154082629 -0.068232323515447932 0 0.17508135735772279 -0.080461244968627887 0 0.18864089953473381 -0.081556978129937827 0 0.19138232154082629 -0.068232323515447932 0 0.17508135735772279 -0.080461244968627887 0 0.17001148853406239 -0.1008689081753366 0 0.18783886002431541 -0.095543680570539483 0 0.17508135735772279 -0.080461244968627887 0 0.18783886002431541 -0.095543680570539483 0 0.18864089953473381 -0.081556978129937827 0 0.17766990605787211 -0.1208315161390057 0 0.17001148853406239 -0.1008689081753366 0 0.18783886002431541 -0.095543680570539483 0 0.14627069365861661 -0.1189389935120195 0 0.1628793649655452 -0.11421648091732629 0 0.16013015137076411 -0.12831723327391331 0 0.17766990605787211 -0.1208315161390057 0 0.1628793649655452 -0.11421648091732629 0 0.16013015137076411 -0.12831723327391331 0 0.17766990605787211 -0.1208315161390057 0 0.1628793649655452 -0.11421648091732629 0 0.17001148853406239 -0.1008689081753366 0 0.15567141389554681 -0.1023731318731408 0 0.1628793649655452 -0.11421648091732629 0 0.17001148853406239 -0.1008689081753366 0 0.15567141389554681 -0.1023731318731408 0 0.16297700752441319 -0.093246359137574591 0 0.17001148853406239 -0.1008689081753366 0 0.15567141389554681 -0.1023731318731408 0 0.15114377031032089 -0.089282151533193202 0 0.16297700752441319 -0.093246359137574591 0 0.1384549886407869 -0.0076230505819373006 0 0.1392062105592371 -0.02646710384452387 0 0.1597115953628577 -0.004551068078293679 0 0.15185178981994291 0.0051732104260197066 0 0.1384549886407869 -0.0076230505819373006 0 0.1597115953628577 -0.004551068078293679 0 0.1392062105592371 -0.02646710384452387 0 0.1597115953628577 -0.004551068078293679 0 0.1384549886407869 -0.0076230505819373006 0 0.12841031517753559 -0.01227045841761109 0 0.1392062105592371 -0.02646710384452387 0 0.12420808900298839 -0.002963763179494149 0 0.1384549886407869 -0.0076230505819373006 0 0.12841031517753559 -0.01227045841761109 0 0.12420808900298839 -0.002963763179494149 0 0.1384549886407869 -0.0076230505819373006 0 0.1226539808874151 -0.030496225948438659 0 0.12393650221369951 -0.021609014464034629 0 0.1392062105592371 -0.02646710384452387 0 0.12393650221369951 -0.021609014464034629 0 0.12841031517753559 -0.01227045841761109 0 0.1392062105592371 -0.02646710384452387 0 0.1392062105592371 -0.02646710384452387 0 0.15860008587995661 -0.024584637107986581 0 0.1597115953628577 -0.004551068078293679 0 0.1392062105592371 -0.02646710384452387 0 0.14850597441633751 -0.036665465879592761 0 0.15860008587995661 -0.024584637107986581 0 0.1392062105592371 -0.02646710384452387 0 0.14850597441633751 -0.036665465879592761 0 0.1346394707701534 -0.047326478836501477 0 0.14850597441633751 -0.036665465879592761 0 0.1606162240999495 -0.036791718559952127 0 0.15860008587995661 -0.024584637107986581 0 0.14850597441633751 -0.036665465879592761 0 0.14946788077239101 -0.048157391048999729 0 0.1606162240999495 -0.036791718559952127 0 0.14850597441633751 -0.036665465879592761 0 0.1346394707701534 -0.047326478836501477 0 0.14946788077239101 -0.048157391048999729 0 0.11870082575561661 -0.04838313961075396 0 0.1392062105592371 -0.02646710384452387 0 0.1346394707701534 -0.047326478836501477 0 0.11870082575561661 -0.04838313961075396 0 0.1239657376790199 -0.041326162126207627 0 0.1392062105592371 -0.02646710384452387 0 0.11870082575561661 -0.04838313961075396 0 0.1392062105592371 -0.02646710384452387 0 0.1239657376790199 -0.041326162126207627 0 0.1226539808874151 -0.030496225948438659 0 0.1392062105592371 -0.02646710384452387 0 0.11870082575561661 -0.04838313961075396 0 0.1346394707701534 -0.047326478836501477 0 0.1263896195983534 -0.05526283316926122 0 0.1346394707701534 -0.047326478836501477 0 0.13743713446176609 -0.057014040545921449 0 0.14946788077239101 -0.048157391048999729 0 0.1346394707701534 -0.047326478836501477 0 0.1263896195983534 -0.05526283316926122 0 0.13743713446176609 -0.057014040545921449 0 0.12753710148152739 -0.064064359383813885 0 0.1263896195983534 -0.05526283316926122 0 0.13743713446176609 -0.057014040545921449 0 0.12753710148152739 -0.064064359383813885 0 0.13862626605661779 -0.065843042537825552 0 0.13743713446176609 -0.057014040545921449 0 0.13743713446176609 -0.057014040545921449 0 0.14796246809155339 -0.061430138299126837 0 0.14946788077239101 -0.048157391048999729 0 0.13862626605661779 -0.065843042537825552 0 0.13743713446176609 -0.057014040545921449 0 0.14796246809155339 -0.061430138299126837 0 0.14796246809155339 -0.061430138299126837 0 0.14946788077239101 -0.048157391048999729 0 0.16208394357497449 -0.054896608565029328 0 0.15927827233784619 -0.070055488041857905 0 0.16208394357497449 -0.054896608565029328 0 0.17690203798568721 -0.053745929820722932 0 0.15927827233784619 -0.070055488041857905 0 0.17690203798568721 -0.053745929820722932 0 0.15927827233784619 -0.070055488041857905 0 0.14796246809155339 -0.061430138299126837 0 0.16208394357497449 -0.054896608565029328 0 0.14946788077239101 -0.048157391048999729 0 0.16208394357497449 -0.054896608565029328 0 0.1634140009256374 -0.04614834212851076 0 0.16208394357497449 -0.054896608565029328 0 0.17690203798568721 -0.053745929820722932 0 0.1733745462274856 -0.050216949592563287 0 0.16208394357497449 -0.054896608565029328 0 0.1733745462274856 -0.050216949592563287 0 0.1634140009256374 -0.04614834212851076 0 0.17690203798568721 -0.053745929820722932 0 0.1733745462274856 -0.050216949592563287 0 0.1768197240792993 -0.037512748509512667 0 0.17690203798568721 -0.053745929820722932 0 0.19138232154082629 -0.068232323515447932 0 0.17690203798568721 -0.053745929820722932 0 0.1733745462274856 -0.050216949592563287 0 0.17690203798568721 -0.053745929820722932 0 0.1768197240792993 -0.037512748509512667 0 0.19645679041635619 -0.035649378854219822 0 0.1733745462274856 -0.050216949592563287 0 0.1768197240792993 -0.037512748509512667 0 0.16866766007277989 -0.039682028207505222 0 0.17690203798568721 -0.053745929820722932 0 0.19645679041635619 -0.035649378854219822 0 0.16866766007277989 -0.039682028207505222 0 0.1606162240999495 -0.036791718559952127 0 0.1676494897986677 -0.03112318801030611 0 0.1768197240792993 -0.037512748509512667 0 0.16866766007277989 -0.039682028207505222 0 0.1676494897986677 -0.03112318801030611 0 0.16866766007277989 -0.039682028207505222 0 0.1634140009256374 -0.04614834212851076 0 0.1606162240999495 -0.036791718559952127 0 0.1733745462274856 -0.050216949592563287 0 0.16866766007277989 -0.039682028207505222 0 0.1634140009256374 -0.04614834212851076 0 0.14946788077239101 -0.048157391048999729 0 0.1634140009256374 -0.04614834212851076 0 0.1606162240999495 -0.036791718559952127 0 0.1606162240999495 -0.036791718559952127 0 0.15860008587995661 -0.024584637107986581 0 0.1676494897986677 -0.03112318801030611 0 0.15860008587995661 -0.024584637107986581 0 0.1676494897986677 -0.03112318801030611 0 0.17354375486135309 -0.017044807666573961 0 0.1768197240792993 -0.037512748509512667 0 0.17354375486135309 -0.017044807666573961 0 0.19645679041635619 -0.035649378854219822 0 0.17354375486135309 -0.017044807666573961 0 0.19645679041635619 -0.035649378854219822 0 0.1768197240792993 -0.037512748509512667 0 0.1676494897986677 -0.03112318801030611 0 0.17354375486135309 -0.017044807666573961 0 0.17354375486135309 -0.017044807666573961 0 0.19227370544106259 -0.01984634992719516 0 0.19645679041635619 -0.035649378854219822 0 0.17354375486135309 -0.017044807666573961 0 0.18535099892293991 -0.0051935449981599657 0 0.17393796579135701 -0.0054750346567773583 0 0.17354375486135309 -0.017044807666573961 0 0.18535099892293991 -0.0051935449981599657 0 0.19227370544106259 -0.01984634992719516 0 0.17713446895202581 0.0027071555325514931 0 0.18535099892293991 -0.0051935449981599657 0 0.17393796579135701 -0.0054750346567773583 0 0.15860008587995661 -0.024584637107986581 0 0.17354375486135309 -0.017044807666573961 0 0.1597115953628577 -0.004551068078293679 0 0.17713446895202581 0.0027071555325514931 0 0.17393796579135701 -0.0054750346567773583 0 0.1597115953628577 -0.004551068078293679 0 0.17354375486135309 -0.017044807666573961 0 0.17393796579135701 -0.0054750346567773583 0 0.1597115953628577 -0.004551068078293679 0 0.2041377938698247 0.0071157717978486829 0 0.2238187354208786 -0.01032781909156914 0 0.2041377938698247 0.0071157717978486829 0 0.20338492562482849 -0.01140941543972431 0 0.2238187354208786 -0.01032781909156914 0 0.2041377938698247 0.0071157717978486829 0 0.20338492562482849 -0.01140941543972431 0 0.18535099892293991 -0.0051935449981599657 0 0.20338492562482849 -0.01140941543972431 0 0.19227370544106259 -0.01984634992719516 0 0.2041377938698247 0.0071157717978486829 0 0.1947445826830477 0.0025945221424396271 0 0.20338492562482849 -0.01140941543972431 0 0.1947445826830477 0.0025945221424396271 0 0.18535099892293991 -0.0051935449981599657 0 0.20338492562482849 -0.01140941543972431 0 0.20338492562482849 -0.01140941543972431 0 0.19227370544106259 -0.01984634992719516 0 0.20263205737983489 -0.029934602677297469 0 0.20338492562482849 -0.01140941543972431 0 0.20263205737983489 -0.029934602677297469 0 0.19227370544106259 -0.01984634992719516 0 0.20263205737983489 -0.029934602677297469 0 0.19645679041635619 -0.035649378854219822 0 0.20263205737983489 -0.029934602677297469 0 0.2238187354208786 -0.01032781909156914 0 0.20338492562482849 -0.01140941543972431 0 0.20263205737983489 -0.029934602677297469 0 0.2238187354208786 -0.01032781909156914 0 0.20263205737983489 -0.029934602677297469 0 0.2194181678878504 -0.035818444948399177 0 0.2238187354208786 -0.01032781909156914 0 0.20220996176644879 -0.040320749685056161 0 0.2185452913768402 -0.053584457231829717 0 0.2194181678878504 -0.035818444948399177 0 0.20263205737983489 -0.029934602677297469 0 0.20220996176644879 -0.040320749685056161 0 0.2194181678878504 -0.035818444948399177 0 0.20263205737983489 -0.029934602677297469 0 0.19645679041635619 -0.035649378854219822 0 0.17690203798568721 -0.053745929820722932 0 0.19645679041635619 -0.035649378854219822 0 0.19421774693546701 -0.051056260771790568 0 0.20263205737983489 -0.029934602677297469 0 0.20220996176644879 -0.040320749685056161 0 0.20263205737983489 -0.029934602677297469 0 0.19645679041635619 -0.035649378854219822 0 0.20220996176644879 -0.040320749685056161 0 0.19645679041635619 -0.035649378854219822 0 0.20220996176644879 -0.040320749685056161 0 0.19645679041635619 -0.035649378854219822 0 0.20220996176644879 -0.040320749685056161 0 0.19421774693546701 -0.051056260771790568 0 0.17690203798568721 -0.053745929820722932 0 0.19421774693546701 -0.051056260771790568 0 0.19431803812055451 -0.060440136285540229 0 0.20220996176644879 -0.040320749685056161 0 0.20120190638829091 -0.065125109213411081 0 0.20220996176644879 -0.040320749685056161 0 0.19421774693546701 -0.051056260771790568 0 0.20120190638829091 -0.065125109213411081 0 0.17690203798568721 -0.053745929820722932 0 0.19431803812055451 -0.060440136285540229 0 0.19138232154082629 -0.068232323515447932 0 0.19421774693546701 -0.051056260771790568 0 0.19431803812055451 -0.060440136285540229 0 0.20120190638829091 -0.065125109213411081 0 0.20220996176644879 -0.040320749685056161 0 0.2185452913768402 -0.053584457231829717 0 0.20220996176644879 -0.040320749685056161 0 0.2185452913768402 -0.053584457231829717 0 0.20120190638829091 -0.065125109213411081 0 0.2185452913768402 -0.053584457231829717 0 0.23737902666398189 -0.045605343769507187 0 0.23488062098723411 -0.066848164778600283 0 0.2185452913768402 -0.053584457231829717 0 0.23488062098723411 -0.066848164778600283 0 0.25384440802733849 -0.059479789847577097 0 0.23737902666398189 -0.045605343769507187 0 0.23488062098723411 -0.066848164778600283 0 0.25384440802733849 -0.059479789847577097 0 0.25696371130683121 -0.039704838371586719 0 0.23737902666398189 -0.045605343769507187 0 0.25696371130683121 -0.039704838371586719 0 0.24039122336385491 -0.025016328731577941 0 0.25696371130683121 -0.039704838371586719 0 0.23737902666398189 -0.045605343769507187 0 0.24039122336385491 -0.025016328731577941 0 0.23737902666398189 -0.045605343769507187 0 0.2194181678878504 -0.035818444948399177 0 0.24039122336385491 -0.025016328731577941 0 0.2185452913768402 -0.053584457231829717 0 0.23737902666398189 -0.045605343769507187 0 0.2194181678878504 -0.035818444948399177 0 0.24039122336385491 -0.025016328731577941 0 0.2238187354208786 -0.01032781909156914 0 0.2194181678878504 -0.035818444948399177 0 0.24039122336385491 -0.025016328731577941 0 0.2238187354208786 -0.01032781909156914 0 0.25726128205146648 -0.02472902709960445 0 0.24039122336385491 -0.025016328731577941 0 0.2478997660749088 -0.01199357295348687 0 0.24039122336385491 -0.025016328731577941 0 0.2478997660749088 -0.01199357295348687 0 0.2238187354208786 -0.01032781909156914 0 0.2478997660749088 -0.01199357295348687 0 0.2443368381618172 -0.0014217291461706941 0 0.2238187354208786 -0.01032781909156914 0 0.2437956037903577 0.0081593705510081757 0 0.2443368381618172 -0.0014217291461706941 0 0.2238187354208786 -0.01032781909156914 0 0.25697511401342082 -0.00131748339547743 0 0.2478997660749088 -0.01199357295348687 0 0.2443368381618172 -0.0014217291461706941 0 0.2437956037903577 0.0081593705510081757 0 0.2238187354208786 -0.01032781909156914 0 0.21344301176287619 -0.1101109283824409 0 0.19900639735448639 -0.1090183135219544 0 0.22034288865110011 -0.097205110904902109 0 0.19900639735448639 -0.1090183135219544 0 0.22034288865110011 -0.097205110904902109 0 0.2032626877814673 -0.096121455551891707 0 0.19900639735448639 -0.1090183135219544 0 0.22034288865110011 -0.097205110904902109 0 0.21344301176287619 -0.1101109283824409 0 0.20991070107458101 -0.1215509306863536 0 0.22302685312332929 -0.12412706388543859 0 0.21344301176287619 -0.1101109283824409 0 0.20991070107458101 -0.1215509306863536 0 0.19900639735448639 -0.1090183135219544 0 0.17766990605787211 -0.1208315161390057 0 0.19900639735448639 -0.1090183135219544 0 0.17766990605787211 -0.1208315161390057 0 0.1957950833416526 -0.1231777916593905 0 0.19900639735448639 -0.1090183135219544 0 0.20991070107458101 -0.1215509306863536 0 0.1957950833416526 -0.1231777916593905 0 0.19900639735448639 -0.1090183135219544 0 0.17766990605787211 -0.1208315161390057 0 0.19900639735448639 -0.1090183135219544 0 0.18783886002431541 -0.095543680570539483 0 0.2032626877814673 -0.096121455551891707 0 0.19900639735448639 -0.1090183135219544 0 0.18783886002431541 -0.095543680570539483 0 0.2032626877814673 -0.096121455551891707 0 0.18783886002431541 -0.095543680570539483 0 0.2058626050959646 -0.082718717210173626 0 0.18783886002431541 -0.095543680570539483 0 0.18864089953473381 -0.081556978129937827 0 0.2058626050959646 -0.082718717210173626 0 0.18864089953473381 -0.081556978129937827 0 0.19138232154082629 -0.068232323515447932 0 0.2058626050959646 -0.082718717210173626 0 0.19138232154082629 -0.068232323515447932 0 0.20120190638829091 -0.065125109213411081 0 0.2058626050959646 -0.082718717210173626 0 0.19138232154082629 -0.068232323515447932 0 0.2058626050959646 -0.082718717210173626 0 0.19431803812055451 -0.060440136285540229 0 0.19138232154082629 -0.068232323515447932 0 0.20120190638829091 -0.065125109213411081 0 0.20120190638829091 -0.065125109213411081 0 0.21664252532771189 -0.070313053729094951 0 0.2058626050959646 -0.082718717210173626 0 0.2185452913768402 -0.053584457231829717 0 0.20120190638829091 -0.065125109213411081 0 0.21664252532771189 -0.070313053729094951 0 0.2032626877814673 -0.096121455551891707 0 0.2058626050959646 -0.082718717210173626 0 0.22034288865110011 -0.097205110904902109 0 0.2058626050959646 -0.082718717210173626 0 0.22271169725300799 -0.082196926046216187 0 0.22034288865110011 -0.097205110904902109 0 0.21664252532771189 -0.070313053729094951 0 0.2058626050959646 -0.082718717210173626 0 0.22271169725300799 -0.082196926046216187 0 0.2058626050959646 -0.082718717210173626 0 0.22034288865110011 -0.097205110904902109 0 0.22271169725300799 -0.082196926046216187 0 0.23488062098723411 -0.066848164778600283 0 0.23577941962436391 -0.088658491615138085 0 0.22271169725300799 -0.082196926046216187 0 0.23577941962436391 -0.088658491615138085 0 0.22034288865110011 -0.097205110904902109 0 0.23577941962436391 -0.088658491615138085 0 0.22034288865110011 -0.097205110904902109 0 0.2185452913768402 -0.053584457231829717 0 0.21664252532771189 -0.070313053729094951 0 0.23488062098723411 -0.066848164778600283 0 0.21664252532771189 -0.070313053729094951 0 0.22271169725300799 -0.082196926046216187 0 0.23488062098723411 -0.066848164778600283 0 0.25121595059762658 -0.08011187232537241 0 0.25384440802733849 -0.059479789847577097 0 0.23488062098723411 -0.066848164778600283 0 0.25121595059762658 -0.08011187232537241 0 0.23488062098723411 -0.066848164778600283 0 0.25088523712609029 -0.098719265181599597 0 0.25121595059762658 -0.08011187232537241 0 0.23577941962436391 -0.088658491615138085 0 0.25121595059762658 -0.08011187232537241 0 0.23488062098723411 -0.066848164778600283 0 0.23577941962436391 -0.088658491615138085 0 0.25121595059762658 -0.08011187232537241 0 0.23577941962436391 -0.088658491615138085 0 0.25088523712609029 -0.098719265181599597 0 0.25413929515139538 -0.1150592892124483 0 0.23598277127828821 -0.11285159297923079 0 0.25088523712609029 -0.098719265181599597 0 0.23577941962436391 -0.088658491615138085 0 0.23598277127828821 -0.11285159297923079 0 0.22034288865110011 -0.097205110904902109 0 0.23598277127828821 -0.11285159297923079 0 0.21344301176287619 -0.1101109283824409 0 0.22034288865110011 -0.097205110904902109 0 0.23598277127828821 -0.11285159297923079 0 0.23577941962436391 -0.088658491615138085 0 0.22034288865110011 -0.097205110904902109 0 0.23598277127828821 -0.11285159297923079 0 0.21344301176287619 -0.1101109283824409 0 0.22302685312332929 -0.12412706388543859 0 0.23598277127828821 -0.11285159297923079 0 0.21344301176287619 -0.1101109283824409 0 0.23598277127828821 -0.11285159297923079 0 0.22302685312332929 -0.12412706388543859 0 0.23598277127828821 -0.11285159297923079 0 0.23711718823758229 -0.12800382464396981 0 0.25413929515139538 -0.1150592892124483 0 0.23598277127828821 -0.11285159297923079 0 0.2536752578795437 -0.1305515451499529 0 0.23598277127828821 -0.11285159297923079 0 0.23711718823758229 -0.12800382464396981 0 0.2536752578795437 -0.1305515451499529 0 0.23598277127828821 -0.11285159297923079 0 0.25413929515139538 -0.1150592892124483 0 0.2536752578795437 -0.1305515451499529 0 0.23598277127828821 -0.11285159297923079 0 0.2536752578795437 -0.1305515451499529 0 0.2407238810529406 -0.1399409945337359 0 0.23711718823758229 -0.12800382464396981 0 0.2536752578795437 -0.1305515451499529 0 0.25258679472742501 -0.1513124129151564 0 0.2407238810529406 -0.1399409945337359 0 0.2407238810529406 -0.1399409945337359 0 0.23711718823758229 -0.12800382464396981 0 0.23051355761009731 -0.13373110771628921 0 0.25258679472742501 -0.1513124129151564 0 0.2407238810529406 -0.1399409945337359 0 0.2321516193331272 -0.1535695099892376 0 0.2321516193331272 -0.1535695099892376 0 0.22053204028897599 -0.14457382111267661 0 0.21468341490965659 -0.15235386668679499 0 0.2407238810529406 -0.1399409945337359 0 0.2321516193331272 -0.1535695099892376 0 0.2297990705382775 -0.14171854300237419 0 0.2321516193331272 -0.1535695099892376 0 0.2297990705382775 -0.14171854300237419 0 0.22053204028897599 -0.14457382111267661 0 0.22302685312332929 -0.12412706388543859 0 0.23711718823758229 -0.12800382464396981 0 0.23051355761009731 -0.13373110771628921 0 0.2297990705382775 -0.14171854300237419 0 0.23051355761009731 -0.13373110771628921 0 0.2219007950983567 -0.13486511251592781 0 0.2407238810529406 -0.1399409945337359 0 0.2297990705382775 -0.14171854300237419 0 0.23051355761009731 -0.13373110771628921 0 0.2297990705382775 -0.14171854300237419 0 0.22053204028897599 -0.14457382111267661 0 0.2219007950983567 -0.13486511251592781 0 0.22053204028897599 -0.14457382111267661 0 0.2219007950983567 -0.13486511251592781 0 0.21450521118360549 -0.13929385700909611 0 0.22302685312332929 -0.12412706388543859 0 0.2219007950983567 -0.13486511251592781 0 0.2131080246667528 -0.13122572029999599 0 0.22302685312332929 -0.12412706388543859 0 0.23051355761009731 -0.13373110771628921 0 0.2219007950983567 -0.13486511251592781 0 0.20991070107458101 -0.1215509306863536 0 0.22302685312332929 -0.12412706388543859 0 0.2131080246667528 -0.13122572029999599 0 0.20991070107458101 -0.1215509306863536 0 0.2131080246667528 -0.13122572029999599 0 0.20359828524033241 -0.13118360287497599 0 0.2131080246667528 -0.13122572029999599 0 0.20359828524033241 -0.13118360287497599 0 0.2058734790392146 -0.13968974436457271 0 0.2219007950983567 -0.13486511251592781 0 0.2131080246667528 -0.13122572029999599 0 0.21450521118360549 -0.13929385700909611 0 0.2131080246667528 -0.13122572029999599 0 0.2058734790392146 -0.13968974436457271 0 0.21450521118360549 -0.13929385700909611 0 0.22053204028897599 -0.14457382111267661 0 0.21468341490965659 -0.15235386668679499 0 0.2101521306708323 -0.14564203747262899 0 0.22053204028897599 -0.14457382111267661 0 0.21450521118360549 -0.13929385700909611 0 0.2101521306708323 -0.14564203747262899 0 0.21468341490965659 -0.15235386668679499 0 0.2101521306708323 -0.14564203747262899 0 0.2028928992505897 -0.14831390970459349 0 0.2058734790392146 -0.13968974436457271 0 0.21450521118360549 -0.13929385700909611 0 0.2101521306708323 -0.14564203747262899 0 0.2101521306708323 -0.14564203747262899 0 0.20409134553884009 -0.14523900984867771 0 0.2028928992505897 -0.14831390970459349 0 0.2058734790392146 -0.13968974436457271 0 0.2101521306708323 -0.14564203747262899 0 0.20409134553884009 -0.14523900984867771 0 0.2058734790392146 -0.13968974436457271 0 0.20409134553884009 -0.14523900984867771 0 0.19709630639239981 -0.1475313006194382 0 0.2028928992505897 -0.14831390970459349 0 0.19709630639239981 -0.1475313006194382 0 0.20409134553884009 -0.14523900984867771 0 0.2028928992505897 -0.14831390970459349 0 0.19709630639239981 -0.1475313006194382 0 0.2028928992505897 -0.14831390970459349 0 0.19709630639239981 -0.1475313006194382 0 0.19818186565042481 -0.1613491031913816 0 0.20359828524033241 -0.13118360287497599 0 0.2058734790392146 -0.13968974436457271 0 0.19709630639239981 -0.1475313006194382 0 0.20359828524033241 -0.13118360287497599 0 0.19709630639239981 -0.1475313006194382 0 0.20359828524033241 -0.13118360287497599 0 0.19709630639239981 -0.1475313006194382 0 0.1881147108597376 -0.13324331501142259 0 0.1957950833416526 -0.1231777916593905 0 0.20359828524033241 -0.13118360287497599 0 0.1881147108597376 -0.13324331501142259 0 0.20991070107458101 -0.1215509306863536 0 0.1957950833416526 -0.1231777916593905 0 0.20359828524033241 -0.13118360287497599 0 0.20181005721681869 -0.1756914542622372 0 0.18790258179823979 -0.17064676043964 0 0.19260579946460249 -0.1938196557189214 0 0.20181005721681869 -0.1756914542622372 0 0.20425217046891209 -0.19009466573396969 0 0.19260579946460249 -0.1938196557189214 0 0.19709630639239981 -0.1475313006194382 0 0.18790258179823979 -0.17064676043964 0 0.19818186565042481 -0.1613491031913816 0 0.19709630639239981 -0.1475313006194382 0 0.18790258179823979 -0.17064676043964 0 0.1821306795807231 -0.15496505609552921 0 0.19709630639239981 -0.1475313006194382 0 0.18790258179823979 -0.17064676043964 0 0.20181005721681869 -0.1756914542622372 0 0.18790258179823979 -0.17064676043964 0 0.19818186565042481 -0.1613491031913816 0 0.20181005721681869 -0.1756914542622372 0 0.19818186565042481 -0.1613491031913816 0 0.2175604591609234 -0.16992533168553101 0 0.2028928992505897 -0.14831390970459349 0 0.19818186565042481 -0.1613491031913816 0 0.2175604591609234 -0.16992533168553101 0 0.2028928992505897 -0.14831390970459349 0 0.2175604591609234 -0.16992533168553101 0 0.21468341490965659 -0.15235386668679499 0 0.2028928992505897 -0.14831390970459349 0 0.2175604591609234 -0.16992533168553101 0 0.2175604591609234 -0.16992533168553101 0 0.20425217046891209 -0.19009466573396969 0 0.21699321330563781 -0.1964939377595965 0 0.20181005721681869 -0.1756914542622372 0 0.2175604591609234 -0.16992533168553101 0 0.20425217046891209 -0.19009466573396969 0 0.2175604591609234 -0.16992533168553101 0 0.23222801907125701 -0.1915367536664683 0 0.2175604591609234 -0.16992533168553101 0 0.2437523598962367 -0.16819249339514139 0 0.23222801907125701 -0.1915367536664683 0 0.2175604591609234 -0.16992533168553101 0 0.23222801907125701 -0.1915367536664683 0 0.21699321330563781 -0.1964939377595965 0 0.2321516193331272 -0.1535695099892376 0 0.2175604591609234 -0.16992533168553101 0 0.2437523598962367 -0.16819249339514139 0 0.2321516193331272 -0.1535695099892376 0 0.21468341490965659 -0.15235386668679499 0 0.2175604591609234 -0.16992533168553101 0 0.25258679472742501 -0.1513124129151564 0 0.2321516193331272 -0.1535695099892376 0 0.2437523598962367 -0.16819249339514139 0 0.25259120948828062 -0.1836903746716112 0 0.2437523598962367 -0.16819249339514139 0 0.23222801907125701 -0.1915367536664683 0 0.25504538993481529 -0.1984662779270023 0 0.2468955789815907 -0.21314817564740571 0 0.23222801907125701 -0.1915367536664683 0 0.25504538993481529 -0.1984662779270023 0 0.25259120948828062 -0.1836903746716112 0 0.23222801907125701 -0.1915367536664683 0 0.2468955789815907 -0.21314817564740571 0 0.23222801907125701 -0.1915367536664683 0 0.2468955789815907 -0.21314817564740571 0 0.22531291264289921 -0.2081213038046833 0 0.23222801907125701 -0.1915367536664683 0 0.2468955789815907 -0.21314817564740571 0 0.22531291264289921 -0.2081213038046833 0 0.23059901592795901 -0.22571101176558811 0 0.22531291264289921 -0.2081213038046833 0 0.23059901592795901 -0.22571101176558811 0 0.21567345788980111 -0.21708927468345299 0 0.22531291264289921 -0.2081213038046833 0 0.23222801907125701 -0.1915367536664683 0 0.21699321330563781 -0.1964939377595965 0 0.22824002358951981 -0.25691824546728609 0 0.2487016031953268 -0.24242778360998679 0 0.22824002358951981 -0.25691824546728609 0 0.2487016031953268 -0.24242778360998679 0 0.23059115938570091 -0.24204298695603699 0 0.2487016031953268 -0.24242778360998679 0 0.23059901592795901 -0.22571101176558811 0 0.23059115938570091 -0.24204298695603699 0 0.2468955789815907 -0.21314817564740571 0 0.2487016031953268 -0.24242778360998679 0 0.23059901592795901 -0.22571101176558811 0 0.23059901592795901 -0.22571101176558811 0 0.21319992675173241 -0.22945581010827351 0 0.21567345788980111 -0.21708927468345299 0 0.23059901592795901 -0.22571101176558811 0 0.22207787739876991 -0.2372379276628046 0 0.21319992675173241 -0.22945581010827351 0 0.23059901592795901 -0.22571101176558811 0 0.23059115938570091 -0.24204298695603699 0 0.22207787739876991 -0.2372379276628046 0 0.23059115938570091 -0.24204298695603699 0 0.22207787739876991 -0.2372379276628046 0 0.2222449605538882 -0.24652785509083011 0 0.22824002358951981 -0.25691824546728609 0 0.23059115938570091 -0.24204298695603699 0 0.2222449605538882 -0.24652785509083011 0 0.21125366396953049 -0.2414276983028423 0 0.1994226524838594 -0.24016626540683139 0 0.20273920809173551 -0.24965645729264649 0 0.21687744589983871 -0.25222819469780228 0 0.21125366396953049 -0.2414276983028423 0 0.20273920809173551 -0.24965645729264649 0 0.21687744589983871 -0.25222819469780228 0 0.2222449605538882 -0.24652785509083011 0 0.21125366396953049 -0.2414276983028423 0 0.22207787739876991 -0.2372379276628046 0 0.2222449605538882 -0.24652785509083011 0 0.21125366396953049 -0.2414276983028423 0 0.22207787739876991 -0.2372379276628046 0 0.21125366396953049 -0.2414276983028423 0 0.21319992675173241 -0.22945581010827351 0 0.21125366396953049 -0.2414276983028423 0 0.20151580374597741 -0.23146358643493539 0 0.1994226524838594 -0.24016626540683139 0 0.21125366396953049 -0.2414276983028423 0 0.21319992675173241 -0.22945581010827351 0 0.20151580374597741 -0.23146358643493539 0 0.21319992675173241 -0.22945581010827351 0 0.20277471561377719 -0.21943766541282439 0 0.20151580374597741 -0.23146358643493539 0 0.21319992675173241 -0.22945581010827351 0 0.20277471561377719 -0.21943766541282439 0 0.21567345788980111 -0.21708927468345299 0 0.20277471561377719 -0.21943766541282439 0 0.1925121267991656 -0.2249474255391529 0 0.20151580374597741 -0.23146358643493539 0 0.20277471561377719 -0.21943766541282439 0 0.1925121267991656 -0.2249474255391529 0 0.1898855314343347 -0.21290923876441009 0 0.1925121267991656 -0.2249474255391529 0 0.1898855314343347 -0.21290923876441009 0 0.18171214921474149 -0.2207021570344784 0 0.1925121267991656 -0.2249474255391529 0 0.19445174101440951 -0.2324463769964443 0 0.18435638102863561 -0.23320823060485751 0 0.1925121267991656 -0.2249474255391529 0 0.19445174101440951 -0.2324463769964443 0 0.20151580374597741 -0.23146358643493539 0 0.1994226524838594 -0.24016626540683139 0 0.20273920809173551 -0.24965645729264649 0 0.18435638102863561 -0.23320823060485751 0 0.18963807924671869 -0.25438418815006431 0 0.20273920809173551 -0.24965645729264649 0 0.18435638102863561 -0.23320823060485751 0 0.20273920809173551 -0.24965645729264649 0 0.18435638102863561 -0.23320823060485751 0 0.19445174101440951 -0.2324463769964443 0 0.20151580374597741 -0.23146358643493539 0 0.1994226524838594 -0.24016626540683139 0 0.19445174101440951 -0.2324463769964443 0 0.1994226524838594 -0.24016626540683139 0 0.18435638102863561 -0.23320823060485751 0 0.20425217046891209 -0.19009466573396969 0 0.21699321330563781 -0.1964939377595965 0 0.20586015535942159 -0.20575281611075991 0 0.22531291264289921 -0.2081213038046833 0 0.21567345788980111 -0.21708927468345299 0 0.20586015535942159 -0.20575281611075991 0 0.22531291264289921 -0.2081213038046833 0 0.21699321330563781 -0.1964939377595965 0 0.20586015535942159 -0.20575281611075991 0 0.20277471561377719 -0.21943766541282439 0 0.21567345788980111 -0.21708927468345299 0 0.20586015535942159 -0.20575281611075991 0 0.20586015535942159 -0.20575281611075991 0 0.1898855314343347 -0.21290923876441009 0 0.19260579946460249 -0.1938196557189214 0 0.20277471561377719 -0.21943766541282439 0 0.20586015535942159 -0.20575281611075991 0 0.1898855314343347 -0.21290923876441009 0 0.20425217046891209 -0.19009466573396969 0 0.20586015535942159 -0.20575281611075991 0 0.19260579946460249 -0.1938196557189214 0 0.19260579946460249 -0.1938196557189214 0 0.1787088572040792 -0.19376222025984161 0 0.1798212427704117 -0.2078804344615918 0 0.1787088572040792 -0.19376222025984161 0 0.1798212427704117 -0.2078804344615918 0 0.16951513260991849 -0.21687768008004321 0 0.1787088572040792 -0.19376222025984161 0 0.16951513260991849 -0.21687768008004321 0 0.1787088572040792 -0.19376222025984161 0 0.16951513260991849 -0.21687768008004321 0 0.1682044875046167 -0.20297035398981361 0 0.1898855314343347 -0.21290923876441009 0 0.19260579946460249 -0.1938196557189214 0 0.1798212427704117 -0.2078804344615918 0 0.1898855314343347 -0.21290923876441009 0 0.1798212427704117 -0.2078804344615918 0 0.1802335140073516 -0.21459237758513089 0 0.1898855314343347 -0.21290923876441009 0 0.1802335140073516 -0.21459237758513089 0 0.18171214921474149 -0.2207021570344784 0 0.1802335140073516 -0.21459237758513089 0 0.16951513260991849 -0.21687768008004321 0 0.18171214921474149 -0.2207021570344784 0 0.1798212427704117 -0.2078804344615918 0 0.1802335140073516 -0.21459237758513089 0 0.16951513260991849 -0.21687768008004321 0 0.16531866582609059 -0.20995258274366521 0 0.16037188326044069 -0.2017072286698578 0 0.1682044875046167 -0.20297035398981361 0 0.16531866582609059 -0.20995258274366521 0 0.16951513260991849 -0.21687768008004321 0 0.1682044875046167 -0.20297035398981361 0 0.16531866582609059 -0.20995258274366521 0 0.16951513260991849 -0.21687768008004321 0 0.16597355396553559 -0.21676000391706829 0 0.16531866582609059 -0.20995258274366521 0 0.16597355396553559 -0.21676000391706829 0 0.16265231873839489 -0.2139219031546542 0 0.1620376193041089 -0.21853343835979999 0 0.16265231873839489 -0.2139219031546542 0 0.1589819305709492 -0.21585604681955661 0 0.16597355396553559 -0.21676000391706829 0 0.1620376193041089 -0.21853343835979999 0 0.16265231873839489 -0.2139219031546542 0 0.16265231873839489 -0.2139219031546542 0 0.1589819305709492 -0.21585604681955661 0 0.15920764536416471 -0.20955514080880711 0 0.16531866582609059 -0.20995258274366521 0 0.16265231873839489 -0.2139219031546542 0 0.15920764536416471 -0.20955514080880711 0 0.1589819305709492 -0.21585604681955661 0 0.15920764536416471 -0.20955514080880711 0 0.1516808606228417 -0.21557402889087041 0 0.1589819305709492 -0.21585604681955661 0 0.15825504833840409 -0.22195895300688631 0 0.1516808606228417 -0.21557402889087041 0 0.15920764536416471 -0.20955514080880711 0 0.16037188326044069 -0.2017072286698578 0 0.15246262096527469 -0.20233072266827351 0 0.16531866582609059 -0.20995258274366521 0 0.15920764536416471 -0.20955514080880711 0 0.16037188326044069 -0.2017072286698578 0 0.1787088572040792 -0.19376222025984161 0 0.15962038856545019 -0.19364073800167861 0 0.1682044875046167 -0.20297035398981361 0 0.1787088572040792 -0.19376222025984161 0 0.15962038856545019 -0.19364073800167861 0 0.16486120847217459 -0.17969036735917329 0 0.16037188326044069 -0.2017072286698578 0 0.15962038856545019 -0.19364073800167861 0 0.1682044875046167 -0.20297035398981361 0 0.16037188326044069 -0.2017072286698578 0 0.15962038856545019 -0.19364073800167861 0 0.15246262096527469 -0.20233072266827351 0 0.18963807924671869 -0.25438418815006431 0 0.17437765487915691 -0.2356889873159777 0 0.1655278077511898 -0.24540868528259829 0 0.18963807924671869 -0.25438418815006431 0 0.17437765487915691 -0.2356889873159777 0 0.18435638102863561 -0.23320823060485751 0 0.18963807924671869 -0.25438418815006431 0 0.17437765487915691 -0.2356889873159777 0 0.18963807924671869 -0.25438418815006431 0 0.1655278077511898 -0.24540868528259829 0 0.16951513260991849 -0.21687768008004321 0 0.18435638102863561 -0.23320823060485751 0 0.18171214921474149 -0.2207021570344784 0 0.16597355396553559 -0.21676000391706829 0 0.18435638102863561 -0.23320823060485751 0 0.16915118825133879 -0.22826289763894941 0 0.16597355396553559 -0.21676000391706829 0 0.18435638102863561 -0.23320823060485751 0 0.16951513260991849 -0.21687768008004321 0 0.16597355396553559 -0.21676000391706829 0 0.18435638102863561 -0.23320823060485751 0 0.17437765487915691 -0.2356889873159777 0 0.18435638102863561 -0.23320823060485751 0 0.16915118825133879 -0.22826289763894941 0 0.1925121267991656 -0.2249474255391529 0 0.18435638102863561 -0.23320823060485751 0 0.18171214921474149 -0.2207021570344784 0 0.16597355396553559 -0.21676000391706829 0 0.16350496028218511 -0.22312781164252249 0 0.16915118825133879 -0.22826289763894941 0 0.15825504833840409 -0.22195895300688631 0 0.16350496028218511 -0.22312781164252249 0 0.15923251532496999 -0.23069058228423689 0 0.16597355396553559 -0.21676000391706829 0 0.1620376193041089 -0.21853343835979999 0 0.16350496028218511 -0.22312781164252249 0 0.1620376193041089 -0.21853343835979999 0 0.15825504833840409 -0.22195895300688631 0 0.16350496028218511 -0.22312781164252249 0 0.1620376193041089 -0.21853343835979999 0 0.1589819305709492 -0.21585604681955661 0 0.15825504833840409 -0.22195895300688631 0 0.16350496028218511 -0.22312781164252249 0 0.15923251532496999 -0.23069058228423689 0 0.16915118825133879 -0.22826289763894941 0 0.15923251532496999 -0.23069058228423689 0 0.16915118825133879 -0.22826289763894941 0 0.16707229155166389 -0.23501278813044049 0 0.17437765487915691 -0.2356889873159777 0 0.16915118825133879 -0.22826289763894941 0 0.16707229155166389 -0.23501278813044049 0 0.17437765487915691 -0.2356889873159777 0 0.16707229155166389 -0.23501278813044049 0 0.1655278077511898 -0.24540868528259829 0 0.15923251532496999 -0.23069058228423689 0 0.16707229155166389 -0.23501278813044049 0 0.1655278077511898 -0.24540868528259829 0 0.1655278077511898 -0.24540868528259829 0 0.14141753625566111 -0.2364331824151317 0 0.15542942967836421 -0.25121002018023469 0 0.1655278077511898 -0.24540868528259829 0 0.14141753625566111 -0.2364331824151317 0 0.15923251532496999 -0.23069058228423689 0 0.1655278077511898 -0.24540868528259829 0 0.14141753625566111 -0.2364331824151317 0 0.1422398969336455 -0.25095148979243781 0 0.15542942967836421 -0.25121002018023469 0 0.14141753625566111 -0.2364331824151317 0 0.15923251532496999 -0.23069058228423689 0 0.14141753625566111 -0.2364331824151317 0 0.14938049960250219 -0.2250116107355013 0 0.14141753625566111 -0.2364331824151317 0 0.14938049960250219 -0.2250116107355013 0 0.13801379981802839 -0.2158207573364738 0 0.15825504833840409 -0.22195895300688631 0 0.15923251532496999 -0.23069058228423689 0 0.14938049960250219 -0.2250116107355013 0 0.15825504833840409 -0.22195895300688631 0 0.14938049960250219 -0.2250116107355013 0 0.1516808606228417 -0.21557402889087041 0 0.14938049960250219 -0.2250116107355013 0 0.1516808606228417 -0.21557402889087041 0 0.13801379981802839 -0.2158207573364738 0 0.11730726476013251 -0.2274576795476651 0 0.14141753625566111 -0.2364331824151317 0 0.11730726476013251 -0.2274576795476651 0 0.14141753625566111 -0.2364331824151317 0 0.12665785581428871 -0.21863402452052111 0 0.14141753625566111 -0.2364331824151317 0 0.13801379981802839 -0.2158207573364738 0 0.12665785581428871 -0.21863402452052111 0 0.13030530462117779 -0.25171385039249911 0 0.11730726476013251 -0.2274576795476651 0 0.14141753625566111 -0.2364331824151317 0 0.13030530462117779 -0.25171385039249911 0 0.1422398969336455 -0.25095148979243781 0 0.14141753625566111 -0.2364331824151317 0 0.15962038856545019 -0.19364073800167861 0 0.14589038176850869 -0.19609620411326481 0 0.14380911140509309 -0.18455809652056501 0 0.14589038176850869 -0.19609620411326481 0 0.15246262096527469 -0.20233072266827351 0 0.14556927830709429 -0.2079763090320281 0 0.14589038176850869 -0.19609620411326481 0 0.14556927830709429 -0.2079763090320281 0 0.1366589558386106 -0.19857388464600351 0 0.14589038176850869 -0.19609620411326481 0 0.13917976737193299 -0.19206223211926091 0 0.14380911140509309 -0.18455809652056501 0 0.15962038856545019 -0.19364073800167861 0 0.14589038176850869 -0.19609620411326481 0 0.15246262096527469 -0.20233072266827351 0 0.15920764536416471 -0.20955514080880711 0 0.15246262096527469 -0.20233072266827351 0 0.1522293494280349 -0.2089938276168386 0 0.1522293494280349 -0.2089938276168386 0 0.1516808606228417 -0.21557402889087041 0 0.14556927830709429 -0.2079763090320281 0 0.15246262096527469 -0.20233072266827351 0 0.1522293494280349 -0.2089938276168386 0 0.14556927830709429 -0.2079763090320281 0 0.15920764536416471 -0.20955514080880711 0 0.1522293494280349 -0.2089938276168386 0 0.1516808606228417 -0.21557402889087041 0 0.1516808606228417 -0.21557402889087041 0 0.14556927830709429 -0.2079763090320281 0 0.13801379981802839 -0.2158207573364738 0 0.14556927830709429 -0.2079763090320281 0 0.13801379981802839 -0.2158207573364738 0 0.1366589558386106 -0.19857388464600351 0 0.1230002356096771 -0.1898466095260338 0 0.13801379981802839 -0.2158207573364738 0 0.12801886311926899 -0.2063418920433803 0 0.13801379981802839 -0.2158207573364738 0 0.12665785581428871 -0.21863402452052111 0 0.12801886311926899 -0.2063418920433803 0 0.1230002356096771 -0.1898466095260338 0 0.12801886311926899 -0.2063418920433803 0 0.1230002356096771 -0.1898466095260338 0 0.13036062047551969 -0.18902074319721049 0 0.14380911140509309 -0.18455809652056501 0 0.1230002356096771 -0.1898466095260338 0 0.13801379981802839 -0.2158207573364738 0 0.1366589558386106 -0.19857388464600351 0 0.1230002356096771 -0.1898466095260338 0 0.13801379981802839 -0.2158207573364738 0 0.14589038176850869 -0.19609620411326481 0 0.1366589558386106 -0.19857388464600351 0 0.13917976737193299 -0.19206223211926091 0 0.13917976737193299 -0.19206223211926091 0 0.13036062047551969 -0.18902074319721049 0 0.14380911140509309 -0.18455809652056501 0 0.1366589558386106 -0.19857388464600351 0 0.13917976737193299 -0.19206223211926091 0 0.13036062047551969 -0.18902074319721049 0 0.1230002356096771 -0.1898466095260338 0 0.1366589558386106 -0.19857388464600351 0 0.13036062047551969 -0.18902074319721049 0 0.1230002356096771 -0.1898466095260338 0 0.13036062047551969 -0.18902074319721049 0 0.1230002356096771 -0.1898466095260338 0 0.14380911140509309 -0.18455809652056501 0 0.1230002356096771 -0.1898466095260338 0 0.13216500604533599 -0.18215655632593081 0 0.14380911140509309 -0.18455809652056501 0 0.13216500604533599 -0.18215655632593081 0 0.14380911140509309 -0.18455809652056501 0 0.14130304454448009 -0.16475291672229031 0 0.13216500604533599 -0.18215655632593081 0 0.14130304454448009 -0.16475291672229031 0 0.1279792061784 -0.17002182338065941 0 0.1230002356096771 -0.1898466095260338 0 0.1211701728431092 -0.1866805178411062 0 0.13216500604533599 -0.18215655632593081 0 0.1211701728431092 -0.1866805178411062 0 0.13216500604533599 -0.18215655632593081 0 0.1279792061784 -0.17002182338065941 0 0.15228279219331961 -0.17324809204811131 0 0.14380911140509309 -0.18455809652056501 0 0.14130304454448009 -0.16475291672229031 0 0.15228279219331961 -0.17324809204811131 0 0.14380911140509309 -0.18455809652056501 0 0.16486120847217459 -0.17969036735917329 0 0.15962038856545019 -0.19364073800167861 0 0.14380911140509309 -0.18455809652056501 0 0.16486120847217459 -0.17969036735917329 0 0.14380911140509309 -0.18455809652056501 0 0.16486120847217459 -0.17969036735917329 0 0.15228279219331961 -0.17324809204811131 0 0.14130304454448009 -0.16475291672229031 0 0.16156902937000711 -0.16156432400480919 0 0.1248017938381641 -0.15425177601001139 0 0.14130304454448009 -0.16475291672229031 0 0.1279792061784 -0.17002182338065941 0 0.1120874786856708 -0.13976417761338111 0 0.1248017938381641 -0.15425177601001139 0 0.1404237545879137 -0.14235321861540001 0 0.1248017938381641 -0.15425177601001139 0 0.14130304454448009 -0.16475291672229031 0 0.1404237545879137 -0.14235321861540001 0 0.1120874786856708 -0.13976417761338111 0 0.1404237545879137 -0.14235321861540001 0 0.1120874786856708 -0.13976417761338111 0 0.1404237545879137 -0.14235321861540001 0 0.12953710980066629 -0.12747703992295739 0 0.14627069365861661 -0.1189389935120195 0 0.1404237545879137 -0.14235321861540001 0 0.12953710980066629 -0.12747703992295739 0 0.14627069365861661 -0.1189389935120195 0 0.1404237545879137 -0.14235321861540001 0 0.16013015137076411 -0.12831723327391331 0 0.1404237545879137 -0.14235321861540001 0 0.16876003049015681 -0.14494225961741899 0 0.14130304454448009 -0.16475291672229031 0 0.1404237545879137 -0.14235321861540001 0 0.16156902937000711 -0.16156432400480919 0 0.1404237545879137 -0.14235321861540001 0 0.16876003049015681 -0.14494225961741899 0 0.16156902937000711 -0.16156432400480919 0 0.16876003049015681 -0.14494225961741899 0 0.1821306795807231 -0.15496505609552921 0 0.16156902937000711 -0.16156432400480919 0 0.17766990605787211 -0.1208315161390057 0 0.16876003049015681 -0.14494225961741899 0 0.16013015137076411 -0.12831723327391331 0 0.1404237545879137 -0.14235321861540001 0 0.16876003049015681 -0.14494225961741899 0 0.16013015137076411 -0.12831723327391331 0 0.17766990605787211 -0.1208315161390057 0 0.1957950833416526 -0.1231777916593905 0 0.1881147108597376 -0.13324331501142259 0 0.17766990605787211 -0.1208315161390057 0 0.1881147108597376 -0.13324331501142259 0 0.16876003049015681 -0.14494225961741899 0 0.19709630639239981 -0.1475313006194382 0 0.16876003049015681 -0.14494225961741899 0 0.19709630639239981 -0.1475313006194382 0 0.16876003049015681 -0.14494225961741899 0 0.1821306795807231 -0.15496505609552921 0 0.19709630639239981 -0.1475313006194382 0 0.1881147108597376 -0.13324331501142259 0 0.16876003049015681 -0.14494225961741899 0 0.18790258179823979 -0.17064676043964 0 0.1821306795807231 -0.15496505609552921 0 0.16156902937000711 -0.16156432400480919 0 0.18790258179823979 -0.17064676043964 0 0.1787088572040792 -0.19376222025984161 0 0.16486120847217459 -0.17969036735917329 0 0.18790258179823979 -0.17064676043964 0 0.1787088572040792 -0.19376222025984161 0 0.18790258179823979 -0.17064676043964 0 0.19260579946460249 -0.1938196557189214 0 0.1787088572040792 -0.19376222025984161 0 0.18790258179823979 -0.17064676043964 0 0.16486120847217459 -0.17969036735917329 0 0.16156902937000711 -0.16156432400480919 0 0.15228279219331961 -0.17324809204811131 0 0.16486120847217459 -0.17969036735917329 0 0.16156902937000711 -0.16156432400480919 0 
</DataArray>
</Points>
<Cells>
<DataArray type="UInt32" Name="connectivity" format="ascii">
0 1 2 3 4 5 6 7 8 9 10 11 12 13 14 15 16 17 18 19 20 21 22 23 24 25 26 27 28 29 30 31 32 33 34 35 36 37 38 39 40 41 42 43 44 45 46 47 48 49 50 51 52 53 54 55 56 57 58 59 60 61 62 63 64 65 66 67 68 69 70 71 72 73 74 75 76 77 78 79 80 81 82 83 84 85 86 87 88 89 90 91 92 93 94 95 96 97 98 99 100 101 102 103 104 105 106 107 108 109 110 111 112 113 114 115 116 117 118 119 120 121 122 123 124 125 126 127 128 129 130 131 132 133 134 135 136 137 138 139 140 141 142 143 144 145 146 147 148 149 150 151 152 153 154 155 156 157 158 159 160 161 162 163 164 165 166 167 168 169 170 171 172 173 174 175 176 177 178 179 180 181 182 183 184 185 186 187 188 189 190 191 192 193 194 195 196 197 198 199 200 201 202 203 204 205 206 207 208 209 210 211 212 213 214 215 216 217 218 219 220 221 222 223 224 225 226 227 228 229 230 231 232 233 234 235 236 237 238 239 240 241 242 243 244 245 246 247 248 249 250 251 252 253 254 255 256 257 258 259 260 261 262 263 264 265 266 267 268 269 270 271 272 273 274 275 276 277 278 279 280 281 282 283 284 285 286 287 288 289 290 291 292 293 294 295 296 297 298 299 300 301 302 303 304 305 306 307 308 309 310 311 312 313 314 315 316 317 318 319 320 321 322 323 324 325 326 327 328 329 330 331 332 333 334 335 336 337 338 339 340 341 342 343 344 345 346 347 348 349 350 351 352 353 354 355 356 357 358 359 360 361 362 363 364 365 366 367 368 369 370 371 372 373 374 375 376 377 378 379 380 381 382 383 384 385 386 387 388 389 390 391 392 393 394 395 396 397 398 399 400 401 402 403 404 405 406 407 408 409 410 411 412 413 414 415 416 417 418 419 420 421 422 423 424 425 426 427 428 429 430 431 432 433 434 435 436 437 438 439 440 441 442 443 444 445 446 447 448 449 450 451 452 453 454 455 456 457 458 459 460 461 462 463 464 465 466 467 468 469 470 471 472 473 474 475 476 477 478 479 480 481 482 483 484 485 486 487 488 489 490 491 492 493 494 495 496 497 498 499 500 501 502 503 504 505 506 507 508 509 510 511 512 513 514 515 516 517 518 519 520 521 522 523 524 525 526 527 528 529 530 531 532 533 534 535 536 537 538 539 540 541 542 543 544 545 546 547 548 549 550 551 552 553 554 555 556 557 558 559 560 561 562 563 564 565 566 567 568 569 570 571 572 573 574 575 576 577 578 579 580 581 582 583 584 585 586 587 588 589 590 591 592 593 594 595 596 597 598 599 600 601 602 603 604 605 606 607 608 609 610 611 612 613 614 615 616 617 618 619 620 621 622 623 624 625 626 627 628 629 630 631 632 633 634 635 636 637 638 639 640 641 642 643 644 645 646 647 648 649 650 651 652 653 654 655 656 657 658 659 660 661 662 663 664 665 666 667 668 669 670 671 672 673 674 675 676 677 678 679 680 681 682 683 684 685 686 687 688 689 690 691 692 693 694 695 696 697 698 699 700 701 702 703 704 705 706 707 708 709 710 711 712 713 714 715 716 717 718 719 720 721 722 723 724 725 726 727 728 729 730 731 732 733 734 735 736 737 738 739 740 741 742 743 744 745 746 747 748 749 750 751 752 753 754 755 756 757 758 759 760 761 762 763 764 765 766 767 768 769 770 771 772 773 774 775 776 777 778 779 780 781 782 783 784 785 786 787 788 789 790 791 792 793 794 795 796 797 798 799 800 801 802 803 804 805 806 807 808 809 810 811 812 813 814 815 816 817 818 819 820 821 822 823 824 825 826 827 828 829 830 831 832 833 834 835 836 837 838 839 840 841 842 843 844 845 846 847 848 849 850 851 852 853 854 855 856 857 858 859 860 861 862 863 864 865 866 867 868 869 870 871 872 873 874 875 876 877 878 879 880 881 882 883 884 885 886 887 888 889 890 891 892 893 894 895 896 897 898 899 900 901 902 903 904 905 906 907 908 909 910 911 912 913 914 915 916 917 918 919 920 921 922 923 924 925 926 927 928 929 930 931 932 933 934 935 936 937 938 939 940 941 942 943 944 945 946 947 948 949 950 951 952 953 954 955 956 957 958 959 960 961 962 963 964 965 966 967 968 969 970 971 972 973 974 975 976 977 978 979 980 981 982 983 984 985 986 987 988 989 990 991 992 993 994 995 996 997 998 999 1000 1001 1002 1003 1004 1005 1006 1007 1008 1009 1010 1011 1012 1013 1014 1015 1016 1017 1018 1019 1020 1021 1022 1023 1024 1025 1026 1027 1028 1029 1030 1031 1032 1033 1034 1035 1036 1037 1038 1039 1040 1041 1042 1043 1044 1045 1046 1047 1048 1049 1050 1051 1052 1053 1054 1055 1056 1057 1058 1059 1060 1061 1062 1063 1064 1065 1066 1067 1068 1069 1070 1071 1072 1073 1074 1075 1076 1077 1078 1079 1080 1081 1082 1083 1084 1085 1086 1087 1088 1089 1090 1091 1092 1093 1094 1095 1096 1097 1098 1099 1100 1101 1102 1103 1104 1105 1106 1107 1108 1109 1110 1111 1112 1113 1114 1115 1116 1117 1118 1119 1120 1121 1122 1123 1124 1125 1126 1127 1128 1129 1130 1131 1132 1133 1134 1135 1136 1137 1138 1139 1140 1141 1142 1143 1144 1145 1146 1147 1148 1149 1150 1151 1152 1153 1154 1155 1156 1157 1158 1159 1160 1161 1162 1163 1164 1165 1166 1167 1168 1169 1170 1171 1172 1173 1174 1175 1176 1177 1178 1179 1180 1181 1182 1183 1184 1185 1186 1187 1188 1189 1190 1191 1192 1193 1194 1195 1196 1197 1198 1199 1200 1201 1202 1203 1204 1205 1206 1207 1208 1209 1210 1211 1212 1213 1214 1215 1216 1217 1218 1219 1220 1221 1222 1223 1224 1225 1226 1227 1228 1229 1230 1231 1232 1233 1234 1235 1236 1237 1238 1239 1240 1241 1242 1243 1244 1245 1246 1247 1248 1249 1250 1251 1252 1253 1254 1255 1256 1257 1258 1259 1260 1261 1262 1263 1264 1265 1266 1267 1268 1269 1270 1271 1272 1273 1274 1275 1276 1277 1278 1279 1280 1281 1282 1283 1284 1285 1286 1287 1288 1289 1290 1291 1292 1293 1294 1295 1296 1297 1298 1299 1300 1301 1302 1303 1304 1305 1306 1307 1308 1309 1310 1311 1312 1313 1314 1315 1316 1317 1318 1319 1320 1321 1322 1323 1324 1325 1326 1327 1328 1329 1330 1331 1332 1333 1334 1335 1336 1337 1338 1339 1340 1341 1342 1343 1344 1345 1346 1347 1348 1349 1350 1351 1352 1353 1354 1355 1356 1357 1358 1359 1360 1361 1362 1363 1364 1365 1366 1367 1368 1369 1370 1371 1372 1373 1374 1375 1376 1377 1378 1379 1380 1381 1382 1383 1384 1385 1386 1387 1388 1389 1390 1391 1392 1393 1394 1395 1396 1397 1398 1399 1400 1401 1402 1403 1404 1405 1406 1407 1408 1409 1410 1411 1412 1413 1414 1415 1416 1417 1418 1419 1420 1421 1422 1423 1424 1425 1426 1427 1428 1429 1430 1431 1432 1433 1434 1435 1436 1437 1438 1439 1440 1441 1442 1443 1444 1445 1446 1447 1448 1449 1450 1451 1452 1453 1454 1455 1456 1457 1458 1459 1460 1461 1462 1463 1464 1465 1466 1467 1468 1469 1470 1471 1472 1473 1474 1475 1476 1477 1478 1479 1480 1481 1482 1483 1484 1485 1486 1487 1488 1489 1490 1491 1492 1493 1494 1495 1496 1497 1498 1499 1500 1501 1502 1503 1504 1505 1506 1507 1508 1509 1510 1511 1512 1513 1514 1515 1516 1517 1518 1519 1520 1521 1522 1523 1524 1525 1526 1527 1528 1529 1530 1531 1532 1533 1534 1535 1536 1537 1538 1539 1540 1541 1542 1543 1544 1545 1546 1547 1548 1549 1550 1551 1552 1553 1554 1555 1556 1557 1558 1559 1560 1561 1562 1563 1564 1565 1566 1567 1568 1569 1570 1571 1572 1573 1574 1575 1576 1577 1578 1579 1580 1581 1582 1583 1584 1585 1586 1587 1588 1589 1590 1591 1592 1593 1594 1595 1596 1597 1598 1599 1600 1601 1602 1603 1604 1605 1606 1607 1608 1609 1610 1611 1612 1613 1614 1615 1616 1617 1618 1619 1620 1621 1622 1623 1624 1625 1626 1627 1628 1629 1630 1631 1632 1633 1634 1635 1636 1637 1638 1639 1640 1641 1642 1643 1644 1645 1646 1647 1648 1649 1650 1651 1652 1653 1654 1655 1656 1657 1658 1659 1660 1661 1662 1663 1664 1665 1666 1667 1668 1669 1670 1671 1672 1673 1674 1675 1676 1677 1678 1679 1680 1681 1682 1683 1684 1685 1686 1687 1688 1689 1690 1691 1692 1693 1694 1695 1696 1697 1698 1699 1700 1701 1702 1703 1704 1705 1706 1707 1708 1709 1710 1711 1712 1713 1714 1715 1716 1717 1718 1719 1720 1721 1722 1723 1724 1725 1726 1727 1728 1729 1730 1731 1732 1733 1734 1735 1736 1737 1738 1739 1740 1741 1742 1743 1744 1745 1746 1747 1748 1749 1750 1751 1752 1753 1754 1755 1756 1757 1758 1759 1760 1761 1762 1763 1764 1765 1766 1767 1768 1769 1770 1771 1772 1773 1774 1775 1776 1777 1778 1779 1780 1781 1782 1783 1784 1785 1786 1787 1788 1789 1790 1791 1792 1793 1794 1795 1796 1797 1798 1799 1800 1801 1802 1803 1804 1805 1806 1807 1808 1809 1810 1811 1812 1813 1814 1815 1816 1817 1818 1819 1820 1821 1822 1823 1824 1825 1826 1827 1828 1829 1830 1831 1832 1833 1834 1835 1836 1837 1838 1839 1840 1841 1842 1843 1844 1845 1846 1847 1848 1849 1850 1851 1852 1853 1854 1855 1856 1857 1858 1859 1860 1861 1862 1863 1864 1865 1866 1867 1868 1869 1870 1871 1872 1873 1874 1875 1876 1877 1878 1879 1880 1881 1882 1883 1884 1885 1886 1887 1888 1889 1890 1891 1892 1893 1894 1895 1896 1897 1898 1899 1900 1901 1902 1903 1904 1905 1906 1907 1908 1909 1910 1911 1912 1913 1914 1915 1916 1917 1918 1919 1920 1921 1922 1923 1924 1925 1926 1927 1928 1929 1930 1931 1932 1933 1934 1935 1936 1937 1938 1939 1940 1941 1942 1943 1944 1945 1946 1947 1948 1949 1950 1951 1952 1953 1954 1955 1956 1957 1958 1959 1960 1961 1962 1963 1964 1965 1966 1967 1968 1969 1970 1971 1972 1973 1974 1975 1976 1977 1978 1979 1980 1981 1982 1983 1984 1985 1986 1987 1988 1989 1990 1991 1992 1993 1994 1995 1996 1997 1998 1999 2000 2001 2002 2003 2004 2005 2006 2007 2008 2009 2010 2011 2012 2013 2014 2015 2016 2017 2018 2019 2020 2021 2022 2023 2024 2025 2026 2027 2028 2029 2030 2031 2032 2033 2034 2035 2036 2037 2038 2039 2040 2041 2042 2043 2044 2045 2046 2047 2048 2049 2050 2051 2052 2053 2054 2055 2056 2057 2058 2059 2060 2061 2062 2063 2064 2065 2066 2067 2068 2069 2070 2071 2072 2073 2074 2075 2076 2077 2078 2079 2080 2081 2082 2083 2084 2085 2086 2087 2088 2089 2090 2091 2092 2093 2094 2095 2096 2097 2098 2099 2100 2101 2102 2103 2104 2105 2106 2107 2108 2109 2110 2111 2112 2113 2114 2115 2116 2117 2118 2119 2120 2121 2122 2123 2124 2125 2126 2127 2128 2129 2130 2131 2132 2133 2134 2135 2136 2137 2138 2139 2140 2141 2142 2143 2144 2145 2146 2147 2148 2149 2150 2151 2152 2153 2154 2155 2156 2157 2158 2159 2160 2161 2162 2163 2164 2165 2166 2167 2168 2169 2170 2171 2172 2173 2174 2175 2176 2177 2178 2179 2180 2181 2182 2183 2184 2185 2186 2187 2188 2189 2190 2191 2192 2193 2194 2195 2196 2197 2198 2199 2200 2201 2202 2203 2204 2205 2206 2207 2208 2209 2210 2211 2212 2213 2214 2215 2216 2217 2218 2219 2220 2221 2222 2223 2224 2225 2226 2227 2228 2229 2230 2231 2232 2233 2234 2235 2236 2237 2238 2239 2240 2241 2242 2243 2244 2245 2246 2247 2248 2249 2250 2251 2252 2253 2254 2255 2256 2257 2258 2259 2260 2261 2262 2263 2264 2265 2266 2267 2268 2269 2270 2271 2272 2273 2274 2275 2276 2277 2278 2279 2280 2281 2282 2283 2284 2285 2286 2287 2288 2289 2290 2291 2292 2293 2294 2295 2296 2297 2298 2299 2300 2301 2302 2303 2304 2305 2306 2307 2308 2309 2310 2311 2312 2313 2314 2315 2316 2317 2318 2319 2320 2321 2322 2323 2324 2325 2326 2327 2328 2329 2330 2331 2332 2333 2334 2335 2336 2337 2338 2339 2340 2341 2342 2343 2344 2345 2346 2347 2348 2349 2350 2351 2352 2353 2354 2355 2356 2357 2358 2359 2360 2361 2362 2363 2364 2365 2366 2367 2368 2369 2370 2371 2372 2373 2374 2375 2376 2377 2378 2379 2380 2381 2382 2383 2384 2385 2386 2387 2388 2389 2390 2391 2392 2393 2394 2395 2396 2397 2398 2399 2400 2401 2402 2403 2404 2405 2406 2407 2408 2409 2410 2411 2412 2413 2414 2415 2416 2417 2418 2419 2420 2421 2422 2423 2424 2425 2426 2427 2428 2429 2430 2431 2432 2433 2434 2435 2436 2437 2438 2439 2440 2441 2442 2443 2444 2445 2446 2447 2448 2449 2450 2451 2452 2453 2454 2455 2456 2457 2458 2459 2460 2461 2462 2463 2464 2465 2466 2467 2468 2469 2470 2471 2472 2473 2474 2475 2476 2477 2478 2479 2480 2481 2482 2483 2484 2485 2486 2487 2488 2489 2490 2491 2492 2493 2494 2495 2496 2497 2498 2499 2500 2501 2502 2503 2504 2505 2506 2507 2508 2509 2510 2511 2512 2513 2514 2515 2516 2517 2518 2519 2520 2521 2522 2523 2524 2525 2526 2527 2528 2529 2530 2531 2532 2533 2534 2535 2536 2537 2538 2539 2540 2541 2542 2543 2544 2545 2546 2547 2548 2549 2550 2551 2552 2553 2554 2555 2556 2557 2558 2559 2560 2561 2562 2563 2564 2565 2566 2567 2568 2569 2570 2571 2572 2573 2574 2575 2576 2577 2578 2579 2580 2581 2582 2583 2584 2585 2586 2587 2588 2589 2590 2591 2592 2593 2594 2595 2596 2597 2598 2599 2600 2601 2602 2603 2604 2605 2606 2607 2608 2609 2610 2611 2612 2613 2614 2615 2616 2617 2618 2619 2620 2621 2622 2623 2624 2625 2626 2627 2628 2629 2630 2631 2632 2633 2634 2635 2636 2637 2638 2639 2640 2641 2642 2643 2644 2645 2646 2647 2648 2649 2650 2651 2652 2653 2654 2655 2656 2657 2658 2659 2660 2661 2662 2663 2664 2665 2666 2667 2668 2669 2670 2671 2672 2673 2674 2675 2676 2677 2678 2679 2680 2681 2682 2683 2684 2685 2686 2687 2688 2689 2690 2691 2692 2693 2694 2695 2696 2697 2698 2699 2700 2701 2702 2703 2704 2705 2706 2707 2708 2709 2710 2711 2712 2713 2714 2715 2716 2717 2718 2719 2720 2721 2722 2723 2724 2725 2726 2727 2728 2729 2730 2731 2732 2733 2734 2735 2736 2737 2738 2739 2740 2741 2742 2743 2744 2745 2746 2747 2748 2749 2750 2751 2752 2753 2754 2755 2756 2757 2758 2759 2760 2761 2762 2763 2764 2765 2766 2767 2768 2769 2770 2771 2772 2773 2774 2775 2776 2777 2778 2779 2780 2781 2782 2783 2784 2785 2786 2787 2788 2789 2790 2791 2792 2793 2794 2795 2796 2797 2798 2799 2800 2801 2802 2803 2804 2805 2806 2807 2808 2809 2810 2811 2812 2813 2814 2815 2816 2817 2818 2819 2820 2821 2822 2823 2824 2825 2826 2827 2828 2829 2830 2831 2832 2833 2834 2835 2836 2837 2838 2839 2840 2841 2842 2843 2844 2845 2846 2847 2848 2849 2850 2851 2852 2853 2854 2855 2856 2857 2858 2859 2860 2861 2862 2863 2864 2865 2866 2867 2868 2869 2870 2871 2872 2873 2874 2875 2876 2877 2878 2879 2880 2881 2882 2883 2884 2885 2886 2887 2888 2889 2890 2891 2892 2893 2894 2895 2896 2897 2898 2899 2900 2901 2902 2903 2904 2905 2906 2907 2908 2909 2910 2911 2912 2913 2914 2915 2916 2917 2918 2919 2920 2921 2922 2923 2924 2925 2926 2927 2928 2929 2930 2931 2932 2933 2934 2935 2936 2937 2938 2939 2940 2941 2942 2943 2944 2945 2946 2947 2948 2949 2950 2951 2952 2953 2954 2955 2956 2957 2958 2959 2960 2961 2962 2963 2964 2965 2966 2967 2968 2969 2970 2971 2972 2973 2974 2975 2976 2977 2978 2979 2980 2981 2982 2983 2984 2985 2986 2987 2988 2989 2990 2991 2992 2993 2994 2995 2996 2997 2998 2999 3000 3001 3002 3003 3004 3005 3006 3007 3008 3009 3010 3011 3012 3013 3014 3015 3016 3017 3018 3019 3020 3021 3022 3023 3024 3025 3026 3027 3028 3029 3030 3031 3032 3033 3034 3035 3036 3037 3038 3039 3040 3041 3042 3043 3044 3045 3046 3047 3048 3049 3050 3051 3052 3053 3054 3055 3056 3057 3058 3059 3060 3061 3062 3063 3064 3065 3066 3067 3068 3069 3070 3071 3072 3073 3074 3075 3076 3077 3078 3079 3080 3081 3082 3083 3084 3085 3086 3087 3088 3089 3090 3091 3092 3093 3094 3095 3096 3097 3098 3099 3100 3101 3102 3103 3104 3105 3106 3107 3108 3109 3110 3111 3112 3113 3114 3115 3116 3117 3118 3119 3120 3121 3122 3123 3124 3125 3126 3127 3128 3129 3130 3131 3132 3133 3134 3135 3136 3137 3138 3139 3140 3141 3142 3143 3144 3145 3146 3147 3148 3149 3150 3151 3152 3153 3154 3155 3156 3157 3158 3159 3160 3161 3162 3163 3164 3165 3166 3167 3168 3169 3170 3171 3172 3173 3174 3175 3176 3177 3178 3179 3180 3181 3182 3183 3184 3185 3186 3187 3188 3189 3190 3191 3192 3193 3194 3195 3196 3197 3198 3199 3200 3201 3202 3203 3204 3205 3206 3207 3208 3209 3210 3211 3212 3213 3214 3215 3216 3217 3218 3219 3220 3221 3222 3223 3224 3225 3226 3227 3228 3229 3230 3231 3232 3233 3234 3235 3236 3237 3238 3239 3240 3241 3242 3243 3244 3245 3246 3247 3248 3249 3250 3251 3252 3253 3254 3255 3256 3257 3258 3259 3260 3261 3262 3263 3264 3265 3266 3267 3268 3269 3270 3271 3272 3273 3274 3275 3276 3277 3278 3279 3280 3281 3282 3283 3284 3285 3286 3287 3288 3289 3290 3291 3292 3293 3294 3295 3296 3297 3298 3299 3300 3301 3302 3303 3304 3305 3306 3307 3308 3309 3310 3311 3312 3313 3314 3315 3316 3317 3318 3319 3320 3321 3322 3323 3324 3325 3326 3327 3328 3329 3330 3331 3332 3333 3334 3335 3336 3337 3338 3339 3340 3341 3342 3343 3344 3345 3346 3347 3348 3349 3350 3351 3352 3353 3354 3355 3356 3357 3358 3359 3360 3361 3362 3363 3364 3365 3366 3367 3368 3369 3370 3371 3372 3373 3374 3375 3376 3377 3378 3379 3380 3381 3382 3383 3384 3385 3386 3387 3388 3389 3390 3391 3392 3393 3394 3395 3396 3397 3398 3399 3400 3401 3402 3403 3404 3405 3406 3407 3408 3409 3410 3411 3412 3413 3414 3415 3416 3417 3418 3419 3420 3421 3422 3423 3424 3425 3426 3427 3428 3429 3430 3431 3432 3433 3434 3435 3436 3437 3438 3439 3440 3441 3442 3443 3444 3445 3446 3447 3448 3449 3450 3451 3452 3453 3454 3455 3456 3457 3458 3459 3460 3461 3462 3463 3464 3465 3466 3467 3468 3469 3470 3471 3472 3473 3474 3475 3476 3477 3478 3479 3480 3481 3482 3483 3484 3485 3486 3487 3488 3489 3490 3491 3492 3493 3494 3495 3496 3497 3498 3499 3500 3501 3502 3503 3504 3505 3506 3507 3508 3509 3510 3511 3512 3513 3514 3515 3516 3517 3518 3519 3520 3521 3522 3523 3524 3525 3526 3527 3528 3529 3530 3531 3532 3533 3534 3535 3536 3537 3538 3539 3540 3541 3542 3543 3544 3545 3546 3547 3548 3549 3550 3551 3552 3553 3554 3555 3556 3557 3558 3559 3560 3561 3562 3563 3564 3565 3566 3567 3568 3569 3570 3571 3572 3573 3574 3575 3576 3577 3578 3579 3580 3581 3582 3583 3584 3585 3586 3587 3588 3589 3590 3591 3592 3593 3594 3595 3596 3597 3598 3599 3600 3601 3602 3603 3604 3605 3606 3607 3608 3609 3610 3611 3612 3613 3614 3615 3616 3617 3618 3619 3620 3621 3622 3623 3624 3625 3626 3627 3628 3629 3630 3631 3632 3633 3634 3635 3636 3637 3638 3639 3640 3641 3642 3643 3644 3645 3646 3647 3648 3649 3650 3651 3652 3653 3654 3655 3656 3657 3658 3659 3660 3661 3662 3663 3664 3665 3666 3667 3668 3669 3670 3671 3672 3673 3674 3675 3676 3677 3678 3679 3680 3681 3682 3683 3684 3685 3686 3687 3688 3689 3690 3691 3692 3693 3694 3695 3696 3697 3698 3699 3700 3701 3702 3703 3704 3705 3706 3707 3708 3709 3710 3711 3712 3713 3714 3715 3716 3717 3718 3719 3720 3721 3722 3723 3724 3725 3726 3727 3728 3729 3730 3731 3732 3733 3734 3735 3736 3737 3738 3739 3740 3741 3742 3743 3744 3745 3746 3747 3748 3749 3750 3751 3752 3753 3754 3755 3756 3757 3758 3759 3760 3761 3762 3763 3764 3765 3766 3767 3768 3769 3770 3771 3772 3773 3774 3775 3776 3777 3778 3779 3780 3781 3782 3783 3784 3785 3786 3787 3788 3789 3790 3791 3792 3793 3794 3795 3796 3797 3798 3799 3800 3801 3802 3803 3804 3805 3806 3807 3808 3809 3810 3811 3812 3813 3814 3815 3816 3817 3818 3819 3820 3821 3822 3823 3824 3825 3826 3827 3828 3829 3830 3831 3832 3833 3834 3835 3836 3837 3838 3839 3840 3841 3842 3843 3844 3845 3846 3847 3848 3849 3850 3851 3852 3853 3854 3855 3856 3857 3858 3859 3860 3861 3862 3863 3864 3865 3866 3867 3868 3869 3870 3871 3872 3873 3874 3875 3876 3877 3878 3879 3880 3881 3882 3883 3884 3885 3886 3887 3888 3889 3890 3891 3892 3893 3894 3895 3896 3897 3898 3899 3900 3901 3902 3903 3904 3905 3906 3907 3908 3909 3910 3911 3912 3913 3914 3915 3916 3917 3918 3919 3920 3921 3922 3923 3924 3925 3926 3927 3928 3929 3930 3931 3932 3933 3934 3935 3936 3937 3938 3939 3940 3941 3942 3943 3944 3945 3946 3947 3948 3949 3950 3951 3952 3953 3954 3955 3956 3957 3958 3959 3960 3961 3962 3963 3964 3965 3966 3967 3968 3969 3970 3971 3972 3973 3974 3975 3976 3977 3978 3979 3980 3981 3982 3983 3984 3985 3986 3987 3988 3989 3990 3991 3992 3993 3994 3995 3996 3997 3998 3999 4000 4001 4002 4003 4004 4005 4006 4007 4008 4009 4010 4011 4012 4013 4014 4015 4016 4017 4018 4019 4020 4021 4022 4023 4024 4025 4026 4027 4028 4029 4030 4031 4032 4033 4034 4035 4036 4037 4038 4039 4040 4041 4042 4043 4044 4045 4046 4047 4048 4049 4050 4051 4052 4053 4054 4055 4056 4057 4058 4059 4060 4061 4062 4063 4064 4065 4066 4067 4068 4069 4070 4071 4072 4073 4074 4075 4076 4077 4078 4079 4080 4081 4082 4083 4084 4085 4086 4087 4088 4089 4090 4091 4092 4093 4094 4095 4096 4097 4098 4099 4100 4101 4102 4103 4104 4105 4106 4107 4108 4109 4110 4111 4112 4113 4114 4115 4116 4117 4118 4119 4120 4121 4122 4123 4124 4125 4126 4127 4128 4129 4130 4131 4132 4133 4134 4135 4136 4137 4138 4139 4140 4141 4142 4143 4144 4145 4146 4147 4148 4149 4150 4151 4152 4153 4154 4155 4156 4157 4158 4159 4160 4161 4162 4163 4164 4165 4166 4167 4168 4169 4170 4171 4172 4173 4174 4175 4176 4177 4178 4179 4180 4181 4182 4183 4184 4185 4186 4187 4188 4189 4190 4191 4192 4193 4194 4195 4196 4197 4198 4199 4200 4201 4202 4203 4204 4205 4206 4207 4208 4209 4210 4211 4212 4213 4214 4215 4216 4217 4218 4219 4220 4221 4222 4223 4224 4225 4226 4227 4228 4229 4230 4231 4232 4233 4234 4235 4236 4237 4238 4239 4240 4241 4242 4243 4244 4245 4246 4247 4248 4249 4250 4251 4252 4253 4254 4255 4256 4257 4258 4259 4260 4261 4262 4263 4264 4265 4266 4267 4268 4269 4270 4271 4272 4273 4274 4275 4276 4277 4278 4279 4280 4281 4282 4283 4284 4285 4286 4287 4288 4289 4290 4291 4292 4293 4294 4295 4296 4297 4298 4299 4300 4301 4302 4303 4304 4305 4306 4307 4308 4309 4310 4311 4312 4313 4314 4315 4316 4317 4318 4319 4320 4321 4322 4323 4324 4325 4326 4327 4328 4329 4330 4331 4332 4333 4334 4335 4336 4337 4338 4339 4340 4341 4342 4343 4344 4345 4346 4347 4348 4349 4350 4351 4352 4353 4354 4355 4356 4357 4358 4359 4360 4361 4362 4363 4364 4365 4366 4367 4368 4369 4370 4371 4372 4373 4374 4375 4376 4377 4378 4379 4380 4381 4382 4383 4384 4385 4386 4387 4388 4389 4390 4391 4392 4393 4394 4395 4396 4397 4398 4399 4400 4401 4402 4403 4404 4405 4406 4407 4408 4409 4410 4411 4412 4413 4414 4415 4416 4417 4418 4419 4420 4421 4422 4423 4424 4425 4426 4427 4428 4429 4430 4431 4432 4433 4434 4435 4436 4437 4438 4439 4440 4441 4442 4443 4444 4445 4446 4447 4448 4449 4450 4451 4452 4453 4454 4455 4456 4457 4458 4459 4460 4461 4462 4463 4464 4465 4466 4467 4468 4469 4470 4471 4472 4473 4474 4475 4476 4477 4478 4479 4480 4481 4482 4483 4484 4485 4486 4487 4488 4489 4490 4491 4492 4493 4494 4495 4496 4497 4498 4499 4500 4501 4502 4503 4504 4505 4506 4507 4508 4509 4510 4511 4512 4513 4514 4515 4516 4517 4518 4519 4520 4521 4522 4523 4524 4525 4526 4527 4528 4529 4530 4531 4532 4533 4534 4535 4536 4537 4538 4539 4540 4541 4542 4543 4544 4545 4546 4547 4548 4549 4550 4551 4552 4553 4554 4555 4556 4557 4558 4559 4560 4561 4562 4563 4564 4565 4566 4567 4568 4569 4570 4571 4572 4573 4574 4575 4576 4577 4578 4579 4580 4581 4582 4583 4584 4585 4586 4587 4588 4589 4590 4591 4592 4593 4594 4595 4596 4597 4598 4599 4600 4601 4602 4603 4604 4605 4606 4607 4608 4609 4610 4611 4612 4613 4614 4615 4616 4617 4618 4619 4620 4621 4622 4623 4624 4625 4626 4627 4628 4629 4630 4631 4632 4633 4634 4635 4636 4637 4638 4639 4640 4641 4642 4643 4644 4645 4646 4647 4648 4649 4650 4651 4652 4653 4654 4655 4656 4657 4658 4659 4660 4661 4662 4663 4664 4665 4666 4667 4668 4669 4670 4671 4672 4673 4674 4675 4676 4677 4678 4679 4680 4681 4682 4683 4684 4685 4686 4687 4688 4689 4690 4691 4692 4693 4694 4695 4696 4697 4698 4699 4700 4701 4702 4703 4704 4705 4706 4707 4708 4709 4710 4711 4712 4713 4714 4715 4716 4717 4718 4719 4720 4721 4722 4723 4724 4725 4726 4727 4728 4729 4730 4731 4732 4733 4734 4735 4736 4737 4738 4739 4740 4741 4742 4743 4744 4745 4746 4747 4748 4749 4750 4751 4752 4753 4754 4755 4756 4757 4758 4759 4760 4761 4762 4763 4764 4765 4766 4767 4768 4769 4770 4771 4772 4773 4774 4775 4776 4777 4778 4779 4780 4781 4782 4783 4784 4785 4786 4787 4788 4789 4790 4791 4792 4793 4794 4795 4796 4797 4798 4799 4800 4801 4802 4803 4804 4805 4806 4807 4808 4809 4810 4811 4812 4813 4814 4815 4816 4817 4818 4819 4820 4821 4822 4823 4824 4825 4826 4827 4828 4829 4830 4831 4832 4833 4834 4835 4836 4837 4838 4839 4840 4841 4842 4843 4844 4845 4846 4847 4848 4849 4850 4851 4852 4853 4854 4855 4856 4857 4858 4859 4860 4861 4862 4863 4864 4865 4866 4867 4868 4869 4870 4871 4872 4873 4874 4875 4876 4877 4878 4879 4880 4881 4882 4883 4884 4885 4886 4887 4888 4889 4890 4891 4892 4893 4894 4895 4896 4897 4898 4899 4900 4901 4902 4903 4904 4905 4906 4907 4908 4909 4910 4911 4912 4913 4914 4915 4916 4917 4918 4919 4920 4921 4922 4923 4924 4925 4926 4927 4928 4929 4930 4931 4932 4933 4934 4935 4936 4937 4938 4939 4940 4941 4942 4943 4944 4945 4946 4947 4948 4949 4950 4951 4952 4953 4954 4955 4956 4957 4958 4959 4960 4961 4962 4963 4964 4965 4966 4967 4968 4969 4970 4971 4972 4973 4974 4975 4976 4977 4978 4979 4980 4981 4982 4983 4984 4985 4986 4987 4988 4989 4990 4991 4992 4993 4994 4995 4996 4997 4998 4999 5000 5001 5002 5003 5004 5005 5006 5007 5008 5009 5010 5011 5012 5013 5014 5015 5016 5017 5018 5019 5020 5021 5022 5023 5024 5025 5026 5027 5028 5029 5030 5031 5032 5033 5034 5035 5036 5037 5038 5039 5040 5041 5042 5043 5044 5045 5046 5047 5048 5049 5050 5051 5052 5053 5054 5055 5056 5057 5058 5059 5060 5061 5062 5063 5064 5065 5066 5067 5068 5069 5070 5071 5072 5073 5074 5075 5076 5077 5078 5079 5080 5081 5082 5083 5084 5085 5086 5087 5088 5089 5090 5091 5092 5093 5094 5095 5096 5097 5098 5099 5100 5101 5102 5103 5104 5105 5106 5107 5108 5109 5110 5111 5112 5113 5114 5115 5116 5117 5118 5119 5120 5121 5122 5123 5124 5125 5126 5127 5128 5129 5130 5131 5132 5133 5134 5135 5136 5137 5138 5139 5140 5141 5142 5143 5144 5145 5146 5147 5148 5149 5150 5151 5152 5153 5154 5155 5156 5157 5158 5159 5160 5161 5162 5163 5164 5165 5166 5167 5168 5169 5170 5171 5172 5173 5174 5175 5176 5177 5178 5179 5180 5181 5182 5183 5184 5185 5186 5187 5188 5189 5190 5191 5192 5193 5194 5195 5196 5197 5198 5199 5200 5201 5202 5203 5204 5205 5206 5207 5208 5209 5210 5211 5212 5213 5214 5215 5216 5217 5218 5219 5220 5221 5222 5223 5224 5225 5226 5227 5228 5229 5230 5231 5232 5233 5234 5235 5236 5237 5238 5239 5240 5241 5242 5243 5244 5245 5246 5247 5248 5249 5250 5251 5252 5253 5254 5255 5256 5257 5258 5259 5260 5261 5262 5263 5264 5265 5266 5267 5268 5269 5270 5271 5272 5273 5274 5275 5276 5277 5278 5279 5280 5281 5282 5283 5284 5285 5286 5287 5288 5289 5290 5291 5292 5293 5294 5295 5296 5297 5298 5299 5300 5301 5302 5303 5304 5305 5306 5307 5308 5309 5310 5311 5312 5313 5314 5315 5316 5317 5318 5319 5320 5321 5322 5323 5324 5325 5326 5327 5328 5329 5330 5331 5332 5333 5334 5335 5336 5337 5338 5339 5340 5341 5342 5343 5344 5345 5346 5347 5348 5349 5350 5351 5352 5353 5354 5355 5356 5357 5358 5359 5360 5361 5362 5363 5364 5365 5366 5367 5368 5369 5370 5371 5372 5373 5374 5375 5376 5377 5378 5379 5380 5381 5382 5383 5384 5385 5386 5387 5388 5389 5390 5391 5392 5393 5394 5395 5396 5397 5398 5399 5400 5401 5402 5403 5404 5405 5406 5407 5408 5409 5410 5411 5412 5413 5414 5415 5416 5417 5418 5419 5420 5421 5422 5423 5424 5425 5426 5427 5428 5429 5430 5431 5432 5433 5434 5435 5436 5437 5438 5439 5440 5441 5442 5443 5444 5445 5446 5447 5448 5449 5450 5451 5452 5453 5454 5455 5456 5457 5458 5459 5460 5461 5462 5463 5464 5465 5466 5467 5468 5469 5470 5471 5472 5473 5474 5475 5476 5477 5478 5479 5480 5481 5482 5483 5484 5485 5486 5487 5488 5489 5490 5491 5492 5493 5494 5495 5496 5497 5498 5499 5500 5501 5502 5503 5504 5505 5506 5507 5508 5509 5510 5511 5512 5513 5514 5515 5516 5517 5518 5519 5520 5521 5522 5523 5524 5525 5526 5527 5528 5529 5530 5531 5532 5533 5534 5535 5536 5537 5538 5539 5540 5541 5542 5543 5544 5545 5546 5547 5548 5549 5550 5551 5552 5553 5554 5555 5556 5557 5558 5559 5560 5561 5562 5563 5564 5565 5566 5567 5568 5569 5570 5571 5572 5573 5574 5575 5576 5577 5578 5579 5580 5581 5582 5583 5584 5585 5586 5587 5588 5589 5590 5591 5592 5593 5594 5595 5596 5597 5598 5599 5600 5601 5602 5603 5604 5605 5606 5607 5608 5609 5610 5611 5612 5613 5614 5615 5616 5617 5618 5619 5620 5621 5622 5623 5624 5625 5626 5627 5628 5629 5630 5631 5632 5633 5634 5635 5636 5637 5638 5639 5640 5641 5642 5643 5644 5645 5646 5647 5648 5649 5650 5651 5652 5653 5654 5655 5656 5657 5658 5659 5660 5661 5662 5663 5664 5665 5666 5667 5668 5669 5670 5671 5672 5673 5674 5675 5676 5677 5678 5679 5680 5681 5682 5683 5684 5685 5686 5687 5688 5689 5690 5691 5692 5693 5694 5695 5696 5697 5698 5699 5700 5701 5702 5703 5704 5705 5706 5707 5708 5709 5710 5711 5712 5713 5714 5715 5716 5717 5718 5719 5720 5721 5722 5723 5724 5725 5726 5727 5728 5729 5730 5731 5732 5733 5734 5735 5736 5737 5738 5739 5740 5741 5742 5743 5744 5745 5746 5747 5748 5749 5750 5751 5752 5753 5754 5755 5756 5757 5758 5759 5760 5761 5762 5763 5764 5765 5766 5767 5768 5769 5770 5771 5772 5773 5774 5775 5776 5777 5778 5779 5780 5781 5782 5783 5784 5785 5786 5787 5788 5789 5790 5791 5792 5793 5794 5795 5796 5797 5798 5799 5800 5801 5802 5803 5804 5805 5806 5807 5808 5809 5810 5811 5812 5813 5814 5815 5816 5817 5818 5819 5820 5821 5822 5823 5824 5825 5826 5827 5828 5829 5830 5831 5832 5833 5834 5835 5836 5837 5838 5839 5840 5841 5842 5843 5844 5845 5846 5847 5848 5849 5850 5851 5852 5853 5854 5855 5856 5857 5858 5859 5860 5861 5862 5863 5864 5865 5866 5867 5868 5869 5870 5871 5872 5873 5874 5875 5876 5877 5878 5879 5880 5881 5882 5883 5884 5885 5886 5887 5888 5889 5890 5891 5892 5893 5894 5895 5896 5897 5898 5899 5900 5901 5902 5903 5904 5905 5906 5907 5908 5909 5910 5911 5912 5913 5914 5915 5916 5917 5918 5919 5920 5921 5922 5923 5924 5925 5926 5927 5928 5929 5930 5931 5932 5933 5934 5935 5936 5937 5938 5939 5940 5941 5942 5943 5944 5945 5946 5947 5948 5949 5950 5951 5952 5953 5954 5955 5956 5957 5958 5959 5960 5961 5962 5963 5964 5965 5966 5967 5968 5969 5970 5971 5972 5973 5974 5975 5976 5977 5978 5979 5980 5981 5982 5983 5984 5985 5986 5987 5988 5989 5990 5991 5992 5993 5994 5995 5996 5997 5998 5999 6000 6001 6002 6003 6004 6005 6006 6007 6008 6009 6010 6011 6012 6013 6014 6015 6016 6017 6018 6019 6020 6021 6022 6023 6024 6025 6026 6027 6028 6029 6030 6031 6032 6033 6034 6035 6036 6037 6038 6039 6040 6041 6042 6043 6044 6045 6046 6047 6048 6049 6050 6051 6052 6053 6054 6055 6056 6057 6058 6059 6060 6061 6062 6063 6064 6065 6066 6067 6068 6069 6070 6071 6072 6073 6074 6075 6076 6077 6078 6079 6080 6081 6082 6083 6084 6085 6086 6087 6088 6089 6090 6091 6092 6093 6094 6095 6096 6097 6098 6099 6100 6101 6102 6103 6104 6105 6106 6107 6108 6109 6110 6111 6112 6113 6114 6115 6116 6117 6118 6119 6120 6121 6122 6123 6124 6125 6126 6127 6128 6129 6130 6131 6132 6133 6134 6135 6136 6137 6138 6139 6140 6141 6142 6143 6144 6145 6146 6147 6148 6149 6150 6151 6152 6153 6154 6155 6156 6157 6158 6159 6160 6161 6162 6163 6164 6165 6166 6167 6168 6169 6170 6171 6172 6173 6174 6175 6176 6177 6178 6179 6180 6181 6182 6183 6184 6185 6186 6187 6188 6189 6190 6191 6192 6193 6194 6195 6196 6197 6198 6199 6200 6201 6202 6203 6204 6205 6206 6207 6208 6209 6210 6211 6212 6213 6214 6215 6216 6217 6218 6219 6220 6221 6222 6223 6224 6225 6226 6227 6228 6229 6230 6231 6232 6233 6234 6235 6236 6237 6238 6239 6240 6241 6242 6243 6244 6245 6246 6247 6248 6249 6250 6251 6252 6253 6254 6255 6256 6257 6258 6259 6260 6261 6262 6263 6264 6265 6266 6267 6268 6269 6270 6271 6272 6273 6274 6275 6276 6277 6278 6279 6280 6281 6282 6283 6284 6285 6286 6287 6288 6289 6290 6291 6292 6293 6294 6295 6296 6297 6298 6299 6300 6301 6302 6303 6304 6305 6306 6307 6308 6309 6310 6311 6312 6313 6314 6315 6316 6317 6318 6319 6320 6321 6322 6323 6324 6325 6326 6327 6328 6329 6330 6331 6332 6333 6334 6335 6336 6337 6338 6339 6340 6341 6342 6343 6344 6345 6346 6347 6348 6349 6350 6351 6352 6353 6354 6355 6356 6357 6358 6359 6360 6361 6362 6363 6364 6365 6366 6367 6368 6369 6370 6371 6372 6373 6374 6375 6376 6377 6378 6379 6380 6381 6382 6383 6384 6385 6386 6387 6388 6389 6390 6391 6392 6393 6394 6395 6396 6397 6398 6399 6400 6401 6402 6403 6404 6405 6406 6407 6408 6409 6410 6411 6412 6413 6414 6415 6416 6417 6418 6419 6420 6421 6422 6423 6424 6425 6426 6427 6428 6429 6430 6431 6432 6433 6434 6435 6436 6437 6438 6439 6440 6441 6442 6443 6444 6445 6446 6447 6448 6449 6450 6451 6452 6453 6454 6455 6456 6457 6458 6459 6460 6461 6462 6463 6464 6465 6466 6467 6468 6469 6470 6471 6472 6473 6474 6475 6476 6477 6478 6479 6480 6481 6482 6483 6484 6485 6486 6487 6488 6489 6490 6491 6492 6493 6494 6495 6496 6497 6498 6499 6500 6501 6502 6503 6504 6505 6506 6507 6508 6509 6510 6511 6512 6513 6514 6515 6516 6517 6518 6519 6520 6521 6522 6523 6524 6525 6526 6527 6528 6529 6530 6531 6532 6533 6534 6535 6536 6537 6538 6539 6540 6541 6542 6543 6544 6545 6546 6547 6548 6549 6550 6551 6552 6553 6554 6555 6556 6557 6558 6559 6560 6561 6562 6563 6564 6565 6566 6567 6568 6569 6570 6571 6572 6573 6574 6575 6576 6577 6578 6579 6580 6581 6582 6583 6584 6585 6586 6587 6588 6589 6590 6591 6592 6593 6594 6595 6596 6597 6598 6599 6600 6601 6602 6603 6604 6605 6606 6607 6608 6609 6610 6611 6612 6613 6614 6615 6616 6617 6618 6619 6620 6621 6622 6623 6624 6625 6626 6627 6628 6629 6630 6631 6632 6633 6634 6635 6636 6637 6638 6639 6640 6641 6642 6643 6644 6645 6646 6647 6648 6649 6650 6651 6652 6653 6654 6655 6656 6657 6658 6659 6660 6661 6662 6663 6664 6665 6666 6667 6668 6669 6670 6671 6672 6673 6674 6675 6676 6677 6678 6679 6680 6681 6682 6683 6684 6685 6686 6687 6688 6689 6690 6691 6692 6693 6694 6695 6696 6697 6698 6699 6700 6701 6702 6703 6704 6705 6706 6707 6708 6709 6710 6711 6712 6713 6714 6715 6716 6717 6718 6719 6720 6721 6722 6723 6724 6725 6726 6727 6728 6729 6730 6731 6732 6733 6734 6735 6736 6737 6738 6739 6740 6741 6742 6743 6744 6745 6746 6747 6748 6749 6750 6751 6752 6753 6754 6755 6756 6757 6758 6759 6760 6761 6762 6763 6764 6765 6766 6767 6768 6769 6770 6771 6772 6773 6774 6775 6776 6777 6778 6779 6780 6781 6782 6783 6784 6785 6786 6787 6788 6789 6790 6791 6792 6793 6794 6795 6796 6797 6798 6799 6800 6801 6802 6803 6804 6805 6806 6807 6808 6809 6810 6811 6812 6813 6814 6815 6816 6817 6818 6819 6820 6821 6822 6823 6824 6825 6826 6827 6828 6829 6830 6831 6832 6833 6834 6835 6836 6837 6838 6839 6840 6841 6842 6843 6844 6845 6846 6847 6848 6849 6850 6851 6852 6853 6854 6855 6856 6857 6858 6859 6860 6861 6862 6863 6864 6865 6866 6867 6868 6869 6870 6871 6872 6873 6874 6875 6876 6877 6878 6879 6880 6881 6882 6883 6884 6885 6886 6887 6888 6889 6890 6891 6892 6893 6894 6895 6896 6897 6898 6899 6900 6901 6902 6903 6904 6905 6906 6907 6908 6909 6910 6911 6912 6913 6914 6915 6916 6917 6918 6919 6920 6921 6922 6923 6924 6925 6926 6927 6928 6929 6930 6931 6932 6933 6934 6935 6936 6937 6938 6939 6940 6941 6942 6943 6944 6945 6946 6947 6948 6949 6950 6951 6952 6953 6954 6955 6956 6957 6958 6959 6960 6961 6962 6963 6964 6965 6966 6967 6968 6969 6970 6971 6972 6973 6974 6975 6976 6977 6978 6979 6980 6981 6982 6983 6984 6985 6986 6987 6988 6989 6990 6991 6992 6993 6994 6995 6996 6997 6998 6999 7000 7001 7002 7003 7004 7005 7006 7007 7008 7009 7010 7011 7012 7013 7014 7015 7016 7017 7018 7019 7020 7021 7022 7023 7024 7025 7026 7027 7028 7029 7030 7031 7032 7033 7034 7035 7036 7037 7038 7039 7040 7041 7042 7043 7044 7045 7046 7047 7048 7049 7050 7051 7052 7053 7054 7055 7056 7057 7058 7059 7060 7061 7062 7063 7064 7065 7066 7067 7068 7069 7070 7071 7072 7073 7074 7075 7076 7077 7078 7079 7080 7081 7082 7083 7084 7085 7086 7087 7088 7089 7090 7091 7092 7093 7094 7095 7096 7097 7098 7099 7100 7101 7102 7103 7104 7105 7106 7107 7108 7109 7110 7111 7112 7113 7114 7115 7116 7117 7118 7119 7120 7121 7122 7123 7124 7125 7126 7127 7128 7129 7130 7131 7132 7133 7134 7135 7136 7137 7138 7139 7140 7141 7142 7143 7144 7145 7146 7147 7148 7149 7150 7151 7152 7153 7154 7155 7156 7157 7158 7159 7160 7161 7162 7163 7164 7165 7166 7167 7168 7169 7170 7171 7172 7173 7174 7175 7176 7177 7178 7179 7180 7181 7182 7183 7184 7185 7186 7187 7188 7189 7190 7191 7192 7193 7194 7195 7196 7197 7198 7199 7200 7201 7202 7203 7204 7205 7206 7207 7208 7209 7210 7211 7212 7213 7214 7215 7216 7217 7218 7219 7220 7221 7222 7223 7224 7225 7226 7227 7228 7229 7230 7231 7232 7233 7234 7235 7236 7237 7238 7239 7240 7241 7242 7243 7244 7245 7246 7247 7248 7249 7250 7251 7252 7253 7254 7255 7256 7257 7258 7259 7260 7261 7262 7263 7264 7265 7266 7267 7268 7269 7270 7271 7272 7273 7274 7275 7276 7277 7278 7279 7280 7281 7282 7283 7284 7285 7286 7287 7288 7289 7290 7291 7292 7293 7294 7295 7296 7297 7298 7299 7300 7301 7302 7303 7304 7305 7306 7307 7308 7309 7310 7311 7312 7313 7314 7315 7316 7317 7318 7319 7320 7321 7322 7323 7324 7325 7326 7327 7328 7329 7330 7331 7332 7333 7334 7335 7336 7337 7338 7339 7340 7341 7342 7343 7344 7345 7346 7347 7348 7349 7350 7351 7352 7353 7354 7355 7356 7357 7358 7359 7360 7361 7362 7363 7364 7365 7366 7367 7368 7369 7370 7371 7372 7373 7374 7375 7376 7377 7378 7379 7380 7381 7382 7383 7384 7385 7386 7387 7388 7389 7390 7391 7392 7393 7394 7395 7396 7397 7398 7399 7400 7401 7402 7403 7404 7405 7406 7407 7408 7409 7410 7411 7412 7413 7414 7415 7416 7417 7418 7419 7420 7421 7422 7423 7424 7425 7426 7427 7428 7429 7430 7431 7432 7433 7434 7435 7436 7437 7438 7439 7440 7441 7442 7443 7444 7445 7446 7447 7448 7449 7450 7451 7452 7453 7454 7455 7456 7457 7458 7459 7460 7461 7462 7463 7464 7465 7466 7467 7468 7469 7470 7471 7472 7473 7474 7475 7476 7477 7478 7479 7480 7481 7482 7483 7484 7485 7486 7487 7488 7489 7490 7491 7492 7493 7494 7495 7496 7497 7498 7499 7500 7501 7502 7503 7504 7505 7506 7507 7508 7509 7510 7511 7512 7513 7514 7515 7516 7517 7518 7519 7520 7521 7522 7523 7524 7525 7526 7527 7528 7529 7530 7531 7532 7533 7534 7535 7536 7537 7538 7539 7540 7541 7542 7543 7544 7545 7546 7547 7548 7549 7550 7551 7552 7553 7554 7555 7556 7557 7558 7559 7560 7561 7562 7563 7564 7565 7566 7567 7568 7569 7570 7571 7572 7573 7574 7575 7576 7577 7578 7579 7580 7581 7582 7583 7584 7585 7586 7587 7588 7589 7590 7591 7592 7593 7594 7595 7596 7597 7598 7599 7600 7601 7602 7603 7604 7605 7606 7607 7608 7609 7610 7611 7612 7613 7614 7615 7616 7617 7618 7619 7620 7621 7622 7623 7624 7625 7626 7627 7628 7629 7630 7631 7632 7633 7634 7635 7636 7637 7638 7639 7640 7641 7642 7643 7644 7645 7646 7647 7648 7649 7650 7651 7652 7653 7654 7655 7656 7657 7658 7659 7660 7661 7662 7663 7664 7665 7666 7667 7668 7669 7670 7671 7672 7673 7674 7675 7676 7677 7678 7679 7680 7681 7682 7683 7684 7685 7686 7687 7688 7689 7690 7691 7692 7693 7694 7695 7696 7697 7698 7699 7700 7701 7702 7703 7704 7705 7706 7707 7708 7709 7710 7711 7712 7713 7714 7715 7716 7717 7718 7719 7720 7721 7722 7723 7724 7725 7726 7727 7728 7729 7730 7731 7732 7733 7734 7735 7736 7737 7738 7739 7740 7741 7742 7743 7744 7745 7746 7747 7748 7749 7750 7751 7752 7753 7754 7755 7756 7757 7758 7759 7760 7761 7762 7763 7764 7765 7766 7767 7768 7769 7770 7771 7772 7773 7774 7775 7776 7777 7778 7779 7780 7781 7782 7783 7784 7785 7786 7787 7788 7789 7790 7791 7792 7793 7794 7795 7796 7797 7798 7799 7800 7801 7802 7803 7804 7805 7806 7807 7808 7809 7810 7811 7812 7813 7814 7815 7816 7817 7818 7819 7820 7821 7822 7823 7824 7825 7826 7827 7828 7829 7830 7831 7832 7833 7834 7835 7836 7837 7838 7839 7840 7841 7842 7843 7844 7845 7846 7847 7848 7849 7850 7851 7852 7853 7854 7855 7856 7857 7858 7859 7860 7861 7862 7863 7864 7865 7866 7867 7868 7869 7870 7871 7872 7873 7874 7875 7876 7877 7878 7879 7880 7881 7882 7883 7884 7885 7886 7887 7888 7889 7890 7891 7892 7893 7894 7895 7896 7897 7898 7899 7900 7901 7902 7903 7904 7905 7906 7907 7908 7909 7910 7911 7912 7913 7914 7915 7916 7917 7918 7919 7920 7921 7922 7923 7924 7925 7926 7927 7928 7929 7930 7931 7932 7933 7934 7935 7936 7937 7938 7939 7940 7941 7942 7943 7944 7945 7946 7947 7948 7949 7950 7951 7952 7953 7954 7955 7956 7957 7958 7959 7960 7961 7962 7963 7964 7965 7966 7967 7968 7969 7970 7971 7972 7973 7974 7975 7976 7977 7978 7979 7980 7981 7982 7983 7984 7985 7986 7987 7988 7989 7990 7991 7992 7993 7994 7995 7996 7997 7998 7999 8000 8001 8002 8003 8004 8005 8006 8007 8008 8009 8010 8011 8012 8013 8014 8015 8016 8017 8018 8019 8020 8021 8022 8023 8024 8025 8026 8027 8028 8029 8030 8031 8032 8033 8034 8035 8036 8037 8038 8039 8040 8041 8042 8043 8044 8045 8046 8047 8048 8049 8050 8051 8052 8053 8054 8055 8056 8057 8058 8059 8060 8061 8062 8063 8064 8065 8066 8067 8068 8069 8070 8071 8072 8073 8074 8075 8076 8077 8078 8079 8080 8081 8082 8083 8084 8085 8086 8087 8088 8089 8090 8091 8092 8093 8094 8095 8096 8097 8098 8099 8100 8101 8102 8103 8104 8105 8106 8107 8108 8109 8110 8111 8112 8113 8114 8115 8116 8117 8118 8119 8120 8121 8122 8123 8124 8125 8126 8127 8128 8129 8130 8131 8132 8133 8134 8135 8136 8137 8138 8139 8140 8141 8142 8143 8144 8145 8146 8147 8148 8149 8150 8151 8152 8153 8154 8155 8156 8157 8158 8159 8160 8161 8162 8163 8164 8165 8166 8167 8168 8169 8170 8171 8172 8173 8174 8175 8176 8177 8178 8179 8180 8181 8182 8183 8184 8185 8186 8187 8188 8189 8190 8191 8192 8193 8194 8195 8196 8197 8198 8199 8200 8201 8202 8203 8204 8205 8206 8207 8208 8209 8210 8211 8212 8213 8214 8215 8216 8217 8218 8219 8220 8221 8222 8223 8224 8225 8226 8227 8228 8229 8230 8231 8232 8233 8234 8235 8236 8237 8238 8239 8240 8241 8242 8243 8244 8245 8246 8247 8248 8249 8250 8251 8252 8253 8254 8255 8256 8257 8258 8259 8260 8261 8262 8263 8264 8265 8266 8267 8268 8269 8270 8271 8272 8273 8274 8275 8276 8277 8278 8279 8280 8281 8282 8283 8284 8285 8286 8287 8288 8289 8290 8291 8292 8293 8294 8295 8296 8297 8298 8299 8300 8301 8302 8303 8304 8305 8306 8307 8308 8309 8310 8311 8312 8313 8314 8315 8316 8317 8318 8319 8320 8321 8322 8323 8324 8325 8326 8327 8328 8329 8330 8331 8332 8333 8334 8335 8336 8337 8338 8339 8340 8341 8342 8343 8344 8345 8346 8347 8348 8349 8350 8351 8352 8353 8354 8355 8356 8357 8358 8359 8360 8361 8362 8363 8364 8365 8366 8367 8368 8369 8370 8371 8372 8373 8374 8375 8376 8377 8378 8379 8380 8381 8382 8383 8384 8385 8386 8387 8388 8389 8390 8391 8392 8393 8394 8395 8396 8397 8398 8399 8400 8401 8402 8403 8404 8405 8406 8407 8408 8409 8410 8411 8412 8413 8414 8415 8416 8417 8418 8419 8420 8421 8422 8423 8424 8425 8426 8427 8428 8429 8430 8431 8432 8433 8434 8435 8436 8437 8438 8439 8440 8441 8442 8443 8444 8445 8446 8447 8448 8449 8450 8451 8452 8453 8454 8455 8456 8457 8458 8459 8460 8461 8462 8463 8464 8465 8466 8467 8468 8469 8470 8471 8472 8473 8474 8475 8476 8477 8478 8479 8480 8481 8482 8483 8484 8485 8486 8487 8488 8489 8490 8491 8492 8493 8494 8495 8496 8497 8498 8499 8500 8501 8502 8503 8504 8505 8506 8507 8508 8509 8510 8511 8512 8513 8514 8515 8516 8517 8518 8519 8520 8521 8522 8523 8524 8525 8526 8527 8528 8529 8530 8531 8532 8533 8534 8535 8536 8537 8538 8539 8540 8541 8542 8543 8544 8545 8546 8547 8548 8549 8550 8551 8552 8553 8554 8555 8556 8557 8558 8559 8560 8561 8562 8563 8564 8565 8566 8567 8568 8569 8570 8571 8572 8573 8574 8575 8576 8577 8578 8579 8580 8581 8582 8583 8584 8585 8586 8587 8588 8589 8590 8591 8592 8593 8594 8595 8596 8597 8598 8599 8600 8601 8602 8603 8604 8605 8606 8607 8608 8609 8610 8611 8612 8613 8614 8615 8616 8617 8618 8619 8620 8621 8622 8623 8624 8625 8626 8627 8628 8629 8630 8631 8632 8633 8634 8635 8636 8637 8638 8639 8640 8641 8642 8643 8644 8645 8646 8647 8648 8649 8650 8651 8652 8653 8654 8655 8656 8657 8658 8659 8660 8661 8662 8663 8664 8665 8666 8667 8668 8669 8670 8671 8672 8673 8674 8675 8676 8677 8678 8679 8680 8681 8682 8683 8684 8685 8686 8687 8688 8689 8690 8691 8692 8693 8694 8695 8696 8697 8698 8699 8700 8701 8702 8703 8704 8705 8706 8707 8708 8709 8710 8711 8712 8713 8714 8715 8716 8717 8718 8719 8720 8721 8722 8723 8724 8725 8726 8727 8728 8729 8730 8731 8732 8733 8734 8735 8736 8737 8738 8739 8740 8741 8742 8743 8744 8745 8746 8747 8748 8749 8750 8751 8752 8753 8754 8755 8756 8757 8758 8759 8760 8761 8762 8763 8764 8765 8766 8767 8768 8769 8770 8771 8772 8773 8774 8775 8776 8777 8778 8779 8780 8781 8782 8783 8784 8785 8786 8787 8788 8789 8790 8791 8792 8793 8794 8795 8796 8797 8798 8799 8800 8801 8802 8803 8804 8805 8806 8807 8808 8809 8810 8811 8812 8813 8814 8815 8816 8817 8818 8819 8820 8821 8822 8823 8824 8825 8826 8827 8828 8829 8830 8831 8832 8833 8834 8835 8836 8837 8838 8839 8840 8841 8842 8843 8844 8845 8846 8847 8848 8849 8850 8851 8852 8853 8854 8855 8856 8857 8858 8859 8860 8861 8862 8863 8864 8865 8866 8867 8868 8869 8870 8871 8872 8873 8874 8875 8876 8877 8878 8879 8880 8881 8882 8883 8884 8885 8886 8887 8888 8889 8890 8891 8892 8893 8894 8895 8896 8897 8898 8899 8900 8901 8902 8903 8904 8905 8906 8907 8908 8909 8910 8911 8912 8913 8914 8915 8916 8917 8918 8919 8920 8921 8922 8923 8924 8925 8926 8927 8928 8929 8930 8931 8932 8933 8934 8935 8936 8937 8938 8939 8940 8941 8942 8943 8944 8945 8946 8947 8948 8949 8950 8951 8952 8953 8954 8955 8956 8957 8958 8959 8960 8961 8962 8963 8964 8965 8966 8967 8968 8969 8970 8971 8972 8973 8974 8975 8976 8977 8978 8979 8980 8981 8982 8983 8984 8985 8986 8987 8988 8989 8990 8991 8992 8993 8994 8995 8996 8997 8998 8999 9000 9001 9002 9003 9004 9005 9006 9007 9008 9009 9010 9011 9012 9013 9014 9015 9016 9017 9018 9019 9020 9021 9022 9023 9024 9025 9026 9027 9028 9029 9030 9031 9032 9033 9034 9035 9036 9037 9038 9039 9040 9041 9042 9043 9044 9045 9046 9047 9048 9049 9050 9051 9052 9053 9054 9055 9056 9057 9058 9059 9060 9061 9062 9063 9064 9065 9066 9067 9068 9069 9070 9071 9072 9073 9074 9075 9076 9077 9078 9079 9080 9081 9082 9083 9084 9085 9086 9087 9088 9089 9090 9091 9092 9093 9094 9095 9096 9097 9098 9099 9100 9101 9102 9103 9104 9105 9106 9107 9108 9109 9110 9111 9112 9113 9114 9115 9116 9117 9118 9119 9120 9121 9122 9123 9124 9125 9126 9127 9128 9129 9130 9131 9132 9133 9134 9135 9136 9137 9138 9139 9140 9141 9142 9143 9144 9145 9146 9147 9148 9149 9150 9151 9152 9153 9154 9155 9156 9157 9158 9159 9160 9161 9162 9163 9164 9165 9166 9167 9168 9169 9170 9171 9172 9173 9174 9175 9176 9177 9178 9179 9180 9181 9182 9183 9184 9185 9186 9187 9188 9189 9190 9191 9192 9193 9194 9195 9196 9197 9198 9199 9200 9201 9202 9203 9204 9205 9206 9207 9208 9209 9210 9211 9212 9213 9214 9215 9216 9217 9218 9219 9220 9221 9222 9223 9224 9225 9226 9227 9228 9229 9230 9231 9232 9233 9234 9235 9236 9237 9238 9239 9240 9241 9242 9243 9244 9245 9246 9247 9248 9249 9250 9251 9252 9253 9254 9255 9256 9257 9258 9259 9260 9261 9262 9263 9264 9265 9266 9267 9268 9269 9270 9271 9272 9273 9274 9275 9276 9277 9278 9279 9280 9281 9282 9283 9284 9285 9286 9287 9288 9289 9290 9291 9292 9293 9294 9295 9296 9297 9298 9299 9300 9301 9302 9303 9304 9305 9306 9307 9308 9309 9310 9311 9312 9313 9314 9315 9316 9317 9318 9319 9320 9321 9322 9323 9324 9325 9326 9327 9328 9329 9330 9331 9332 9333 9334 9335 9336 9337 9338 9339 9340 9341 9342 9343 9344 9345 9346 9347 9348 9349 9350 9351 9352 9353 9354 9355 9356 9357 9358 9359 9360 9361 9362 9363 9364 9365 9366 9367 9368 9369 9370 9371 9372 9373 9374 9375 9376 9377 9378 9379 9380 9381 9382 9383 9384 9385 9386 9387 9388 9389 9390 9391 9392 9393 9394 9395 9396 9397 9398 9399 9400 9401 9402 9403 9404 9405 9406 9407 9408 9409 9410 9411 9412 9413 9414 9415 9416 9417 9418 9419 9420 9421 9422 9423 9424 9425 9426 9427 9428 9429 9430 9431 9432 9433 9434 9435 9436 9437 9438 9439 9440 9441 9442 9443 9444 9445 9446 9447 9448 9449 9450 9451 9452 9453 9454 9455 9456 9457 9458 9459 9460 9461 9462 9463 9464 9465 9466 9467 9468 9469 9470 9471 9472 9473 9474 9475 9476 9477 9478 9479 9480 9481 9482 9483 9484 9485 9486 9487 9488 9489 9490 9491 9492 9493 9494 9495 9496 9497 9498 9499 9500 9501 9502 9503 9504 9505 9506 9507 9508 9509 9510 9511 9512 9513 9514 9515 9516 9517 9518 9519 9520 9521 9522 9523 9524 9525 9526 9527 9528 9529 9530 9531 9532 9533 9534 9535 9536 9537 9538 9539 9540 9541 9542 9543 9544 9545 9546 9547 9548 9549 9550 9551 9552 9553 9554 9555 9556 9557 9558 9559 9560 9561 9562 9563 9564 9565 9566 9567 9568 9569 9570 9571 9572 9573 9574 9575 9576 9577 9578 9579 9580 9581 9582 9583 9584 9585 9586 9587 9588 9589 9590 9591 9592 9593 9594 9595 9596 9597 9598 9599 9600 9601 9602 9603 9604 9605 9606 9607 9608 9609 9610 9611 9612 9613 9614 9615 9616 9617 9618 9619 9620 9621 9622 9623 9624 9625 9626 9627 9628 9629 9630 9631 9632 9633 9634 9635 9636 9637 9638 9639 9640 9641 9642 9643 9644 9645 9646 9647 9648 9649 9650 9651 9652 9653 9654 9655 9656 9657 9658 9659 9660 9661 9662 9663 9664 9665 9666 9667 9668 9669 9670 9671 9672 9673 9674 9675 9676 9677 9678 9679 9680 9681 9682 9683 9684 9685 9686 9687 9688 9689 9690 9691 9692 9693 9694 9695 9696 9697 9698 9699 9700 9701 9702 9703 9704 9705 9706 9707 9708 9709 9710 9711 9712 9713 9714 9715 9716 9717 9718 9719 9720 9721 9722 9723 9724 9725 9726 9727 9728 9729 9730 9731 9732 9733 9734 9735 9736 9737 9738 9739 9740 9741 9742 9743 9744 9745 9746 9747 9748 9749 9750 9751 9752 9753 9754 9755 9756 9757 9758 9759 9760 9761 9762 9763 9764 9765 9766 9767 9768 9769 9770 9771 9772 9773 9774 9775 9776 9777 9778 9779 9780 9781 9782 9783 9784 9785 9786 9787 9788 9789 9790 9791 9792 9793 9794 9795 9796 9797 9798 9799 9800 9801 9802 9803 9804 9805 9806 9807 9808 9809 9810 9811 9812 9813 9814 9815 9816 9817 9818 9819 9820 9821 9822 9823 9824 9825 9826 9827 9828 9829 9830 9831 9832 9833 9834 9835 9836 9837 9838 9839 9840 9841 9842 9843 9844 9845 9846 9847 9848 9849 9850 9851 9852 9853 9854 9855 9856 9857 9858 9859 9860 9861 9862 9863 9864 9865 9866 9867 9868 9869 9870 9871 9872 9873 9874 9875 9876 9877 9878 9879 9880 9881 9882 9883 9884 9885 9886 9887 9888 9889 9890 9891 9892 9893 9894 9895 9896 9897 9898 9899 9900 9901 9902 9903 9904 9905 9906 9907 9908 9909 9910 9911 9912 9913 9914 9915 9916 9917 9918 9919 9920 9921 9922 9923 9924 9925 9926 9927 9928 9929 9930 9931 9932 9933 9934 9935 9936 9937 9938 9939 9940 9941 9942 9943 9944 9945 9946 9947 9948 9949 9950 9951 9952 9953 9954 9955 9956 9957 9958 9959 9960 9961 9962 9963 9964 9965 9966 9967 9968 9969 9970 9971 9972 9973 9974 9975 9976 9977 9978 9979 9980 9981 9982 9983 9984 9985 9986 9987 9988 9989 9990 9991 9992 9993 9994 9995 9996 9997 9998 9999 10000 10001 10002 10003 10004 10005 10006 10007 10008 10009 10010 10011 10012 10013 10014 10015 10016 10017 10018 10019 10020 10021 10022 10023 10024 10025 10026 10027 10028 10029 10030 10031 10032 10033 10034 10035 10036 10037 10038 10039 10040 10041 10042 10043 10044 10045 10046 10047 10048 10049 10050 10051 10052 10053 10054 10055 10056 10057 10058 10059 10060 10061 10062 10063 10064 10065 10066 10067 10068 10069 10070 10071 10072 10073 10074 10075 10076 10077 10078 10079 10080 10081 10082 10083 10084 10085 10086 10087 10088 10089 10090 10091 10092 10093 10094 10095 10096 10097 10098 10099 10100 10101 10102 10103 10104 10105 10106 10107 10108 10109 10110 10111 10112 10113 10114 10115 10116 10117 10118 10119 10120 10121 10122 10123 10124 10125 10126 10127 10128 10129 10130 10131 10132 10133 10134 10135 10136 10137 10138 10139 10140 10141 10142 10143 10144 10145 10146 10147 10148 10149 10150 10151 10152 10153 10154 10155 10156 10157 10158 10159 10160 10161 10162 10163 10164 10165 10166 10167 10168 10169 10170 10171 10172 10173 10174 10175 10176 10177 10178 10179 10180 10181 10182 10183 10184 10185 10186 10187 10188 10189 10190 10191 10192 10193 10194 10195 10196 10197 10198 10199 10200 10201 10202 10203 10204 10205 10206 10207 10208 10209 10210 10211 10212 10213 10214 10215 10216 10217 10218 10219 10220 10221 10222 10223 10224 10225 10226 10227 10228 10229 10230 10231 10232 10233 10234 10235 10236 10237 10238 10239 10240 10241 10242 10243 10244 10245 10246 10247 10248 10249 10250 10251 10252 10253 10254 10255 10256 10257 10258 10259 10260 10261 10262 10263 10264 10265 10266 10267 10268 10269 10270 10271 10272 10273 10274 10275 10276 10277 10278 10279 10280 10281 10282 10283 10284 10285 10286 10287 10288 10289 10290 10291 10292 10293 10294 10295 10296 10297 10298 10299 10300 10301 10302 10303 10304 10305 10306 10307 10308 10309 10310 10311 10312 10313 10314 10315 10316 10317 10318 10319 10320 10321 10322 10323 10324 10325 10326 10327 10328 10329 10330 10331 10332 10333 10334 10335 10336 10337 10338 10339 10340 10341 10342 10343 10344 10345 10346 10347 10348 10349 10350 10351 10352 10353 10354 10355 10356 10357 10358 10359 10360 10361 10362 10363 10364 10365 10366 10367 10368 10369 10370 10371 10372 10373 10374 10375 10376 10377 10378 10379 10380 10381 10382 10383 10384 10385 10386 10387 10388 10389 10390 10391 10392 10393 10394 10395 10396 10397 10398 10399 10400 10401 10402 10403 10404 10405 10406 10407 10408 10409 10410 10411 10412 10413 10414 10415 10416 10417 10418 10419 10420 10421 10422 10423 10424 10425 10426 10427 10428 10429 10430 10431 10432 10433 10434 10435 10436 10437 10438 10439 10440 10441 10442 10443 10444 10445 10446 10447 10448 10449 10450 10451 10452 10453 10454 10455 10456 10457 10458 10459 10460 10461 10462 10463 10464 10465 10466 10467 10468 10469 10470 10471 10472 10473 10474 10475 10476 10477 10478 10479 10480 10481 10482 10483 10484 10485 10486 10487 10488 10489 10490 10491 10492 10493 10494 10495 10496 10497 10498 10499 10500 10501 10502 10503 10504 10505 10506 10507 10508 10509 10510 10511 10512 10513 10514 10515 10516 10517 10518 10519 10520 10521 10522 10523 10524 10525 10526 10527 10528 10529 10530 10531 10532 10533 10534 10535 10536 10537 10538 10539 10540 10541 10542 10543 10544 10545 10546 10547 10548 10549 10550 10551 10552 10553 10554 10555 10556 10557 10558 10559 10560 10561 10562 10563 10564 10565 10566 10567 10568 10569 10570 10571 10572 10573 10574 10575 10576 10577 10578 10579 10580 10581 10582 10583 10584 10585 10586 10587 10588 10589 10590 10591 10592 10593 10594 10595 10596 10597 10598 10599 10600 10601 10602 10603 10604 10605 10606 10607 10608 10609 10610 10611 10612 10613 10614 10615 10616 10617 10618 10619 10620 10621 10622 10623 10624 10625 10626 10627 10628 10629 10630 10631 10632 10633 10634 10635 10636 10637 10638 10639 10640 10641 10642 10643 10644 10645 10646 10647 10648 10649 10650 10651 10652 10653 10654 10655 10656 10657 10658 10659 10660 10661 10662 10663 10664 10665 10666 10667 10668 10669 10670 10671 10672 10673 10674 10675 10676 10677 10678 10679 10680 10681 10682 10683 10684 10685 10686 10687 10688 10689 10690 10691 10692 10693 10694 10695 10696 10697 10698 10699 10700 10701 10702 10703 10704 10705 10706 10707 10708 10709 10710 10711 10712 10713 10714 10715 10716 10717 10718 10719 10720 10721 10722 10723 10724 10725 10726 10727 10728 10729 10730 10731 10732 10733 10734 10735 10736 10737 10738 10739 10740 10741 10742 10743 10744 10745 10746 10747 10748 10749 10750 10751 10752 10753 10754 10755 10756 10757 10758 10759 10760 10761 10762 10763 10764 10765 10766 10767 10768 10769 10770 10771 10772 10773 10774 10775 10776 10777 10778 10779 10780 10781 10782 10783 10784 10785 10786 10787 10788 10789 10790 10791 10792 10793 10794 10795 10796 10797 10798 10799 10800 10801 10802 10803 10804 10805 10806 10807 10808 10809 10810 10811 10812 10813 10814 10815 10816 10817 10818 10819 10820 10821 10822 10823 10824 10825 10826 10827 10828 10829 10830 10831 10832 10833 10834 10835 10836 10837 10838 10839 10840 10841 10842 10843 10844 10845 10846 10847 10848 10849 10850 10851 10852 10853 10854 10855 10856 10857 10858 10859 10860 10861 10862 10863 10864 10865 10866 10867 10868 10869 10870 10871 10872 10873 10874 10875 10876 10877 10878 10879 10880 10881 10882 10883 10884 10885 10886 10887 10888 10889 10890 10891 10892 10893 10894 10895 10896 10897 10898 10899 10900 10901 10902 10903 10904 10905 10906 10907 10908 10909 10910 10911 10912 10913 10914 10915 10916 10917 10918 10919 10920 10921 10922 10923 10924 10925 10926 10927 10928 10929 10930 10931 10932 10933 10934 10935 10936 10937 10938 10939 10940 10941 10942 10943 10944 10945 10946 10947 10948 10949 10950 10951 10952 10953 10954 10955 10956 10957 10958 10959 10960 10961 10962 10963 10964 10965 10966 10967 10968 10969 10970 10971 10972 10973 10974 10975 10976 10977 10978 10979 10980 10981 10982 10983 10984 10985 10986 10987 10988 10989 10990 10991 10992 10993 10994 10995 10996 10997 10998 10999 11000 11001 11002 11003 11004 11005 11006 11007 11008 11009 11010 11011 11012 11013 11014 11015 11016 11017 11018 11019 11020 11021 11022 11023 11024 11025 11026 11027 11028 11029 11030 11031 11032 11033 11034 11035 11036 11037 11038 11039 11040 11041 11042 11043 11044 11045 11046 11047 11048 11049 11050 11051 11052 11053 11054 11055 11056 11057 11058 11059 11060 11061 11062 11063 11064 11065 11066 11067 11068 11069 11070 11071 11072 11073 11074 11075 11076 11077 11078 11079 11080 11081 11082 11083 11084 11085 11086 11087 11088 11089 11090 11091 11092 11093 11094 11095 11096 11097 11098 11099 11100 11101 11102 11103 11104 11105 11106 11107 11108 11109 11110 11111 11112 11113 11114 11115 11116 11117 11118 11119 11120 11121 11122 11123 11124 11125 11126 11127 11128 11129 11130 11131 11132 11133 11134 11135 11136 11137 11138 11139 11140 11141 11142 11143 11144 11145 11146 11147 11148 11149 11150 11151 11152 11153 11154 11155 11156 11157 11158 11159 11160 11161 11162 11163 11164 11165 11166 11167 11168 11169 11170 11171 11172 11173 11174 11175 11176 11177 11178 11179 11180 11181 11182 11183 11184 11185 11186 11187 11188 11189 11190 11191 11192 11193 11194 11195 11196 11197 11198 11199 11200 11201 11202 11203 11204 11205 11206 11207 11208 11209 11210 11211 11212 11213 11214 11215 11216 11217 11218 11219 11220 11221 11222 11223 11224 11225 11226 11227 11228 11229 11230 11231 11232 11233 11234 11235 11236 11237 11238 11239 11240 11241 11242 11243 11244 11245 11246 11247 11248 11249 11250 11251 11252 11253 11254 11255 11256 11257 11258 11259 11260 11261 11262 11263 11264 11265 11266 11267 11268 11269 11270 11271 11272 11273 11274 11275 11276 11277 11278 11279 11280 11281 11282 11283 11284 11285 11286 11287 11288 11289 11290 11291 11292 11293 11294 11295 11296 11297 11298 11299 11300 11301 11302 11303 11304 11305 11306 11307 11308 11309 11310 11311 11312 11313 11314 11315 11316 11317 11318 11319 11320 11321 11322 11323 11324 11325 11326 11327 11328 11329 11330 11331 11332 11333 11334 11335 11336 11337 11338 11339 11340 11341 11342 11343 11344 11345 11346 11347 11348 11349 11350 11351 11352 11353 11354 11355 11356 11357 11358 11359 11360 11361 11362 11363 11364 11365 11366 11367 11368 11369 11370 11371 11372 11373 11374 11375 11376 11377 11378 11379 11380 11381 11382 11383 11384 11385 11386 11387 11388 11389 11390 11391 11392 11393 11394 11395 11396 11397 11398 11399 11400 11401 11402 11403 11404 11405 11406 11407 11408 11409 11410 11411 11412 11413 11414 11415 11416 11417 11418 11419 11420 11421 11422 11423 11424 11425 11426 11427 11428 11429 11430 11431 11432 11433 11434 11435 11436 11437 11438 11439 11440 11441 11442 11443 11444 11445 11446 11447 11448 11449 11450 11451 11452 11453 11454 11455 11456 11457 11458 11459 11460 11461 11462 11463 11464 11465 11466 11467 11468 11469 11470 11471 11472 11473 11474 11475 11476 11477 11478 11479 11480 11481 11482 11483 11484 11485 11486 11487 11488 11489 11490 11491 11492 11493 11494 11495 11496 11497 11498 11499 11500 11501 11502 11503 11504 11505 11506 11507 11508 11509 11510 11511 11512 11513 11514 11515 11516 11517 11518 11519 11520 11521 11522 11523 11524 11525 11526 11527 11528 11529 11530 11531 11532 11533 11534 11535 11536 11537 11538 11539 11540 11541 11542 11543 11544 11545 11546 11547 11548 11549 11550 11551 11552 11553 11554 11555 11556 11557 11558 11559 11560 11561 11562 11563 11564 11565 11566 11567 11568 11569 11570 11571 11572 11573 11574 11575 11576 11577 11578 11579 11580 11581 11582 11583 11584 11585 11586 11587 11588 11589 11590 11591 11592 11593 11594 11595 11596 11597 11598 11599 11600 11601 11602 11603 11604 11605 11606 11607 11608 11609 11610 11611 11612 11613 11614 11615 11616 11617 11618 11619 11620 11621 11622 11623 11624 11625 11626 11627 11628 11629 11630 11631 11632 11633 11634 11635 11636 11637 11638 11639 11640 11641 11642 11643 11644 11645 11646 11647 11648 11649 11650 11651 11652 11653 11654 11655 11656 11657 11658 11659 11660 11661 11662 11663 11664 11665 11666 11667 11668 11669 11670 11671 11672 11673 11674 11675 11676 11677 11678 11679 11680 11681 11682 11683 11684 11685 11686 11687 11688 11689 11690 11691 11692 11693 11694 11695 11696 11697 11698 11699 11700 11701 11702 11703 11704 11705 11706 11707 11708 11709 11710 11711 11712 11713 11714 11715 11716 11717 11718 11719 11720 11721 11722 11723 11724 11725 11726 11727 11728 11729 11730 11731 11732 11733 11734 11735 11736 11737 11738 11739 11740 11741 11742 11743 11744 11745 11746 11747 11748 11749 11750 11751 11752 11753 11754 11755 11756 11757 11758 11759 11760 11761 11762 11763 11764 11765 11766 11767 11768 11769 11770 11771 11772 11773 11774 11775 11776 11777 11778 11779 11780 11781 11782 11783 11784 11785 11786 11787 11788 11789 11790 11791 11792 11793 11794 11795 11796 11797 11798 11799 11800 11801 11802 11803 11804 11805 11806 11807 11808 11809 11810 11811 11812 11813 11814 11815 11816 11817 11818 11819 11820 11821 11822 11823 11824 11825 11826 11827 11828 11829 11830 11831 11832 11833 11834 11835 11836 11837 11838 11839 11840 11841 11842 11843 11844 11845 11846 11847 11848 11849 11850 11851 11852 11853 11854 11855 11856 11857 11858 11859 11860 11861 11862 11863 11864 11865 11866 11867 11868 11869 11870 11871 11872 11873 11874 11875 11876 11877 11878 11879 11880 11881 11882 11883 11884 11885 11886 11887 11888 11889 11890 11891 11892 11893 11894 11895 11896 11897 11898 11899 11900 11901 11902 11903 11904 11905 11906 11907 11908 11909 11910 11911 11912 11913 11914 11915 11916 11917 11918 11919 11920 11921 11922 11923 11924 11925 11926 11927 11928 11929 11930 11931 11932 11933 11934 11935 11936 11937 11938 11939 11940 11941 11942 11943 11944 11945 11946 11947 11948 11949 11950 11951 11952 11953 11954 11955 11956 11957 11958 11959 11960 11961 11962 11963 11964 11965 11966 11967 11968 11969 11970 11971 11972 11973 11974 11975 11976 11977 11978 11979 11980 11981 11982 11983 11984 11985 11986 11987 11988 11989 11990 11991 11992 11993 11994 11995 11996 11997 11998 11999 12000 12001 12002 12003 12004 12005 12006 12007 12008 12009 12010 12011 12012 12013 12014 12015 12016 12017 12018 12019 12020 12021 12022 12023 12024 12025 12026 12027 12028 12029 12030 12031 12032 12033 12034 12035 12036 12037 12038 12039 12040 12041 12042 12043 12044 12045 12046 12047 12048 12049 12050 12051 12052 12053 12054 12055 12056 12057 12058 12059 12060 12061 12062 12063 12064 12065 12066 12067 12068 12069 12070 12071 12072 12073 12074 12075 12076 12077 12078 12079 12080 12081 12082 12083 12084 12085 12086 12087 12088 12089 12090 12091 12092 12093 12094 12095 12096 12097 12098 12099 12100 12101 12102 12103 12104 12105 12106 12107 12108 12109 12110 12111 12112 12113 12114 12115 12116 12117 12118 12119 12120 12121 12122 12123 12124 12125 12126 12127 12128 12129 12130 12131 12132 12133 12134 12135 12136 12137 12138 12139 12140 12141 12142 12143 12144 12145 12146 12147 12148 12149 12150 12151 12152 12153 12154 12155 12156 12157 12158 12159 12160 12161 12162 12163 12164 12165 12166 12167 12168 12169 12170 12171 12172 12173 12174 12175 12176 12177 12178 12179 12180 12181 12182 12183 12184 12185 12186 12187 12188 12189 12190 12191 12192 12193 12194 12195 12196 12197 12198 12199 12200 12201 12202 12203 12204 12205 12206 12207 12208 12209 12210 12211 12212 12213 12214 12215 12216 12217 12218 12219 12220 12221 12222 12223 12224 12225 12226 12227 12228 12229 12230 12231 12232 12233 12234 12235 12236 12237 12238 12239 12240 12241 12242 12243 12244 12245 12246 12247 12248 12249 12250 12251 12252 12253 12254 12255 12256 12257 12258 12259 12260 12261 12262 12263 12264 12265 12266 12267 12268 12269 12270 12271 12272 12273 12274 12275 12276 12277 12278 12279 12280 12281 12282 12283 12284 12285 12286 12287 12288 12289 12290 12291 12292 12293 12294 12295 12296 12297 12298 12299 12300 12301 12302 12303 12304 12305 12306 12307 12308 12309 12310 12311 12312 12313 12314 12315 12316 12317 12318 12319 12320 12321 12322 12323 12324 12325 12326 12327 12328 12329 12330 12331 12332 12333 12334 12335 12336 12337 12338 12339 12340 12341 12342 12343 12344 12345 12346 12347 12348 12349 12350 12351 12352 12353 12354 12355 12356 12357 12358 12359 12360 12361 12362 12363 12364 12365 12366 12367 12368 12369 12370 12371 12372 12373 12374 12375 12376 12377 12378 12379 12380 12381 12382 12383 12384 12385 12386 12387 12388 12389 12390 12391 12392 12393 12394 12395 12396 12397 12398 12399 12400 12401 12402 12403 12404 12405 12406 12407 12408 12409 12410 12411 12412 12413 12414 12415 12416 12417 12418 12419 12420 12421 12422 12423 12424 12425 12426 12427 12428 12429 12430 12431 12432 12433 12434 12435 12436 12437 12438 12439 12440 12441 12442 12443 12444 12445 12446 12447 12448 12449 12450 12451 12452 12453 12454 12455 12456 12457 12458 12459 12460 12461 12462 12463 12464 12465 12466 12467 12468 12469 12470 12471 12472 12473 12474 12475 12476 12477 12478 12479 12480 12481 12482 12483 12484 12485 12486 12487 12488 12489 12490 12491 12492 12493 12494 12495 12496 12497 12498 12499 12500 12501 12502 12503 12504 12505 12506 12507 12508 12509 12510 12511 12512 12513 12514 12515 12516 12517 12518 12519 12520 12521 12522 12523 12524 12525 12526 12527 12528 12529 12530 12531 12532 12533 12534 12535 12536 12537 12538 12539 12540 12541 12542 12543 12544 12545 12546 12547 12548 12549 12550 12551 12552 12553 12554 12555 12556 12557 12558 12559 12560 12561 12562 12563 12564 12565 12566 12567 12568 12569 12570 12571 12572 12573 12574 12575 12576 12577 12578 12579 12580 12581 12582 12583 12584 12585 12586 12587 12588 12589 12590 12591 12592 12593 12594 12595 12596 12597 12598 12599 12600 12601 12602 12603 12604 12605 12606 12607 12608 12609 12610 12611 12612 12613 12614 12615 12616 12617 12618 12619 12620 12621 12622 12623 12624 12625 12626 12627 12628 12629 12630 12631 12632 12633 12634 12635 12636 12637 12638 12639 12640 12641 12642 12643 12644 12645 12646 12647 12648 12649 12650 12651 12652 12653 12654 12655 12656 12657 12658 12659 12660 12661 12662 12663 12664 12665 12666 12667 12668 12669 12670 12671 12672 12673 12674 12675 12676 12677 12678 12679 12680 12681 12682 12683 12684 12685 12686 12687 12688 12689 12690 12691 12692 12693 12694 12695 12696 12697 12698 12699 12700 12701 12702 12703 12704 12705 12706 12707 12708 12709 12710 12711 12712 12713 12714 12715 12716 12717 12718 12719 12720 12721 12722 12723 12724 12725 12726 12727 12728 12729 12730 12731 12732 12733 12734 12735 12736 12737 12738 12739 12740 12741 12742 12743 12744 12745 12746 12747 12748 12749 12750 12751 12752 12753 12754 12755 12756 12757 12758 12759 12760 12761 12762 12763 12764 12765 12766 12767 12768 12769 12770 12771 12772 12773 12774 12775 12776 12777 12778 12779 12780 12781 12782 12783 12784 12785 12786 12787 12788 12789 12790 12791 12792 12793 12794 12795 12796 12797 12798 12799 12800 12801 12802 12803 12804 12805 12806 12807 12808 12809 12810 12811 12812 12813 12814 12815 12816 12817 12818 12819 12820 12821 12822 12823 12824 12825 12826 12827 12828 12829 12830 12831 12832 12833 12834 12835 12836 12837 12838 12839 12840 12841 12842 12843 12844 12845 12846 12847 12848 12849 12850 12851 12852 12853 12854 12855 12856 12857 12858 12859 12860 12861 12862 12863 12864 12865 12866 12867 12868 12869 12870 12871 12872 12873 12874 12875 12876 12877 12878 12879 12880 12881 12882 12883 12884 12885 12886 12887 12888 12889 12890 12891 12892 12893 12894 12895 12896 12897 12898 12899 12900 12901 12902 12903 12904 12905 12906 12907 12908 12909 12910 12911 12912 12913 12914 12915 12916 12917 12918 12919 12920 12921 12922 12923 12924 12925 12926 12927 12928 12929 12930 12931 12932 12933 12934 12935 12936 12937 12938 12939 12940 12941 12942 12943 12944 12945 12946 12947 12948 12949 12950 12951 12952 12953 12954 12955 12956 12957 12958 12959 12960 12961 12962 12963 12964 12965 12966 12967 12968 12969 12970 12971 12972 12973 12974 12975 12976 12977 12978 12979 12980 12981 12982 12983 12984 12985 12986 12987 12988 12989 12990 12991 12992 12993 12994 12995 12996 12997 12998 12999 13000 13001 13002 13003 13004 13005 13006 13007 13008 13009 13010 13011 13012 13013 13014 13015 13016 13017 13018 13019 13020 13021 13022 13023 13024 13025 13026 13027 13028 13029 13030 13031 13032 13033 13034 13035 13036 13037 13038 13039 13040 13041 13042 13043 13044 13045 13046 13047 13048 13049 13050 13051 13052 13053 13054 13055 13056 13057 13058 13059 13060 13061 13062 13063 13064 13065 13066 13067 13068 13069 13070 13071 13072 13073 13074 13075 13076 13077 13078 13079 13080 13081 13082 13083 13084 13085 13086 13087 13088 13089 13090 13091 13092 13093 13094 13095 13096 13097 13098 13099 13100 13101 13102 13103 13104 13105 13106 13107 13108 13109 13110 13111 13112 13113 13114 13115 13116 13117 13118 13119 13120 13121 13122 13123 13124 13125 13126 13127 13128 13129 13130 13131 13132 13133 13134 13135 13136 13137 13138 13139 13140 13141 13142 13143 13144 13145 13146 13147 13148 13149 13150 13151 13152 13153 13154 13155 13156 13157 13158 13159 13160 13161 13162 13163 13164 13165 13166 13167 13168 13169 13170 13171 13172 13173 13174 13175 13176 13177 13178 13179 13180 13181 13182 13183 13184 13185 13186 13187 13188 13189 13190 13191 13192 13193 13194 13195 13196 13197 13198 13199 13200 13201 13202 13203 13204 13205 13206 13207 13208 13209 13210 13211 13212 13213 13214 13215 13216 13217 13218 13219 13220 13221 13222 13223 13224 13225 13226 13227 13228 13229 13230 13231 13232 13233 13234 13235 13236 13237 13238 13239 13240 13241 13242 13243 13244 13245 13246 13247 13248 13249 13250 13251 13252 13253 13254 13255 13256 13257 13258 13259 13260 13261 13262 13263 13264 13265 13266 13267 13268 13269 13270 13271 13272 13273 13274 13275 13276 13277 13278 13279 13280 13281 13282 13283 13284 13285 13286 13287 13288 13289 13290 13291 13292 13293 13294 13295 13296 13297 13298 13299 13300 13301 13302 13303 13304 13305 13306 13307 13308 13309 13310 13311 13312 13313 13314 13315 13316 13317 13318 13319 13320 13321 13322 13323 13324 13325 13326 13327 13328 13329 13330 13331 13332 13333 13334 13335 13336 13337 13338 13339 13340 13341 13342 13343 13344 13345 13346 13347 13348 13349 13350 13351 13352 13353 13354 13355 13356 13357 13358 13359 13360 13361 13362 13363 13364 13365 13366 13367 13368 13369 13370 13371 13372 13373 13374 13375 13376 13377 13378 13379 13380 13381 13382 13383 13384 13385 13386 13387 13388 13389 13390 13391 13392 13393 13394 13395 13396 13397 13398 13399 13400 13401 13402 13403 13404 13405 13406 13407 13408 13409 13410 13411 13412 13413 13414 13415 13416 13417 13418 13419 13420 13421 13422 13423 13424 13425 13426 13427 13428 13429 13430 13431 13432 13433 13434 13435 13436 13437 13438 13439 13440 13441 13442 13443 13444 13445 13446 13447 13448 13449 13450 13451 13452 13453 13454 13455 13456 13457 13458 13459 13460 13461 13462 13463 13464 13465 13466 13467 13468 13469 13470 13471 13472 13473 13474 13475 13476 13477 13478 13479 13480 13481 13482 13483 13484 13485 13486 13487 13488 13489 13490 13491 13492 13493 13494 13495 13496 13497 13498 13499 13500 13501 13502 13503 13504 13505 13506 13507 13508 13509 13510 13511 13512 13513 13514 13515 13516 13517 13518 13519 13520 13521 13522 13523 13524 13525 13526 13527 13528 13529 13530 13531 13532 13533 13534 13535 13536 13537 13538 13539 13540 13541 13542 13543 13544 13545 13546 13547 13548 13549 13550 13551 13552 13553 13554 13555 13556 13557 13558 13559 13560 13561 13562 13563 13564 13565 13566 13567 13568 13569 13570 13571 13572 13573 13574 13575 13576 13577 13578 13579 13580 13581 13582 13583 13584 13585 13586 13587 13588 13589 13590 13591 13592 13593 13594 13595 13596 13597 13598 13599 13600 13601 13602 13603 13604 13605 13606 13607 13608 13609 13610 13611 13612 13613 13614 13615 13616 13617 13618 13619 13620 13621 13622 13623 13624 13625 13626 13627 13628 13629 13630 13631 13632 13633 13634 13635 13636 13637 13638 13639 13640 13641 13642 13643 13644 13645 13646 13647 13648 13649 13650 13651 13652 13653 13654 13655 13656 13657 13658 13659 13660 13661 13662 13663 13664 13665 13666 13667 13668 13669 13670 13671 13672 13673 13674 13675 13676 13677 13678 13679 13680 13681 13682 13683 13684 13685 13686 13687 13688 13689 13690 13691 13692 13693 13694 13695 13696 13697 13698 13699 13700 13701 13702 13703 13704 13705 13706 13707 13708 13709 13710 13711 13712 13713 13714 13715 13716 13717 13718 13719 13720 13721 13722 13723 13724 13725 13726 13727 13728 13729 13730 13731 13732 13733 13734 13735 13736 13737 13738 13739 13740 13741 13742 13743 13744 13745 13746 13747 13748 13749 13750 13751 13752 13753 13754 13755 13756 13757 13758 13759 13760 13761 13762 13763 13764 13765 13766 13767 13768 13769 13770 13771 13772 13773 13774 13775 13776 13777 13778 13779 13780 13781 13782 13783 13784 13785 13786 13787 13788 13789 13790 13791 13792 13793 13794 13795 13796 13797 13798 13799 13800 13801 13802 13803 13804 13805 13806 13807 13808 13809 13810 13811 13812 13813 13814 13815 13816 13817 13818 13819 13820 13821 13822 13823 13824 13825 13826 13827 13828 13829 13830 13831 13832 13833 13834 13835 13836 13837 13838 13839 13840 13841 13842 13843 13844 13845 13846 13847 13848 13849 13850 13851 13852 13853 13854 13855 13856 13857 13858 13859 13860 13861 13862 13863 13864 13865 13866 13867 13868 13869 13870 13871 13872 13873 13874 13875 13876 13877 13878 13879 13880 13881 13882 13883 13884 13885 13886 13887 13888 13889 13890 13891 13892 13893 13894 13895 13896 13897 13898 13899 13900 13901 13902 13903 13904 13905 13906 13907 13908 13909 13910 13911 13912 13913 13914 13915 13916 13917 13918 13919 13920 13921 13922 13923 13924 13925 13926 13927 13928 13929 13930 13931 13932 13933 13934 13935 13936 13937 13938 13939 13940 13941 13942 13943 13944 13945 13946 13947 13948 13949 13950 13951 13952 13953 13954 13955 13956 13957 13958 13959 13960 13961 13962 13963 13964 13965 13966 13967 13968 13969 13970 13971 13972 13973 13974 13975 13976 13977 13978 13979 13980 13981 13982 13983 13984 13985 13986 13987 13988 13989 13990 13991 13992 13993 13994 13995 13996 13997 13998 13999 14000 14001 14002 14003 14004 14005 14006 14007 14008 14009 14010 14011 14012 14013 14014 14015 14016 14017 14018 14019 14020 14021 14022 14023 14024 14025 14026 14027 14028 14029 14030 14031 14032 14033 14034 14035 14036 14037 14038 14039 14040 14041 14042 14043 14044 14045 14046 14047 14048 14049 14050 14051 14052 14053 14054 14055 14056 14057 14058 14059 14060 14061 14062 14063 14064 14065 14066 14067 14068 14069 14070 14071 14072 14073 14074 14075 14076 14077 14078 14079 14080 14081 14082 14083 14084 14085 14086 14087 14088 14089 14090 14091 14092 14093 14094 14095 14096 14097 14098 14099 14100 14101 14102 14103 14104 14105 14106 14107 14108 14109 14110 14111 14112 14113 14114 14115 14116 14117 14118 14119 14120 14121 14122 14123 14124 14125 14126 14127 14128 14129 14130 14131 14132 14133 14134 14135 14136 14137 14138 14139 14140 14141 14142 14143 14144 14145 14146 14147 14148 14149 14150 14151 14152 14153 14154 14155 14156 14157 14158 14159 14160 14161 14162 14163 14164 14165 14166 14167 14168 14169 14170 14171 14172 14173 14174 14175 14176 14177 14178 14179 14180 14181 14182 14183 14184 14185 14186 14187 14188 14189 14190 14191 14192 14193 14194 14195 14196 14197 14198 14199 14200 14201 14202 14203 14204 14205 14206 14207 14208 14209 14210 14211 14212 14213 14214 14215 14216 14217 14218 14219 14220 14221 14222 14223 14224 14225 14226 14227 14228 14229 14230 14231 14232 14233 14234 14235 14236 14237 14238 14239 14240 14241 14242 14243 14244 14245 14246 14247 14248 14249 14250 14251 14252 14253 14254 14255 14256 14257 14258 14259 14260 14261 14262 14263 14264 14265 14266 14267 14268 14269 14270 14271 14272 14273 14274 14275 14276 14277 14278 14279 14280 14281 14282 14283 14284 14285 14286 14287 14288 14289 14290 14291 14292 14293 14294 14295 14296 14297 14298 14299 14300 14301 14302 14303 14304 14305 14306 14307 14308 14309 14310 14311 14312 14313 14314 14315 14316 14317 14318 14319 14320 14321 14322 14323 14324 14325 14326 14327 14328 14329 14330 14331 14332 14333 14334 14335 14336 14337 14338 14339 14340 14341 14342 14343 14344 14345 14346 14347 14348 14349 14350 14351 14352 14353 14354 14355 14356 14357 14358 14359 14360 14361 14362 14363 14364 14365 14366 14367 14368 14369 14370 14371 14372 14373 14374 14375 14376 14377 14378 14379 14380 14381 14382 14383 14384 14385 14386 14387 14388 14389 14390 14391 14392 14393 14394 14395 14396 14397 14398 14399 14400 14401 14402 14403 14404 14405 14406 14407 14408 14409 14410 14411 14412 14413 14414 14415 14416 14417 14418 14419 14420 14421 14422 14423 14424 14425 14426 14427 14428 14429 14430 14431 14432 14433 14434 14435 14436 14437 14438 14439 14440 14441 14442 14443 14444 14445 14446 14447 14448 14449 14450 14451 14452 14453 14454 14455 14456 14457 14458 14459 14460 14461 14462 14463 14464 14465 14466 14467 14468 14469 14470 14471 14472 14473 14474 14475 14476 14477 14478 14479 14480 14481 14482 14483 14484 14485 14486 14487 14488 14489 14490 14491 14492 14493 14494 14495 14496 14497 14498 14499 14500 14501 14502 14503 14504 14505 14506 14507 14508 14509 14510 14511 14512 14513 14514 14515 14516 14517 14518 14519 14520 14521 14522 14523 14524 14525 14526 14527 14528 14529 14530 14531 14532 14533 14534 14535 14536 14537 14538 14539 14540 14541 14542 14543 14544 14545 14546 14547 14548 14549 14550 14551 14552 14553 14554 14555 14556 14557 14558 14559 14560 14561 14562 14563 14564 14565 14566 14567 14568 14569 14570 14571 14572 14573 14574 14575 14576 14577 14578 14579 14580 14581 14582 14583 14584 14585 14586 14587 14588 14589 14590 14591 14592 14593 14594 14595 14596 14597 14598 14599 14600 14601 14602 14603 14604 14605 14606 14607 14608 14609 14610 14611 14612 14613 14614 14615 14616 14617 14618 14619 14620 14621 14622 14623 14624 14625 14626 14627 14628 14629 14630 14631 14632 14633 14634 14635 14636 14637 14638 14639 14640 14641 14642 14643 14644 14645 14646 14647 14648 14649 14650 14651 14652 14653 14654 14655 14656 14657 14658 14659 14660 14661 14662 14663 14664 14665 14666 14667 14668 14669 14670 14671 14672 14673 14674 14675 14676 14677 14678 14679 14680 14681 14682 14683 14684 14685 14686 14687 14688 14689 14690 14691 14692 14693 14694 14695 14696 14697 14698 14699 14700 14701 14702 14703 14704 14705 14706 14707 14708 14709 14710 14711 14712 14713 14714 14715 14716 14717 14718 14719 14720 14721 14722 14723 14724 14725 14726 14727 14728 14729 14730 14731 14732 14733 14734 14735 14736 14737 14738 14739 14740 14741 14742 14743 14744 14745 14746 14747 14748 14749 14750 14751 14752 14753 14754 14755 14756 14757 14758 14759 14760 14761 14762 14763 14764 14765 14766 14767 14768 14769 14770 14771 14772 14773 14774 14775 14776 14777 14778 14779 14780 14781 14782 14783 14784 14785 14786 14787 14788 14789 14790 14791 14792 14793 14794 14795 14796 14797 14798 14799 14800 14801 14802 14803 14804 14805 14806 14807 14808 14809 14810 14811 14812 14813 14814 14815 14816 14817 14818 14819 14820 14821 14822 14823 14824 14825 14826 14827 14828 14829 14830 14831 14832 14833 14834 14835 14836 14837 14838 14839 14840 14841 14842 14843 14844 14845 14846 14847 14848 14849 14850 14851 14852 14853 14854 14855 14856 14857 14858 14859 14860 14861 14862 14863 14864 14865 14866 14867 14868 14869 14870 14871 14872 14873 14874 14875 14876 14877 14878 14879 14880 14881 14882 14883 14884 14885 14886 14887 14888 14889 14890 14891 14892 14893 14894 14895 14896 14897 14898 14899 14900 14901 14902 14903 14904 14905 14906 14907 14908 14909 14910 14911 14912 14913 14914 14915 14916 14917 14918 14919 14920 14921 14922 14923 14924 14925 14926 14927 14928 14929 14930 14931 14932 14933 14934 14935 14936 14937 14938 14939 14940 14941 14942 14943 14944 14945 14946 14947 14948 14949 14950 14951 14952 14953 14954 14955 14956 14957 14958 14959 14960 14961 14962 14963 14964 14965 14966 14967 14968 14969 14970 14971 14972 14973 14974 14975 14976 14977 14978 14979 14980 14981 14982 14983 14984 14985 14986 14987 14988 14989 14990 14991 14992 14993 14994 14995 14996 14997 14998 14999 15000 15001 15002 15003 15004 15005 15006 15007 15008 15009 15010 15011 15012 15013 15014 15015 15016 15017 15018 15019 15020 15021 15022 15023 15024 15025 15026 15027 15028 15029 15030 15031 15032 15033 15034 15035 15036 15037 15038 15039 15040 15041 15042 15043 15044 15045 15046 15047 15048 15049 15050 15051 15052 15053 15054 15055 15056 15057 15058 15059 15060 15061 15062 15063 15064 15065 15066 15067 15068 15069 15070 15071 15072 15073 15074 15075 15076 15077 15078 15079 15080 15081 15082 15083 15084 15085 15086 15087 15088 15089 15090 15091 15092 15093 15094 15095 15096 15097 15098 15099 15100 15101 15102 15103 15104 15105 15106 15107 15108 15109 15110 15111 15112 15113 15114 15115 15116 15117 15118 15119 15120 15121 15122 15123 15124 15125 15126 15127 15128 15129 15130 15131 15132 15133 15134 15135 15136 15137 15138 15139 15140 15141 15142 15143 15144 15145 15146 15147 15148 15149 15150 15151 15152 15153 15154 15155 15156 15157 15158 15159 15160 15161 15162 15163 15164 15165 15166 15167 15168 15169 15170 15171 15172 15173 15174 15175 15176 15177 15178 15179 15180 15181 15182 15183 15184 15185 15186 15187 15188 15189 15190 15191 15192 15193 15194 15195 15196 15197 15198 15199 15200 15201 15202 15203 15204 15205 15206 15207 15208 15209 15210 15211 15212 15213 15214 15215 15216 15217 15218 15219 15220 15221 15222 15223 15224 15225 15226 15227 15228 15229 15230 15231 15232 15233 15234 15235 15236 15237 15238 15239 15240 15241 15242 15243 15244 15245 15246 15247 15248 15249 15250 15251 15252 15253 15254 15255 15256 15257 15258 15259 15260 15261 15262 15263 15264 15265 15266 15267 15268 15269 15270 15271 15272 15273 15274 15275 15276 15277 15278 15279 15280 15281 15282 15283 15284 15285 15286 15287 15288 15289 15290 15291 15292 15293 15294 15295 15296 15297 15298 15299 15300 15301 15302 15303 15304 15305 15306 15307 15308 15309 15310 15311 15312 15313 15314 15315 15316 15317 15318 15319 15320 15321 15322 15323 15324 15325 15326 15327 15328 15329 15330 15331 15332 15333 15334 15335 15336 15337 15338 15339 15340 15341 15342 15343 15344 15345 15346 15347 15348 15349 15350 15351 15352 15353 15354 15355 15356 15357 15358 15359 15360 15361 15362 15363 15364 15365 15366 15367 15368 15369 15370 15371 15372 15373 15374 15375 15376 15377 15378 15379 15380 15381 15382 15383 15384 15385 15386 15387 15388 15389 15390 15391 15392 15393 15394 15395 15396 15397 15398 15399 15400 15401 15402 15403 15404 15405 15406 15407 15408 15409 15410 15411 15412 15413 15414 15415 15416 15417 15418 15419 15420 15421 15422 15423 15424 15425 15426 15427 15428 15429 15430 15431 15432 15433 15434 15435 15436 15437 15438 15439 15440 15441 15442 15443 15444 15445 15446 15447 15448 15449 15450 15451 15452 15453 15454 15455 15456 15457 15458 15459 15460 15461 15462 15463 15464 15465 15466 15467 15468 15469 15470 15471 15472 15473 15474 15475 15476 15477 15478 15479 15480 15481 15482 15483 15484 15485 15486 15487 15488 15489 15490 15491 15492 15493 15494 15495 15496 15497 15498 15499 15500 15501 15502 15503 15504 15505 15506 15507 15508 15509 15510 15511 15512 15513 15514 15515 15516 15517 15518 15519 15520 15521 15522 15523 15524 15525 15526 15527 15528 15529 15530 15531 15532 15533 15534 15535 15536 15537 15538 15539 15540 15541 15542 15543 15544 15545 15546 15547 15548 15549 15550 15551 15552 15553 15554 15555 15556 15557 15558 15559 15560 15561 15562 15563 15564 15565 15566 15567 15568 15569 15570 15571 15572 15573 15574 15575 15576 15577 15578 15579 15580 15581 15582 15583 15584 15585 15586 15587 15588 15589 15590 15591 15592 15593 15594 15595 15596 15597 15598 15599 15600 15601 15602 15603 15604 15605 15606 15607 15608 15609 15610 15611 15612 15613 15614 15615 15616 15617 15618 15619 15620 15621 15622 15623 15624 15625 15626 15627 15628 15629 15630 15631 15632 15633 15634 15635 15636 15637 15638 15639 15640 15641 15642 15643 15644 15645 15646 15647 15648 15649 15650 15651 15652 15653 15654 15655 15656 15657 15658 15659 15660 15661 15662 15663 15664 15665 15666 15667 15668 15669 15670 15671 15672 15673 15674 15675 15676 15677 15678 15679 15680 15681 15682 15683 15684 15685 15686 15687 15688 15689 15690 15691 15692 15693 15694 15695 15696 15697 15698 15699 15700 15701 15702 15703 15704 15705 15706 15707 15708 15709 15710 15711 15712 15713 15714 15715 15716 15717 15718 15719 15720 15721 15722 15723 15724 15725 15726 15727 15728 15729 15730 15731 15732 15733 15734 15735 15736 15737 15738 15739 15740 15741 15742 15743 15744 15745 15746 15747 15748 15749 15750 15751 15752 15753 15754 15755 15756 15757 15758 15759 15760 15761 15762 15763 15764 15765 15766 15767 15768 15769 15770 15771 15772 15773 15774 15775 15776 15777 15778 15779 15780 15781 15782 15783 15784 15785 15786 15787 15788 15789 15790 15791 15792 15793 15794 15795 15796 15797 15798 15799 15800 15801 15802 15803 15804 15805 15806 15807 15808 15809 15810 15811 15812 15813 15814 15815 15816 15817 15818 15819 15820 15821 15822 15823 15824 15825 15826 15827 15828 15829 15830 15831 15832 15833 15834 15835 15836 15837 15838 15839 15840 15841 15842 15843 15844 15845 15846 15847 15848 15849 15850 15851 15852 15853 15854 15855 15856 15857 15858 15859 15860 15861 15862 15863 15864 15865 15866 15867 15868 15869 15870 15871 15872 15873 15874 15875 15876 15877 15878 15879 15880 15881 15882 15883 15884 15885 15886 15887 15888 15889 15890 15891 15892 15893 15894 15895 15896 15897 15898 15899 15900 15901 15902 15903 15904 15905 15906 15907 15908 15909 15910 15911 15912 15913 15914 15915 15916 15917 15918 15919 15920 15921 15922 15923 15924 15925 15926 15927 15928 15929 15930 15931 15932 15933 15934 15935 15936 15937 15938 15939 15940 15941 15942 15943 15944 15945 15946 15947 15948 15949 15950 15951 15952 15953 15954 15955 15956 15957 15958 15959 15960 15961 15962 15963 15964 15965 15966 15967 15968 15969 15970 15971 15972 15973 15974 15975 15976 15977 15978 15979 15980 15981 15982 15983 15984 15985 15986 15987 15988 15989 15990 15991 15992 15993 15994 15995 15996 15997 15998 15999 16000 16001 16002 16003 16004 16005 16006 16007 16008 16009 16010 16011 16012 16013 16014 16015 16016 16017 16018 16019 16020 16021 16022 16023 16024 16025 16026 16027 16028 16029 16030 16031 16032 16033 16034 16035 16036 16037 16038 16039 16040 16041 16042 16043 16044 16045 16046 16047 16048 16049 16050 16051 16052 16053 16054 16055 16056 16057 16058 16059 16060 16061 16062 16063 16064 16065 16066 16067 16068 16069 16070 16071 16072 16073 16074 16075 16076 16077 16078 16079 16080 16081 16082 16083 16084 16085 16086 16087 16088 16089 16090 16091 16092 16093 16094 16095 16096 16097 16098 16099 16100 16101 16102 16103 16104 16105 16106 16107 16108 16109 16110 16111 16112 16113 16114 16115 16116 16117 16118 16119 16120 16121 16122 16123 16124 16125 16126 16127 16128 16129 16130 16131 16132 16133 16134 16135 16136 16137 16138 16139 16140 16141 16142 16143 16144 16145 16146 16147 16148 16149 16150 16151 16152 16153 16154 16155 16156 16157 16158 16159 16160 16161 16162 16163 16164 16165 16166 16167 16168 16169 16170 16171 16172 16173 16174 16175 16176 16177 16178 16179 16180 16181 16182 16183 16184 16185 16186 16187 16188 16189 16190 16191 16192 16193 16194 16195 16196 16197 16198 16199 16200 16201 16202 16203 16204 16205 16206 16207 16208 16209 16210 16211 16212 16213 16214 16215 16216 16217 16218 16219 16220 16221 16222 16223 16224 16225 16226 16227 16228 16229 16230 16231 16232 16233 16234 16235 16236 16237 16238 16239 16240 16241 16242 16243 16244 16245 16246 16247 16248 16249 16250 16251 16252 16253 16254 16255 16256 16257 16258 16259 16260 16261 16262 16263 16264 16265 16266 16267 16268 16269 16270 16271 16272 16273 16274 16275 16276 16277 16278 16279 16280 16281 16282 16283 16284 16285 16286 16287 16288 16289 16290 16291 16292 16293 16294 16295 16296 16297 16298 16299 16300 16301 16302 16303 16304 16305 16306 16307 16308 16309 16310 16311 16312 16313 16314 16315 16316 16317 16318 16319 16320 16321 16322 16323 16324 16325 16326 16327 16328 16329 16330 16331 16332 16333 16334 16335 16336 16337 16338 16339 16340 16341 16342 16343 16344 16345 16346 16347 16348 16349 16350 16351 16352 16353 16354 16355 16356 16357 16358 16359 16360 16361 16362 16363 16364 16365 16366 16367 16368 16369 16370 16371 16372 16373 16374 16375 16376 16377 16378 16379 16380 16381 16382 16383 16384 16385 16386 16387 16388 16389 16390 16391 16392 16393 16394 16395 16396 16397 16398 16399 16400 16401 16402 16403 16404 16405 16406 16407 16408 16409 16410 16411 16412 16413 16414 16415 16416 16417 16418 16419 16420 16421 16422 16423 16424 16425 16426 16427 16428 16429 16430 16431 16432 16433 16434 16435 16436 16437 16438 16439 16440 16441 16442 16443 16444 16445 16446 16447 16448 16449 16450 16451 16452 16453 16454 16455 16456 16457 16458 16459 16460 16461 16462 16463 16464 16465 16466 16467 16468 16469 16470 16471 16472 16473 16474 16475 16476 16477 16478 16479 16480 16481 16482 16483 16484 16485 16486 16487 16488 16489 16490 16491 16492 16493 16494 16495 16496 16497 16498 16499 16500 16501 16502 16503 16504 16505 16506 16507 16508 16509 16510 16511 16512 16513 16514 16515 16516 16517 16518 16519 16520 16521 16522 16523 16524 16525 16526 16527 16528 16529 16530 16531 16532 16533 16534 16535 16536 16537 16538 16539 16540 16541 16542 16543 16544 16545 16546 16547 16548 16549 16550 16551 16552 16553 16554 16555 16556 16557 16558 16559 16560 16561 16562 16563 16564 16565 16566 16567 16568 16569 16570 16571 16572 16573 16574 16575 16576 16577 16578 16579 16580 16581 16582 16583 16584 16585 16586 16587 16588 16589 16590 16591 16592 16593 16594 16595 16596 16597 16598 16599 16600 16601 16602 16603 16604 16605 16606 16607 16608 16609 16610 16611 16612 16613 16614 16615 16616 16617 16618 16619 16620 16621 16622 16623 16624 16625 16626 16627 16628 16629 16630 16631 16632 16633 16634 16635 16636 16637 16638 16639 16640 16641 16642 16643 16644 16645 16646 16647 16648 16649 16650 16651 16652 16653 16654 16655 16656 16657 16658 16659 16660 16661 16662 16663 16664 16665 16666 16667 16668 16669 16670 16671 16672 16673 16674 16675 16676 16677 16678 16679 16680 16681 16682 16683 16684 16685 16686 16687 16688 16689 16690 16691 16692 16693 16694 16695 16696 16697 16698 16699 16700 16701 16702 16703 16704 16705 16706 16707 16708 16709 16710 16711 16712 16713 16714 16715 16716 16717 16718 16719 16720 16721 16722 16723 16724 16725 16726 16727 16728 16729 16730 16731 16732 16733 16734 16735 16736 16737 16738 16739 16740 16741 16742 16743 16744 16745 16746 16747 16748 16749 16750 16751 16752 16753 16754 16755 16756 16757 16758 16759 16760 16761 16762 16763 16764 16765 16766 16767 16768 16769 16770 16771 16772 16773 16774 16775 16776 16777 16778 16779 16780 16781 16782 16783 16784 16785 16786 16787 16788 16789 16790 16791 16792 16793 16794 16795 16796 16797 16798 16799 16800 16801 16802 16803 16804 16805 16806 16807 16808 16809 16810 16811 16812 16813 16814 16815 16816 16817 16818 16819 16820 16821 16822 16823 16824 16825 16826 16827 16828 16829 16830 16831 16832 16833 16834 16835 16836 16837 16838 16839 16840 16841 16842 16843 16844 16845 16846 16847 16848 16849 16850 16851 16852 16853 16854 16855 16856 16857 16858 16859 16860 16861 16862 16863 16864 16865 16866 16867 16868 16869 16870 16871 16872 16873 16874 16875 16876 16877 16878 16879 16880 16881 16882 16883 16884 16885 16886 16887 16888 16889 16890 16891 16892 16893 16894 16895 16896 16897 16898 16899 16900 16901 16902 16903 16904 16905 16906 16907 16908 16909 16910 16911 16912 16913 16914 16915 16916 16917 16918 16919 16920 16921 16922 16923 16924 16925 16926 16927 16928 16929 16930 16931 16932 16933 16934 16935 16936 16937 16938 16939 16940 16941 16942 16943 16944 16945 16946 16947 16948 16949 16950 16951 16952 16953 16954 16955 16956 16957 16958 16959 16960 16961 16962 16963 16964 16965 16966 16967 16968 16969 16970 16971 16972 16973 16974 16975 16976 16977 16978 16979 16980 16981 16982 16983 16984 16985 16986 16987 16988 16989 16990 16991 16992 16993 16994 16995 16996 16997 16998 16999 17000 17001 17002 17003 17004 17005 17006 17007 17008 17009 17010 17011 17012 17013 17014 17015 17016 17017 17018 17019 17020 17021 17022 17023 17024 17025 17026 17027 17028 17029 17030 17031 17032 17033 17034 17035 17036 17037 17038 17039 17040 17041 17042 17043 17044 17045 17046 17047 17048 17049 17050 17051 17052 17053 17054 17055 17056 17057 17058 17059 17060 17061 17062 17063 17064 17065 17066 17067 17068 17069 17070 17071 17072 17073 17074 17075 17076 17077 17078 17079 17080 17081 17082 17083 17084 17085 17086 17087 17088 17089 17090 17091 17092 17093 17094 17095 17096 17097 17098 17099 17100 17101 17102 17103 17104 17105 17106 17107 17108 17109 17110 17111 17112 17113 17114 17115 17116 17117 17118 17119 17120 17121 17122 17123 17124 17125 17126 17127 17128 17129 17130 17131 17132 17133 17134 17135 17136 17137 17138 17139 17140 17141 17142 17143 17144 17145 17146 17147 17148 17149 17150 17151 17152 17153 17154 17155 17156 17157 17158 17159 17160 17161 17162 17163 17164 17165 17166 17167 17168 17169 17170 17171 17172 17173 17174 17175 17176 17177 17178 17179 17180 17181 17182 17183 17184 17185 17186 17187 17188 17189 17190 17191 17192 17193 17194 17195 17196 17197 17198 17199 17200 17201 17202 17203 17204 17205 17206 17207 17208 17209 17210 17211 17212 17213 17214 17215 17216 17217 17218 17219 17220 17221 17222 17223 17224 17225 17226 17227 17228 17229 17230 17231 17232 17233 17234 17235 17236 17237 17238 17239 17240 17241 17242 17243 17244 17245 17246 17247 17248 17249 17250 17251 17252 17253 17254 17255 17256 17257 17258 17259 17260 17261 17262 17263 17264 17265 17266 17267 17268 17269 17270 17271 17272 17273 17274 17275 17276 17277 17278 17279 17280 17281 17282 17283 17284 17285 17286 17287 17288 17289 17290 17291 17292 17293 17294 17295 17296 17297 17298 17299 17300 17301 17302 17303 17304 17305 17306 17307 17308 17309 17310 17311 17312 17313 17314 17315 17316 17317 17318 17319 17320 17321 17322 17323 17324 17325 17326 17327 17328 17329 17330 17331 17332 17333 17334 17335 17336 17337 17338 17339 17340 17341 17342 17343 17344 17345 17346 17347 17348 17349 17350 17351 17352 17353 17354 17355 17356 17357 17358 17359 17360 17361 17362 17363 17364 17365 17366 17367 17368 17369 17370 17371 17372 17373 17374 17375 17376 17377 17378 17379 17380 17381 17382 17383 17384 17385 17386 17387 17388 17389 17390 17391 17392 17393 17394 17395 17396 17397 17398 17399 17400 17401 17402 17403 17404 17405 17406 17407 17408 17409 17410 17411 17412 17413 17414 17415 17416 17417 17418 17419 17420 17421 17422 17423 17424 17425 17426 17427 17428 17429 17430 17431 17432 17433 17434 17435 17436 17437 17438 17439 17440 17441 17442 17443 17444 17445 17446 17447 17448 17449 17450 17451 17452 17453 17454 17455 17456 17457 17458 17459 17460 17461 17462 17463 17464 17465 17466 17467 17468 17469 17470 17471 17472 17473 17474 17475 17476 17477 17478 17479 17480 17481 17482 17483 17484 17485 17486 17487 17488 17489 17490 17491 17492 17493 17494 17495 17496 17497 17498 17499 17500 17501 17502 17503 17504 17505 17506 17507 17508 17509 17510 17511 17512 17513 17514 17515 17516 17517 17518 17519 17520 17521 17522 17523 17524 17525 17526 17527 17528 17529 17530 17531 17532 17533 17534 17535 17536 17537 17538 17539 17540 17541 17542 17543 17544 17545 17546 17547 17548 17549 17550 17551 17552 17553 17554 17555 17556 17557 17558 17559 17560 17561 17562 17563 17564 17565 17566 17567 17568 17569 17570 17571 17572 17573 17574 17575 17576 17577 17578 17579 17580 17581 17582 17583 17584 17585 17586 17587 17588 17589 17590 17591 17592 17593 17594 17595 17596 17597 17598 17599 17600 17601 17602 17603 17604 17605 17606 17607 17608 17609 17610 17611 17612 17613 17614 17615 17616 17617 17618 17619 17620 17621 17622 17623 17624 17625 17626 17627 17628 17629 17630 17631 17632 17633 17634 17635 17636 17637 17638 17639 17640 17641 17642 17643 17644 17645 17646 17647 17648 17649 17650 17651 17652 17653 17654 17655 17656 17657 17658 17659 17660 17661 17662 17663 17664 17665 17666 17667 17668 17669 17670 17671 17672 17673 17674 17675 17676 17677 17678 17679 17680 17681 17682 17683 17684 17685 17686 17687 17688 17689 17690 17691 17692 17693 17694 17695 17696 17697 17698 17699 17700 17701 17702 17703 17704 17705 17706 17707 17708 17709 17710 17711 17712 17713 17714 17715 17716 17717 17718 17719 17720 17721 17722 17723 17724 17725 17726 17727 17728 17729 17730 17731 17732 17733 17734 17735 17736 17737 17738 17739 17740 17741 17742 17743 17744 17745 17746 17747 17748 17749 17750 17751 17752 17753 17754 17755 17756 17757 17758 17759 17760 17761 17762 17763 17764 17765 17766 17767 17768 17769 17770 17771 17772 17773 17774 17775 17776 17777 17778 17779 17780 17781 17782 17783 17784 17785 17786 17787 17788 17789 17790 17791 17792 17793 17794 17795 17796 17797 17798 17799 17800 17801 17802 17803 17804 17805 17806 17807 17808 17809 17810 17811 17812 17813 17814 17815 17816 17817 17818 17819 17820 17821 17822 17823 17824 17825 17826 17827 17828 17829 17830 17831 17832 17833 17834 17835 17836 17837 17838 17839 17840 17841 17842 17843 17844 17845 17846 17847 17848 17849 17850 17851 17852 17853 17854 17855 17856 17857 17858 17859 17860 17861 17862 17863 17864 17865 17866 17867 17868 17869 17870 17871 17872 17873 17874 17875 17876 17877 17878 17879 17880 17881 17882 17883 17884 17885 17886 17887 17888 17889 17890 17891 17892 17893 17894 17895 17896 17897 17898 17899 17900 17901 17902 17903 17904 17905 17906 17907 17908 17909 17910 17911 17912 17913 17914 17915 17916 17917 17918 17919 17920 17921 17922 17923 17924 17925 17926 17927 17928 17929 17930 17931 17932 17933 17934 17935 17936 17937 17938 17939 17940 17941 17942 17943 17944 17945 17946 17947 17948 17949 17950 17951 17952 17953 17954 17955 17956 17957 17958 17959 17960 17961 17962 17963 17964 17965 17966 17967 17968 17969 17970 17971 17972 17973 17974 17975 17976 17977 17978 17979 17980 17981 17982 17983 17984 17985 17986 17987 17988 17989 17990 17991 17992 17993 17994 17995 17996 17997 17998 17999 18000 18001 18002 18003 18004 18005 18006 18007 18008 18009 18010 18011 18012 18013 18014 18015 18016 18017 18018 18019 18020 18021 18022 18023 18024 18025 18026 18027 18028 18029 18030 18031 18032 18033 18034 18035 18036 18037 18038 18039 18040 18041 18042 18043 18044 18045 18046 18047 18048 18049 18050 18051 18052 18053 18054 18055 18056 18057 18058 18059 18060 18061 18062 18063 18064 18065 18066 18067 18068 18069 18070 18071 18072 18073 18074 18075 18076 18077 18078 18079 18080 18081 18082 18083 18084 18085 18086 18087 18088 18089 18090 18091 18092 18093 18094 18095 18096 18097 18098 18099 18100 18101 18102 18103 18104 18105 18106 18107 18108 18109 18110 18111 18112 18113 18114 18115 18116 18117 18118 18119 18120 18121 18122 18123 18124 18125 18126 18127 18128 18129 18130 18131 18132 18133 18134 18135 18136 18137 18138 18139 18140 18141 18142 18143 18144 18145 18146 18147 18148 18149 18150 18151 18152 18153 18154 18155 18156 18157 18158 18159 18160 18161 18162 18163 18164 18165 18166 18167 18168 18169 18170 18171 18172 18173 18174 18175 18176 18177 18178 18179 18180 18181 18182 18183 18184 18185 18186 18187 18188 18189 18190 18191 18192 18193 18194 18195 18196 18197 18198 18199 18200 18201 18202 18203 18204 18205 18206 18207 18208 18209 18210 18211 18212 18213 18214 18215 18216 18217 18218 18219 18220 18221 18222 18223 18224 18225 18226 18227 18228 18229 18230 18231 18232 18233 18234 18235 18236 18237 18238 18239 18240 18241 18242 18243 18244 18245 18246 18247 18248 18249 18250 18251 18252 18253 18254 18255 18256 18257 18258 18259 18260 18261 18262 18263 18264 18265 18266 18267 18268 18269 18270 18271 18272 18273 18274 18275 18276 18277 18278 18279 18280 18281 18282 18283 18284 18285 18286 18287 18288 18289 18290 18291 18292 18293 18294 18295 18296 18297 18298 18299 18300 18301 18302 18303 18304 18305 18306 18307 18308 18309 18310 18311 18312 18313 18314 18315 18316 18317 18318 18319 18320 18321 18322 18323 18324 18325 18326 18327 18328 18329 18330 18331 18332 18333 18334 18335 18336 18337 18338 18339 18340 18341 18342 18343 18344 18345 18346 18347 18348 18349 18350 18351 18352 18353 18354 18355 18356 18357 18358 18359 18360 18361 18362 18363 18364 18365 18366 18367 18368 18369 18370 18371 18372 18373 18374 18375 18376 18377 18378 18379 18380 18381 18382 18383 18384 18385 18386 18387 18388 18389 18390 18391 18392 18393 18394 18395 18396 18397 18398 18399 18400 18401 18402 18403 18404 18405 18406 18407 18408 18409 18410 18411 18412 18413 18414 18415 18416 18417 18418 18419 18420 18421 18422 18423 18424 18425 18426 18427 18428 18429 18430 18431 18432 18433 18434 18435 18436 18437 18438 18439 18440 18441 18442 18443 18444 18445 18446 18447 18448 18449 18450 18451 18452 18453 18454 18455 18456 18457 18458 18459 18460 18461 18462 18463 18464 18465 18466 18467 18468 18469 18470 18471 18472 18473 18474 18475 18476 18477 18478 18479 18480 18481 18482 18483 18484 18485 18486 18487 18488 18489 18490 18491 18492 18493 18494 18495 18496 18497 18498 18499 18500 18501 18502 18503 18504 18505 18506 18507 18508 18509 18510 18511 18512 18513 18514 18515 18516 18517 18518 18519 18520 18521 18522 18523 18524 18525 18526 18527 18528 18529 18530 18531 18532 18533 18534 18535 18536 18537 18538 18539 18540 18541 18542 18543 18544 18545 18546 18547 18548 18549 18550 18551 18552 18553 18554 18555 18556 18557 18558 18559 18560 18561 18562 18563 18564 18565 18566 18567 18568 18569 18570 18571 18572 18573 18574 18575 18576 18577 18578 18579 18580 18581 18582 18583 18584 18585 18586 18587 18588 18589 18590 18591 18592 18593 18594 18595 18596 18597 18598 18599 18600 18601 18602 18603 18604 18605 18606 18607 18608 18609 18610 18611 18612 18613 18614 18615 18616 18617 18618 18619 18620 18621 18622 18623 18624 18625 18626 18627 18628 18629 18630 18631 18632 18633 18634 18635 18636 18637 18638 18639 18640 18641 18642 18643 18644 18645 18646 18647 18648 18649 18650 18651 18652 18653 18654 18655 18656 18657 18658 18659 18660 18661 18662 18663 18664 18665 18666 18667 18668 18669 18670 18671 18672 18673 18674 18675 18676 18677 18678 18679 18680 18681 18682 18683 18684 18685 18686 18687 18688 18689 18690 18691 18692 18693 18694 18695 18696 18697 18698 18699 18700 18701 18702 18703 18704 18705 18706 18707 18708 18709 18710 18711 18712 18713 18714 18715 18716 18717 18718 18719 18720 18721 18722 18723 18724 18725 18726 18727 18728 18729 18730 18731 18732 18733 18734 18735 18736 18737 18738 18739 18740 18741 18742 18743 18744 18745 18746 18747 18748 18749 18750 18751 18752 18753 18754 18755 18756 18757 18758 18759 18760 18761 18762 18763 18764 18765 18766 18767 18768 18769 18770 18771 18772 18773 18774 18775 18776 18777 18778 18779 18780 18781 18782 18783 18784 18785 18786 18787 18788 18789 18790 18791 18792 18793 18794 18795 18796 18797 18798 18799 18800 18801 18802 18803 18804 18805 18806 18807 18808 18809 18810 18811 18812 18813 18814 18815 18816 18817 18818 18819 18820 18821 18822 18823 18824 18825 18826 18827 18828 18829 18830 18831 18832 18833 18834 18835 18836 18837 18838 18839 18840 18841 18842 18843 18844 18845 18846 18847 18848 18849 18850 18851 18852 18853 18854 18855 18856 18857 18858 18859 18860 18861 18862 18863 18864 18865 18866 18867 18868 18869 18870 18871 18872 18873 18874 18875 18876 18877 18878 18879 18880 18881 18882 18883 18884 18885 18886 18887 18888 18889 18890 18891 18892 18893 18894 18895 18896 18897 18898 18899 18900 18901 18902 18903 18904 18905 18906 18907 18908 18909 18910 18911 18912 18913 18914 18915 18916 18917 18918 18919 18920 18921 18922 18923 18924 18925 18926 18927 18928 18929 18930 18931 18932 18933 18934 18935 18936 18937 18938 18939 18940 18941 18942 18943 18944 18945 18946 18947 18948 18949 18950 18951 18952 18953 18954 18955 18956 18957 18958 18959 18960 18961 18962 18963 18964 18965 18966 18967 18968 18969 18970 18971 18972 18973 18974 18975 18976 18977 18978 18979 18980 18981 18982 18983 18984 18985 18986 18987 18988 18989 18990 18991 18992 18993 18994 18995 18996 18997 18998 18999 19000 19001 19002 19003 19004 19005 19006 19007 19008 19009 19010 19011 19012 19013 19014 19015 19016 19017 19018 19019 19020 19021 19022 19023 19024 19025 19026 19027 19028 19029 19030 19031 19032 19033 19034 19035 19036 19037 19038 19039 19040 19041 19042 19043 19044 19045 19046 19047 19048 19049 19050 19051 19052 19053 19054 19055 19056 19057 19058 19059 19060 19061 19062 19063 19064 19065 19066 19067 19068 19069 19070 19071 19072 19073 19074 19075 19076 19077 19078 19079 19080 19081 19082 19083 19084 19085 19086 19087 19088 19089 19090 19091 19092 19093 19094 19095 19096 19097 19098 19099 19100 19101 19102 19103 19104 19105 19106 19107 19108 19109 19110 19111 19112 19113 19114 19115 19116 19117 19118 19119 19120 19121 19122 19123 19124 19125 19126 19127 19128 19129 19130 19131 19132 19133 19134 19135 19136 19137 19138 19139 19140 19141 19142 19143 19144 19145 19146 19147 19148 19149 19150 19151 19152 19153 19154 19155 19156 19157 19158 19159 19160 19161 19162 19163 19164 19165 19166 19167 19168 19169 19170 19171 19172 19173 19174 19175 19176 19177 19178 19179 19180 19181 19182 19183 19184 19185 19186 19187 19188 19189 19190 19191 19192 19193 19194 19195 19196 19197 19198 19199 19200 19201 19202 19203 19204 19205 19206 19207 19208 19209 19210 19211 19212 19213 19214 19215 19216 19217 19218 19219 19220 19221 19222 19223 19224 19225 19226 19227 19228 19229 19230 19231 19232 19233 19234 19235 19236 19237 19238 19239 19240 19241 19242 19243 19244 19245 19246 19247 19248 19249 19250 19251 19252 19253 19254 19255 19256 19257 19258 19259 19260 19261 19262 19263 19264 19265 19266 19267 19268 19269 19270 19271 19272 19273 19274 19275 19276 19277 19278 19279 19280 19281 19282 19283 19284 19285 19286 19287 19288 19289 19290 19291 19292 19293 19294 19295 19296 19297 19298 19299 19300 19301 19302 19303 19304 19305 19306 19307 19308 19309 19310 19311 19312 19313 19314 19315 19316 19317 19318 19319 19320 19321 19322 19323 19324 19325 19326 19327 19328 19329 19330 19331 19332 19333 19334 19335 19336 19337 19338 19339 19340 19341 19342 19343 19344 19345 19346 19347 19348 19349 19350 19351 19352 19353 19354 19355 19356 19357 19358 19359 19360 19361 19362 19363 19364 19365 19366 19367 19368 19369 19370 19371 19372 19373 19374 19375 19376 19377 19378 19379 19380 19381 19382 19383 19384 19385 19386 19387 19388 19389 19390 19391 19392 19393 19394 19395 19396 19397 19398 19399 19400 19401 19402 19403 19404 19405 19406 19407 19408 19409 19410 19411 19412 19413 19414 19415 19416 19417 19418 19419 19420 19421 19422 19423 19424 19425 19426 19427 19428 19429 19430 19431 19432 19433 19434 19435 19436 19437 19438 19439 19440 19441 19442 19443 19444 19445 19446 19447 19448 19449 19450 19451 19452 19453 19454 19455 19456 19457 19458 19459 19460 19461 19462 19463 19464 19465 19466 19467 19468 19469 19470 19471 19472 19473 19474 19475 19476 19477 19478 19479 19480 19481 19482 19483 19484 19485 19486 19487 19488 19489 19490 19491 19492 19493 19494 19495 19496 19497 19498 19499 19500 19501 19502 19503 19504 19505 19506 19507 19508 19509 19510 19511 19512 19513 19514 19515 19516 19517 19518 19519 19520 19521 19522 19523 19524 19525 19526 19527 19528 19529 19530 19531 19532 19533 19534 19535 19536 19537 19538 19539 19540 19541 19542 19543 19544 19545 19546 19547 19548 19549 19550 19551 19552 19553 19554 19555 19556 19557 19558 19559 19560 19561 19562 19563 19564 19565 19566 19567 19568 19569 19570 19571 19572 19573 19574 19575 19576 19577 19578 19579 19580 19581 19582 19583 19584 19585 19586 19587 19588 19589 19590 19591 19592 19593 19594 19595 19596 19597 19598 19599 19600 19601 19602 19603 19604 19605 19606 19607 19608 19609 19610 19611 19612 19613 19614 19615 19616 19617 19618 19619 19620 19621 19622 19623 19624 19625 19626 19627 19628 19629 19630 19631 19632 19633 19634 19635 19636 19637 19638 19639 19640 19641 19642 19643 19644 19645 19646 19647 19648 19649 19650 19651 19652 19653 19654 19655 19656 19657 19658 19659 19660 19661 19662 19663 19664 19665 19666 19667 19668 19669 19670 19671 19672 19673 19674 19675 19676 19677 19678 19679 19680 19681 19682 19683 19684 19685 19686 19687 19688 19689 19690 19691 19692 19693 19694 19695 19696 19697 19698 19699 19700 19701 19702 19703 19704 19705 19706 19707 19708 19709 19710 19711 19712 19713 19714 19715 19716 19717 19718 19719 19720 19721 19722 19723 19724 19725 19726 19727 19728 19729 19730 19731 19732 19733 19734 19735 19736 19737 19738 19739 19740 19741 19742 19743 19744 19745 19746 19747 19748 19749 19750 19751 19752 19753 19754 19755 19756 19757 19758 19759 19760 19761 19762 19763 19764 19765 19766 19767 19768 19769 19770 19771 19772 19773 19774 19775 19776 19777 19778 19779 19780 19781 19782 19783 19784 19785 19786 19787 19788 19789 19790 19791 19792 19793 19794 19795 19796 19797 19798 19799 19800 19801 19802 19803 19804 19805 19806 19807 19808 19809 19810 19811 19812 19813 19814 19815 19816 19817 19818 19819 19820 19821 19822 19823 19824 19825 19826 19827 19828 19829 19830 19831 19832 19833 19834 19835 19836 19837 19838 19839 19840 19841 19842 19843 19844 19845 19846 19847 19848 19849 19850 19851 19852 19853 19854 19855 19856 19857 19858 19859 19860 19861 19862 19863 19864 19865 19866 19867 19868 19869 19870 19871 19872 19873 19874 19875 19876 19877 19878 19879 19880 19881 19882 19883 19884 19885 19886 19887 19888 19889 19890 19891 19892 19893 19894 19895 19896 19897 19898 19899 19900 19901 19902 19903 19904 19905 19906 19907 19908 19909 19910 19911 19912 19913 19914 19915 19916 19917 19918 19919 19920 19921 19922 19923 19924 19925 19926 19927 19928 19929 19930 19931 19932 19933 19934 19935 19936 19937 19938 19939 19940 19941 19942 19943 19944 19945 19946 19947 19948 19949 19950 19951 19952 19953 19954 19955 19956 19957 19958 19959 19960 19961 19962 19963 19964 19965 19966 19967 19968 19969 19970 19971 19972 19973 19974 19975 19976 19977 19978 19979 19980 19981 19982 19983 19984 19985 19986 19987 19988 19989 19990 19991 19992 19993 19994 19995 19996 19997 19998 19999 20000 20001 20002 20003 20004 20005 20006 20007 20008 20009 20010 20011 20012 20013 20014 20015 20016 20017 20018 20019 20020 20021 20022 20023 20024 20025 20026 20027 20028 20029 20030 20031 20032 20033 20034 20035 20036 20037 20038 20039 20040 20041 20042 20043 20044 20045 20046 20047 20048 20049 20050 20051 20052 20053 20054 20055 20056 20057 20058 20059 20060 20061 20062 20063 20064 20065 20066 20067 20068 20069 20070 20071 20072 20073 20074 20075 20076 20077 20078 20079 20080 20081 20082 20083 20084 20085 20086 20087 20088 20089 20090 20091 20092 20093 20094 20095 20096 20097 20098 20099 20100 20101 20102 20103 20104 20105 20106 20107 20108 20109 20110 20111 20112 20113 20114 20115 20116 20117 20118 20119 20120 20121 20122 20123 20124 20125 20126 20127 20128 20129 20130 20131 20132 20133 20134 20135 20136 20137 20138 20139 20140 20141 20142 20143 20144 20145 20146 20147 20148 20149 20150 20151 20152 20153 20154 20155 20156 20157 20158 20159 20160 20161 20162 20163 20164 20165 20166 20167 20168 20169 20170 20171 20172 20173 20174 20175 20176 20177 20178 20179 20180 20181 20182 20183 20184 20185 20186 20187 20188 20189 20190 20191 20192 20193 20194 20195 20196 20197 20198 20199 20200 20201 20202 20203 20204 20205 20206 20207 20208 20209 20210 20211 20212 20213 20214 20215 20216 20217 20218 20219 20220 20221 20222 20223 20224 20225 20226 20227 20228 20229 20230 20231 20232 20233 20234 20235 20236 20237 20238 20239 20240 20241 20242 20243 20244 20245 20246 20247 20248 20249 20250 20251 20252 20253 20254 20255 20256 20257 20258 20259 20260 20261 20262 20263 20264 20265 20266 20267 20268 20269 20270 20271 20272 20273 20274 20275 20276 20277 20278 20279 20280 20281 20282 20283 20284 20285 20286 20287 20288 20289 20290 20291 20292 20293 20294 20295 20296 20297 20298 20299 20300 20301 20302 20303 20304 20305 20306 20307 20308 20309 20310 20311 20312 20313 20314 20315 20316 20317 20318 20319 20320 20321 20322 20323 20324 20325 20326 20327 20328 20329 20330 20331 20332 20333 20334 20335 20336 20337 20338 20339 20340 20341 20342 20343 20344 20345 20346 20347 20348 20349 20350 20351 20352 20353 20354 20355 20356 20357 20358 20359 20360 20361 20362 20363 20364 20365 20366 20367 20368 20369 20370 20371 20372 20373 20374 20375 20376 20377 20378 20379 20380 20381 20382 20383 20384 20385 20386 20387 20388 20389 20390 20391 20392 20393 20394 20395 20396 20397 20398 20399 20400 20401 20402 20403 20404 20405 20406 20407 20408 20409 20410 20411 20412 20413 20414 20415 20416 20417 20418 20419 20420 20421 20422 20423 20424 20425 20426 20427 20428 20429 20430 20431 20432 20433 20434 20435 20436 20437 20438 20439 20440 20441 20442 20443 20444 20445 20446 20447 20448 20449 20450 20451 20452 20453 20454 20455 20456 20457 20458 20459 20460 20461 20462 20463 20464 20465 20466 20467 20468 20469 20470 20471 20472 20473 20474 20475 20476 20477 20478 20479 20480 20481 20482 20483 20484 20485 20486 20487 20488 20489 20490 20491 20492 20493 20494 20495 20496 20497 20498 20499 20500 20501 20502 20503 20504 20505 20506 20507 20508 20509 20510 20511 20512 20513 20514 20515 20516 20517 20518 20519 20520 20521 20522 20523 20524 20525 20526 20527 20528 20529 20530 20531 20532 20533 20534 20535 20536 20537 20538 20539 20540 20541 20542 20543 20544 20545 20546 20547 20548 20549 20550 20551 20552 20553 20554 20555 20556 20557 20558 20559 20560 20561 20562 20563 20564 20565 20566 20567 20568 20569 20570 20571 20572 20573 20574 20575 20576 20577 20578 20579 20580 20581 20582 20583 20584 20585 20586 20587 20588 20589 20590 20591 20592 20593 20594 20595 20596 20597 20598 20599 20600 20601 20602 20603 20604 20605 20606 20607 20608 20609 20610 20611 20612 20613 20614 20615 20616 20617 20618 20619 20620 20621 20622 20623 20624 20625 20626 20627 20628 20629 20630 20631 20632 20633 20634 20635 20636 20637 20638 20639 20640 20641 20642 20643 20644 20645 20646 20647 20648 20649 20650 20651 20652 20653 20654 20655 20656 20657 20658 20659 20660 20661 20662 20663 20664 20665 20666 20667 20668 20669 20670 20671 20672 20673 20674 20675 20676 20677 20678 20679 20680 20681 20682 20683 20684 20685 20686 20687 20688 20689 20690 20691 20692 20693 20694 20695 20696 20697 20698 20699 20700 20701 20702 20703 20704 20705 20706 20707 20708 20709 20710 20711 20712 20713 20714 20715 20716 20717 20718 20719 20720 20721 20722 20723 20724 20725 20726 20727 20728 20729 20730 20731 20732 20733 20734 20735 20736 20737 20738 20739 20740 20741 20742 20743 20744 20745 20746 20747 20748 20749 20750 20751 20752 20753 20754 20755 20756 20757 20758 20759 20760 20761 20762 20763 20764 20765 20766 20767 20768 20769 20770 20771 20772 20773 20774 20775 20776 20777 20778 20779 20780 20781 20782 20783 20784 20785 20786 20787 20788 20789 20790 20791 20792 20793 20794 20795 20796 20797 20798 20799 20800 20801 20802 20803 20804 20805 20806 20807 20808 20809 20810 20811 20812 20813 20814 20815 20816 20817 20818 20819 20820 20821 20822 20823 20824 20825 20826 20827 20828 20829 20830 20831 20832 20833 20834 20835 20836 20837 20838 20839 20840 20841 20842 20843 20844 20845 20846 20847 20848 20849 20850 20851 20852 20853 20854 20855 20856 20857 20858 20859 20860 20861 20862 20863 20864 20865 20866 20867 20868 20869 20870 20871 20872 20873 20874 20875 20876 20877 20878 20879 20880 20881 20882 20883 20884 20885 20886 20887 20888 20889 20890 20891 20892 20893 20894 20895 20896 20897 20898 20899 20900 20901 20902 20903 20904 20905 20906 20907 20908 20909 20910 20911 20912 20913 20914 20915 20916 20917 20918 20919 20920 20921 20922 20923 20924 20925 20926 20927 20928 20929 20930 20931 20932 20933 20934 20935 20936 20937 20938 20939 20940 20941 20942 20943 20944 20945 20946 20947 20948 20949 20950 20951 20952 20953 20954 20955 20956 20957 20958 20959 20960 20961 20962 20963 20964 20965 20966 20967 20968 20969 20970 20971 20972 20973 20974 20975 20976 20977 20978 20979 20980 20981 20982 20983 20984 20985 20986 20987 20988 20989 20990 20991 20992 20993 20994 20995 20996 20997 20998 20999 21000 21001 21002 21003 21004 21005 21006 21007 21008 21009 21010 21011 21012 21013 21014 21015 21016 21017 21018 21019 21020 21021 21022 21023 21024 21025 21026 21027 21028 21029 21030 21031 21032 21033 21034 21035 21036 21037 21038 21039 21040 21041 21042 21043 21044 21045 21046 21047 21048 21049 21050 21051 21052 21053 21054 21055 21056 21057 21058 21059 21060 21061 21062 21063 21064 21065 21066 21067 21068 21069 21070 21071 21072 21073 21074 21075 21076 21077 21078 21079 21080 21081 21082 21083 21084 21085 21086 21087 21088 21089 21090 21091 21092 21093 21094 21095 21096 21097 21098 21099 21100 21101 21102 21103 21104 21105 21106 21107 21108 21109 21110 21111 21112 21113 21114 21115 21116 21117 21118 21119 21120 21121 21122 21123 21124 21125 21126 21127 21128 21129 21130 21131 21132 21133 21134 21135 21136 21137 21138 21139 21140 21141 21142 21143 21144 21145 21146 21147 21148 21149 21150 21151 21152 21153 21154 21155 21156 21157 21158 21159 21160 21161 21162 21163 21164 21165 21166 21167 21168 21169 21170 21171 21172 21173 21174 21175 21176 21177 21178 21179 21180 21181 21182 21183 21184 21185 21186 21187 21188 21189 21190 21191 21192 21193 21194 21195 21196 21197 21198 21199 21200 21201 21202 21203 21204 21205 21206 21207 21208 21209 21210 21211 21212 21213 21214 21215 21216 21217 21218 21219 21220 21221 21222 21223 21224 21225 21226 21227 21228 21229 21230 21231 21232 21233 21234 21235 21236 21237 21238 21239 21240 21241 21242 21243 21244 21245 21246 21247 21248 21249 21250 21251 21252 21253 21254 21255 21256 21257 21258 21259 21260 21261 21262 21263 21264 21265 21266 21267 21268 21269 21270 21271 21272 21273 21274 21275 21276 21277 21278 21279 21280 21281 21282 21283 21284 21285 21286 21287 21288 21289 21290 21291 21292 21293 21294 21295 21296 21297 21298 21299 21300 21301 21302 21303 21304 21305 21306 21307 21308 21309 21310 21311 21312 21313 21314 21315 21316 21317 21318 21319 21320 21321 21322 21323 21324 21325 21326 21327 21328 21329 21330 21331 21332 21333 21334 21335 21336 21337 21338 21339 21340 21341 21342 21343 21344 21345 21346 21347 21348 21349 21350 21351 21352 21353 21354 21355 21356 21357 21358 21359 21360 21361 21362 21363 21364 21365 21366 21367 21368 21369 21370 21371 21372 21373 21374 21375 21376 21377 21378 21379 21380 21381 21382 21383 21384 21385 21386 21387 21388 21389 21390 21391 21392 21393 21394 21395 21396 21397 21398 21399 21400 21401 21402 21403 21404 21405 21406 21407 21408 21409 21410 21411 21412 21413 21414 21415 21416 21417 21418 21419 21420 21421 21422 21423 21424 21425 21426 21427 21428 21429 21430 21431 21432 21433 21434 21435 21436 21437 21438 21439 21440 21441 21442 21443 21444 21445 21446 21447 21448 21449 21450 21451 21452 21453 21454 21455 21456 21457 21458 21459 21460 21461 21462 21463 21464 21465 21466 21467 21468 21469 21470 21471 21472 21473 21474 21475 21476 21477 21478 21479 21480 21481 21482 21483 21484 21485 21486 21487 21488 21489 21490 21491 21492 21493 21494 21495 21496 21497 21498 21499 21500 21501 21502 21503 21504 21505 21506 21507 21508 21509 21510 21511 21512 21513 21514 21515 21516 21517 21518 21519 21520 21521 21522 21523 21524 21525 21526 21527 21528 21529 21530 21531 21532 21533 21534 21535 21536 21537 21538 21539 21540 21541 21542 21543 21544 21545 21546 21547 21548 21549 21550 21551 21552 21553 21554 21555 21556 21557 21558 21559 21560 21561 21562 21563 21564 21565 21566 21567 21568 21569 21570 21571 21572 21573 21574 21575 21576 21577 21578 21579 21580 21581 21582 21583 21584 21585 21586 21587 21588 21589 21590 21591 21592 21593 21594 21595 21596 21597 21598 21599 21600 21601 21602 21603 21604 21605 21606 21607 21608 21609 21610 21611 21612 21613 21614 21615 21616 21617 21618 21619 21620 21621 21622 21623 21624 21625 21626 21627 21628 21629 21630 21631 21632 21633 21634 21635 21636 21637 21638 21639 21640 21641 21642 21643 21644 21645 21646 21647 21648 21649 21650 21651 21652 21653 21654 21655 21656 21657 21658 21659 21660 21661 21662 21663 21664 21665 21666 21667 21668 21669 21670 21671 21672 21673 21674 21675 21676 21677 21678 21679 21680 21681 21682 21683 21684 21685 21686 21687 21688 21689 21690 21691 21692 21693 21694 21695 21696 21697 21698 21699 21700 21701 21702 21703 21704 21705 21706 21707 21708 21709 21710 21711 21712 21713 21714 21715 21716 21717 21718 21719 21720 21721 21722 21723 21724 21725 21726 21727 21728 21729 21730 21731 21732 21733 21734 21735 21736 21737 21738 21739 21740 21741 21742 21743 21744 21745 21746 21747 21748 21749 21750 21751 21752 21753 21754 21755 21756 21757 21758 21759 21760 21761 21762 21763 21764 21765 21766 21767 21768 21769 21770 21771 21772 21773 21774 21775 21776 21777 21778 21779 21780 21781 21782 21783 21784 21785 21786 21787 21788 21789 21790 21791 21792 21793 21794 21795 21796 21797 21798 21799 21800 21801 21802 21803 21804 21805 21806 21807 21808 21809 21810 21811 21812 21813 21814 21815 21816 21817 21818 21819 21820 21821 21822 21823 21824 21825 21826 21827 21828 21829 21830 21831 21832 21833 21834 21835 21836 21837 21838 21839 21840 21841 21842 21843 21844 21845 21846 21847 21848 21849 21850 21851 21852 21853 21854 21855 21856 21857 21858 21859 21860 21861 21862 21863 21864 21865 21866 21867 21868 21869 21870 21871 21872 21873 21874 21875 21876 21877 21878 21879 21880 21881 21882 21883 21884 21885 21886 21887 21888 21889 21890 21891 21892 21893 21894 21895 21896 21897 21898 21899 21900 21901 21902 21903 21904 21905 21906 21907 21908 21909 21910 21911 21912 21913 21914 21915 21916 21917 21918 21919 21920 21921 21922 21923 21924 21925 21926 21927 21928 21929 21930 21931 21932 21933 21934 21935 21936 21937 21938 21939 21940 21941 21942 21943 21944 21945 21946 21947 21948 21949 21950 21951 21952 21953 21954 21955 21956 21957 21958 21959 21960 21961 21962 21963 21964 21965 21966 21967 21968 21969 21970 21971 21972 21973 21974 21975 21976 21977 21978 21979 21980 21981 21982 21983 21984 21985 21986 21987 21988 21989 21990 21991 21992 21993 21994 21995 21996 21997 21998 21999 22000 22001 22002 22003 22004 22005 22006 22007 22008 22009 22010 22011 22012 22013 22014 22015 22016 22017 22018 22019 22020 22021 22022 22023 22024 22025 22026 22027 22028 22029 22030 22031 22032 22033 22034 22035 22036 22037 22038 22039 22040 22041 22042 22043 22044 22045 22046 22047 22048 22049 22050 22051 22052 22053 22054 22055 22056 22057 22058 22059 22060 22061 22062 22063 22064 22065 22066 22067 22068 22069 22070 22071 22072 22073 22074 22075 22076 22077 22078 22079 22080 22081 22082 22083 22084 22085 22086 22087 22088 22089 22090 22091 22092 22093 22094 22095 22096 22097 22098 22099 22100 22101 22102 22103 22104 22105 22106 22107 22108 22109 22110 22111 22112 22113 22114 22115 22116 22117 22118 22119 22120 22121 22122 22123 22124 22125 22126 22127 22128 22129 22130 22131 22132 22133 22134 22135 22136 22137 22138 22139 22140 22141 22142 22143 22144 22145 22146 22147 22148 22149 22150 22151 22152 22153 22154 22155 22156 22157 22158 22159 22160 22161 22162 22163 22164 22165 22166 22167 22168 22169 22170 22171 22172 22173 22174 22175 22176 22177 22178 22179 22180 22181 22182 22183 22184 22185 22186 22187 22188 22189 22190 22191 22192 22193 22194 22195 22196 22197 22198 22199 22200 22201 22202 22203 22204 22205 22206 22207 22208 22209 22210 22211 22212 22213 22214 22215 22216 22217 22218 22219 22220 22221 22222 22223 22224 22225 22226 22227 22228 22229 22230 22231 22232 22233 22234 22235 22236 22237 22238 22239 22240 22241 22242 22243 22244 22245 22246 22247 22248 22249 22250 22251 22252 22253 22254 22255 22256 22257 22258 22259 22260 22261 22262 22263 22264 22265 22266 22267 22268 22269 22270 22271 22272 22273 22274 22275 22276 22277 22278 22279 22280 22281 22282 22283 22284 22285 22286 22287 22288 22289 22290 22291 22292 22293 22294 22295 22296 22297 22298 22299 22300 22301 22302 22303 22304 22305 22306 22307 22308 22309 22310 22311 22312 22313 22314 22315 22316 22317 22318 22319 22320 22321 22322 22323 22324 22325 22326 22327 22328 22329 22330 22331 22332 22333 22334 22335 22336 22337 22338 22339 22340 22341 22342 22343 22344 22345 22346 22347 22348 22349 22350 22351 22352 22353 22354 22355 22356 22357 22358 22359 22360 22361 22362 22363 22364 22365 22366 22367 22368 22369 22370 22371 22372 22373 22374 22375 22376 22377 22378 22379 22380 22381 22382 22383 22384 22385 22386 22387 22388 22389 22390 22391 22392 22393 22394 22395 22396 22397 22398 22399 22400 22401 22402 22403 22404 22405 22406 22407 22408 22409 22410 22411 22412 22413 22414 22415 22416 22417 22418 22419 22420 22421 22422 22423 22424 22425 22426 22427 22428 22429 22430 22431 22432 22433 22434 22435 22436 22437 22438 22439 22440 22441 22442 22443 22444 22445 22446 22447 22448 22449 22450 22451 22452 22453 22454 22455 22456 22457 22458 22459 22460 22461 22462 22463 22464 22465 22466 22467 22468 22469 22470 22471 22472 22473 22474 22475 22476 22477 22478 22479 22480 22481 22482 22483 22484 22485 22486 22487 22488 22489 22490 22491 22492 22493 22494 22495 22496 22497 22498 22499 22500 22501 22502 22503 22504 22505 22506 22507 22508 22509 22510 22511 22512 22513 22514 22515 22516 22517 22518 22519 22520 22521 22522 22523 22524 22525 22526 22527 22528 22529 22530 22531 22532 22533 22534 22535 22536 22537 22538 22539 22540 22541 22542 22543 22544 22545 22546 22547 22548 22549 22550 22551 22552 22553 22554 22555 22556 22557 22558 22559 22560 22561 22562 22563 22564 22565 22566 22567 22568 22569 22570 22571 22572 22573 22574 22575 22576 22577 22578 22579 22580 22581 22582 22583 22584 22585 22586 22587 22588 22589 22590 22591 22592 22593 22594 22595 22596 22597 22598 22599 22600 22601 22602 22603 22604 22605 22606 22607 22608 22609 22610 22611 22612 22613 22614 22615 22616 22617 22618 22619 22620 22621 22622 22623 22624 22625 22626 22627 22628 22629 22630 22631 22632 22633 22634 22635 22636 22637 22638 22639 22640 22641 22642 22643 22644 22645 22646 22647 22648 22649 22650 22651 22652 22653 22654 22655 22656 22657 22658 22659 22660 22661 22662 22663 22664 22665 22666 22667 22668 22669 22670 22671 22672 22673 22674 22675 22676 22677 22678 22679 22680 22681 22682 22683 22684 22685 22686 22687 22688 22689 22690 22691 22692 22693 22694 22695 22696 22697 22698 22699 22700 22701 22702 22703 22704 22705 22706 22707 22708 22709 22710 22711 22712 22713 22714 22715 22716 22717 22718 22719 22720 22721 22722 22723 22724 22725 22726 22727 22728 22729 22730 22731 22732 22733 22734 22735 22736 22737 22738 22739 22740 22741 22742 22743 22744 22745 22746 22747 22748 22749 22750 22751 22752 22753 22754 22755 22756 22757 22758 22759 22760 22761 22762 22763 22764 22765 22766 22767 22768 22769 22770 22771 22772 22773 22774 22775 22776 22777 22778 22779 22780 22781 22782 22783 22784 22785 22786 22787 22788 22789 22790 22791 22792 22793 22794 22795 22796 22797 22798 22799 22800 22801 22802 22803 22804 22805 22806 22807 22808 22809 22810 22811 22812 22813 22814 22815 22816 22817 22818 22819 22820 22821 22822 22823 22824 22825 22826 22827 22828 22829 22830 22831 22832 22833 22834 22835 22836 22837 22838 22839 22840 22841 22842 22843 22844 22845 22846 22847 22848 22849 22850 22851 22852 22853 22854 22855 22856 22857 22858 22859 22860 22861 22862 22863 22864 22865 22866 22867 22868 22869 22870 22871 22872 22873 22874 22875 22876 22877 22878 22879 22880 22881 22882 22883 22884 22885 22886 22887 22888 22889 22890 22891 22892 22893 22894 22895 22896 22897 22898 22899 22900 22901 22902 22903 22904 22905 22906 22907 22908 22909 22910 22911 22912 22913 22914 22915 22916 22917 22918 22919 22920 22921 22922 22923 22924 22925 22926 22927 22928 22929 22930 22931 22932 22933 22934 22935 22936 22937 22938 22939 22940 22941 22942 22943 22944 22945 22946 22947 22948 22949 22950 22951 22952 22953 22954 22955 22956 22957 22958 22959 22960 22961 22962 22963 22964 22965 22966 22967 22968 22969 22970 22971 22972 22973 22974 22975 22976 22977 22978 22979 22980 22981 22982 22983 22984 22985 22986 22987 22988 22989 22990 22991 22992 22993 22994 22995 22996 22997 22998 22999 23000 23001 23002 23003 23004 23005 23006 23007 23008 23009 23010 23011 23012 23013 23014 23015 23016 23017 23018 23019 23020 23021 23022 23023 23024 23025 23026 23027 23028 23029 23030 23031 23032 23033 23034 23035 23036 23037 23038 23039 23040 23041 23042 23043 23044 23045 23046 23047 23048 23049 23050 23051 23052 23053 23054 23055 23056 23057 23058 23059 23060 23061 23062 23063 23064 23065 23066 23067 23068 23069 23070 23071 23072 23073 23074 23075 23076 23077 23078 23079 23080 23081 23082 23083 23084 23085 23086 23087 23088 23089 23090 23091 23092 23093 23094 23095 23096 23097 23098 23099 23100 23101 23102 23103 23104 23105 23106 23107 23108 23109 23110 23111 23112 23113 23114 23115 23116 23117 23118 23119 23120 23121 23122 23123 23124 23125 23126 23127 23128 23129 23130 23131 23132 23133 23134 23135 23136 23137 23138 23139 23140 23141 23142 23143 23144 23145 23146 23147 23148 23149 23150 23151 23152 23153 23154 23155 23156 23157 23158 23159 23160 23161 23162 23163 23164 23165 23166 23167 23168 23169 23170 23171 23172 23173 23174 23175 23176 23177 23178 23179 23180 23181 23182 23183 23184 23185 23186 23187 23188 23189 23190 23191 23192 23193 23194 23195 23196 23197 23198 23199 23200 23201 23202 23203 23204 23205 23206 23207 23208 23209 23210 23211 23212 23213 23214 23215 23216 23217 23218 23219 23220 23221 23222 23223 23224 23225 23226 23227 23228 23229 23230 23231 23232 23233 23234 23235 23236 23237 23238 23239 23240 23241 23242 23243 23244 23245 23246 23247 23248 23249 23250 23251 23252 23253 23254 23255 23256 23257 23258 23259 23260 23261 23262 23263 23264 23265 23266 23267 23268 23269 23270 23271 23272 23273 23274 23275 23276 23277 23278 23279 23280 23281 23282 23283 23284 23285 23286 23287 23288 23289 23290 23291 23292 23293 23294 23295 23296 23297 23298 23299 23300 23301 23302 23303 23304 23305 23306 23307 23308 23309 23310 23311 23312 23313 23314 23315 23316 23317 23318 23319 23320 23321 23322 23323 23324 23325 23326 23327 23328 23329 23330 23331 23332 23333 23334 23335 23336 23337 23338 23339 23340 23341 23342 23343 23344 23345 23346 23347 23348 23349 23350 23351 23352 23353 23354 23355 23356 23357 23358 23359 23360 23361 23362 23363 23364 23365 23366 23367 23368 23369 23370 23371 23372 23373 23374 23375 23376 23377 23378 23379 23380 23381 23382 23383 23384 23385 23386 23387 23388 23389 23390 23391 23392 23393 23394 23395 23396 23397 23398 23399 23400 23401 23402 23403 23404 23405 23406 23407 23408 23409 23410 23411 23412 23413 23414 23415 23416 23417 23418 23419 23420 23421 23422 23423 23424 23425 23426 23427 23428 23429 23430 23431 23432 23433 23434 23435 23436 23437 23438 23439 23440 23441 23442 23443 23444 23445 23446 23447 23448 23449 23450 23451 23452 23453 23454 23455 23456 23457 23458 23459 23460 23461 23462 23463 23464 23465 23466 23467 23468 23469 23470 23471 23472 23473 23474 23475 23476 23477 23478 23479 23480 23481 23482 23483 23484 23485 23486 23487 23488 23489 23490 23491 23492 23493 23494 23495 23496 23497 23498 23499 23500 23501 23502 23503 23504 23505 23506 23507 23508 23509 23510 23511 23512 23513 23514 23515 23516 23517 23518 23519 23520 23521 23522 23523 23524 23525 23526 23527 23528 23529 23530 23531 23532 23533 23534 23535 23536 23537 23538 23539 23540 23541 23542 23543 23544 23545 23546 23547 23548 23549 23550 23551 23552 23553 23554 23555 23556 23557 23558 23559 23560 23561 23562 23563 23564 23565 23566 23567 23568 23569 23570 23571 23572 23573 23574 23575 23576 23577 23578 23579 23580 23581 23582 23583 23584 23585 23586 23587 23588 23589 23590 23591 23592 23593 23594 23595 23596 23597 23598 23599 23600 23601 23602 23603 23604 23605 23606 23607 23608 23609 23610 23611 23612 23613 23614 23615 23616 23617 23618 23619 23620 23621 23622 23623 23624 23625 23626 23627 23628 23629 23630 23631 23632 23633 23634 23635 23636 23637 23638 23639 23640 23641 23642 23643 23644 23645 23646 23647 23648 23649 23650 23651 23652 23653 23654 23655 23656 23657 23658 23659 23660 23661 23662 23663 23664 23665 23666 23667 23668 23669 23670 23671 23672 23673 23674 23675 23676 23677 23678 23679 23680 23681 23682 23683 23684 23685 23686 23687 23688 23689 23690 23691 23692 23693 23694 23695 23696 23697 23698 23699 23700 23701 23702 23703 23704 23705 23706 23707 23708 23709 23710 23711 23712 23713 23714 23715 23716 23717 23718 23719 23720 23721 23722 23723 23724 23725 23726 23727 23728 23729 23730 23731 23732 23733 23734 23735 23736 23737 23738 23739 23740 23741 23742 23743 23744 23745 23746 23747 23748 23749 23750 23751 23752 23753 23754 23755 23756 23757 23758 23759 23760 23761 23762 23763 23764 23765 23766 23767 23768 23769 23770 23771 23772 23773 23774 23775 23776 23777 23778 23779 23780 23781 23782 23783 23784 23785 23786 23787 23788 23789 23790 23791 23792 23793 23794 23795 23796 23797 23798 23799 23800 23801 23802 23803 23804 23805 23806 23807 23808 23809 23810 23811 23812 23813 23814 23815 23816 23817 23818 23819 23820 23821 23822 23823 23824 23825 23826 23827 23828 23829 23830 23831 23832 23833 23834 23835 23836 23837 23838 23839 23840 23841 23842 23843 23844 23845 23846 23847 23848 23849 23850 23851 23852 23853 23854 23855 23856 23857 23858 23859 23860 23861 23862 23863 23864 23865 23866 23867 23868 23869 23870 23871 23872 23873 23874 23875 23876 23877 23878 23879 23880 23881 23882 23883 23884 23885 23886 23887 23888 23889 23890 23891 23892 23893 23894 23895 23896 23897 23898 23899 23900 23901 23902 23903 23904 23905 23906 23907 23908 23909 23910 23911 23912 23913 23914 23915 23916 23917 23918 23919 23920 23921 23922 23923 23924 23925 23926 23927 23928 23929 23930 23931 23932 23933 23934 23935 23936 23937 23938 23939 23940 23941 23942 23943 23944 23945 23946 23947 23948 23949 23950 23951 23952 23953 23954 23955 23956 23957 23958 23959 23960 23961 23962 23963 23964 23965 23966 23967 23968 23969 23970 23971 23972 23973 23974 23975 23976 23977 23978 23979 23980 23981 23982 23983 23984 23985 23986 23987 23988 23989 23990 23991 23992 23993 23994 23995 23996 23997 23998 23999 24000 24001 24002 24003 24004 24005 24006 24007 24008 24009 24010 24011 24012 24013 24014 24015 24016 24017 24018 24019 24020 24021 24022 24023 24024 24025 24026 24027 24028 24029 24030 24031 24032 24033 24034 24035 24036 24037 24038 24039 24040 24041 24042 24043 24044 24045 24046 24047 24048 24049 24050 24051 24052 24053 24054 24055 24056 24057 24058 24059 24060 24061 24062 24063 24064 24065 24066 24067 24068 24069 24070 24071 24072 24073 24074 24075 24076 24077 24078 24079 24080 24081 24082 24083 24084 24085 24086 24087 24088 24089 24090 24091 24092 24093 24094 24095 24096 24097 24098 24099 24100 24101 24102 24103 24104 24105 24106 24107 24108 24109 24110 24111 24112 24113 24114 24115 24116 24117 24118 24119 24120 24121 24122 24123 24124 24125 24126 24127 24128 24129 24130 24131 24132 24133 24134 24135 24136 24137 24138 24139 24140 24141 24142 24143 24144 24145 24146 24147 24148 24149 24150 24151 24152 24153 24154 24155 24156 24157 24158 24159 24160 24161 24162 24163 24164 24165 24166 24167 24168 24169 24170 24171 24172 24173 24174 24175 24176 24177 24178 24179 24180 24181 24182 24183 24184 24185 24186 24187 24188 24189 24190 24191 24192 24193 24194 24195 24196 24197 24198 24199 24200 24201 24202 24203 24204 24205 24206 24207 24208 24209 24210 24211 24212 24213 24214 24215 24216 24217 24218 24219 24220 24221 24222 24223 24224 24225 24226 24227 24228 24229 24230 24231 24232 24233 24234 24235 24236 24237 24238 24239 24240 24241 24242 24243 24244 24245 24246 24247 24248 24249 24250 24251 24252 24253 24254 24255 24256 24257 24258 24259 24260 24261 24262 24263 24264 24265 24266 24267 24268 24269 24270 24271 24272 24273 24274 24275 24276 24277 24278 24279 24280 24281 24282 24283 24284 24285 24286 24287 24288 24289 24290 24291 24292 24293 24294 24295 24296 24297 24298 24299 24300 24301 24302 24303 24304 24305 24306 24307 24308 24309 24310 24311 24312 24313 24314 24315 24316 24317 24318 24319 24320 24321 24322 24323 24324 24325 24326 24327 24328 24329 24330 24331 24332 24333 24334 24335 24336 24337 24338 24339 24340 24341 24342 24343 24344 24345 24346 24347 24348 24349 24350 24351 24352 24353 24354 24355 24356 24357 24358 24359 24360 24361 24362 24363 24364 24365 24366 24367 24368 24369 24370 24371 24372 24373 24374 24375 24376 24377 24378 24379 24380 24381 24382 24383 24384 24385 24386 24387 24388 24389 24390 24391 24392 24393 24394 24395 24396 24397 24398 24399 24400 24401 24402 24403 24404 24405 24406 24407 24408 24409 24410 24411 24412 24413 24414 24415 24416 24417 24418 24419 24420 24421 24422 24423 24424 24425 24426 24427 24428 24429 24430 24431 24432 24433 24434 24435 24436 24437 24438 24439 24440 24441 24442 24443 24444 24445 24446 24447 24448 24449 24450 24451 24452 24453 24454 24455 24456 24457 24458 24459 24460 24461 24462 24463 24464 24465 24466 24467 24468 24469 24470 24471 24472 24473 24474 24475 24476 24477 24478 24479 24480 24481 24482 24483 24484 24485 24486 24487 24488 24489 24490 24491 24492 24493 24494 24495 24496 24497 24498 24499 24500 24501 24502 24503 24504 24505 24506 24507 24508 24509 24510 24511 24512 24513 24514 24515 24516 24517 24518 24519 24520 24521 24522 24523 24524 24525 24526 24527 24528 24529 24530 24531 24532 24533 24534 24535 24536 24537 24538 24539 24540 24541 24542 24543 24544 24545 24546 24547 24548 24549 24550 24551 24552 24553 24554 24555 24556 24557 24558 24559 24560 24561 24562 24563 24564 24565 24566 24567 24568 24569 24570 24571 24572 24573 24574 24575 24576 24577 24578 24579 24580 24581 24582 24583 24584 24585 24586 24587 24588 24589 24590 24591 24592 24593 24594 24595 24596 24597 24598 24599 24600 24601 24602 24603 24604 24605 24606 24607 24608 24609 24610 24611 24612 24613 24614 24615 24616 24617 24618 24619 24620 24621 24622 24623 24624 24625 24626 24627 24628 24629 24630 24631 24632 24633 24634 24635 24636 24637 24638 24639 24640 24641 24642 24643 24644 24645 24646 24647 24648 24649 24650 24651 24652 24653 24654 24655 24656 24657 24658 24659 24660 24661 24662 24663 24664 24665 24666 24667 24668 24669 24670 24671 24672 24673 24674 24675 24676 24677 24678 24679 24680 24681 24682 24683 24684 24685 24686 24687 24688 24689 24690 24691 24692 24693 24694 24695 24696 24697 24698 24699 24700 24701 24702 24703 24704 24705 24706 24707 24708 24709 24710 24711 24712 24713 24714 24715 24716 24717 24718 24719 24720 24721 24722 24723 24724 24725 24726 24727 24728 24729 24730 24731 24732 24733 24734 24735 24736 24737 24738 24739 24740 24741 24742 24743 24744 24745 24746 24747 24748 24749 24750 24751 24752 24753 24754 24755 24756 24757 24758 24759 24760 24761 24762 24763 24764 24765 24766 24767 24768 24769 24770 24771 24772 24773 24774 24775 24776 24777 24778 24779 24780 24781 24782 24783 24784 24785 24786 24787 24788 24789 24790 24791 24792 24793 24794 24795 24796 24797 24798 24799 24800 24801 24802 24803 24804 24805 24806 24807 24808 24809 24810 24811 24812 24813 24814 24815 24816 24817 24818 24819 24820 24821 24822 24823 24824 24825 24826 24827 24828 24829 24830 24831 24832 24833 24834 24835 24836 24837 24838 24839 24840 24841 24842 24843 24844 24845 24846 24847 24848 24849 24850 24851 24852 24853 24854 24855 24856 24857 24858 24859 24860 24861 24862 24863 24864 24865 24866 24867 24868 24869 24870 24871 24872 24873 24874 24875 24876 24877 24878 24879 24880 24881 24882 24883 24884 24885 24886 24887 24888 24889 24890 24891 24892 24893 24894 24895 24896 24897 24898 24899 24900 24901 24902 24903 24904 24905 24906 24907 24908 24909 24910 24911 24912 24913 24914 24915 24916 24917 24918 24919 24920 24921 24922 24923 24924 24925 24926 24927 24928 24929 24930 24931 24932 24933 24934 24935 24936 24937 24938 24939 24940 24941 24942 24943 24944 24945 24946 24947 24948 24949 24950 24951 24952 24953 24954 24955 24956 24957 24958 24959 24960 24961 24962 24963 24964 24965 24966 24967 24968 24969 24970 24971 24972 24973 24974 24975 24976 24977 24978 24979 24980 24981 24982 24983 24984 24985 24986 24987 24988 24989 24990 24991 24992 24993 24994 24995 24996 24997 24998 24999 25000 25001 25002 25003 25004 25005 25006 25007 25008 25009 25010 25011 25012 25013 25014 25015 25016 25017 25018 25019 25020 25021 25022 25023 25024 25025 25026 25027 25028 25029 25030 25031 25032 25033 25034 25035 25036 25037 25038 25039 25040 25041 25042 25043 25044 25045 25046 25047 25048 25049 25050 25051 25052 25053 25054 25055 25056 25057 25058 25059 25060 25061 25062 25063 25064 25065 25066 25067 25068 25069 25070 25071 25072 25073 25074 25075 25076 25077 25078 25079 25080 25081 25082 25083 25084 25085 25086 25087 25088 25089 25090 25091 25092 25093 25094 25095 25096 25097 25098 25099 25100 25101 25102 25103 25104 25105 25106 25107 25108 25109 25110 25111 25112 25113 25114 25115 25116 25117 25118 25119 25120 25121 25122 25123 25124 25125 25126 25127 25128 25129 25130 25131 25132 25133 25134 25135 25136 25137 25138 25139 25140 25141 25142 25143 25144 25145 25146 25147 25148 25149 25150 25151 25152 25153 25154 25155 25156 25157 25158 25159 25160 25161 25162 25163 25164 25165 25166 25167 25168 25169 25170 25171 25172 25173 25174 25175 25176 25177 25178 25179 25180 25181 25182 25183 25184 25185 25186 25187 25188 25189 25190 25191 25192 25193 25194 25195 25196 25197 25198 25199 25200 25201 25202 25203 25204 25205 25206 25207 25208 25209 25210 25211 25212 25213 25214 25215 25216 25217 25218 25219 25220 25221 25222 25223 25224 25225 25226 25227 25228 25229 25230 25231 25232 25233 25234 25235 25236 25237 25238 25239 25240 25241 25242 25243 25244 25245 25246 25247 25248 25249 25250 25251 25252 25253 25254 25255 25256 25257 25258 25259 25260 25261 25262 25263 25264 25265 25266 25267 25268 25269 25270 25271 25272 25273 25274 25275 25276 25277 25278 25279 25280 25281 25282 25283 25284 25285 25286 25287 25288 25289 25290 25291 25292 25293 25294 25295 25296 25297 25298 25299 25300 25301 25302 25303 25304 25305 25306 25307 25308 25309 25310 25311 25312 25313 25314 25315 25316 25317 25318 25319 25320 25321 25322 25323 25324 25325 25326 25327 25328 25329 25330 25331 25332 25333 25334 25335 25336 25337 25338 25339 25340 25341 25342 25343 25344 25345 25346 25347 25348 25349 25350 25351 25352 25353 25354 25355 25356 25357 25358 25359 25360 25361 25362 25363 25364 25365 25366 25367 25368 25369 25370 25371 25372 25373 25374 25375 25376 25377 25378 25379 25380 25381 25382 25383 25384 25385 25386 25387 25388 25389 25390 25391 25392 25393 25394 25395 25396 25397 25398 25399 25400 25401 25402 25403 25404 25405 25406 25407 25408 25409 25410 25411 25412 25413 25414 25415 25416 25417 25418 25419 25420 25421 25422 25423 25424 25425 25426 25427 25428 25429 25430 25431 25432 25433 25434 25435 25436 25437 25438 25439 25440 25441 25442 25443 25444 25445 25446 25447 25448 25449 25450 25451 25452 25453 25454 25455 25456 25457 25458 25459 25460 25461 25462 25463 25464 25465 25466 25467 25468 25469 25470 25471 25472 25473 25474 25475 25476 25477 25478 25479 25480 25481 25482 25483 25484 25485 25486 25487 25488 25489 25490 25491 25492 25493 25494 25495 25496 25497 25498 25499 25500 25501 25502 25503 25504 25505 25506 25507 25508 25509 25510 25511 25512 25513 25514 25515 25516 25517 25518 25519 25520 25521 25522 25523 25524 25525 25526 25527 25528 25529 25530 25531 25532 25533 25534 25535 25536 25537 25538 25539 25540 25541 25542 25543 25544 25545 25546 25547 25548 25549 25550 25551 25552 25553 25554 25555 25556 25557 25558 25559 25560 25561 25562 25563 25564 25565 25566 25567 25568 25569 25570 25571 25572 25573 25574 25575 25576 25577 25578 25579 25580 25581 25582 25583 25584 25585 25586 25587 25588 25589 25590 25591 25592 25593 25594 25595 25596 25597 25598 25599 25600 25601 25602 25603 25604 25605 25606 25607 25608 25609 25610 25611 25612 25613 25614 25615 25616 25617 25618 25619 25620 25621 25622 25623 25624 25625 25626 25627 25628 25629 25630 25631 25632 25633 25634 25635 25636 25637 25638 25639 25640 25641 25642 25643 25644 25645 25646 25647 25648 25649 25650 25651 25652 25653 25654 25655 25656 25657 25658 25659 25660 25661 25662 25663 25664 25665 25666 25667 25668 25669 25670 25671 25672 25673 25674 25675 25676 25677 25678 25679 25680 25681 25682 25683 25684 25685 25686 25687 25688 25689 25690 25691 25692 25693 25694 25695 25696 25697 25698 25699 25700 25701 25702 25703 25704 25705 25706 25707 25708 25709 25710 25711 25712 25713 25714 25715 25716 25717 25718 25719 25720 25721 25722 25723 25724 25725 25726 25727 25728 25729 25730 25731 25732 25733 25734 25735 25736 25737 25738 25739 25740 25741 25742 25743 25744 25745 25746 25747 25748 25749 25750 25751 25752 25753 25754 25755 25756 25757 25758 25759 25760 25761 25762 25763 25764 25765 25766 25767 25768 25769 25770 25771 25772 25773 25774 25775 25776 25777 25778 25779 25780 25781 25782 25783 25784 25785 25786 25787 25788 25789 25790 25791 25792 25793 25794 25795 25796 25797 25798 25799 25800 25801 25802 25803 25804 25805 25806 25807 25808 25809 25810 25811 25812 25813 25814 25815 25816 25817 25818 25819 25820 25821 25822 25823 25824 25825 25826 25827 25828 25829 25830 25831 25832 25833 25834 25835 25836 25837 25838 25839 25840 25841 25842 25843 25844 25845 25846 25847 25848 25849 25850 25851 25852 25853 25854 25855 25856 25857 25858 25859 25860 25861 25862 25863 25864 25865 25866 25867 25868 25869 25870 25871 25872 25873 25874 25875 25876 25877 25878 25879 25880 25881 25882 25883 25884 25885 25886 25887 25888 25889 25890 25891 25892 25893 25894 25895 25896 25897 25898 25899 25900 25901 25902 25903 25904 25905 25906 25907 25908 25909 25910 25911 25912 25913 25914 25915 25916 25917 25918 25919 25920 25921 25922 25923 25924 25925 25926 25927 25928 25929 25930 25931 25932 25933 25934 25935 25936 25937 25938 25939 25940 25941 25942 25943 25944 25945 25946 25947 25948 25949 25950 25951 25952 25953 25954 25955 25956 25957 25958 25959 25960 25961 25962 25963 25964 25965 25966 25967 25968 25969 25970 25971 25972 25973 25974 25975 25976 25977 25978 25979 25980 25981 25982 25983 25984 25985 25986 25987 25988 25989 25990 25991 25992 25993 25994 25995 25996 25997 25998 25999 26000 26001 26002 26003 26004 26005 26006 26007 26008 26009 26010 26011 26012 26013 26014 26015 26016 26017 26018 26019 26020 26021 26022 26023 26024 26025 26026 26027 26028 26029 26030 26031 26032 26033 26034 26035 26036 26037 26038 26039 26040 26041 26042 26043 26044 26045 26046 26047 26048 26049 26050 26051 26052 26053 26054 26055 26056 26057 26058 26059 26060 26061 26062 26063 26064 26065 26066 26067 26068 26069 26070 26071 26072 26073 26074 26075 26076 26077 26078 26079 26080 26081 26082 26083 26084 26085 26086 26087 26088 26089 26090 26091 26092 26093 26094 26095 26096 26097 26098 26099 26100 26101 26102 26103 26104 26105 26106 26107 26108 26109 26110 26111 26112 26113 26114 26115 26116 26117 26118 26119 26120 26121 26122 26123 26124 26125 26126 26127 26128 26129 26130 26131 26132 26133 26134 26135 26136 26137 26138 26139 26140 26141 26142 26143 26144 26145 26146 26147 26148 26149 26150 26151 26152 26153 26154 26155 26156 26157 26158 26159 26160 26161 26162 26163 26164 26165 26166 26167 26168 26169 26170 26171 26172 26173 26174 26175 26176 26177 26178 26179 26180 26181 26182 26183 26184 26185 26186 26187 26188 26189 26190 26191 26192 26193 26194 26195 26196 26197 26198 26199 26200 26201 26202 26203 26204 26205 26206 26207 26208 26209 26210 26211 26212 26213 26214 26215 26216 26217 26218 26219 26220 26221 26222 26223 26224 26225 26226 26227 26228 26229 26230 26231 26232 26233 26234 26235 26236 26237 26238 26239 26240 26241 26242 26243 26244 26245 26246 26247 26248 26249 26250 26251 26252 26253 26254 26255 26256 26257 26258 26259 26260 26261 26262 26263 26264 26265 26266 26267 26268 26269 26270 26271 26272 26273 26274 26275 26276 26277 26278 26279 26280 26281 26282 26283 26284 26285 26286 26287 26288 26289 26290 26291 26292 26293 26294 26295 26296 26297 26298 26299 26300 26301 26302 26303 26304 26305 26306 26307 26308 26309 26310 26311 26312 26313 26314 26315 26316 26317 26318 26319 26320 26321 26322 26323 26324 26325 26326 26327 26328 26329 26330 26331 26332 26333 26334 26335 26336 26337 26338 26339 26340 26341 26342 26343 26344 26345 26346 26347 26348 26349 26350 26351 26352 26353 26354 26355 26356 26357 26358 26359 26360 26361 26362 26363 26364 26365 26366 26367 26368 26369 26370 26371 26372 26373 26374 26375 26376 26377 26378 26379 26380 26381 26382 26383 26384 26385 26386 26387 26388 26389 26390 26391 26392 26393 26394 26395 26396 26397 26398 26399 26400 26401 26402 26403 26404 26405 26406 26407 26408 26409 26410 26411 26412 26413 26414 26415 26416 26417 26418 26419 26420 26421 26422 26423 26424 26425 26426 26427 26428 26429 26430 26431 26432 26433 26434 26435 26436 26437 26438 26439 26440 26441 26442 26443 26444 26445 26446 26447 26448 26449 26450 26451 26452 26453 26454 26455 26456 26457 26458 26459 26460 26461 26462 26463 26464 26465 26466 26467 26468 26469 26470 26471 26472 26473 26474 26475 26476 26477 26478 26479 26480 26481 26482 26483 26484 26485 26486 26487 26488 26489 26490 26491 26492 26493 26494 26495 26496 26497 26498 26499 26500 26501 26502 26503 26504 26505 26506 26507 26508 26509 26510 26511 26512 26513 26514 26515 26516 26517 26518 26519 26520 26521 26522 26523 26524 26525 26526 26527 26528 26529 26530 26531 26532 26533 26534 26535 26536 26537 26538 26539 26540 26541 26542 26543 26544 26545 26546 26547 26548 26549 26550 26551 26552 26553 26554 26555 26556 26557 26558 26559 26560 26561 26562 26563 26564 26565 26566 26567 26568 26569 26570 26571 26572 26573 26574 26575 26576 26577 26578 26579 26580 26581 26582 26583 26584 26585 26586 26587 26588 26589 26590 26591 26592 26593 26594 26595 26596 26597 26598 26599 26600 26601 26602 26603 26604 26605 26606 26607 26608 26609 26610 26611 26612 26613 26614 26615 26616 26617 26618 26619 26620 26621 26622 26623 26624 26625 26626 26627 26628 26629 26630 26631 26632 26633 26634 26635 26636 26637 26638 26639 26640 26641 26642 26643 26644 26645 26646 26647 26648 26649 26650 26651 26652 26653 26654 26655 26656 26657 26658 26659 26660 26661 26662 26663 26664 26665 26666 26667 26668 26669 26670 26671 26672 26673 26674 26675 26676 26677 26678 26679 26680 26681 26682 26683 26684 26685 26686 26687 26688 26689 26690 26691 26692 26693 26694 26695 26696 26697 26698 26699 26700 26701 26702 26703 26704 26705 26706 26707 26708 26709 26710 26711 26712 26713 26714 26715 26716 26717 26718 26719 26720 26721 26722 26723 26724 26725 26726 26727 26728 26729 26730 26731 26732 26733 26734 26735 26736 26737 26738 26739 26740 26741 26742 26743 26744 26745 26746 26747 26748 26749 26750 26751 26752 26753 26754 26755 26756 26757 26758 26759 26760 26761 26762 26763 26764 26765 26766 26767 26768 26769 26770 26771 26772 26773 26774 26775 26776 26777 26778 26779 26780 26781 26782 26783 26784 26785 26786 26787 26788 26789 26790 26791 26792 26793 26794 26795 26796 26797 26798 26799 26800 26801 26802 26803 26804 26805 26806 26807 26808 26809 26810 26811 26812 26813 26814 26815 26816 26817 26818 26819 26820 26821 26822 26823 26824 26825 26826 26827 26828 26829 26830 26831 26832 26833 26834 26835 26836 26837 26838 26839 26840 26841 26842 26843 26844 26845 26846 26847 26848 26849 26850 26851 26852 26853 26854 26855 26856 26857 26858 26859 26860 26861 26862 26863 26864 26865 26866 26867 26868 26869 26870 26871 26872 26873 26874 26875 26876 26877 26878 26879 26880 26881 26882 26883 26884 26885 26886 26887 26888 26889 26890 26891 26892 26893 26894 26895 26896 26897 26898 26899 26900 26901 26902 26903 26904 26905 26906 26907 26908 26909 26910 26911 26912 26913 26914 26915 26916 26917 26918 26919 26920 26921 26922 26923 26924 26925 26926 26927 26928 26929 26930 26931 26932 26933 26934 26935 26936 26937 26938 26939 26940 26941 26942 26943 26944 26945 26946 26947 26948 26949 26950 26951 26952 26953 26954 26955 26956 26957 26958 26959 26960 26961 26962 26963 26964 26965 26966 26967 26968 26969 26970 26971 26972 26973 26974 26975 26976 26977 26978 26979 26980 26981 26982 26983 26984 26985 26986 26987 26988 26989 26990 26991 26992 26993 26994 26995 26996 26997 26998 26999 27000 27001 27002 27003 27004 27005 27006 27007 27008 27009 27010 27011 27012 27013 27014 27015 27016 27017 27018 27019 27020 27021 27022 27023 27024 27025 27026 27027 27028 27029 27030 27031 27032 27033 27034 27035 27036 27037 27038 27039 27040 27041 27042 27043 27044 27045 27046 27047 27048 27049 27050 27051 27052 27053 27054 27055 27056 27057 27058 27059 27060 27061 27062 27063 27064 27065 27066 27067 27068 27069 27070 27071 27072 27073 27074 27075 27076 27077 27078 27079 27080 27081 27082 27083 27084 27085 27086 27087 27088 27089 27090 27091 27092 27093 27094 27095 27096 27097 27098 27099 27100 27101 27102 27103 27104 27105 27106 27107 27108 27109 27110 27111 27112 27113 27114 27115 27116 27117 27118 27119 27120 27121 27122 27123 27124 27125 27126 27127 27128 27129 27130 27131 27132 27133 27134 27135 27136 27137 27138 27139 27140 27141 27142 27143 27144 27145 27146 27147 27148 27149 27150 27151 27152 27153 27154 27155 27156 27157 27158 27159 27160 27161 27162 27163 27164 27165 27166 27167 27168 27169 27170 27171 27172 27173 27174 27175 27176 27177 27178 27179 27180 27181 27182 27183 27184 27185 27186 27187 27188 27189 27190 27191 27192 27193 27194 27195 27196 27197 27198 27199 27200 27201 27202 27203 27204 27205 27206 27207 27208 27209 27210 27211 27212 27213 27214 27215 27216 27217 27218 27219 27220 27221 27222 27223 27224 27225 27226 27227 27228 27229 27230 27231 27232 27233 27234 27235 27236 27237 27238 27239 27240 27241 27242 27243 27244 27245 27246 27247 27248 27249 27250 27251 27252 27253 27254 27255 27256 27257 27258 27259 27260 27261 27262 27263 27264 27265 27266 27267 27268 27269 27270 27271 27272 27273 27274 27275 27276 27277 27278 27279 27280 27281 27282 27283 27284 27285 27286 27287 27288 27289 27290 27291 27292 27293 27294 27295 27296 27297 27298 27299 27300 27301 27302 27303 27304 27305 27306 27307 27308 27309 27310 27311 27312 27313 27314 27315 27316 27317 27318 27319 27320 27321 27322 27323 27324 27325 27326 27327 27328 27329 27330 27331 27332 27333 27334 27335 27336 27337 27338 27339 27340 27341 27342 27343 27344 27345 27346 27347 27348 27349 27350 27351 27352 27353 27354 27355 27356 27357 27358 27359 27360 27361 27362 27363 27364 27365 27366 27367 27368 27369 27370 27371 27372 27373 27374 27375 27376 27377 27378 27379 27380 27381 27382 27383 27384 27385 27386 27387 27388 27389 27390 27391 27392 27393 27394 27395 27396 27397 27398 27399 27400 27401 27402 27403 27404 27405 27406 27407 27408 27409 27410 27411 27412 27413 27414 27415 27416 27417 27418 27419 27420 27421 27422 27423 27424 27425 27426 27427 27428 27429 27430 27431 27432 27433 27434 27435 27436 27437 27438 27439 27440 27441 27442 27443 27444 27445 27446 27447 27448 27449 27450 27451 27452 27453 27454 27455 27456 27457 27458 27459 27460 27461 27462 27463 27464 27465 27466 27467 27468 27469 27470 27471 27472 27473 27474 27475 27476 27477 27478 27479 27480 27481 27482 27483 27484 27485 27486 27487 27488 27489 27490 27491 27492 27493 27494 27495 27496 27497 27498 27499 27500 27501 27502 27503 27504 27505 27506 27507 27508 27509 27510 27511 27512 27513 27514 27515 27516 27517 27518 27519 27520 27521 27522 27523 27524 27525 27526 27527 27528 27529 27530 27531 27532 27533 27534 27535 27536 27537 27538 27539 27540 27541 27542 27543 27544 27545 27546 27547 27548 27549 27550 27551 27552 27553 27554 27555 27556 27557 27558 27559 27560 27561 27562 27563 27564 27565 27566 27567 27568 27569 27570 27571 27572 27573 27574 27575 27576 27577 27578 27579 27580 27581 27582 27583 27584 27585 27586 27587 27588 27589 27590 27591 27592 27593 27594 27595 27596 27597 27598 27599 27600 27601 27602 27603 27604 27605 27606 27607 27608 27609 27610 27611 27612 27613 27614 27615 27616 27617 27618 27619 27620 27621 27622 27623 27624 27625 27626 27627 27628 27629 27630 27631 27632 27633 27634 27635 27636 27637 27638 27639 27640 27641 27642 27643 27644 27645 27646 27647 27648 27649 27650 27651 27652 27653 27654 27655 27656 27657 27658 27659 27660 27661 27662 27663 27664 27665 27666 27667 27668 27669 27670 27671 27672 27673 27674 27675 27676 27677 27678 27679 27680 27681 27682 27683 27684 27685 27686 27687 27688 27689 27690 27691 27692 27693 27694 27695 27696 27697 27698 27699 27700 27701 27702 27703 27704 27705 27706 27707 27708 27709 27710 27711 27712 27713 27714 27715 27716 27717 27718 27719 27720 27721 27722 27723 27724 27725 27726 27727 27728 27729 27730 27731 27732 27733 27734 27735 27736 27737 27738 27739 27740 27741 27742 27743 27744 27745 27746 27747 27748 27749 27750 27751 27752 27753 27754 27755 27756 27757 27758 27759 27760 27761 27762 27763 27764 27765 27766 27767 27768 27769 27770 27771 27772 27773 27774 27775 27776 27777 27778 27779 27780 27781 27782 27783 27784 27785 27786 27787 27788 27789 27790 27791 27792 27793 27794 27795 27796 27797 27798 27799 27800 27801 27802 27803 27804 27805 27806 27807 27808 27809 27810 27811 27812 27813 27814 27815 27816 27817 27818 27819 27820 27821 27822 27823 27824 27825 27826 27827 27828 27829 27830 27831 27832 27833 27834 27835 27836 27837 27838 27839 27840 27841 27842 27843 27844 27845 27846 27847 27848 27849 27850 27851 27852 27853 27854 27855 27856 27857 27858 27859 27860 27861 27862 27863 27864 27865 27866 27867 27868 27869 27870 27871 27872 27873 27874 27875 27876 27877 27878 27879 27880 27881 27882 27883 27884 27885 27886 27887 27888 27889 27890 27891 27892 27893 27894 27895 27896 27897 27898 27899 27900 27901 27902 27903 27904 27905 27906 27907 27908 27909 27910 27911 27912 27913 27914 27915 27916 27917 27918 27919 27920 27921 27922 27923 27924 27925 27926 27927 27928 27929 27930 27931 27932 27933 27934 27935 27936 27937 27938 27939 27940 27941 27942 27943 27944 27945 27946 27947 27948 27949 27950 27951 27952 27953 27954 27955 27956 27957 27958 27959 27960 27961 27962 27963 27964 27965 27966 27967 27968 27969 27970 27971 27972 27973 27974 27975 27976 27977 27978 27979 27980 27981 27982 27983 27984 27985 27986 27987 27988 27989 27990 27991 27992 27993 27994 27995 27996 27997 27998 27999 28000 28001 28002 28003 28004 28005 28006 28007 28008 28009 28010 28011 28012 28013 28014 28015 28016 28017 28018 28019 28020 28021 28022 28023 28024 28025 28026 28027 28028 28029 28030 28031 28032 28033 28034 28035 28036 28037 28038 28039 28040 28041 28042 28043 28044 28045 28046 28047 28048 28049 28050 28051 28052 28053 28054 28055 28056 28057 28058 28059 28060 28061 28062 28063 28064 28065 28066 28067 28068 28069 28070 28071 28072 28073 28074 28075 28076 28077 28078 28079 28080 28081 28082 28083 28084 28085 28086 28087 28088 28089 28090 28091 28092 28093 28094 28095 28096 28097 28098 28099 28100 28101 28102 28103 28104 28105 28106 28107 28108 28109 28110 28111 28112 28113 28114 28115 28116 28117 28118 28119 28120 28121 28122 28123 28124 28125 28126 28127 28128 28129 28130 28131 28132 28133 28134 28135 28136 28137 28138 28139 28140 28141 28142 28143 28144 28145 28146 28147 28148 28149 28150 28151 28152 28153 28154 28155 28156 28157 28158 28159 28160 28161 28162 28163 28164 28165 28166 28167 28168 28169 28170 28171 28172 28173 28174 28175 28176 28177 28178 28179 28180 28181 28182 28183 28184 28185 28186 28187 28188 28189 28190 28191 28192 28193 28194 28195 28196 28197 28198 28199 28200 28201 28202 28203 28204 28205 28206 28207 28208 28209 28210 28211 28212 28213 28214 28215 28216 28217 28218 28219 28220 28221 28222 28223 28224 28225 28226 28227 28228 28229 28230 28231 28232 28233 28234 28235 28236 28237 28238 28239 28240 28241 28242 28243 28244 28245 28246 28247 28248 28249 28250 28251 28252 28253 28254 28255 28256 28257 28258 28259 28260 28261 28262 28263 28264 28265 28266 28267 28268 28269 28270 28271 28272 28273 28274 28275 28276 28277 28278 28279 28280 28281 28282 28283 28284 28285 28286 28287 28288 28289 28290 28291 28292 28293 28294 28295 28296 28297 28298 28299 28300 28301 28302 28303 28304 28305 28306 28307 28308 28309 28310 28311 28312 28313 28314 28315 28316 28317 28318 28319 28320 28321 28322 28323 28324 28325 28326 28327 28328 28329 28330 28331 28332 28333 28334 28335 28336 28337 28338 28339 28340 28341 28342 28343 28344 28345 28346 28347 28348 28349 28350 28351 28352 28353 28354 28355 28356 28357 28358 28359 28360 28361 28362 28363 28364 28365 28366 28367 28368 28369 28370 28371 28372 28373 28374 28375 28376 28377 28378 28379 28380 28381 28382 28383 28384 28385 28386 28387 28388 28389 28390 28391 28392 28393 28394 28395 28396 28397 28398 28399 28400 28401 28402 28403 28404 28405 28406 28407 28408 28409 28410 28411 28412 28413 28414 28415 28416 28417 28418 28419 28420 28421 28422 28423 28424 28425 28426 28427 28428 28429 28430 28431 28432 28433 28434 28435 28436 28437 28438 28439 28440 28441 28442 28443 28444 28445 28446 28447 28448 28449 28450 28451 28452 28453 28454 28455 28456 28457 28458 28459 28460 28461 28462 28463 28464 28465 28466 28467 28468 28469 28470 28471 28472 28473 28474 28475 28476 28477 28478 28479 28480 28481 28482 28483 28484 28485 28486 28487 28488 28489 28490 28491 28492 28493 28494 28495 28496 28497 28498 28499 28500 28501 28502 28503 28504 28505 28506 28507 28508 28509 28510 28511 28512 28513 28514 28515 28516 28517 28518 28519 28520 28521 28522 28523 28524 28525 28526 28527 28528 28529 28530 28531 28532 28533 28534 28535 28536 28537 28538 28539 28540 28541 28542 28543 28544 28545 28546 28547 28548 28549 28550 28551 28552 28553 28554 28555 28556 28557 28558 28559 28560 28561 28562 28563 28564 28565 28566 28567 28568 28569 28570 28571 28572 28573 28574 28575 28576 28577 28578 28579 28580 28581 28582 28583 28584 28585 28586 28587 28588 28589 28590 28591 28592 28593 28594 28595 28596 28597 28598 28599 28600 28601 28602 28603 28604 28605 28606 28607 28608 28609 28610 28611 28612 28613 28614 28615 28616 28617 28618 28619 28620 28621 28622 28623 28624 28625 28626 28627 28628 28629 28630 28631 28632 28633 28634 28635 28636 28637 28638 28639 28640 28641 28642 28643 28644 28645 28646 28647 28648 28649 28650 28651 28652 28653 28654 28655 28656 28657 28658 28659 28660 28661 28662 28663 28664 28665 28666 28667 28668 28669 28670 28671 28672 28673 28674 28675 28676 28677 28678 28679 28680 28681 28682 28683 28684 28685 28686 28687 28688 28689 28690 28691 28692 28693 28694 28695 28696 28697 28698 28699 28700 28701 28702 28703 28704 28705 28706 28707 28708 28709 28710 28711 28712 28713 28714 28715 28716 28717 28718 28719 28720 28721 28722 28723 28724 28725 28726 28727 28728 28729 28730 28731 28732 28733 28734 28735 28736 28737 28738 28739 28740 28741 28742 28743 28744 28745 28746 28747 28748 28749 28750 28751 28752 28753 28754 28755 28756 28757 28758 28759 28760 28761 28762 28763 28764 28765 28766 28767 28768 28769 28770 28771 28772 28773 28774 28775 28776 28777 28778 28779 28780 28781 28782 28783 28784 28785 28786 28787 28788 28789 28790 28791 28792 28793 28794 28795 28796 28797 28798 28799 28800 28801 28802 28803 28804 28805 28806 28807 28808 28809 28810 28811 28812 28813 28814 28815 28816 28817 28818 28819 28820 28821 28822 28823 28824 28825 28826 28827 28828 28829 28830 28831 28832 28833 28834 28835 28836 28837 28838 28839 28840 28841 28842 28843 28844 28845 28846 28847 28848 28849 28850 28851 28852 28853 28854 28855 28856 28857 28858 28859 28860 28861 28862 28863 28864 28865 28866 28867 28868 28869 28870 28871 28872 28873 28874 28875 28876 28877 28878 28879 28880 28881 28882 28883 28884 28885 28886 28887 28888 28889 28890 28891 28892 28893 28894 28895 28896 28897 28898 28899 28900 28901 28902 28903 28904 28905 28906 28907 28908 28909 28910 28911 28912 28913 28914 28915 28916 28917 28918 28919 28920 28921 28922 28923 28924 28925 28926 28927 28928 28929 28930 28931 28932 28933 28934 28935 28936 28937 28938 28939 28940 28941 28942 28943 28944 28945 28946 28947 28948 28949 28950 28951 28952 28953 28954 28955 28956 28957 28958 28959 28960 28961 28962 28963 28964 28965 28966 28967 28968 28969 28970 28971 28972 28973 28974 28975 28976 28977 28978 28979 28980 28981 28982 28983 28984 28985 28986 28987 28988 28989 28990 28991 28992 28993 28994 28995 28996 28997 28998 28999 29000 29001 29002 29003 29004 29005 29006 29007 29008 29009 29010 29011 29012 29013 29014 29015 29016 29017 29018 29019 29020 29021 29022 29023 29024 29025 29026 29027 29028 29029 29030 29031 29032 29033 29034 29035 29036 29037 29038 29039 29040 29041 29042 29043 29044 29045 29046 29047 29048 29049 29050 29051 29052 29053 29054 29055 29056 29057 29058 29059 29060 29061 29062 29063 29064 29065 29066 29067 29068 29069 29070 29071 29072 29073 29074 29075 29076 29077 29078 29079 29080 29081 29082 29083 29084 29085 29086 29087 29088 29089 29090 29091 29092 29093 29094 29095 29096 29097 29098 29099 29100 29101 29102 29103 29104 29105 29106 29107 29108 29109 29110 29111 29112 29113 29114 29115 29116 29117 29118 29119 29120 29121 29122 29123 29124 29125 29126 29127 29128 29129 29130 29131 29132 29133 29134 29135 29136 29137 29138 29139 29140 29141 29142 29143 29144 29145 29146 29147 29148 29149 29150 29151 29152 29153 29154 29155 29156 29157 29158 29159 29160 29161 29162 29163 29164 29165 29166 29167 29168 29169 29170 29171 29172 29173 29174 29175 29176 29177 29178 29179 29180 29181 29182 29183 29184 29185 29186 29187 29188 29189 29190 29191 29192 29193 29194 29195 29196 29197 29198 29199 29200 29201 29202 29203 29204 29205 29206 29207 29208 29209 29210 29211 29212 29213 29214 29215 29216 29217 29218 29219 29220 29221 29222 29223 29224 29225 29226 29227 29228 29229 29230 29231 29232 29233 29234 29235 29236 29237 29238 29239 29240 29241 29242 29243 29244 29245 29246 29247 29248 29249 29250 29251 29252 29253 29254 29255 29256 29257 29258 29259 29260 29261 29262 29263 29264 29265 29266 29267 29268 29269 29270 29271 29272 29273 29274 29275 29276 29277 29278 29279 29280 29281 29282 29283 29284 29285 29286 29287 29288 29289 29290 29291 29292 29293 29294 29295 29296 29297 29298 29299 29300 29301 29302 29303 29304 29305 29306 29307 29308 29309 29310 29311 29312 29313 29314 29315 29316 29317 29318 29319 29320 29321 29322 29323 29324 29325 29326 29327 29328 29329 29330 29331 29332 29333 29334 29335 29336 29337 29338 29339 29340 29341 29342 29343 29344 29345 29346 29347 29348 29349 29350 29351 29352 29353 29354 29355 29356 29357 29358 29359 29360 29361 29362 29363 29364 29365 29366 29367 29368 29369 29370 29371 29372 29373 29374 29375 29376 29377 29378 29379 29380 29381 29382 29383 29384 29385 29386 29387 29388 29389 29390 29391 29392 29393 29394 29395 29396 29397 29398 29399 29400 29401 29402 29403 29404 29405 29406 29407 29408 29409 29410 29411 29412 29413 29414 29415 29416 29417 29418 29419 29420 29421 29422 29423 29424 29425 
</DataArray>
<DataArray type="UInt32" Name="offsets" format="ascii">
3 6 9 12 15 18 21 24 27 30 33 36 39 42 45 48 51 54 56 58 60 62 65 68 71 73 75 78 81 84 87 90 93 96 99 102 105 108 111 114 117 120 122 125 128 131 133 136 139 142 144 147 150 153 155 158 160 163 166 169 172 175 178 181 183 186 188 191 194 197 200 203 206 209 212 215 218 220 223 226 228 231 234 236 239 242 244 247 250 253 256 258 260 263 265 267 270 273 276 279 282 285 288 290 293 296 299 301 304 307 309 312 314 316 319 322 324 326 329 332 335 338 340 343 345 348 351 354 356 358 361 363 366 368 371 374 376 378 381 384 387 389 392 394 397 400 403 405 408 410 413 415 417 420 423 426 429 432 434 437 440 443 446 449 451 453 456 458 461 464 466 469 472 475 478 480 483 486 489 491 494 497 500 503 506 508 510 513 515 518 520 523 526 529 532 535 538 541 544 547 549 552 554 557 560 563 566 569 572 575 578 581 584 587 590 593 596 599 602 605 608 610 613 616 619 622 625 628 631 634 636 639 642 645 648 651 654 657 659 662 665 668 671 673 675 678 681 683 686 689 691 694 697 699 701 704 707 710 712 714 717 720 723 725 728 731 733 736 739 741 744 747 750 752 754 757 760 762 765 768 770 773 776 779 782 784 786 789 791 793 795 798 801 804 807 809 811 814 817 820 823 825 827 830 832 835 837 840 843 845 847 850 853 856 859 861 864 867 869 871 873 876 878 881 884 886 888 890 892 895 898 901 904 907 910 913 915 917 920 923 926 928 930 933 935 937 940 943 945 948 951 954 957 960 962 965 968 970 973 975 978 980 983 986 988 991 994 997 999 1002 1004 1007 1010 1013 1016 1019 1021 1023 1026 1029 1032 1035 1037 1040 1043 1046 1048 1051 1054 1057 1059 1062 1065 1067 1069 1072 1075 1078 1081 1084 1087 1090 1093 1096 1099 1102 1105 1108 1110 1112 1115 1118 1121 1123 1126 1129 1132 1135 1138 1141 1144 1147 1150 1153 1156 1158 1161 1164 1166 1169 1171 1173 1176 1179 1182 1185 1188 1191 1194 1197 1200 1203 1206 1209 1212 1214 1216 1219 1222 1225 1227 1230 1233 1236 1239 1241 1244 1247 1250 1253 1256 1259 1262 1265 1267 1270 1273 1276 1279 1282 1285 1288 1291 1293 1295 1297 1300 1303 1306 1308 1310 1312 1315 1318 1321 1324 1327 1330 1332 1334 1336 1339 1342 1345 1348 1350 1353 1356 1359 1362 1365 1367 1370 1373 1376 1378 1381 1383 1386 1389 1392 1395 1398 1400 1403 1406 1409 1412 1415 1418 1421 1423 1426 1429 1432 1434 1437 1440 1443 1446 1448 1451 1454 1456 1459 1462 1464 1467 1470 1472 1475 1478 1481 1484 1487 1490 1493 1496 1499 1502 1505 1508 1510 1513 1516 1519 1522 1525 1528 1531 1534 1537 1540 1543 1546 1548 1551 1554 1557 1560 1563 1566 1569 1571 1574 1576 1579 1582 1585 1588 1591 1593 1596 1599 1602 1605 1608 1611 1614 1617 1619 1622 1624 1627 1630 1633 1636 1638 1640 1643 1645 1648 1651 1653 1656 1659 1662 1665 1668 1670 1673 1676 1679 1682 1685 1687 1690 1692 1695 1698 1700 1703 1705 1708 1711 1714 1717 1720 1723 1726 1729 1732 1735 1738 1741 1743 1746 1749 1752 1755 1757 1760 1763 1766 1769 1772 1775 1778 1780 1783 1786 1789 1792 1794 1796 1799 1802 1805 1807 1809 1812 1814 1817 1819 1822 1825 1828 1831 1833 1835 1838 1841 1844 1847 1850 1853 1855 1858 1860 1862 1865 1868 1871 1874 1876 1879 1882 1885 1888 1891 1894 1896 1898 1901 1904 1907 1910 1912 1914 1917 1920 1922 1925 1928 1931 1934 1937 1940 1942 1944 1947 1949 1952 1954 1957 1960 1963 1966 1968 1971 1974 1977 1980 1983 1986 1989 1992 1995 1997 2000 2003 2006 2008 2011 2014 2017 2020 2023 2026 2028 2031 2034 2037 2040 2043 2046 2049 2052 2055 2057 2060 2063 2065 2068 2071 2074 2077 2080 2082 2085 2088 2091 2094 2097 2100 2103 2106 2109 2111 2114 2116 2119 2122 2125 2128 2131 2134 2136 2139 2142 2145 2148 2151 2154 2157 2160 2163 2166 2168 2171 2174 2176 2179 2182 2185 2188 2190 2193 2196 2199 2202 2205 2207 2210 2213 2216 2219 2222 2224 2227 2230 2232 2235 2238 2241 2243 2245 2248 2251 2254 2257 2259 2262 2265 2267 2270 2273 2276 2278 2281 2284 2286 2289 2292 2295 2298 2301 2304 2307 2310 2313 2316 2319 2322 2325 2328 2330 2333 2335 2337 2340 2343 2345 2348 2351 2354 2357 2360 2362 2365 2368 2370 2373 2375 2378 2381 2384 2386 2389 2391 2394 2396 2399 2402 2404 2407 2410 2413 2416 2419 2422 2425 2427 2430 2433 2436 2439 2442 2445 2448 2451 2454 2456 2459 2462 2465 2467 2470 2472 2475 2478 2481 2484 2487 2490 2493 2496 2499 2502 2504 2507 2510 2513 2516 2519 2522 2524 2527 2530 2533 2536 2539 2542 2544 2547 2550 2553 2556 2559 2562 2565 2567 2570 2573 2576 2579 2582 2585 2588 2590 2593 2596 2599 2601 2604 2607 2610 2613 2616 2618 2620 2623 2626 2628 2631 2633 2636 2639 2642 2645 2648 2650 2653 2655 2658 2661 2663 2666 2669 2671 2674 2677 2680 2683 2685 2688 2691 2694 2697 2700 2702 2705 2708 2711 2714 2716 2719 2722 2725 2728 2730 2733 2736 2739 2742 2745 2748 2751 2754 2757 2760 2762 2765 2768 2771 2774 2776 2779 2782 2785 2788 2791 2794 2797 2800 2803 2806 2809 2812 2815 2818 2821 2824 2827 2830 2833 2836 2839 2842 2845 2848 2851 2854 2856 2859 2862 2865 2868 2870 2873 2876 2879 2882 2885 2887 2889 2891 2894 2897 2900 2903 2905 2908 2910 2912 2914 2917 2920 2923 2926 2929 2931 2934 2937 2940 2943 2946 2949 2952 2955 2958 2961 2964 2966 2969 2972 2975 2978 2981 2984 2987 2990 2993 2996 2999 3002 3005 3008 3011 3014 3017 3019 3022 3025 3028 3031 3034 3037 3040 3043 3046 3049 3052 3055 3058 3061 3063 3065 3068 3071 3073 3076 3079 3082 3085 3087 3090 3093 3095 3098 3101 3104 3107 3110 3112 3115 3118 3121 3124 3127 3130 3133 3135 3138 3141 3144 3146 3148 3151 3154 3157 3160 3163 3166 3168 3171 3174 3177 3180 3183 3186 3189 3192 3195 3198 3201 3204 3207 3210 3213 3216 3219 3221 3224 3226 3229 3232 3235 3238 3241 3244 3247 3249 3252 3255 3258 3260 3263 3266 3269 3272 3275 3278 3281 3284 3287 3290 3293 3296 3299 3302 3305 3308 3311 3314 3317 3320 3323 3326 3329 3332 3335 3338 3341 3344 3347 3350 3353 3356 3359 3362 3365 3368 3371 3374 3377 3380 3383 3386 3389 3392 3395 3398 3401 3404 3407 3410 3413 3416 3419 3422 3425 3428 3431 3434 3437 3440 3443 3446 3449 3452 3455 3458 3461 3464 3467 3470 3473 3476 3479 3482 3485 3488 3491 3494 3497 3500 3503 3506 3509 3512 3515 3518 3521 3524 3527 3530 3533 3536 3539 3542 3545 3548 3551 3554 3557 3560 3563 3566 3569 3572 3575 3578 3581 3584 3587 3589 3592 3594 3597 3600 3602 3605 3607 3609 3612 3615 3618 3621 3624 3627 3630 3633 3636 3639 3642 3645 3648 3650 3653 3656 3659 3662 3665 3668 3671 3673 3676 3679 3682 3685 3688 3690 3693 3696 3699 3702 3705 3707 3709 3712 3715 3718 3721 3724 3727 3730 3733 3736 3739 3741 3743 3746 3749 3752 3755 3758 3761 3764 3767 3770 3773 3776 3778 3781 3784 3787 3790 3793 3796 3799 3802 3805 3808 3810 3813 3816 3818 3821 3824 3827 3830 3832 3835 3838 3841 3844 3846 3849 3852 3855 3858 3861 3864 3867 3870 3873 3876 3878 3881 3884 3887 3890 3893 3895 3898 3901 3904 3907 3910 3912 3915 3917 3920 3923 3925 3928 3931 3934 3937 3940 3943 3946 3949 3952 3955 3958 3961 3964 3967 3970 3973 3976 3979 3982 3985 3988 3991 3994 3997 4000 4003 4006 4009 4012 4015 4018 4021 4024 4027 4030 4032 4035 4038 4041 4044 4047 4050 4053 4056 4059 4062 4065 4068 4071 4074 4077 4080 4083 4085 4087 4090 4093 4095 4098 4101 4104 4107 4110 4113 4116 4119 4122 4125 4128 4131 4133 4136 4139 4142 4145 4147 4150 4153 4156 4159 4162 4165 4168 4171 4174 4177 4180 4183 4186 4189 4191 4194 4197 4200 4203 4206 4209 4212 4215 4218 4221 4224 4227 4229 4232 4234 4237 4240 4243 4246 4248 4251 4254 4257 4259 4262 4265 4267 4270 4273 4276 4279 4282 4285 4288 4290 4292 4295 4298 4301 4303 4306 4309 4312 4315 4318 4321 4324 4327 4330 4333 4336 4339 4342 4345 4348 4351 4354 4357 4360 4363 4366 4369 4372 4375 4377 4379 4381 4383 4386 4389 4392 4395 4397 4399 4402 4405 4408 4411 4414 4417 4420 4423 4426 4429 4432 4435 4438 4441 4444 4447 4449 4452 4455 4458 4461 4464 4467 4470 4473 4476 4479 4482 4485 4488 4491 4494 4496 4499 4502 4505 4508 4510 4513 4516 4518 4521 4524 4527 4529 4532 4535 4538 4541 4544 4547 4550 4553 4556 4559 4562 4565 4568 4571 4574 4577 4580 4582 4585 4587 4589 4592 4595 4597 4600 4603 4606 4609 4612 4615 4618 4620 4623 4625 4628 4631 4633 4635 4638 4641 4644 4647 4650 4652 4655 4658 4661 4664 4667 4670 4673 4676 4679 4682 4685 4688 4691 4694 4696 4699 4701 4704 4707 4710 4713 4715 4718 4721 4724 4727 4730 4732 4735 4738 4741 4744 4747 4750 4753 4756 4759 4762 4765 4768 4770 4773 4775 4778 4781 4784 4787 4790 4793 4796 4799 4802 4805 4808 4811 4814 4817 4820 4823 4826 4829 4832 4835 4838 4841 4844 4847 4850 4853 4856 4859 4862 4865 4868 4871 4874 4877 4880 4883 4886 4889 4892 4894 4897 4900 4902 4905 4908 4911 4913 4916 4919 4922 4924 4926 4928 4931 4933 4936 4939 4942 4944 4947 4950 4953 4955 4958 4960 4963 4966 4968 4971 4974 4977 4980 4983 4986 4989 4992 4995 4998 5001 5004 5007 5010 5013 5016 5019 5022 5024 5027 5030 5033 5036 5039 5042 5045 5048 5051 5054 5057 5060 5063 5066 5069 5072 5075 5078 5081 5084 5087 5090 5093 5096 5099 5102 5105 5108 5111 5113 5116 5119 5122 5125 5128 5131 5134 5137 5140 5143 5146 5149 5152 5155 5158 5161 5164 5166 5169 5172 5175 5178 5181 5184 5187 5190 5193 5196 5199 5202 5205 5208 5211 5214 5217 5220 5223 5226 5229 5232 5235 5238 5241 5244 5247 5250 5253 5256 5259 5261 5264 5267 5270 5273 5276 5279 5282 5284 5287 5290 5292 5295 5298 5301 5303 5306 5308 5311 5314 5317 5320 5323 5326 5328 5331 5334 5337 5339 5342 5345 5348 5351 5354 5357 5360 5363 5366 5369 5372 5375 5378 5381 5384 5387 5390 5393 5396 5399 5402 5405 5408 5411 5414 5416 5419 5422 5425 5428 5431 5434 5437 5440 5442 5445 5448 5451 5454 5457 5460 5463 5466 5469 5472 5475 5478 5481 5484 5487 5490 5493 5495 5498 5501 5504 5507 5510 5513 5516 5519 5522 5525 5528 5531 5534 5537 5540 5543 5546 5549 5552 5555 5558 5561 5564 5567 5570 5573 5576 5579 5582 5585 5588 5591 5594 5597 5600 5603 5606 5609 5612 5615 5618 5621 5624 5627 5630 5633 5636 5639 5642 5645 5648 5651 5654 5657 5660 5663 5666 5669 5672 5675 5678 5681 5684 5687 5690 5693 5696 5699 5702 5705 5708 5711 5714 5717 5720 5723 5726 5729 5732 5735 5738 5741 5744 5747 5750 5753 5756 5759 5762 5765 5768 5771 5774 5777 5780 5783 5785 5788 5790 5793 5796 5799 5801 5804 5807 5810 5812 5815 5818 5821 5824 5827 5830 5833 5836 5839 5842 5844 5847 5850 5853 5856 5859 5862 5865 5868 5871 5874 5877 5880 5883 5886 5889 5892 5895 5898 5901 5904 5907 5910 5913 5916 5919 5922 5925 5928 5931 5934 5937 5940 5943 5946 5949 5952 5955 5958 5961 5963 5966 5969 5972 5975 5978 5980 5983 5986 5989 5992 5995 5998 6001 6003 6006 6009 6012 6014 6017 6020 6023 6026 6028 6030 6033 6036 6039 6042 6045 6048 6051 6054 6057 6060 6063 6066 6069 6071 6074 6077 6080 6083 6086 6089 6092 6095 6097 6100 6102 6105 6108 6111 6114 6117 6120 6123 6126 6128 6131 6133 6136 6139 6142 6145 6148 6151 6154 6157 6159 6162 6164 6166 6169 6172 6175 6178 6181 6184 6186 6189 6192 6195 6198 6200 6202 6205 6207 6210 6212 6215 6218 6220 6223 6226 6228 6231 6234 6237 6239 6242 6245 6248 6251 6253 6256 6259 6262 6264 6267 6269 6272 6275 6278 6281 6284 6287 6290 6293 6295 6298 6300 6302 6304 6307 6310 6313 6315 6318 6321 6324 6327 6330 6333 6336 6339 6342 6345 6348 6351 6354 6356 6359 6361 6364 6367 6369 6372 6375 6378 6381 6384 6387 6389 6392 6395 6398 6401 6404 6407 6410 6413 6415 6418 6421 6424 6426 6429 6432 6435 6438 6441 6444 6447 6450 6453 6456 6458 6461 6464 6467 6470 6473 6476 6479 6482 6485 6488 6491 6494 6497 6500 6503 6506 6509 6512 6515 6518 6520 6523 6526 6529 6532 6535 6538 6541 6544 6547 6549 6552 6555 6558 6561 6564 6567 6570 6573 6575 6578 6581 6584 6587 6590 6593 6596 6599 6602 6604 6606 6609 6612 6615 6617 6620 6623 6626 6629 6632 6635 6638 6641 6644 6647 6650 6653 6656 6659 6662 6665 6668 6671 6674 6677 6679 6682 6684 6687 6690 6693 6696 6699 6702 6705 6708 6711 6714 6717 6720 6723 6726 6729 6732 6735 6738 6740 6743 6746 6749 6752 6754 6757 6760 6763 6766 6769 6772 6775 6778 6781 6783 6786 6789 6792 6795 6798 6801 6804 6807 6810 6813 6816 6819 6822 6825 6828 6831 6834 6837 6840 6843 6846 6849 6852 6854 6857 6860 6863 6866 6869 6872 6875 6878 6881 6884 6887 6890 6893 6896 6898 6901 6904 6907 6910 6913 6916 6919 6922 6925 6928 6930 6933 6936 6939 6942 6944 6946 6949 6951 6954 6957 6960 6963 6966 6969 6971 6974 6977 6980 6983 6986 6989 6992 6994 6997 7000 7003 7006 7008 7011 7013 7016 7019 7022 7025 7028 7031 7034 7037 7040 7043 7046 7049 7052 7054 7056 7059 7062 7064 7067 7070 7073 7075 7078 7081 7084 7086 7089 7092 7094 7097 7100 7103 7106 7109 7112 7115 7118 7121 7123 7126 7129 7132 7135 7137 7140 7143 7146 7148 7151 7154 7157 7160 7162 7165 7168 7171 7174 7176 7179 7182 7185 7188 7190 7193 7196 7199 7202 7205 7208 7210 7212 7215 7218 7221 7224 7227 7230 7232 7235 7238 7240 7243 7246 7249 7251 7254 7256 7259 7262 7265 7268 7271 7274 7277 7280 7283 7286 7289 7292 7295 7298 7301 7304 7307 7309 7312 7315 7318 7321 7324 7326 7329 7332 7335 7338 7341 7344 7347 7350 7353 7356 7359 7362 7365 7368 7371 7374 7377 7380 7382 7385 7388 7390 7393 7395 7398 7400 7403 7406 7408 7411 7414 7417 7420 7423 7426 7428 7431 7434 7437 7440 7443 7445 7447 7450 7453 7456 7458 7461 7464 7467 7470 7473 7475 7478 7481 7484 7487 7490 7493 7496 7499 7502 7505 7508 7511 7514 7517 7520 7523 7526 7529 7532 7535 7538 7541 7544 7547 7550 7553 7556 7559 7562 7564 7567 7570 7572 7575 7578 7581 7584 7587 7589 7592 7595 7598 7601 7604 7607 7610 7613 7616 7619 7622 7624 7627 7630 7633 7636 7639 7642 7645 7648 7651 7654 7657 7660 7662 7665 7668 7671 7673 7676 7679 7681 7683 7685 7688 7690 7693 7695 7698 7700 7703 7705 7708 7710 7713 7716 7718 7720 7723 7726 7729 7732 7735 7738 7740 7743 7746 7748 7750 7753 7756 7759 7762 7765 7768 7771 7774 7777 7780 7783 7785 7788 7791 7794 7797 7800 7803 7805 7808 7811 7814 7816 7819 7821 7824 7827 7830 7833 7836 7839 7842 7845 7848 7851 7854 7857 7860 7863 7866 7869 7872 7875 7878 7881 7884 7887 7890 7893 7896 7899 7902 7905 7908 7911 7914 7917 7920 7923 7926 7929 7932 7935 7938 7941 7944 7947 7949 7952 7954 7957 7960 7963 7966 7969 7972 7975 7978 7981 7984 7987 7990 7993 7996 7999 8002 8005 8008 8011 8014 8017 8020 8023 8026 8029 8032 8034 8037 8040 8043 8046 8049 8052 8055 8058 8061 8064 8067 8070 8073 8076 8079 8082 8085 8088 8091 8094 8097 8100 8103 8105 8107 8110 8113 8115 8118 8121 8124 8127 8130 8133 8136 8139 8142 8145 8148 8151 8153 8155 8158 8161 8164 8167 8170 8172 8175 8177 8180 8183 8186 8188 8191 8193 8195 8198 8200 8203 8206 8209 8212 8215 8218 8221 8224 8227 8230 8233 8236 8239 8242 8245 8248 8251 8254 8257 8260 8263 8266 8269 8272 8275 8278 8281 8284 8286 8289 8292 8295 8298 8301 8303 8306 8309 8312 8315 8318 8321 8323 8326 8329 8332 8335 8338 8341 8343 8346 8349 8352 8355 8358 8361 8363 8366 8368 8371 8373 8376 8379 8382 8385 8388 8391 8394 8397 8400 8403 8406 8409 8411 8414 8417 8420 8422 8425 8428 8431 8434 8436 8439 8441 8444 8447 8450 8453 8456 8459 8462 8465 8468 8471 8474 8477 8480 8483 8485 8488 8491 8493 8496 8499 8502 8505 8508 8511 8514 8517 8519 8522 8525 8528 8531 8534 8537 8540 8543 8545 8548 8551 8554 8557 8560 8563 8565 8568 8571 8574 8577 8580 8583 8586 8589 8592 8595 8598 8601 8604 8607 8610 8613 8616 8619 8622 8625 8628 8631 8634 8637 8640 8643 8646 8649 8652 8655 8658 8661 8664 8667 8670 8673 8676 8679 8682 8685 8688 8691 8694 8697 8700 8703 8706 8708 8711 8714 8717 8720 8723 8726 8729 8732 8735 8737 8740 8743 8745 8748 8751 8754 8756 8759 8761 8763 8766 8769 8771 8774 8777 8780 8783 8786 8789 8792 8795 8798 8801 8803 8806 8809 8811 8814 8817 8820 8822 8825 8828 8831 8834 8837 8840 8843 8846 8849 8852 8855 8857 8860 8863 8866 8869 8872 8875 8877 8880 8883 8886 8889 8892 8894 8897 8900 8903 8906 8909 8912 8914 8917 8920 8923 8926 8929 8931 8934 8937 8940 8943 8946 8949 8952 8955 8957 8960 8963 8966 8969 8972 8975 8978 8981 8984 8986 8989 8992 8994 8997 9000 9003 9006 9008 9011 9014 9016 9019 9022 9025 9028 9031 9034 9037 9040 9043 9046 9049 9052 9055 9058 9060 9063 9066 9069 9072 9075 9078 9081 9084 9086 9089 9092 9094 9097 9100 9103 9106 9109 9112 9115 9117 9120 9123 9126 9129 9132 9135 9137 9140 9143 9146 9149 9152 9155 9158 9160 9163 9166 9169 9171 9174 9177 9180 9183 9185 9188 9191 9194 9197 9200 9203 9206 9209 9212 9215 9218 9220 9223 9226 9229 9232 9235 9238 9240 9243 9246 9248 9251 9254 9257 9260 9263 9266 9269 9272 9275 9277 9280 9283 9286 9289 9291 9294 9296 9299 9302 9305 9308 9311 9313 9316 9319 9322 9324 9327 9330 9333 9336 9339 9342 9345 9348 9350 9353 9356 9359 9362 9365 9367 9370 9373 9376 9379 9381 9384 9387 9390 9392 9395 9398 9401 9404 9407 9410 9413 9416 9419 9421 9424 9427 9430 9433 9436 9439 9442 9445 9448 9450 9453 9456 9458 9461 9464 9467 9470 9473 9476 9479 9482 9485 9488 9491 9494 9497 9500 9503 9506 9508 9511 9514 9516 9519 9522 9525 9527 9530 9533 9536 9538 9541 9544 9547 9550 9553 9556 9558 9561 9564 9567 9570 9573 9576 9579 9582 9585 9588 9591 9593 9596 9599 9601 9603 9606 9609 9612 9615 9618 9621 9623 9626 9629 9632 9635 9638 9641 9643 9646 9649 9652 9655 9658 9661 9664 9667 9670 9673 9676 9679 9682 9684 9687 9690 9693 9696 9699 9702 9705 9708 9710 9712 9715 9718 9721 9724 9726 9729 9732 9735 9738 9741 9744 9747 9750 9753 9756 9759 9762 9764 9767 9770 9773 9776 9778 9781 9783 9785 9788 9791 9794 9797 9799 9802 9805 9808 9811 9814 9817 9819 9822 9825 9828 9831 9834 9837 9840 9843 9846 9849 9852 9855 9858 9861 9864 9867 9869 9871 9874 9877 9880 9882 9885 9888 9891 9894 9897 9899 9902 9905 9908 9911 9914 9917 9919 9922 9925 9928 9931 9933 9936 9939 9942 9945 9948 9951 9954 9956 9959 9962 9965 9967 9969 9972 9975 9977 9980 9983 9986 9989 9992 9995 9998 10001 10003 10006 10009 10012 10014 10017 10020 10023 10025 10028 10031 10033 10036 10039 10042 10045 10047 10050 10052 10054 10057 10060 10063 10066 10069 10072 10075 10078 10081 10084 10087 10090 10093 10096 10099 10102 10105 10108 10111 10114 10117 10120 10123 10126 10129 10132 10135 10137 10140 10143 10146 10148 10151 10154 10157 10160 10163 10165 10167 10170 10172 10175 10178 10181 10183 10186 10189 10192 10194 10197 10200 10203 10206 10209 10212 10215 10218 10221 10224 10227 10230 10233 10236 10239 10242 10245 10247 10250 10252 10255 10258 10261 10264 10267 10270 10273 10276 10278 10281 10284 10287 10290 10293 10296 10299 10302 10305 10307 10309 10312 10315 10318 10320 10323 10326 10329 10332 10334 10337 10340 10343 10346 10349 10352 10355 10357 10359 10362 10365 10368 10370 10373 10376 10379 10382 10385 10388 10391 10394 10397 10400 10402 10405 10408 10411 10413 10416 10418 10421 10424 10427 10430 10433 10436 10439 10441 10444 10447 10450 10453 10455 10458 10461 10464 10467 10470 10473 10475 10478 10481 10484 10487 10490 10493 10496 10499 10502 10505 10508 10510 10513 10516 10519 10522 10524 10527 10530 10532 10535 10538 10541 10544 10547 10550 10553 10556 10559 10562 10564 10567 10570 10573 10575 10578 10581 10584 10587 10589 10592 10595 10597 10600 10602 10604 10607 10610 10613 10616 10619 10622 10625 10628 10631 10634 10637 10640 10643 10646 10649 10652 10655 10658 10660 10663 10665 10668 10671 10673 10676 10678 10681 10684 10687 10690 10693 10696 10699 10702 10705 10708 10711 10714 10717 10720 10723 10726 10729 10732 10735 10738 10741 10744 10747 10750 10753 10756 10759 10762 10765 10768 10771 10774 10777 10780 10783 10786 10789 10792 10794 10797 10800 10803 10805 10808 10811 10814 10816 10819 10821 10824 10827 10830 10833 10836 10839 10842 10844 10847 10850 10853 10856 10859 10862 10864 10867 10870 10873 10875 10878 10881 10884 10887 10889 10892 10895 10898 10900 10903 10905 10908 10911 10914 10916 10919 10922 10925 10928 10931 10934 10937 10940 10942 10945 10948 10950 10953 10956 10959 10962 10965 10968 10970 10973 10976 10979 10982 10985 10988 10991 10994 10997 11000 11003 11006 11009 11012 11015 11018 11021 11024 11027 11030 11033 11036 11039 11042 11045 11048 11051 11054 11057 11060 11063 11066 11069 11072 11075 11078 11081 11084 11087 11090 11093 11096 11099 11102 11104 11107 11110 11113 11116 11119 11122 11125 11127 11130 11133 11136 11139 11142 11145 11147 11150 11153 11156 11159 11162 11164 11167 11170 11172 11175 11178 11181 11184 11187 11190 11192 11195 11198 11201 11203 11206 11209 11212 11214 11217 11220 11223 11226 11229 11232 11234 11237 11240 11243 11246 11249 11252 11255 11258 11261 11264 11267 11270 11273 11276 11279 11281 11284 11286 11289 11291 11294 11296 11298 11301 11303 11306 11309 11311 11314 11317 11320 11323 11325 11328 11331 11333 11335 11338 11341 11344 11347 11350 11353 11356 11358 11361 11363 11366 11369 11372 11375 11377 11379 11382 11385 11387 11390 11393 11396 11399 11402 11405 11408 11411 11413 11416 11418 11421 11424 11427 11430 11432 11435 11438 11441 11443 11445 11448 11451 11454 11457 11460 11463 11466 11469 11472 11475 11478 11481 11483 11486 11489 11492 11495 11498 11501 11503 11506 11509 11512 11515 11517 11520 11523 11526 11529 11532 11535 11538 11541 11544 11547 11550 11553 11556 11559 11562 11565 11567 11570 11572 11575 11578 11581 11584 11586 11588 11591 11593 11596 11599 11601 11604 11607 11610 11612 11615 11618 11621 11623 11626 11628 11631 11634 11637 11640 11643 11645 11648 11650 11653 11655 11658 11661 11664 11666 11669 11672 11674 11677 11680 11683 11686 11689 11692 11695 11698 11701 11704 11707 11709 11712 11715 11718 11721 11723 11726 11729 11732 11735 11738 11741 11743 11745 11748 11751 11754 11756 11759 11761 11763 11766 11769 11772 11774 11777 11780 11783 11786 11789 11791 11794 11797 11800 11803 11806 11809 11812 11815 11818 11820 11823 11826 11828 11831 11834 11837 11840 11843 11846 11849 11851 11854 11857 11859 11861 11864 11867 11870 11872 11875 11877 11880 11883 11885 11888 11891 11893 11895 11898 11901 11904 11906 11909 11911 11914 11916 11919 11922 11925 11928 11931 11934 11937 11939 11941 11944 11947 11950 11953 11956 11959 11962 11965 11967 11970 11973 11976 11979 11982 11985 11988 11991 11994 11997 12000 12003 12006 12009 12012 12014 12017 12020 12023 12026 12029 12032 12035 12038 12040 12043 12046 12049 12052 12055 12058 12061 12063 12066 12069 12072 12075 12078 12081 12084 12087 12090 12093 12096 12099 12102 12105 12107 12110 12113 12116 12119 12122 12125 12128 12131 12133 12136 12139 12142 12145 12147 12150 12153 12156 12159 12162 12165 12168 12171 12174 12177 12180 12183 12186 12189 12192 12194 12197 12200 12203 12206 12208 12211 12213 12216 12219 12222 12225 12227 12230 12233 12236 12239 12241 12244 12246 12249 12252 12255 12258 12261 12264 12267 12270 12272 12275 12278 12280 12282 12285 12288 12291 12293 12295 12298 12300 12302 12305 12308 12311 12314 12316 12319 12321 12324 12327 12330 12332 12335 12338 12340 12343 12346 12348 12351 12353 12356 12358 12361 12364 12367 12370 12373 12376 12378 12380 12383 12386 12388 12390 12392 12394 12397 12399 12401 12404 12406 12409 12412 12415 12417 12419 12422 12425 12427 12430 12433 12436 12438 12441 12444 12447 12449 12452 12454 12457 12460 12462 12465 12468 12471 12474 12477 12479 12482 12485 12488 12491 12494 12497 12500 12503 12506 12509 12512 12515 12518 12520 12523 12526 12528 12531 12534 12537 12540 12543 12546 12549 12552 12555 12558 12561 12564 12567 12570 12573 12576 12579 12582 12585 12588 12591 12594 12597 12600 12602 12605 12608 12611 12614 12617 12619 12622 12625 12628 12631 12634 12637 12640 12643 12646 12649 12652 12655 12658 12661 12664 12667 12669 12672 12675 12678 12681 12684 12687 12689 12692 12695 12698 12701 12704 12706 12709 12712 12714 12716 12719 12722 12725 12728 12731 12734 12737 12740 12743 12746 12749 12752 12755 12758 12761 12764 12767 12770 12773 12776 12778 12781 12784 12787 12790 12793 12795 12798 12801 12803 12806 12808 12811 12814 12816 12818 12820 12823 12826 12828 12831 12834 12837 12840 12843 12845 12848 12851 12854 12857 12860 12863 12866 12869 12872 12875 12878 12881 12884 12886 12889 12892 12895 12898 12901 12904 12907 12909 12912 12915 12918 12921 12923 12926 12929 12931 12934 12937 12940 12943 12946 12949 12952 12955 12958 12961 12964 12967 12969 12972 12975 12978 12981 12983 12986 12989 12992 12995 12998 13001 13004 13007 13009 13012 13014 13017 13019 13022 13025 13028 13031 13034 13037 13040 13043 13046 13049 13052 13055 13058 13061 13064 13067 13070 13073 13076 13079 13082 13085 13088 13091 13093 13096 13099 13102 13104 13107 13110 13113 13116 13119 13122 13124 13127 13130 13132 13135 13137 13140 13142 13145 13148 13151 13154 13157 13160 13163 13166 13169 13172 13175 13178 13181 13184 13187 13189 13192 13195 13198 13201 13204 13207 13210 13213 13216 13219 13222 13225 13227 13230 13233 13236 13239 13242 13245 13248 13251 13253 13256 13259 13262 13265 13267 13270 13273 13276 13279 13281 13284 13287 13290 13292 13295 13298 13301 13304 13306 13309 13312 13314 13317 13320 13323 13326 13328 13331 13334 13337 13340 13343 13346 13349 13352 13355 13358 13360 13363 13366 13369 13372 13374 13376 13379 13382 13385 13388 13391 13394 13397 13400 13403 13406 13409 13412 13415 13418 13421 13424 13427 13430 13433 13436 13439 13442 13445 13448 13451 13454 13457 13460 13463 13466 13469 13471 13474 13477 13480 13483 13486 13489 13492 13495 13498 13501 13504 13507 13510 13513 13516 13519 13522 13525 13528 13530 13533 13536 13539 13542 13545 13548 13551 13554 13557 13560 13563 13566 13569 13572 13575 13578 13581 13584 13587 13590 13593 13596 13599 13602 13605 13608 13611 13614 13617 13620 13622 13625 13628 13631 13633 13636 13639 13642 13645 13648 13651 13654 13656 13659 13662 13665 13668 13671 13674 13677 13680 13682 13685 13688 13690 13693 13696 13699 13702 13705 13708 13711 13713 13716 13719 13722 13725 13727 13730 13732 13734 13736 13739 13742 13745 13747 13750 13753 13756 13759 13762 13764 13766 13769 13772 13775 13777 13780 13783 13786 13789 13791 13794 13797 13800 13803 13806 13809 13812 13815 13818 13821 13824 13827 13830 13833 13836 13839 13842 13845 13847 13850 13853 13855 13857 13860 13862 13865 13867 13870 13873 13875 13878 13880 13882 13885 13888 13891 13893 13896 13899 13902 13905 13907 13910 13913 13916 13919 13922 13924 13927 13930 13933 13936 13938 13941 13943 13946 13949 13952 13955 13958 13961 13964 13967 13970 13972 13975 13978 13980 13983 13986 13989 13992 13995 13998 14001 14004 14007 14009 14012 14015 14018 14020 14023 14026 14029 14032 14035 14038 14041 14044 14047 14050 14053 14056 14059 14061 14064 14067 14070 14073 14075 14078 14081 14084 14087 14090 14093 14096 14099 14102 14105 14108 14111 14114 14117 14120 14123 14126 14129 14131 14134 14137 14140 14142 14144 14147 14150 14153 14156 14158 14161 14164 14166 14169 14172 14175 14177 14180 14182 14185 14188 14190 14193 14196 14199 14201 14203 14206 14208 14211 14214 14216 14219 14222 14225 14227 14229 14232 14235 14238 14241 14244 14246 14248 14251 14254 14256 14258 14260 14263 14266 14268 14271 14274 14277 14280 14283 14286 14289 14292 14295 14298 14301 14303 14306 14309 14312 14315 14318 14320 14322 14325 14327 14330 14333 14336 14339 14342 14345 14348 14350 14352 14355 14358 14360 14363 14366 14369 14372 14375 14378 14381 14383 14386 14389 14392 14395 14398 14401 14404 14407 14410 14412 14414 14417 14420 14422 14425 14428 14431 14434 14437 14440 14442 14445 14447 14450 14453 14456 14459 14461 14463 14466 14468 14471 14474 14477 14479 14482 14485 14488 14491 14494 14497 14500 14503 14506 14508 14511 14513 14516 14519 14522 14525 14528 14531 14534 14537 14539 14542 14545 14548 14551 14554 14556 14559 14562 14565 14568 14571 14574 14577 14580 14583 14586 14589 14592 14595 14598 14600 14603 14606 14609 14612 14614 14617 14620 14623 14626 14629 14632 14635 14638 14641 14644 14647 14650 14653 14656 14659 14662 14664 14667 14670 14673 14676 14679 14682 14685 14687 14690 14693 14696 14698 14701 14704 14707 14710 14713 14715 14717 14720 14723 14726 14729 14732 14735 14737 14740 14743 14745 14748 14750 14753 14755 14758 14760 14762 14765 14767 14770 14773 14775 14778 14780 14783 14786 14789 14792 14794 14797 14800 14803 14806 14808 14811 14814 14816 14819 14821 14824 14827 14829 14832 14835 14838 14840 14843 14846 14848 14850 14853 14856 14859 14861 14864 14867 14870 14873 14876 14879 14882 14885 14887 14890 14893 14896 14899 14902 14905 14908 14910 14913 14916 14919 14922 14925 14927 14930 14933 14936 14939 14941 14944 14947 14950 14952 14954 14957 14960 14963 14966 14969 14972 14975 14978 14980 14983 14986 14989 14992 14995 14998 15001 15004 15006 15009 15012 15015 15017 15020 15023 15026 15029 15032 15035 15038 15041 15044 15047 15050 15053 15056 15059 15061 15064 15067 15070 15073 15076 15079 15082 15085 15088 15091 15093 15096 15099 15102 15105 15108 15111 15114 15117 15120 15123 15126 15129 15132 15135 15138 15140 15143 15146 15148 15150 15153 15156 15159 15162 15165 15167 15169 15172 15175 15178 15181 15184 15187 15190 15193 15196 15199 15202 15205 15208 15211 15214 15217 15220 15222 15225 15228 15231 15234 15236 15239 15242 15244 15246 15248 15250 15253 15255 15258 15261 15264 15267 15269 15272 15275 15277 15280 15283 15286 15289 15292 15295 15298 15301 15304 15307 15309 15312 15315 15318 15321 15324 15327 15330 15332 15335 15338 15340 15343 15346 15349 15352 15355 15358 15361 15364 15367 15370 15373 15375 15378 15381 15384 15387 15390 15393 15396 15399 15402 15405 15408 15411 15414 15417 15420 15423 15426 15429 15431 15434 15437 15440 15443 15446 15449 15452 15454 15457 15460 15463 15465 15468 15471 15473 15476 15479 15482 15484 15487 15490 15493 15496 15499 15502 15505 15508 15511 15514 15517 15520 15523 15526 15529 15532 15535 15538 15541 15544 15547 15550 15553 15556 15559 15562 15565 15568 15570 15573 15576 15579 15582 15585 15588 15591 15594 15597 15600 15603 15606 15609 15612 15615 15618 15621 15624 15627 15630 15632 15635 15638 15641 15644 15647 15650 15653 15656 15659 15662 15665 15667 15669 15672 15675 15678 15681 15684 15686 15689 15691 15694 15697 15700 15703 15706 15709 15712 15715 15718 15721 15723 15726 15729 15731 15734 15737 15740 15743 15746 15749 15752 15755 15757 15760 15762 15765 15768 15771 15774 15777 15780 15783 15786 15789 15792 15795 15798 15801 15804 15807 15810 15813 15816 15818 15821 15824 15827 15830 15833 15835 15838 15841 15844 15847 15849 15852 15855 15858 15860 15863 15865 15868 15871 15874 15877 15880 15883 15886 15889 15892 15895 15898 15901 15904 15906 15909 15912 15915 15918 15921 15923 15926 15929 15932 15934 15936 15939 15942 15945 15948 15951 15953 15956 15958 15961 15963 15965 15968 15971 15973 15976 15978 15981 15983 15986 15989 15991 15994 15997 15999 16002 16005 16008 16011 16014 16016 16019 16022 16024 16027 16030 16033 16036 16039 16042 16045 16048 16051 16054 16057 16059 16061 16064 16067 16070 16072 16075 16078 16081 16084 16087 16090 16092 16095 16098 16101 16103 16106 16109 16112 16115 16118 16121 16124 16127 16130 16133 16136 16139 16142 16145 16148 16151 16154 16157 16160 16163 16165 16168 16171 16174 16177 16180 16183 16186 16189 16192 16195 16197 16200 16203 16206 16209 16212 16215 16218 16221 16223 16226 16229 16232 16235 16238 16241 16244 16246 16249 16252 16255 16258 16260 16263 16266 16269 16271 16274 16276 16279 16281 16283 16286 16288 16291 16294 16296 16299 16301 16304 16307 16309 16312 16315 16318 16321 16323 16326 16329 16332 16334 16337 16340 16343 16346 16349 16352 16355 16358 16361 16363 16365 16368 16370 16373 16376 16379 16381 16384 16386 16389 16391 16394 16397 16399 16402 16405 16407 16410 16412 16415 16418 16421 16423 16426 16429 16432 16435 16437 16439 16442 16445 16448 16451 16454 16457 16460 16463 16465 16468 16470 16472 16475 16478 16480 16483 16486 16489 16492 16495 16497 16500 16503 16505 16508 16510 16513 16516 16519 16522 16525 16528 16531 16534 16537 16539 16542 16544 16547 16550 16553 16555 16558 16561 16564 16567 16569 16572 16575 16577 16580 16583 16586 16589 16592 16595 16598 16601 16604 16607 16610 16613 16616 16619 16622 16625 16628 16631 16634 16637 16640 16643 16646 16649 16652 16655 16658 16661 16664 16667 16670 16673 16676 16679 16682 16685 16688 16691 16694 16697 16700 16703 16706 16709 16712 16715 16718 16721 16724 16727 16729 16732 16734 16737 16740 16743 16746 16749 16752 16755 16758 16761 16764 16767 16769 16772 16775 16778 16781 16784 16787 16789 16792 16794 16797 16800 16802 16805 16808 16811 16813 16816 16818 16821 16824 16827 16830 16832 16835 16837 16840 16843 16845 16848 16851 16853 16856 16859 16861 16864 16867 16870 16873 16875 16878 16881 16884 16887 16890 16893 16896 16899 16901 16904 16907 16910 16913 16915 16918 16921 16923 16926 16929 16932 16935 16937 16940 16942 16945 16948 16951 16954 16957 16960 16963 16966 16969 16972 16975 16978 16981 16984 16987 16990 16993 16996 16999 17002 17005 17008 17011 17014 17017 17020 17023 17026 17029 17032 17035 17038 17041 17044 17046 17049 17052 17055 17057 17060 17063 17066 17068 17070 17073 17076 17079 17082 17084 17087 17090 17093 17096 17099 17102 17105 17107 17110 17113 17115 17118 17121 17124 17127 17130 17133 17136 17139 17142 17145 17148 17151 17154 17157 17160 17163 17166 17169 17172 17175 17178 17181 17184 17187 17190 17193 17196 17199 17201 17204 17207 17209 17212 17215 17217 17220 17223 17226 17229 17232 17234 17236 17239 17242 17244 17247 17250 17252 17254 17257 17259 17262 17265 17268 17271 17274 17277 17280 17282 17285 17288 17291 17294 17296 17299 17302 17305 17308 17311 17314 17317 17320 17323 17326 17328 17331 17334 17337 17340 17343 17346 17349 17352 17355 17358 17360 17363 17365 17368 17371 17374 17377 17380 17383 17386 17389 17392 17395 17398 17401 17403 17406 17409 17411 17414 17417 17419 17422 17425 17428 17431 17434 17437 17440 17443 17446 17449 17452 17455 17458 17461 17463 17466 17469 17472 17474 17477 17480 17483 17485 17488 17491 17494 17497 17500 17502 17505 17508 17510 17512 17515 17518 17520 17523 17525 17528 17531 17534 17537 17539 17542 17545 17548 17551 17553 17556 17559 17562 17564 17567 17570 17573 17576 17579 17581 17584 17587 17590 17593 17596 17599 17601 17604 17607 17610 17613 17615 17618 17621 17624 17627 17630 17633 17635 17638 17641 17644 17647 17650 17653 17656 17658 17661 17664 17667 17669 17671 17674 17677 17680 17682 17684 17687 17690 17693 17696 17699 17701 17704 17707 17710 17713 17715 17718 17721 17723 17726 17729 17732 17735 17738 17741 17744 17747 17749 17752 17755 17758 17761 17763 17766 17768 17771 17774 17777 17780 17782 17784 17787 17790 17793 17796 17799 17801 17803 17806 17809 17812 17815 17818 17821 17824 17827 17830 17833 17836 17839 17842 17845 17847 17850 17852 17855 17858 17861 17864 17867 17870 17873 17876 17879 17882 17885 17887 17890 17893 17896 17898 17900 17903 17906 17909 17911 17914 17917 17919 17922 17925 17928 17931 17934 17936 17939 17942 17944 17947 17950 17953 17955 17958 17961 17964 17966 17969 17972 17975 17978 17981 17984 17987 17990 17992 17995 17998 18001 18004 18007 18009 18012 18015 18018 18021 18024 18027 18030 18033 18036 18038 18041 18043 18046 18049 18052 18055 18058 18061 18064 18067 18070 18073 18075 18078 18081 18084 18087 18090 18093 18096 18099 18102 18105 18108 18111 18114 18117 18120 18123 18126 18129 18132 18135 18138 18141 18144 18147 18150 18153 18156 18159 18162 18165 18168 18171 18174 18177 18180 18183 18186 18189 18192 18194 18197 18200 18203 18206 18209 18212 18215 18218 18221 18224 18227 18230 18233 18236 18239 18241 18244 18247 18250 18252 18255 18258 18261 18264 18267 18269 18272 18275 18278 18281 18284 18287 18290 18293 18296 18299 18302 18305 18307 18310 18313 18316 18319 18322 18325 18328 18331 18334 18337 18340 18343 18346 18349 18352 18355 18358 18361 18364 18367 18369 18372 18375 18378 18381 18384 18387 18390 18393 18396 18399 18402 18405 18408 18411 18414 18417 18420 18423 18426 18429 18431 18433 18436 18439 18442 18445 18448 18450 18453 18456 18459 18462 18465 18468 18471 18474 18477 18480 18483 18486 18489 18492 18495 18498 18501 18504 18507 18510 18513 18516 18519 18522 18525 18528 18531 18534 18536 18539 18541 18544 18547 18550 18552 18555 18558 18561 18564 18567 18570 18573 18576 18579 18582 18585 18588 18590 18593 18596 18599 18602 18605 18608 18611 18614 18616 18619 18622 18625 18627 18630 18633 18636 18639 18642 18645 18648 18650 18653 18655 18658 18661 18664 18667 18670 18673 18676 18679 18682 18685 18688 18691 18694 18697 18700 18703 18706 18709 18711 18714 18717 18720 18723 18726 18729 18732 18734 18737 18740 18743 18745 18748 18751 18754 18757 18760 18763 18765 18768 18771 18774 18777 18780 18783 18786 18789 18792 18794 18797 18800 18803 18806 18809 18812 18815 18818 18821 18824 18827 18830 18833 18836 18839 18842 18844 18847 18849 18852 18855 18858 18861 18864 18867 18870 18873 18876 18879 18881 18884 18887 18890 18892 18895 18898 18901 18904 18907 18910 18913 18916 18919 18922 18925 18928 18931 18934 18937 18940 18943 18946 18949 18952 18955 18957 18960 18963 18966 18969 18972 18975 18978 18980 18983 18986 18989 18992 18995 18998 19001 19004 19007 19010 19012 19015 19018 19021 19024 19027 19030 19033 19036 19039 19042 19044 19047 19050 19052 19055 19057 19060 19063 19066 19069 19072 19074 19077 19080 19083 19086 19089 19092 19095 19098 19101 19104 19107 19110 19113 19116 19118 19121 19124 19127 19130 19133 19136 19139 19142 19145 19148 19151 19154 19157 19160 19163 19166 19169 19172 19175 19178 19181 19184 19187 19190 19193 19196 19199 19202 19205 19207 19210 19213 19216 19219 19222 19225 19228 19231 19234 19237 19240 19243 19246 19249 19252 19255 19258 19261 19264 19267 19270 19272 19275 19278 19281 19284 19287 19290 19293 19296 19299 19302 19305 19307 19310 19312 19314 19317 19320 19323 19325 19328 19331 19333 19336 19339 19341 19344 19347 19350 19353 19356 19359 19362 19365 19368 19371 19374 19377 19380 19383 19386 19388 19391 19394 19397 19399 19402 19405 19408 19411 19414 19417 19420 19423 19426 19429 19432 19435 19438 19441 19444 19447 19450 19453 19456 19459 19462 19464 19467 19470 19473 19476 19479 19482 19485 19487 19490 19493 19496 19499 19502 19505 19508 19511 19514 19517 19520 19522 19525 19528 19531 19533 19536 19539 19542 19544 19547 19550 19553 19556 19559 19562 19565 19568 19571 19574 19577 19580 19582 19585 19588 19590 19593 19596 19599 19601 19604 19607 19610 19612 19615 19618 19621 19624 19627 19630 19632 19635 19638 19640 19643 19646 19649 19652 19654 19657 19660 19663 19665 19668 19670 19672 19675 19678 19681 19684 19687 19689 19692 19695 19697 19700 19703 19705 19708 19711 19714 19717 19720 19723 19725 19728 19731 19734 19736 19739 19741 19744 19747 19749 19752 19755 19758 19760 19763 19766 19769 19772 19775 19778 19780 19782 19785 19788 19791 19793 19796 19799 19801 19804 19807 19809 19812 19815 19818 19821 19824 19827 19830 19833 19835 19837 19839 19842 19845 19848 19850 19853 19855 19858 19861 19863 19866 19869 19871 19874 19877 19879 19882 19885 19888 19891 19894 19896 19899 19902 19905 19907 19909 19912 19914 19917 19920 19923 19926 19929 19932 19935 19938 19941 19944 19947 19949 19952 19955 19958 19961 19963 19966 19969 19972 19975 19978 19981 19984 19987 19990 19993 19996 19998 20001 20004 20007 20010 20012 20015 20017 20020 20023 20026 20029 20032 20035 20038 20041 20044 20047 20050 20053 20056 20059 20062 20065 20068 20071 20074 20077 20079 20082 20085 20088 20091 20094 20096 20098 20101 20104 20107 20110 20113 20115 20118 20121 20124 20127 20130 20133 20136 20139 20142 20145 20148 20150 20153 20156 20159 20162 20164 20167 20169 20172 20175 20178 20180 20183 20186 20189 20191 20194 20197 20200 20203 20206 20209 20211 20213 20216 20219 20222 20224 20226 20229 20232 20235 20237 20239 20242 20245 20248 20251 20254 20257 20260 20262 20265 20268 20271 20273 20276 20279 20282 20285 20288 20291 20294 20297 20299 20302 20305 20308 20311 20314 20317 20320 20322 20324 20327 20330 20333 20335 20338 20341 20344 20347 20350 20353 20355 20358 20360 20363 20366 20369 20372 20374 20377 20380 20383 20386 20389 20392 20395 20398 20401 20404 20407 20409 20412 20415 20418 20421 20424 20427 20430 20433 20436 20439 20442 20444 20447 20450 20453 20456 20459 20461 20464 20467 20469 20472 20475 20478 20481 20483 20486 20489 20492 20494 20497 20500 20502 20504 20506 20509 20512 20515 20517 20520 20523 20526 20529 20532 20535 20538 20541 20544 20547 20549 20552 20555 20557 20560 20563 20565 20568 20571 20574 20577 20580 20583 20585 20588 20591 20594 20597 20600 20603 20606 20609 20612 20614 20617 20620 20623 20626 20629 20632 20635 20638 20641 20644 20647 20650 20653 20656 20659 20662 20665 20668 20670 20673 20676 20679 20682 20685 20687 20689 20692 20694 20697 20700 20703 20705 20708 20710 20713 20716 20719 20722 20725 20728 20731 20734 20737 20740 20743 20746 20749 20751 20753 20756 20759 20762 20765 20767 20770 20773 20776 20778 20781 20784 20787 20790 20793 20796 20799 20802 20805 20808 20811 20814 20817 20820 20823 20826 20829 20832 20835 20838 20841 20844 20847 20850 20853 20856 20859 20862 20865 20868 20871 20874 20877 20879 20882 20885 20888 20891 20894 20897 20900 20903 20906 20909 20912 20915 20918 20920 20923 20926 20929 20931 20934 20937 20940 20943 20946 20948 20951 20954 20957 20960 20963 20966 20968 20971 20974 20977 20980 20983 20986 20988 20991 20994 20997 21000 21003 21005 21007 21010 21013 21016 21019 21022 21024 21027 21030 21033 21036 21039 21041 21044 21047 21050 21053 21056 21059 21062 21065 21068 21071 21074 21077 21080 21083 21086 21089 21092 21095 21098 21101 21104 21107 21110 21113 21116 21119 21121 21123 21126 21129 21132 21135 21138 21141 21144 21146 21149 21152 21155 21158 21161 21164 21167 21170 21173 21176 21179 21182 21185 21188 21191 21194 21197 21200 21203 21206 21209 21212 21215 21218 21221 21224 21227 21230 21233 21236 21239 21242 21245 21248 21251 21254 21257 21260 21263 21266 21269 21271 21274 21277 21280 21282 21284 21287 21290 21293 21296 21299 21302 21305 21308 21311 21314 21316 21319 21322 21325 21327 21330 21333 21336 21339 21342 21345 21348 21351 21353 21356 21359 21361 21364 21367 21370 21373 21376 21379 21381 21384 21387 21389 21392 21395 21398 21401 21403 21406 21408 21411 21413 21416 21419 21421 21424 21427 21430 21433 21436 21439 21442 21445 21448 21451 21454 21457 21459 21462 21465 21468 21471 21474 21477 21480 21483 21486 21489 21492 21495 21498 21501 21504 21507 21509 21511 21514 21516 21519 21522 21525 21527 21530 21533 21536 21539 21542 21544 21547 21550 21553 21555 21558 21561 21563 21566 21569 21571 21574 21577 21579 21582 21585 21588 21590 21593 21596 21599 21602 21605 21608 21610 21613 21616 21618 21621 21624 21627 21630 21633 21635 21638 21641 21643 21646 21649 21651 21653 21656 21658 21661 21664 21667 21670 21673 21676 21679 21682 21684 21687 21690 21693 21696 21699 21701 21704 21707 21710 21713 21716 21719 21722 21725 21728 21731 21734 21737 21740 21742 21744 21747 21750 21753 21755 21758 21761 21764 21767 21770 21773 21776 21779 21782 21785 21788 21791 21793 21796 21799 21802 21804 21807 21810 21813 21815 21818 21821 21824 21827 21830 21833 21835 21838 21841 21844 21847 21850 21853 21856 21858 21861 21864 21867 21870 21873 21876 21879 21882 21884 21887 21889 21892 21895 21898 21901 21904 21907 21910 21913 21916 21919 21921 21924 21927 21930 21932 21934 21937 21940 21943 21946 21949 21952 21955 21958 21961 21964 21967 21970 21973 21976 21979 21982 21985 21988 21991 21994 21997 22000 22003 22006 22009 22012 22015 22017 22020 22023 22025 22028 22031 22034 22037 22040 22043 22046 22049 22052 22055 22058 22061 22064 22067 22070 22073 22076 22078 22080 22083 22086 22088 22091 22093 22096 22099 22101 22104 22107 22110 22112 22114 22116 22119 22122 22125 22128 22131 22134 22137 22140 22143 22146 22149 22152 22155 22158 22161 22164 22167 22170 22173 22176 22179 22182 22185 22187 22190 22193 22196 22199 22202 22205 22208 22211 22213 22216 22219 22221 22224 22227 22230 22233 22236 22239 22242 22245 22248 22250 22252 22255 22258 22261 22264 22267 22270 22273 22276 22279 22282 22284 22287 22290 22293 22296 22299 22302 22305 22307 22310 22313 22315 22318 22321 22324 22327 22330 22333 22336 22339 22341 22344 22347 22350 22353 22356 22359 22362 22365 22368 22371 22374 22376 22379 22382 22385 22388 22391 22394 22397 22400 22403 22405 22407 22410 22413 22416 22419 22422 22425 22427 22430 22433 22436 22439 22441 22444 22447 22450 22453 22456 22458 22461 22464 22467 22470 22473 22476 22478 22481 22484 22487 22489 22492 22495 22498 22501 22504 22507 22510 22513 22516 22519 22522 22525 22528 22531 22534 22537 22540 22543 22546 22549 22551 22554 22557 22560 22562 22565 22568 22571 22574 22576 22579 22582 22584 22587 22590 22593 22596 22599 22602 22605 22608 22611 22614 22617 22620 22623 22626 22629 22632 22635 22638 22641 22644 22647 22650 22653 22656 22659 22662 22665 22668 22671 22674 22676 22679 22682 22685 22688 22691 22694 22697 22700 22702 22704 22707 22710 22713 22716 22719 22722 22725 22728 22731 22734 22737 22740 22743 22746 22749 22752 22755 22758 22761 22763 22766 22769 22772 22774 22777 22780 22783 22786 22788 22791 22793 22795 22798 22801 22804 22807 22810 22812 22815 22818 22821 22824 22827 22830 22833 22836 22838 22841 22844 22847 22850 22853 22856 22859 22862 22865 22868 22870 22873 22876 22879 22882 22884 22887 22890 22893 22896 22899 22902 22905 22908 22911 22914 22917 22920 22923 22926 22929 22932 22934 22937 22940 22942 22945 22948 22950 22953 22956 22959 22962 22964 22966 22969 22972 22975 22978 22981 22984 22987 22990 22992 22995 22997 23000 23003 23005 23007 23010 23013 23016 23019 23021 23024 23027 23030 23033 23036 23039 23041 23044 23047 23050 23053 23055 23058 23061 23064 23067 23070 23073 23076 23079 23082 23084 23086 23089 23092 23094 23097 23100 23103 23106 23109 23112 23115 23118 23121 23124 23127 23130 23133 23136 23139 23142 23145 23148 23151 23154 23157 23160 23163 23166 23169 23171 23174 23177 23180 23183 23186 23188 23191 23194 23197 23200 23202 23205 23208 23211 23214 23216 23219 23222 23224 23227 23230 23233 23236 23239 23242 23245 23248 23251 23254 23257 23260 23263 23266 23268 23271 23274 23277 23279 23282 23285 23288 23291 23294 23297 23300 23303 23306 23309 23312 23315 23318 23321 23324 23327 23330 23333 23336 23339 23342 23344 23347 23350 23353 23356 23359 23362 23365 23367 23370 23373 23376 23379 23382 23385 23388 23391 23394 23397 23400 23403 23406 23408 23411 23414 23416 23419 23422 23425 23428 23431 23433 23436 23439 23442 23445 23447 23449 23451 23454 23457 23460 23463 23465 23468 23471 23474 23477 23480 23482 23485 23488 23491 23494 23497 23499 23502 23504 23507 23510 23513 23516 23518 23521 23523 23526 23529 23532 23535 23537 23540 23543 23546 23549 23552 23555 23557 23560 23563 23566 23569 23572 23575 23577 23580 23583 23586 23589 23592 23595 23598 23601 23604 23607 23610 23613 23616 23619 23622 23625 23628 23631 23634 23637 23640 23643 23646 23649 23652 23655 23658 23661 23664 23667 23669 23672 23675 23678 23680 23682 23685 23688 23691 23694 23696 23699 23701 23703 23706 23709 23711 23714 23717 23719 23722 23724 23727 23730 23733 23736 23739 23742 23744 23747 23750 23752 23755 23758 23761 23764 23767 23770 23773 23775 23778 23781 23784 23787 23789 23792 23795 23798 23801 23803 23806 23809 23812 23815 23818 23820 23823 23826 23829 23831 23834 23837 23840 23843 23846 23849 23852 23855 23857 23860 23863 23866 23869 23872 23875 23878 23881 23884 23887 23890 23893 23896 23899 23902 23905 23908 23911 23914 23917 23919 23922 23925 23928 23931 23934 23937 23940 23942 23944 23947 23950 23953 23956 23958 23961 23964 23967 23970 23973 23976 23979 23982 23985 23987 23990 23993 23996 23999 24001 24004 24007 24010 24013 24016 24019 24022 24025 24028 24031 24034 24037 24040 24042 24045 24048 24051 24054 24057 24059 24062 24065 24068 24071 24074 24077 24080 24083 24086 24089 24092 24095 24098 24101 24104 24107 24110 24113 24115 24118 24121 24124 24127 24130 24133 24136 24139 24142 24145 24148 24151 24154 24157 24160 24163 24166 24169 24172 24175 24178 24181 24184 24187 24190 24193 24195 24198 24201 24203 24206 24209 24212 24215 24218 24221 24224 24226 24229 24232 24235 24237 24240 24243 24246 24249 24252 24255 24257 24260 24263 24266 24269 24272 24275 24278 24281 24284 24287 24290 24293 24296 24299 24302 24305 24308 24311 24314 24317 24320 24323 24326 24328 24330 24333 24335 24338 24341 24344 24347 24350 24353 24356 24358 24361 24364 24366 24369 24372 24375 24378 24381 24384 24387 24390 24393 24396 24399 24402 24405 24408 24410 24413 24416 24419 24422 24425 24427 24430 24433 24436 24438 24441 24443 24446 24448 24451 24454 24456 24459 24462 24465 24468 24471 24474 24477 24480 24483 24486 24489 24492 24494 24497 24500 24502 24504 24507 24510 24513 24516 24518 24520 24523 24526 24529 24531 24534 24537 24540 24543 24546 24549 24552 24555 24557 24560 24563 24566 24568 24571 24574 24577 24580 24583 24586 24589 24592 24595 24598 24601 24604 24607 24610 24613 24616 24619 24622 24625 24628 24631 24634 24637 24639 24642 24645 24648 24651 24654 24657 24660 24663 24666 24669 24672 24675 24677 24680 24683 24685 24688 24691 24694 24697 24700 24703 24706 24709 24712 24714 24717 24720 24723 24726 24729 24732 24735 24737 24740 24743 24746 24749 24752 24755 24758 24761 24764 24767 24770 24773 24776 24779 24782 24784 24787 24790 24793 24796 24798 24801 24804 24807 24809 24812 24814 24817 24820 24822 24825 24827 24830 24833 24835 24838 24840 24843 24846 24849 24852 24855 24858 24861 24864 24867 24870 24873 24876 24879 24882 24885 24888 24891 24894 24897 24900 24903 24906 24909 24912 24915 24918 24921 24924 24927 24930 24933 24936 24939 24942 24945 24948 24951 24954 24956 24959 24962 24965 24968 24971 24974 24977 24979 24982 24985 24987 24990 24993 24995 24998 25001 25003 25006 25009 25012 25015 25017 25020 25023 25025 25028 25031 25034 25036 25038 25041 25043 25046 25048 25050 25053 25056 25059 25062 25065 25068 25071 25074 25077 25080 25083 25086 25089 25091 25094 25097 25099 25101 25104 25107 25109 25112 25115 25118 25121 25123 25126 25129 25131 25134 25137 25139 25142 25145 25148 25151 25154 25157 25159 25162 25165 25167 25170 25173 25176 25179 25182 25185 25188 25190 25193 25196 25199 25202 25205 25208 25211 25214 25217 25220 25223 25226 25229 25232 25235 25238 25241 25244 25247 25250 25253 25256 25259 25262 25265 25268 25271 25274 25277 25280 25283 25286 25289 25291 25294 25297 25300 25302 25305 25307 25310 25313 25316 25319 25322 25325 25328 25331 25334 25337 25340 25343 25346 25349 25352 25355 25358 25360 25362 25365 25368 25371 25374 25377 25379 25381 25384 25387 25390 25393 25396 25398 25401 25403 25406 25409 25412 25414 25417 25420 25422 25425 25428 25431 25433 25436 25439 25442 25444 25447 25450 25453 25456 25459 25462 25465 25468 25471 25474 25476 25479 25482 25485 25488 25491 25494 25497 25500 25503 25506 25509 25512 25515 25518 25521 25524 25527 25530 25533 25536 25539 25542 25545 25548 25551 25553 25556 25559 25562 25565 25568 25571 25573 25576 25579 25582 25585 25587 25590 25593 25596 25599 25602 25605 25608 25611 25613 25616 25619 25622 25625 25628 25631 25633 25636 25638 25641 25644 25646 25649 25652 25655 25658 25661 25664 25667 25670 25673 25675 25678 25680 25683 25686 25689 25692 25695 25698 25701 25703 25706 25709 25711 25714 25717 25720 25723 25726 25729 25732 25734 25737 25740 25743 25746 25748 25751 25754 25757 25760 25763 25766 25769 25772 25775 25778 25781 25784 25787 25790 25793 25796 25799 25802 25805 25808 25811 25814 25817 25820 25822 25825 25828 25831 25834 25837 25840 25843 25845 25848 25851 25853 25856 25859 25862 25865 25868 25871 25874 25877 25880 25883 25886 25889 25891 25894 25897 25900 25903 25906 25909 25911 25914 25917 25920 25923 25926 25929 25932 25935 25938 25941 25944 25947 25950 25953 25956 25959 25962 25965 25968 25970 25972 25975 25978 25981 25984 25987 25990 25993 25996 25999 26001 26004 26007 26010 26013 26015 26018 26021 26023 26025 26028 26031 26034 26037 26040 26043 26046 26049 26052 26055 26058 26061 26064 26067 26070 26073 26075 26078 26081 26084 26086 26088 26091 26094 26096 26099 26102 26104 26107 26110 26113 26116 26119 26121 26124 26126 26129 26132 26135 26138 26140 26143 26145 26148 26151 26154 26156 26159 26161 26164 26167 26170 26173 26175 26178 26181 26184 26187 26190 26193 26195 26198 26201 26204 26207 26210 26213 26216 26219 26222 26225 26228 26231 26234 26237 26240 26243 26246 26249 26251 26254 26257 26259 26262 26265 26268 26270 26273 26276 26279 26282 26285 26288 26291 26294 26297 26300 26303 26306 26309 26312 26314 26317 26319 26322 26325 26328 26331 26334 26336 26339 26342 26344 26347 26349 26352 26355 26358 26361 26364 26367 26370 26373 26375 26378 26381 26384 26386 26389 26392 26395 26397 26400 26403 26405 26408 26411 26414 26417 26420 26423 26426 26429 26432 26435 26438 26441 26444 26447 26450 26452 26455 26458 26460 26463 26466 26469 26472 26475 26478 26481 26484 26487 26490 26493 26496 26499 26502 26505 26507 26510 26513 26516 26519 26522 26525 26528 26530 26533 26536 26539 26542 26544 26547 26550 26553 26556 26559 26562 26565 26568 26571 26574 26577 26580 26583 26586 26589 26592 26595 26598 26601 26604 26606 26609 26612 26615 26618 26621 26624 26627 26629 26632 26635 26638 26641 26644 26647 26650 26653 26656 26659 26661 26664 26667 26670 26673 26676 26679 26682 26684 26687 26690 26692 26695 26698 26700 26703 26706 26708 26711 26714 26717 26720 26723 26726 26729 26732 26734 26737 26740 26742 26745 26747 26750 26753 26756 26759 26762 26765 26767 26770 26773 26776 26779 26782 26785 26788 26791 26794 26797 26800 26803 26806 26809 26812 26815 26818 26821 26824 26827 26830 26833 26836 26839 26842 26845 26848 26851 26854 26857 26860 26863 26866 26869 26871 26874 26877 26880 26883 26886 26889 26892 26895 26898 26901 26904 26907 26910 26913 26916 26919 26922 26925 26928 26931 26934 26937 26940 26943 26946 26949 26952 26955 26958 26961 26964 26967 26970 26973 26976 26979 26982 26985 26988 26991 26994 26997 27000 27003 27006 27009 27012 27015 27018 27021 27024 27027 27030 27033 27036 27039 27042 27045 27048 27051 27054 27057 27060 27063 27066 27069 27072 27075 27078 27081 27084 27087 27090 27093 27096 27099 27102 27105 27108 27111 27114 27117 27120 27123 27125 27128 27131 27134 27137 27140 27143 27146 27148 27151 27154 27156 27159 27162 27165 27168 27171 27174 27177 27180 27182 27185 27188 27191 27194 27197 27200 27203 27206 27209 27212 27215 27218 27221 27224 27227 27230 27233 27235 27238 27241 27243 27246 27249 27252 27255 27258 27261 27264 27267 27270 27272 27275 27278 27281 27284 27287 27290 27293 27295 27298 27301 27304 27307 27310 27313 27316 27319 27322 27324 27326 27329 27332 27335 27338 27341 27344 27347 27350 27352 27355 27358 27360 27363 27366 27369 27371 27373 27376 27378 27381 27384 27387 27390 27393 27396 27398 27400 27403 27406 27409 27412 27415 27418 27421 27424 27427 27429 27432 27434 27437 27440 27443 27446 27448 27451 27454 27456 27459 27461 27464 27467 27470 27472 27475 27477 27480 27482 27485 27488 27490 27493 27496 27499 27501 27503 27506 27509 27512 27514 27517 27520 27523 27526 27529 27531 27533 27535 27538 27541 27544 27546 27549 27552 27555 27558 27561 27564 27567 27570 27573 27576 27579 27582 27585 27588 27591 27594 27597 27600 27603 27606 27609 27612 27615 27618 27621 27624 27626 27629 27632 27635 27638 27640 27643 27646 27649 27652 27655 27657 27660 27663 27666 27669 27671 27674 27677 27680 27683 27686 27689 27692 27695 27698 27701 27704 27707 27710 27713 27716 27719 27722 27725 27728 27731 27734 27737 27740 27743 27746 27749 27752 27754 27757 27760 27763 27766 27769 27772 27775 27778 27781 27784 27787 27790 27793 27796 27799 27802 27805 27808 27811 27813 27816 27818 27821 27824 27827 27829 27832 27835 27838 27841 27844 27847 27850 27853 27856 27858 27861 27863 27865 27868 27871 27873 27876 27879 27881 27884 27887 27889 27892 27895 27898 27901 27904 27907 27910 27913 27916 27919 27922 27925 27928 27931 27933 27936 27939 27942 27945 27948 27951 27954 27957 27960 27963 27966 27968 27971 27974 27977 27980 27983 27986 27988 27991 27994 27997 28000 28002 28005 28008 28011 28013 28016 28019 28022 28025 28027 28030 28033 28036 28039 28042 28045 28048 28051 28053 28056 28059 28062 28065 28068 28071 28074 28077 28080 28082 28085 28087 28090 28093 28096 28099 28102 28105 28108 28111 28114 28117 28120 28122 28125 28128 28131 28134 28137 28140 28143 28146 28149 28152 28155 28158 28161 28164 28167 28169 28171 28174 28177 28180 28183 28186 28189 28192 28195 28198 28201 28204 28207 28210 28213 28216 28219 28222 28225 28228 28231 28234 28237 28240 28243 28246 28249 28252 28255 28258 28261 28264 28267 28270 28273 28276 28279 28281 28284 28287 28290 28293 28296 28299 28302 28305 28308 28311 28314 28317 28320 28323 28326 28328 28331 28334 28337 28340 28343 28346 28349 28352 28355 28358 28361 28364 28367 28369 28371 28374 28377 28380 28383 28386 28389 28392 28395 28398 28401 28404 28407 28410 28413 28416 28419 28422 28425 28428 28430 28433 28436 28438 28441 28444 28447 28450 28453 28456 28459 28462 28465 28468 28470 28473 28476 28479 28482 28485 28488 28491 28494 28497 28500 28502 28505 28508 28511 28514 28517 28519 28521 28524 28527 28529 28532 28535 28538 28541 28544 28547 28550 28553 28555 28558 28561 28564 28567 28570 28573 28576 28579 28581 28584 28586 28589 28592 28595 28598 28600 28603 28605 28608 28611 28614 28617 28619 28622 28624 28627 28629 28632 28635 28637 28640 28643 28646 28648 28651 28654 28656 28659 28662 28664 28667 28670 28673 28675 28678 28681 28684 28687 28690 28693 28695 28698 28700 28703 28706 28709 28711 28714 28717 28720 28723 28726 28729 28732 28735 28737 28740 28743 28746 28749 28752 28755 28757 28760 28763 28765 28768 28771 28774 28776 28779 28782 28784 28787 28790 28792 28795 28798 28801 28803 28806 28808 28811 28813 28816 28819 28822 28825 28828 28831 28834 28837 28840 28843 28846 28849 28852 28855 28858 28861 28864 28867 28870 28873 28876 28879 28882 28885 28888 28891 28894 28896 28899 28902 28905 28907 28910 28913 28916 28919 28922 28925 28928 28930 28933 28936 28939 28941 28944 28947 28950 28952 28955 28958 28961 28964 28967 28970 28973 28976 28978 28981 28984 28987 28990 28992 28995 28998 29001 29004 29007 29010 29013 29016 29019 29022 29025 29028 29031 29034 29037 29040 29043 29046 29049 29052 29055 29058 29061 29064 29066 29069 29072 29075 29078 29081 29084 29087 29090 29093 29096 29099 29101 29104 29107 29110 29113 29116 29119 29122 29125 29128 29131 29134 29137 29140 29143 29146 29149 29152 29155 29158 29161 29164 29167 29170 29173 29175 29177 29180 29183 29185 29188 29191 29194 29197 29200 29203 29206 29209 29212 29215 29218 29221 29224 29226 29229 29232 29235 29238 29241 29244 29247 29250 29252 29255 29258 29261 29264 29267 29270 29273 29276 29279 29282 29285 29288 29291 29294 29297 29300 29303 29305 29308 29311 29313 29316 29319 29322 29325 29327 29329 29332 29335 29338 29341 29344 29347 29350 29353 29355 29358 29361 29364 29367 29369 29372 29375 29378 29380 29383 29386 29389 29392 29395 29398 29401 29403 29406 29409 29412 29415 29417 29420 29423 29426 
</DataArray>
<DataArray type="UInt32" Name="types" format="ascii">
5 5 5 5 5 5 5 5 5 5 5 5 5 5 5 5 5 5 3 3 3 3 5 5 5 3 3 5 5 5 5 5 5 5 5 5 5 5 5 5 5 5 3 5 5 5 3 5 5 5 3 5 5 5 3 5 3 5 5 5 5 5 5 5 3 5 3 5 5 5 5 5 5 5 5 5 5 3 5 5 3 5 5 3 5 5 3 5 5 5 5 3 3 5 3 3 5 5 5 5 5 5 5 3 5 5 5 3 5 5 3 5 3 3 5 5 3 3 5 5 5 5 3 5 3 5 5 5 3 3 5 3 5 3 5 5 3 3 5 5 5 3 5 3 5 5 5 3 5 3 5 3 3 5 5 5 5 5 3 5 5 5 5 5 3 3 5 3 5 5 3 5 5 5 5 3 5 5 5 3 5 5 5 5 5 3 3 5 3 5 3 5 5 5 5 5 5 5 5 5 3 5 3 5 5 5 5 5 5 5 5 5 5 5 5 5 5 5 5 5 5 3 5 5 5 5 5 5 5 5 3 5 5 5 5 5 5 5 3 5 5 5 5 3 3 5 5 3 5 5 3 5 5 3 3 5 5 5 3 3 5 5 5 3 5 5 3 5 5 3 5 5 5 3 3 5 5 3 5 5 3 5 5 5 5 3 3 5 3 3 3 5 5 5 5 3 3 5 5 5 5 3 3 5 3 5 3 5 5 3 3 5 5 5 5 3 5 5 3 3 3 5 3 5 5 3 3 3 3 5 5 5 5 5 5 5 3 3 5 5 5 3 3 5 3 3 5 5 3 5 5 5 5 5 3 5 5 3 5 3 5 3 5 5 3 5 5 5 3 5 3 5 5 5 5 5 3 3 5 5 5 5 3 5 5 5 3 5 5 5 3 5 5 3 3 5 5 5 5 5 5 5 5 5 5 5 5 5 3 3 5 5 5 3 5 5 5 5 5 5 5 5 5 5 5 3 5 5 3 5 3 3 5 5 5 5 5 5 5 5 5 5 5 5 5 3 3 5 5 5 3 5 5 5 5 3 5 5 5 5 5 5 5 5 3 5 5 5 5 5 5 5 5 3 3 3 5 5 5 3 3 3 5 5 5 5 5 5 3 3 3 5 5 5 5 3 5 5 5 5 5 3 5 5 5 3 5 3 5 5 5 5 5 3 5 5 5 5 5 5 5 3 5 5 5 3 5 5 5 5 3 5 5 3 5 5 3 5 5 3 5 5 5 5 5 5 5 5 5 5 5 5 3 5 5 5 5 5 5 5 5 5 5 5 5 3 5 5 5 5 5 5 5 3 5 3 5 5 5 5 5 3 5 5 5 5 5 5 5 5 3 5 3 5 5 5 5 3 3 5 3 5 5 3 5 5 5 5 5 3 5 5 5 5 5 3 5 3 5 5 3 5 3 5 5 5 5 5 5 5 5 5 5 5 5 3 5 5 5 5 3 5 5 5 5 5 5 5 3 5 5 5 5 3 3 5 5 5 3 3 5 3 5 3 5 5 5 5 3 3 5 5 5 5 5 5 3 5 3 3 5 5 5 5 3 5 5 5 5 5 5 3 3 5 5 5 5 3 3 5 5 3 5 5 5 5 5 5 3 3 5 3 5 3 5 5 5 5 3 5 5 5 5 5 5 5 5 5 3 5 5 5 3 5 5 5 5 5 5 3 5 5 5 5 5 5 5 5 5 3 5 5 3 5 5 5 5 5 3 5 5 5 5 5 5 5 5 5 3 5 3 5 5 5 5 5 5 3 5 5 5 5 5 5 5 5 5 5 3 5 5 3 5 5 5 5 3 5 5 5 5 5 3 5 5 5 5 5 3 5 5 3 5 5 5 3 3 5 5 5 5 3 5 5 3 5 5 5 3 5 5 3 5 5 5 5 5 5 5 5 5 5 5 5 5 5 3 5 3 3 5 5 3 5 5 5 5 5 3 5 5 3 5 3 5 5 5 3 5 3 5 3 5 5 3 5 5 5 5 5 5 5 3 5 5 5 5 5 5 5 5 5 3 5 5 5 3 5 3 5 5 5 5 5 5 5 5 5 5 3 5 5 5 5 5 5 3 5 5 5 5 5 5 3 5 5 5 5 5 5 5 3 5 5 5 5 5 5 5 3 5 5 5 3 5 5 5 5 5 3 3 5 5 3 5 3 5 5 5 5 5 3 5 3 5 5 3 5 5 3 5 5 5 5 3 5 5 5 5 5 3 5 5 5 5 3 5 5 5 5 3 5 5 5 5 5 5 5 5 5 5 3 5 5 5 5 3 5 5 5 5 5 5 5 5 5 5 5 5 5 5 5 5 5 5 5 5 5 5 5 5 5 5 3 5 5 5 5 3 5 5 5 5 5 3 3 3 5 5 5 5 3 5 3 3 3 5 5 5 5 5 3 5 5 5 5 5 5 5 5 5 5 5 3 5 5 5 5 5 5 5 5 5 5 5 5 5 5 5 5 5 3 5 5 5 5 5 5 5 5 5 5 5 5 5 5 3 3 5 5 3 5 5 5 5 3 5 5 3 5 5 5 5 5 3 5 5 5 5 5 5 5 3 5 5 5 3 3 5 5 5 5 5 5 3 5 5 5 5 5 5 5 5 5 5 5 5 5 5 5 5 5 3 5 3 5 5 5 5 5 5 5 3 5 5 5 3 5 5 5 5 5 5 5 5 5 5 5 5 5 5 5 5 5 5 5 5 5 5 5 5 5 5 5 5 5 5 5 5 5 5 5 5 5 5 5 5 5 5 5 5 5 5 5 5 5 5 5 5 5 5 5 5 5 5 5 5 5 5 5 5 5 5 5 5 5 5 5 5 5 5 5 5 5 5 5 5 5 5 5 5 5 5 5 5 5 5 5 5 5 5 5 5 5 5 5 5 5 5 5 5 5 5 5 5 5 3 5 3 5 5 3 5 3 3 5 5 5 5 5 5 5 5 5 5 5 5 5 3 5 5 5 5 5 5 5 3 5 5 5 5 5 3 5 5 5 5 5 3 3 5 5 5 5 5 5 5 5 5 5 3 3 5 5 5 5 5 5 5 5 5 5 5 3 5 5 5 5 5 5 5 5 5 5 3 5 5 3 5 5 5 5 3 5 5 5 5 3 5 5 5 5 5 5 5 5 5 5 3 5 5 5 5 5 3 5 5 5 5 5 3 5 3 5 5 3 5 5 5 5 5 5 5 5 5 5 5 5 5 5 5 5 5 5 5 5 5 5 5 5 5 5 5 5 5 5 5 5 5 5 5 3 5 5 5 5 5 5 5 5 5 5 5 5 5 5 5 5 5 3 3 5 5 3 5 5 5 5 5 5 5 5 5 5 5 5 3 5 5 5 5 3 5 5 5 5 5 5 5 5 5 5 5 5 5 5 3 5 5 5 5 5 5 5 5 5 5 5 5 3 5 3 5 5 5 5 3 5 5 5 3 5 5 3 5 5 5 5 5 5 5 3 3 5 5 5 3 5 5 5 5 5 5 5 5 5 5 5 5 5 5 5 5 5 5 5 5 5 5 5 5 3 3 3 3 5 5 5 5 3 3 5 5 5 5 5 5 5 5 5 5 5 5 5 5 5 5 3 5 5 5 5 5 5 5 5 5 5 5 5 5 5 5 3 5 5 5 5 3 5 5 3 5 5 5 3 5 5 5 5 5 5 5 5 5 5 5 5 5 5 5 5 5 3 5 3 3 5 5 3 5 5 5 5 5 5 5 3 5 3 5 5 3 3 5 5 5 5 5 3 5 5 5 5 5 5 5 5 5 5 5 5 5 5 3 5 3 5 5 5 5 3 5 5 5 5 5 3 5 5 5 5 5 5 5 5 5 5 5 5 3 5 3 5 5 5 5 5 5 5 5 5 5 5 5 5 5 5 5 5 5 5 5 5 5 5 5 5 5 5 5 5 5 5 5 5 5 5 5 5 5 5 3 5 5 3 5 5 5 3 5 5 5 3 3 3 5 3 5 5 5 3 5 5 5 3 5 3 5 5 3 5 5 5 5 5 5 5 5 5 5 5 5 5 5 5 5 5 5 3 5 5 5 5 5 5 5 5 5 5 5 5 5 5 5 5 5 5 5 5 5 5 5 5 5 5 5 5 5 3 5 5 5 5 5 5 5 5 5 5 5 5 5 5 5 5 5 3 5 5 5 5 5 5 5 5 5 5 5 5 5 5 5 5 5 5 5 5 5 5 5 5 5 5 5 5 5 5 5 3 5 5 5 5 5 5 5 3 5 5 3 5 5 5 3 5 3 5 5 5 5 5 5 3 5 5 5 3 5 5 5 5 5 5 5 5 5 5 5 5 5 5 5 5 5 5 5 5 5 5 5 5 5 3 5 5 5 5 5 5 5 5 3 5 5 5 5 5 5 5 5 5 5 5 5 5 5 5 5 5 3 5 5 5 5 5 5 5 5 5 5 5 5 5 5 5 5 5 5 5 5 5 5 5 5 5 5 5 5 5 5 5 5 5 5 5 5 5 5 5 5 5 5 5 5 5 5 5 5 5 5 5 5 5 5 5 5 5 5 5 5 5 5 5 5 5 5 5 5 5 5 5 5 5 5 5 5 5 5 5 5 5 5 5 5 5 5 5 5 5 5 5 5 5 5 5 5 3 5 3 5 5 5 3 5 5 5 3 5 5 5 5 5 5 5 5 5 5 3 5 5 5 5 5 5 5 5 5 5 5 5 5 5 5 5 5 5 5 5 5 5 5 5 5 5 5 5 5 5 5 5 5 5 5 5 5 5 5 3 5 5 5 5 5 3 5 5 5 5 5 5 5 3 5 5 5 3 5 5 5 5 3 3 5 5 5 5 5 5 5 5 5 5 5 5 5 3 5 5 5 5 5 5 5 5 3 5 3 5 5 5 5 5 5 5 5 3 5 3 5 5 5 5 5 5 5 5 3 5 3 3 5 5 5 5 5 5 3 5 5 5 5 3 3 5 3 5 3 5 5 3 5 5 3 5 5 5 3 5 5 5 5 3 5 5 5 3 5 3 5 5 5 5 5 5 5 5 3 5 3 3 3 5 5 5 3 5 5 5 5 5 5 5 5 5 5 5 5 5 3 5 3 5 5 3 5 5 5 5 5 5 3 5 5 5 5 5 5 5 5 3 5 5 5 3 5 5 5 5 5 5 5 5 5 5 3 5 5 5 5 5 5 5 5 5 5 5 5 5 5 5 5 5 5 5 5 3 5 5 5 5 5 5 5 5 5 3 5 5 5 5 5 5 5 5 3 5 5 5 5 5 5 5 5 5 3 3 5 5 5 3 5 5 5 5 5 5 5 5 5 5 5 5 5 5 5 5 5 5 5 5 3 5 3 5 5 5 5 5 5 5 5 5 5 5 5 5 5 5 5 5 5 3 5 5 5 5 3 5 5 5 5 5 5 5 5 5 3 5 5 5 5 5 5 5 5 5 5 5 5 5 5 5 5 5 5 5 5 5 5 5 3 5 5 5 5 5 5 5 5 5 5 5 5 5 5 3 5 5 5 5 5 5 5 5 5 5 3 5 5 5 5 3 3 5 3 5 5 5 5 5 5 3 5 5 5 5 5 5 5 3 5 5 5 5 3 5 3 5 5 5 5 5 5 5 5 5 5 5 5 5 3 3 5 5 3 5 5 5 3 5 5 5 3 5 5 3 5 5 5 5 5 5 5 5 5 3 5 5 5 5 3 5 5 5 3 5 5 5 5 3 5 5 5 5 3 5 5 5 5 3 5 5 5 5 5 5 3 3 5 5 5 5 5 5 3 5 5 3 5 5 5 3 5 3 5 5 5 5 5 5 5 5 5 5 5 5 5 5 5 5 5 3 5 5 5 5 5 3 5 5 5 5 5 5 5 5 5 5 5 5 5 5 5 5 5 5 3 5 5 3 5 3 5 3 5 5 3 5 5 5 5 5 5 3 5 5 5 5 5 3 3 5 5 5 3 5 5 5 5 5 3 5 5 5 5 5 5 5 5 5 5 5 5 5 5 5 5 5 5 5 5 5 5 5 5 5 5 5 5 5 3 5 5 3 5 5 5 5 5 3 5 5 5 5 5 5 5 5 5 5 5 3 5 5 5 5 5 5 5 5 5 5 5 5 3 5 5 5 3 5 5 3 3 3 5 3 5 3 5 3 5 3 5 3 5 5 3 3 5 5 5 5 5 5 3 5 5 3 3 5 5 5 5 5 5 5 5 5 5 5 3 5 5 5 5 5 5 3 5 5 5 3 5 3 5 5 5 5 5 5 5 5 5 5 5 5 5 5 5 5 5 5 5 5 5 5 5 5 5 5 5 5 5 5 5 5 5 5 5 5 5 5 5 5 5 5 3 5 3 5 5 5 5 5 5 5 5 5 5 5 5 5 5 5 5 5 5 5 5 5 5 5 5 5 5 3 5 5 5 5 5 5 5 5 5 5 5 5 5 5 5 5 5 5 5 5 5 5 5 3 3 5 5 3 5 5 5 5 5 5 5 5 5 5 5 5 3 3 5 5 5 5 5 3 5 3 5 5 5 3 5 3 3 5 3 5 5 5 5 5 5 5 5 5 5 5 5 5 5 5 5 5 5 5 5 5 5 5 5 5 5 5 5 3 5 5 5 5 5 3 5 5 5 5 5 5 3 5 5 5 5 5 5 3 5 5 5 5 5 5 3 5 3 5 3 5 5 5 5 5 5 5 5 5 5 5 5 3 5 5 5 3 5 5 5 5 3 5 3 5 5 5 5 5 5 5 5 5 5 5 5 5 5 3 5 5 3 5 5 5 5 5 5 5 5 3 5 5 5 5 5 5 5 5 3 5 5 5 5 5 5 3 5 5 5 5 5 5 5 5 5 5 5 5 5 5 5 5 5 5 5 5 5 5 5 5 5 5 5 5 5 5 5 5 5 5 5 5 5 5 5 5 5 5 5 5 5 5 5 3 5 5 5 5 5 5 5 5 5 3 5 5 3 5 5 5 3 5 3 3 5 5 3 5 5 5 5 5 5 5 5 5 5 3 5 5 3 5 5 5 3 5 5 5 5 5 5 5 5 5 5 5 3 5 5 5 5 5 5 3 5 5 5 5 5 3 5 5 5 5 5 5 3 5 5 5 5 5 3 5 5 5 5 5 5 5 5 3 5 5 5 5 5 5 5 5 5 3 5 5 3 5 5 5 5 3 5 5 3 5 5 5 5 5 5 5 5 5 5 5 5 5 5 3 5 5 5 5 5 5 5 5 3 5 5 3 5 5 5 5 5 5 5 3 5 5 5 5 5 5 3 5 5 5 5 5 5 5 3 5 5 5 3 5 5 5 5 3 5 5 5 5 5 5 5 5 5 5 5 3 5 5 5 5 5 5 3 5 5 3 5 5 5 5 5 5 5 5 5 3 5 5 5 5 3 5 3 5 5 5 5 5 3 5 5 5 3 5 5 5 5 5 5 5 5 3 5 5 5 5 5 3 5 5 5 5 3 5 5 5 3 5 5 5 5 5 5 5 5 5 3 5 5 5 5 5 5 5 5 5 3 5 5 3 5 5 5 5 5 5 5 5 5 5 5 5 5 5 5 5 3 5 5 3 5 5 5 3 5 5 5 3 5 5 5 5 5 5 3 5 5 5 5 5 5 5 5 5 5 5 3 5 5 3 3 5 5 5 5 5 5 3 5 5 5 5 5 5 3 5 5 5 5 5 5 5 5 5 5 5 5 5 3 5 5 5 5 5 5 5 5 3 3 5 5 5 5 3 5 5 5 5 5 5 5 5 5 5 5 5 3 5 5 5 5 3 5 3 3 5 5 5 5 3 5 5 5 5 5 5 3 5 5 5 5 5 5 5 5 5 5 5 5 5 5 5 5 3 3 5 5 5 3 5 5 5 5 5 3 5 5 5 5 5 5 3 5 5 5 5 3 5 5 5 5 5 5 5 3 5 5 5 3 3 5 5 3 5 5 5 5 5 5 5 5 3 5 5 5 3 5 5 5 3 5 5 3 5 5 5 5 3 5 3 3 5 5 5 5 5 5 5 5 5 5 5 5 5 5 5 5 5 5 5 5 5 5 5 5 5 5 5 3 5 5 5 3 5 5 5 5 5 3 3 5 3 5 5 5 3 5 5 5 3 5 5 5 5 5 5 5 5 5 5 5 5 5 5 5 5 5 3 5 3 5 5 5 5 5 5 5 5 3 5 5 5 5 5 5 5 5 5 3 3 5 5 5 3 5 5 5 5 3 5 5 5 5 5 5 5 3 3 5 5 5 3 5 5 5 5 5 5 5 5 5 5 3 5 5 5 3 5 3 5 5 5 5 5 5 5 3 5 5 5 5 3 5 5 5 5 5 5 3 5 5 5 5 5 5 5 5 5 5 5 3 5 5 5 5 3 5 5 3 5 5 5 5 5 5 5 5 5 5 3 5 5 5 3 5 5 5 5 3 5 5 3 5 3 3 5 5 5 5 5 5 5 5 5 5 5 5 5 5 5 5 5 5 3 5 3 5 5 3 5 3 5 5 5 5 5 5 5 5 5 5 5 5 5 5 5 5 5 5 5 5 5 5 5 5 5 5 5 5 5 5 5 5 5 5 5 5 5 5 3 5 5 5 3 5 5 5 3 5 3 5 5 5 5 5 5 5 3 5 5 5 5 5 5 3 5 5 5 3 5 5 5 5 3 5 5 5 3 5 3 5 5 5 3 5 5 5 5 5 5 5 5 3 5 5 3 5 5 5 5 5 5 3 5 5 5 5 5 5 5 5 5 5 5 5 5 5 5 5 5 5 5 5 5 5 5 5 5 5 5 5 5 5 5 5 5 5 5 5 5 5 5 5 5 5 5 5 3 5 5 5 5 5 5 5 3 5 5 5 5 5 5 3 5 5 5 5 5 3 5 5 3 5 5 5 5 5 5 3 5 5 5 3 5 5 5 3 5 5 5 5 5 5 3 5 5 5 5 5 5 5 5 5 5 5 5 5 5 5 3 5 3 5 3 5 3 3 5 3 5 5 3 5 5 5 5 3 5 5 3 3 5 5 5 5 5 5 5 3 5 3 5 5 5 5 3 3 5 5 3 5 5 5 5 5 5 5 5 3 5 3 5 5 5 5 3 5 5 5 3 3 5 5 5 5 5 5 5 5 5 5 5 5 3 5 5 5 5 5 5 3 5 5 5 5 3 5 5 5 5 5 5 5 5 5 5 5 5 5 5 5 5 3 5 3 5 5 5 5 3 3 5 3 5 5 3 5 5 5 3 5 5 5 3 5 3 5 5 5 5 5 3 5 3 5 3 5 5 5 3 5 5 3 5 5 5 5 5 5 5 5 5 5 5 3 5 5 5 5 3 5 5 5 5 5 5 3 3 5 5 5 3 5 3 3 5 5 5 3 5 5 5 5 5 3 5 5 5 5 5 5 5 5 5 3 5 5 3 5 5 5 5 5 5 5 3 5 5 3 3 5 5 5 3 5 3 5 5 3 5 5 3 3 5 5 5 3 5 3 5 3 5 5 5 5 5 5 5 3 3 5 5 5 5 5 5 5 5 3 5 5 5 5 5 5 5 5 5 5 5 5 5 5 5 3 5 5 5 5 5 5 5 5 3 5 5 5 5 5 5 5 3 5 5 5 5 5 5 5 5 5 5 5 5 5 5 3 5 5 5 5 5 5 5 5 3 5 5 5 5 3 5 5 5 5 5 5 5 5 5 5 5 5 5 5 5 3 5 5 5 5 3 5 3 5 5 5 5 3 5 5 5 5 3 5 3 5 5 5 5 5 5 5 5 3 5 5 3 3 5 5 5 3 3 5 3 3 5 5 5 5 3 5 3 5 5 5 3 5 5 3 5 5 3 5 3 5 3 5 5 5 5 5 5 3 3 5 5 3 3 3 3 5 3 3 5 3 5 5 5 3 3 5 5 3 5 5 5 3 5 5 5 3 5 3 5 5 3 5 5 5 5 5 3 5 5 5 5 5 5 5 5 5 5 5 5 5 3 5 5 3 5 5 5 5 5 5 5 5 5 5 5 5 5 5 5 5 5 5 5 5 5 5 5 5 3 5 5 5 5 5 3 5 5 5 5 5 5 5 5 5 5 5 5 5 5 5 5 3 5 5 5 5 5 5 3 5 5 5 5 5 3 5 5 3 3 5 5 5 5 5 5 5 5 5 5 5 5 5 5 5 5 5 5 5 5 3 5 5 5 5 5 3 5 5 3 5 3 5 5 3 3 3 5 5 3 5 5 5 5 5 3 5 5 5 5 5 5 5 5 5 5 5 5 5 3 5 5 5 5 5 5 5 3 5 5 5 5 3 5 5 3 5 5 5 5 5 5 5 5 5 5 5 5 3 5 5 5 5 3 5 5 5 5 5 5 5 5 3 5 3 5 3 5 5 5 5 5 5 5 5 5 5 5 5 5 5 5 5 5 5 5 5 5 5 5 5 3 5 5 5 3 5 5 5 5 5 5 3 5 5 3 5 3 5 3 5 5 5 5 5 5 5 5 5 5 5 5 5 5 5 3 5 5 5 5 5 5 5 5 5 5 5 5 3 5 5 5 5 5 5 5 5 3 5 5 5 5 3 5 5 5 5 3 5 5 5 3 5 5 5 5 3 5 5 3 5 5 5 5 3 5 5 5 5 5 5 5 5 5 5 3 5 5 5 5 3 3 5 5 5 5 5 5 5 5 5 5 5 5 5 5 5 5 5 5 5 5 5 5 5 5 5 5 5 5 5 5 5 3 5 5 5 5 5 5 5 5 5 5 5 5 5 5 5 5 5 5 5 3 5 5 5 5 5 5 5 5 5 5 5 5 5 5 5 5 5 5 5 5 5 5 5 5 5 5 5 5 5 5 3 5 5 5 3 5 5 5 5 5 5 5 3 5 5 5 5 5 5 5 5 3 5 5 3 5 5 5 5 5 5 5 3 5 5 5 5 3 5 3 3 3 5 5 5 3 5 5 5 5 5 3 3 5 5 5 3 5 5 5 5 3 5 5 5 5 5 5 5 5 5 5 5 5 5 5 5 5 5 5 3 5 5 3 3 5 3 5 3 5 5 3 5 3 3 5 5 5 3 5 5 5 5 3 5 5 5 5 5 3 5 5 5 5 3 5 3 5 5 5 5 5 5 5 5 5 3 5 5 3 5 5 5 5 5 5 5 5 5 3 5 5 5 3 5 5 5 5 5 5 5 5 5 5 5 5 5 3 5 5 5 5 3 5 5 5 5 5 5 5 5 5 5 5 5 5 5 5 5 5 5 3 5 5 5 3 3 5 5 5 5 3 5 5 3 5 5 5 3 5 3 5 5 3 5 5 5 3 3 5 3 5 5 3 5 5 5 3 3 5 5 5 5 5 3 3 5 5 3 3 3 5 5 3 5 5 5 5 5 5 5 5 5 5 5 3 5 5 5 5 5 3 3 5 3 5 5 5 5 5 5 5 3 3 5 5 3 5 5 5 5 5 5 5 3 5 5 5 5 5 5 5 5 5 3 3 5 5 3 5 5 5 5 5 5 3 5 3 5 5 5 5 3 3 5 3 5 5 5 3 5 5 5 5 5 5 5 5 5 3 5 3 5 5 5 5 5 5 5 5 3 5 5 5 5 5 3 5 5 5 5 5 5 5 5 5 5 5 5 5 5 3 5 5 5 5 3 5 5 5 5 5 5 5 5 5 5 5 5 5 5 5 5 3 5 5 5 5 5 5 5 3 5 5 5 3 5 5 5 5 5 3 3 5 5 5 5 5 5 3 5 5 3 5 3 5 3 5 3 3 5 3 5 5 3 5 3 5 5 5 5 3 5 5 5 5 3 5 5 3 5 3 5 5 3 5 5 5 3 5 5 3 3 5 5 5 3 5 5 5 5 5 5 5 5 3 5 5 5 5 5 5 5 3 5 5 5 5 5 3 5 5 5 5 3 5 5 5 3 3 5 5 5 5 5 5 5 5 3 5 5 5 5 5 5 5 5 3 5 5 5 3 5 5 5 5 5 5 5 5 5 5 5 5 5 5 3 5 5 5 5 5 5 5 5 5 5 3 5 5 5 5 5 5 5 5 5 5 5 5 5 5 5 3 5 5 3 3 5 5 5 5 5 3 3 5 5 5 5 5 5 5 5 5 5 5 5 5 5 5 5 5 3 5 5 5 5 3 5 5 3 3 3 3 5 3 5 5 5 5 3 5 5 3 5 5 5 5 5 5 5 5 5 5 3 5 5 5 5 5 5 5 3 5 5 3 5 5 5 5 5 5 5 5 5 5 5 3 5 5 5 5 5 5 5 5 5 5 5 5 5 5 5 5 5 5 3 5 5 5 5 5 5 5 3 5 5 5 3 5 5 3 5 5 5 3 5 5 5 5 5 5 5 5 5 5 5 5 5 5 5 5 5 5 5 5 5 5 5 5 5 5 5 5 3 5 5 5 5 5 5 5 5 5 5 5 5 5 5 5 5 5 5 5 5 3 5 5 5 5 5 5 5 5 5 5 5 3 3 5 5 5 5 5 3 5 3 5 5 5 5 5 5 5 5 5 5 3 5 5 3 5 5 5 5 5 5 5 5 3 5 3 5 5 5 5 5 5 5 5 5 5 5 5 5 5 5 5 5 5 3 5 5 5 5 5 3 5 5 5 5 3 5 5 5 3 5 3 5 5 5 5 5 5 5 5 5 5 5 5 5 3 5 5 5 5 5 3 5 5 5 3 3 5 5 5 5 5 3 5 3 5 3 3 5 5 3 5 3 5 3 5 5 3 5 5 3 5 5 5 5 5 3 5 5 3 5 5 5 5 5 5 5 5 5 5 5 3 3 5 5 5 3 5 5 5 5 5 5 3 5 5 5 3 5 5 5 5 5 5 5 5 5 5 5 5 5 5 5 5 5 5 5 5 3 5 5 5 5 5 5 5 5 5 5 3 5 5 5 5 5 5 5 5 3 5 5 5 5 5 5 5 3 5 5 5 5 3 5 5 5 3 5 3 5 3 3 5 3 5 5 3 5 3 5 5 3 5 5 5 5 3 5 5 5 3 5 5 5 5 5 5 5 5 5 3 3 5 3 5 5 5 3 5 3 5 3 5 5 3 5 5 3 5 3 5 5 5 3 5 5 5 5 3 3 5 5 5 5 5 5 5 5 3 5 3 3 5 5 3 5 5 5 5 5 3 5 5 3 5 3 5 5 5 5 5 5 5 5 5 3 5 3 5 5 5 3 5 5 5 5 3 5 5 3 5 5 5 5 5 5 5 5 5 5 5 5 5 5 5 5 5 5 5 5 5 5 5 5 5 5 5 5 5 5 5 5 5 5 5 5 5 5 5 5 5 5 5 5 5 5 5 5 5 5 3 5 3 5 5 5 5 5 5 5 5 5 5 5 3 5 5 5 5 5 5 3 5 3 5 5 3 5 5 5 3 5 3 5 5 5 5 3 5 3 5 5 3 5 5 3 5 5 3 5 5 5 5 3 5 5 5 5 5 5 5 5 3 5 5 5 5 3 5 5 3 5 5 5 5 3 5 3 5 5 5 5 5 5 5 5 5 5 5 5 5 5 5 5 5 5 5 5 5 5 5 5 5 5 5 5 5 5 5 5 5 5 3 5 5 5 3 5 5 5 3 3 5 5 5 5 3 5 5 5 5 5 5 5 3 5 5 3 5 5 5 5 5 5 5 5 5 5 5 5 5 5 5 5 5 5 5 5 5 5 5 5 5 5 5 5 3 5 5 3 5 5 3 5 5 5 5 5 3 3 5 5 3 5 5 3 3 5 3 5 5 5 5 5 5 5 3 5 5 5 5 3 5 5 5 5 5 5 5 5 5 5 3 5 5 5 5 5 5 5 5 5 5 3 5 3 5 5 5 5 5 5 5 5 5 5 5 5 3 5 5 3 5 5 3 5 5 5 5 5 5 5 5 5 5 5 5 5 5 3 5 5 5 3 5 5 5 3 5 5 5 5 5 3 5 5 3 3 5 5 3 5 3 5 5 5 5 3 5 5 5 5 3 5 5 5 3 5 5 5 5 5 3 5 5 5 5 5 5 3 5 5 5 5 3 5 5 5 5 5 5 3 5 5 5 5 5 5 5 3 5 5 5 3 3 5 5 5 3 3 5 5 5 5 5 3 5 5 5 5 3 5 5 3 5 5 5 5 5 5 5 5 3 5 5 5 5 3 5 3 5 5 5 5 3 3 5 5 5 5 5 3 3 5 5 5 5 5 5 5 5 5 5 5 5 5 5 3 5 3 5 5 5 5 5 5 5 5 5 5 5 3 5 5 5 3 3 5 5 5 3 5 5 3 5 5 5 5 5 3 5 5 3 5 5 5 3 5 5 5 3 5 5 5 5 5 5 5 5 3 5 5 5 5 5 3 5 5 5 5 5 5 5 5 5 3 5 3 5 5 5 5 5 5 5 5 5 5 3 5 5 5 5 5 5 5 5 5 5 5 5 5 5 5 5 5 5 5 5 5 5 5 5 5 5 5 5 5 5 5 5 5 5 5 5 5 5 5 3 5 5 5 5 5 5 5 5 5 5 5 5 5 5 5 3 5 5 5 3 5 5 5 5 5 3 5 5 5 5 5 5 5 5 5 5 5 5 3 5 5 5 5 5 5 5 5 5 5 5 5 5 5 5 5 5 5 5 5 3 5 5 5 5 5 5 5 5 5 5 5 5 5 5 5 5 5 5 5 5 3 3 5 5 5 5 5 3 5 5 5 5 5 5 5 5 5 5 5 5 5 5 5 5 5 5 5 5 5 5 5 5 5 5 5 5 3 5 3 5 5 5 3 5 5 5 5 5 5 5 5 5 5 5 5 3 5 5 5 5 5 5 5 5 3 5 5 5 3 5 5 5 5 5 5 5 3 5 3 5 5 5 5 5 5 5 5 5 5 5 5 5 5 5 5 5 5 3 5 5 5 5 5 5 5 3 5 5 5 3 5 5 5 5 5 5 3 5 5 5 5 5 5 5 5 5 3 5 5 5 5 5 5 5 5 5 5 5 5 5 5 5 5 3 5 3 5 5 5 5 5 5 5 5 5 5 3 5 5 5 3 5 5 5 5 5 5 5 5 5 5 5 5 5 5 5 5 5 5 5 5 5 3 5 5 5 5 5 5 5 3 5 5 5 5 5 5 5 5 5 5 3 5 5 5 5 5 5 5 5 5 5 3 5 5 3 5 3 5 5 5 5 5 3 5 5 5 5 5 5 5 5 5 5 5 5 5 5 3 5 5 5 5 5 5 5 5 5 5 5 5 5 5 5 5 5 5 5 5 5 5 5 5 5 5 5 5 5 3 5 5 5 5 5 5 5 5 5 5 5 5 5 5 5 5 5 5 5 5 5 3 5 5 5 5 5 5 5 5 5 5 5 3 5 3 3 5 5 5 3 5 5 3 5 5 3 5 5 5 5 5 5 5 5 5 5 5 5 5 5 5 3 5 5 5 3 5 5 5 5 5 5 5 5 5 5 5 5 5 5 5 5 5 5 5 5 5 3 5 5 5 5 5 5 5 3 5 5 5 5 5 5 5 5 5 5 5 3 5 5 5 3 5 5 5 3 5 5 5 5 5 5 5 5 5 5 5 5 3 5 5 3 5 5 5 3 5 5 5 3 5 5 5 5 5 5 3 5 5 3 5 5 5 5 3 5 5 5 3 5 3 3 5 5 5 5 5 3 5 5 3 5 5 3 5 5 5 5 5 5 3 5 5 5 3 5 3 5 5 3 5 5 5 3 5 5 5 5 5 5 3 3 5 5 5 3 5 5 3 5 5 3 5 5 5 5 5 5 5 5 3 3 3 5 5 5 3 5 3 5 5 3 5 5 3 5 5 3 5 5 5 5 5 3 5 5 5 3 3 5 3 5 5 5 5 5 5 5 5 5 5 5 3 5 5 5 5 3 5 5 5 5 5 5 5 5 5 5 5 3 5 5 5 5 3 5 3 5 5 5 5 5 5 5 5 5 5 5 5 5 5 5 5 5 5 5 5 3 5 5 5 5 5 3 3 5 5 5 5 5 3 5 5 5 5 5 5 5 5 5 5 5 3 5 5 5 5 3 5 3 5 5 5 3 5 5 5 3 5 5 5 5 5 5 3 3 5 5 5 3 3 5 5 5 3 3 5 5 5 5 5 5 5 3 5 5 5 3 5 5 5 5 5 5 5 5 3 5 5 5 5 5 5 5 3 3 5 5 5 3 5 5 5 5 5 5 3 5 3 5 5 5 5 3 5 5 5 5 5 5 5 5 5 5 5 3 5 5 5 5 5 5 5 5 5 5 5 3 5 5 5 5 5 3 5 5 3 5 5 5 5 3 5 5 5 3 5 5 3 3 3 5 5 5 3 5 5 5 5 5 5 5 5 5 5 3 5 5 3 5 5 3 5 5 5 5 5 5 3 5 5 5 5 5 5 5 5 5 3 5 5 5 5 5 5 5 5 5 5 5 5 5 5 5 5 5 5 3 5 5 5 5 5 3 3 5 3 5 5 5 3 5 3 5 5 5 5 5 5 5 5 5 5 5 5 5 3 3 5 5 5 5 3 5 5 5 3 5 5 5 5 5 5 5 5 5 5 5 5 5 5 5 5 5 5 5 5 5 5 5 5 5 5 5 5 5 5 5 5 5 3 5 5 5 5 5 5 5 5 5 5 5 5 5 3 5 5 5 3 5 5 5 5 5 3 5 5 5 5 5 5 3 5 5 5 5 5 5 3 5 5 5 5 5 3 3 5 5 5 5 5 3 5 5 5 5 5 3 5 5 5 5 5 5 5 5 5 5 5 5 5 5 5 5 5 5 5 5 5 5 5 5 5 5 3 3 5 5 5 5 5 5 5 3 5 5 5 5 5 5 5 5 5 5 5 5 5 5 5 5 5 5 5 5 5 5 5 5 5 5 5 5 5 5 5 5 5 5 5 5 5 5 5 5 5 3 5 5 5 3 3 5 5 5 5 5 5 5 5 5 5 3 5 5 5 3 5 5 5 5 5 5 5 5 3 5 5 3 5 5 5 5 5 5 3 5 5 3 5 5 5 5 3 5 3 5 3 5 5 3 5 5 5 5 5 5 5 5 5 5 5 5 3 5 5 5 5 5 5 5 5 5 5 5 5 5 5 5 5 3 3 5 3 5 5 5 3 5 5 5 5 5 3 5 5 5 3 5 5 3 5 5 3 5 5 3 5 5 5 3 5 5 5 5 5 5 3 5 5 3 5 5 5 5 5 3 5 5 3 5 5 3 3 5 3 5 5 5 5 5 5 5 5 3 5 5 5 5 5 3 5 5 5 5 5 5 5 5 5 5 5 5 5 3 3 5 5 5 3 5 5 5 5 5 5 5 5 5 5 5 5 3 5 5 5 3 5 5 5 3 5 5 5 5 5 5 3 5 5 5 5 5 5 5 3 5 5 5 5 5 5 5 5 3 5 3 5 5 5 5 5 5 5 5 5 5 3 5 5 5 3 3 5 5 5 5 5 5 5 5 5 5 5 5 5 5 5 5 5 5 5 5 5 5 5 5 5 5 5 3 5 5 3 5 5 5 5 5 5 5 5 5 5 5 5 5 5 5 5 5 3 3 5 5 3 5 3 5 5 3 5 5 5 3 3 3 5 5 5 5 5 5 5 5 5 5 5 5 5 5 5 5 5 5 5 5 5 5 5 3 5 5 5 5 5 5 5 5 3 5 5 3 5 5 5 5 5 5 5 5 5 3 3 5 5 5 5 5 5 5 5 5 5 3 5 5 5 5 5 5 5 3 5 5 3 5 5 5 5 5 5 5 5 3 5 5 5 5 5 5 5 5 5 5 5 3 5 5 5 5 5 5 5 5 5 3 3 5 5 5 5 5 5 3 5 5 5 5 3 5 5 5 5 5 3 5 5 5 5 5 5 3 5 5 5 3 5 5 5 5 5 5 5 5 5 5 5 5 5 5 5 5 5 5 5 5 3 5 5 5 3 5 5 5 5 3 5 5 3 5 5 5 5 5 5 5 5 5 5 5 5 5 5 5 5 5 5 5 5 5 5 5 5 5 5 5 5 5 5 3 5 5 5 5 5 5 5 5 3 3 5 5 5 5 5 5 5 5 5 5 5 5 5 5 5 5 5 5 5 3 5 5 5 3 5 5 5 5 3 5 3 3 5 5 5 5 5 3 5 5 5 5 5 5 5 5 3 5 5 5 5 5 5 5 5 5 5 3 5 5 5 5 3 5 5 5 5 5 5 5 5 5 5 5 5 5 5 5 5 3 5 5 3 5 5 3 5 5 5 5 3 3 5 5 5 5 5 5 5 5 3 5 3 5 5 3 3 5 5 5 5 3 5 5 5 5 5 5 3 5 5 5 5 3 5 5 5 5 5 5 5 5 5 3 3 5 5 3 5 5 5 5 5 5 5 5 5 5 5 5 5 5 5 5 5 5 5 5 5 5 5 5 5 3 5 5 5 5 5 3 5 5 5 5 3 5 5 5 5 3 5 5 3 5 5 5 5 5 5 5 5 5 5 5 5 5 5 3 5 5 5 3 5 5 5 5 5 5 5 5 5 5 5 5 5 5 5 5 5 5 5 5 5 3 5 5 5 5 5 5 5 3 5 5 5 5 5 5 5 5 5 5 5 5 5 3 5 5 3 5 5 5 5 5 3 5 5 5 5 3 3 3 5 5 5 5 3 5 5 5 5 5 3 5 5 5 5 5 3 5 3 5 5 5 5 3 5 3 5 5 5 5 3 5 5 5 5 5 5 3 5 5 5 5 5 5 3 5 5 5 5 5 5 5 5 5 5 5 5 5 5 5 5 5 5 5 5 5 5 5 5 5 5 5 5 5 5 3 5 5 5 3 3 5 5 5 5 3 5 3 3 5 5 3 5 5 3 5 3 5 5 5 5 5 5 3 5 5 3 5 5 5 5 5 5 5 3 5 5 5 5 3 5 5 5 5 3 5 5 5 5 5 3 5 5 5 3 5 5 5 5 5 5 5 5 3 5 5 5 5 5 5 5 5 5 5 5 5 5 5 5 5 5 5 5 5 3 5 5 5 5 5 5 5 3 3 5 5 5 5 3 5 5 5 5 5 5 5 5 5 3 5 5 5 5 3 5 5 5 5 5 5 5 5 5 5 5 5 5 3 5 5 5 5 5 3 5 5 5 5 5 5 5 5 5 5 5 5 5 5 5 5 5 5 3 5 5 5 5 5 5 5 5 5 5 5 5 5 5 5 5 5 5 5 5 5 5 5 5 5 5 3 5 5 3 5 5 5 5 5 5 5 3 5 5 5 3 5 5 5 5 5 5 3 5 5 5 5 5 5 5 5 5 5 5 5 5 5 5 5 5 5 5 5 5 5 5 3 3 5 3 5 5 5 5 5 5 5 3 5 5 3 5 5 5 5 5 5 5 5 5 5 5 5 5 5 3 5 5 5 5 5 3 5 5 5 3 5 3 5 3 5 5 3 5 5 5 5 5 5 5 5 5 5 5 5 3 5 5 3 3 5 5 5 5 3 3 5 5 5 3 5 5 5 5 5 5 5 5 3 5 5 5 3 5 5 5 5 5 5 5 5 5 5 5 5 5 5 5 5 5 5 5 5 5 5 5 3 5 5 5 5 5 5 5 5 5 5 5 5 3 5 5 3 5 5 5 5 5 5 5 5 5 3 5 5 5 5 5 5 5 3 5 5 5 5 5 5 5 5 5 5 5 5 5 5 5 3 5 5 5 5 3 5 5 5 3 5 3 5 5 3 5 3 5 5 3 5 3 5 5 5 5 5 5 5 5 5 5 5 5 5 5 5 5 5 5 5 5 5 5 5 5 5 5 5 5 5 5 5 5 5 5 5 5 5 5 3 5 5 5 5 5 5 5 3 5 5 3 5 5 3 5 5 3 5 5 5 5 3 5 5 3 5 5 5 3 3 5 3 5 3 3 5 5 5 5 5 5 5 5 5 5 5 5 5 3 5 5 3 3 5 5 3 5 5 5 5 3 5 5 3 5 5 3 5 5 5 5 5 5 3 5 5 3 5 5 5 5 5 5 5 3 5 5 5 5 5 5 5 5 5 5 5 5 5 5 5 5 5 5 5 5 5 5 5 5 5 5 5 5 5 5 5 5 5 3 5 5 5 3 5 3 5 5 5 5 5 5 5 5 5 5 5 5 5 5 5 5 5 3 3 5 5 5 5 5 3 3 5 5 5 5 5 3 5 3 5 5 5 3 5 5 3 5 5 5 3 5 5 5 3 5 5 5 5 5 5 5 5 5 5 3 5 5 5 5 5 5 5 5 5 5 5 5 5 5 5 5 5 5 5 5 5 5 5 5 5 3 5 5 5 5 5 5 3 5 5 5 5 3 5 5 5 5 5 5 5 5 3 5 5 5 5 5 5 3 5 3 5 5 3 5 5 5 5 5 5 5 5 5 3 5 3 5 5 5 5 5 5 5 3 5 5 3 5 5 5 5 5 5 5 3 5 5 5 5 3 5 5 5 5 5 5 5 5 5 5 5 5 5 5 5 5 5 5 5 5 5 5 5 5 3 5 5 5 5 5 5 5 3 5 5 3 5 5 5 5 5 5 5 5 5 5 5 5 3 5 5 5 5 5 5 3 5 5 5 5 5 5 5 5 5 5 5 5 5 5 5 5 5 5 5 3 3 5 5 5 5 5 5 5 5 5 3 5 5 5 5 3 5 5 3 3 5 5 5 5 5 5 5 5 5 5 5 5 5 5 5 5 3 5 5 5 3 3 5 5 3 5 5 3 5 5 5 5 5 3 5 3 5 5 5 5 3 5 3 5 5 5 3 5 3 5 5 5 5 3 5 5 5 5 5 5 3 5 5 5 5 5 5 5 5 5 5 5 5 5 5 5 5 5 5 3 5 5 3 5 5 5 3 5 5 5 5 5 5 5 5 5 5 5 5 5 5 3 5 3 5 5 5 5 5 3 5 5 3 5 3 5 5 5 5 5 5 5 5 3 5 5 5 3 5 5 5 3 5 5 3 5 5 5 5 5 5 5 5 5 5 5 5 5 5 5 3 5 5 3 5 5 5 5 5 5 5 5 5 5 5 5 5 5 5 3 5 5 5 5 5 5 5 3 5 5 5 5 3 5 5 5 5 5 5 5 5 5 5 5 5 5 5 5 5 5 5 5 5 3 5 5 5 5 5 5 5 3 5 5 5 5 5 5 5 5 5 5 3 5 5 5 5 5 5 5 3 5 5 3 5 5 3 5 5 3 5 5 5 5 5 5 5 5 3 5 5 3 5 3 5 5 5 5 5 5 3 5 5 5 5 5 5 5 5 5 5 5 5 5 5 5 5 5 5 5 5 5 5 5 5 5 5 5 5 5 5 5 5 5 5 3 5 5 5 5 5 5 5 5 5 5 5 5 5 5 5 5 5 5 5 5 5 5 5 5 5 5 5 5 5 5 5 5 5 5 5 5 5 5 5 5 5 5 5 5 5 5 5 5 5 5 5 5 5 5 5 5 5 5 5 5 5 5 5 5 5 5 5 5 5 5 5 5 5 5 5 5 5 5 5 5 5 5 5 5 3 5 5 5 5 5 5 5 3 5 5 3 5 5 5 5 5 5 5 5 3 5 5 5 5 5 5 5 5 5 5 5 5 5 5 5 5 5 3 5 5 3 5 5 5 5 5 5 5 5 5 3 5 5 5 5 5 5 5 3 5 5 5 5 5 5 5 5 5 3 3 5 5 5 5 5 5 5 5 3 5 5 3 5 5 5 3 3 5 3 5 5 5 5 5 5 3 3 5 5 5 5 5 5 5 5 5 3 5 3 5 5 5 5 3 5 5 3 5 3 5 5 5 3 5 3 5 3 5 5 3 5 5 5 3 3 5 5 5 3 5 5 5 5 5 3 3 3 5 5 5 3 5 5 5 5 5 5 5 5 5 5 5 5 5 5 5 5 5 5 5 5 5 5 5 5 5 5 3 5 5 5 5 3 5 5 5 5 5 3 5 5 5 5 3 5 5 5 5 5 5 5 5 5 5 5 5 5 5 5 5 5 5 5 5 5 5 5 5 5 5 5 3 5 5 5 5 5 5 5 5 5 5 5 5 5 5 5 5 5 5 5 3 5 3 5 5 5 3 5 5 5 5 5 5 5 5 5 3 5 3 3 5 5 3 5 5 3 5 5 3 5 5 5 5 5 5 5 5 5 5 5 5 5 5 3 5 5 5 5 5 5 5 5 5 5 5 3 5 5 5 5 5 5 3 5 5 5 5 3 5 5 5 3 5 5 5 5 3 5 5 5 5 5 5 5 5 3 5 5 5 5 5 5 5 5 5 3 5 3 5 5 5 5 5 5 5 5 5 5 5 3 5 5 5 5 5 5 5 5 5 5 5 5 5 5 5 3 3 5 5 5 5 5 5 5 5 5 5 5 5 5 5 5 5 5 5 5 5 5 5 5 5 5 5 5 5 5 5 5 5 5 5 5 5 3 5 5 5 5 5 5 5 5 5 5 5 5 5 5 5 3 5 5 5 5 5 5 5 5 5 5 5 5 5 3 3 5 5 5 5 5 5 5 5 5 5 5 5 5 5 5 5 5 5 5 3 5 5 3 5 5 5 5 5 5 5 5 5 5 3 5 5 5 5 5 5 5 5 5 5 3 5 5 5 5 5 3 3 5 5 3 5 5 5 5 5 5 5 5 3 5 5 5 5 5 5 5 5 3 5 3 5 5 5 5 3 5 3 5 5 5 5 3 5 3 5 3 5 5 3 5 5 5 3 5 5 3 5 5 3 5 5 5 3 5 5 5 5 5 5 3 5 3 5 5 5 3 5 5 5 5 5 5 5 5 3 5 5 5 5 5 5 3 5 5 3 5 5 5 3 5 5 3 5 5 3 5 5 5 3 5 3 5 3 5 5 5 5 5 5 5 5 5 5 5 5 5 5 5 5 5 5 5 5 5 5 5 5 5 5 5 3 5 5 5 3 5 5 5 5 5 5 5 3 5 5 5 3 5 5 5 3 5 5 5 5 5 5 5 5 3 5 5 5 5 3 5 5 5 5 5 5 5 5 5 5 5 5 5 5 5 5 5 5 5 5 5 5 5 5 3 5 5 5 5 5 5 5 5 5 5 5 3 5 5 5 5 5 5 5 5 5 5 5 5 5 5 5 5 5 5 5 5 5 5 5 5 3 3 5 5 3 5 5 5 5 5 5 5 5 5 5 5 5 5 3 5 5 5 5 5 5 5 5 3 5 5 5 5 5 5 5 5 5 5 5 5 5 5 5 5 5 3 5 5 3 5 5 5 5 3 3 5 5 5 5 5 5 5 5 3 5 5 5 5 3 5 5 5 3 5 5 5 5 5 5 5 3 5 5 5 5 3 5 5 5 
</DataArray>
</Cells>
<PointData Scalars="" Vectors="displacement," Tensors="">
<DataArray type="Float64" Name="displacement" NumberOfComponents="3" format="ascii">
-0.049996378589336574 -1.0907922980108992e-06 0 -0.049479741050383663 -6.1870406220270436e-05 0 -0.049999138606174519 1.0851903183980745e-07 0 -0.049996378589336574 -1.0907922980108992e-06 0 -0.048674936954040911 -3.2249760521568901e-05 0 -0.045615060508403332 2.0215705761047355e-06 0 -0.049996378589336574 -1.0907922980108992e-06 0 -0.049479741050383663 -6.1870406220270436e-05 0 -0.048674936954040911 -3.2249760521568901e-05 0 -0.049479741050383663 -6.1870406220270436e-05 0 -0.048674936954040911 -3.2249760521568901e-05 0 -0.049753315747178582 4.5052257272795341e-05 0 -0.048674936954040911 -3.2249760521568901e-05 0 -0.045615060508403332 2.0215705761047355e-06 0 -0.047907548541829 0.00037933517490126146 0 -0.045615060508403332 2.0215705761047355e-06 0 -0.047907548541829 0.00037933517490126146 0 -0.047152285266469564 0.00065720624937148063 0 -0.048674936954040911 -3.2249760521568901e-05 0 -0.047907548541829 0.00037933517490126146 0 -0.048489892109734332 0.00020632380676389539 0 -0.048261833963875476 0.0004710972390605369 0 -0.047907548541829 0.00037933517490126146 0 -0.048126361656833178 0.00078655844315229971 0 -0.048261833963875476 0.0004710972390605369 0 -0.047907548541829 0.00037933517490126146 0 -0.048489892109734332 0.00020632380676389539 0 -0.048261833963875476 0.0004710972390605369 0 -0.048126361656833178 0.00078655844315229971 0 -0.048486046572900475 0.00051803363329569691 0 -0.047907548541829 0.00037933517490126146 0 -0.047747655361649648 0.00075749182819926915 0 -0.047152285266469564 0.00065720624937148063 0 -0.047747655361649648 0.00075749182819926915 0 -0.048126361656833178 0.00078655844315229971 0 -0.04770518952531401 0.0012626466134303958 0 -0.047907548541829 0.00037933517490126146 0 -0.047747655361649648 0.00075749182819926915 0 -0.048126361656833178 0.00078655844315229971 0 -0.047747655361649648 0.00075749182819926915 0 -0.04770518952531401 0.0012626466134303958 0 -0.047152285266469564 0.00065720624937148063 0 -0.048126361656833178 0.00078655844315229971 0 -0.047716632098636018 0.0013428384045529066 0 -0.048406640987674859 0.00084733190196826591 0 -0.048126361656833178 0.00078655844315229971 0 -0.04770518952531401 0.0012626466134303958 0 -0.047716632098636018 0.0013428384045529066 0 -0.04770518952531401 0.0012626466134303958 0 -0.047694615064862181 0.0015363894977895537 0 -0.04725563223831511 0.0015079704898237013 0 -0.042711136439147722 0.0011757152782199104 0 -0.043321633694564696 0.0013323818470744235 0 -0.042729839724707994 0.00069031653732409587 0 -0.044019065283053396 0.00097624979115951496 0 -0.04154203356556966 0.00026850139479931746 0 -0.043993596491974207 0.0009325740980106645 0 -0.044019065283053396 0.00097624979115951496 0 -0.043993596491974207 0.0009325740980106645 0 -0.04154203356556966 0.00026850139479931746 0 -0.044211698095187331 0.00098919519908382343 0 -0.043993596491974207 0.0009325740980106645 0 -0.045604722271992491 1.3639291577134099e-06 0 -0.043269272471075461 8.565543975816946e-05 0 -0.042746410062170052 -6.7531641112474725e-07 0 -0.043030875805837081 0.00013633986958361209 0 -0.043269272471075461 8.565543975816946e-05 0 -0.042648700064917021 7.8453031893898996e-05 0 -0.04770518952531401 0.0012626466134303958 0 -0.04725563223831511 0.0015079704898237013 0 -0.047152285266469564 0.00065720624937148063 0 -0.044019065283053396 0.00097624979115951496 0 -0.043714465435207482 0.00083567928351807434 0 -0.045607156078298391 3.1694285331762767e-07 0 -0.044019065283053396 0.00097624979115951496 0 -0.045604722271992491 1.3639291577134099e-06 0 -0.042826801764005905 0.0001874131109688882 0 -0.043269272471075461 8.565543975816946e-05 0 -0.045615060508403332 2.0215705761047355e-06 0 -0.04725563223831511 0.0015079704898237013 0 -0.047152285266469564 0.00065720624937148063 0 -0.048678452485129531 0.00066638610963296919 0 -0.048789027297874127 0.00048351850962787939 0 -0.04887328181117475 0.00073104217678523738 0 -0.048678452485129531 0.00066638610963296919 0 -0.04887328181117475 0.00073104217678523738 0 -0.048638518159169787 0.0010072689638089718 0 -0.047716632098636018 0.0013428384045529066 0 -0.048406640987674859 0.00084733190196826591 0 -0.048638518159169787 0.0010072689638089718 0 -0.048678452485129531 0.00066638610963296919 0 -0.048406640987674859 0.00084733190196826591 0 -0.048638518159169787 0.0010072689638089718 0 -0.048126361656833178 0.00078655844315229971 0 -0.048406640987674859 0.00084733190196826591 0 -0.048486046572900475 0.00051803363329569691 0 -0.048678452485129531 0.00066638610963296919 0 -0.048406640987674859 0.00084733190196826591 0 -0.048486046572900475 0.00051803363329569691 0 -0.048678452485129531 0.00066638610963296919 0 -0.048486046572900475 0.00051803363329569691 0 -0.048633950580908775 0.00034768474431103041 0 -0.048261833963875476 0.0004710972390605369 0 -0.048486046572900475 0.00051803363329569691 0 -0.048489892109734332 0.00020632380676389539 0 -0.048486046572900475 0.00051803363329569691 0 -0.048489892109734332 0.00020632380676389539 0 -0.048633950580908775 0.00034768474431103041 0 -0.048633950580908775 0.00034768474431103041 0 -0.048789027297874127 0.00048351850962787939 0 -0.048794777138681703 0.00032618907894669554 0 -0.048678452485129531 0.00066638610963296919 0 -0.048633950580908775 0.00034768474431103041 0 -0.048789027297874127 0.00048351850962787939 0 -0.048789027297874127 0.00048351850962787939 0 -0.048794777138681703 0.00032618907894669554 0 -0.048907329244125636 0.00050900452525094362 0 -0.048794777138681703 0.00032618907894669554 0 -0.048594722921498149 0.00013714630788943676 0 -0.048785646294865315 0.00010465752987685806 0 -0.049095261226849263 7.3042205392909667e-05 0 -0.049577413609748718 1.8600188679055918e-05 0 -0.048633950580908775 0.00034768474431103041 0 -0.048794777138681703 0.00032618907894669554 0 -0.048594722921498149 0.00013714630788943676 0 -0.048489892109734332 0.00020632380676389539 0 -0.048633950580908775 0.00034768474431103041 0 -0.048594722921498149 0.00013714630788943676 0 -0.048674936954040911 -3.2249760521568901e-05 0 -0.048489892109734332 0.00020632380676389539 0 -0.048594722921498149 0.00013714630788943676 0 -0.048803669711639686 2.2479705389651322e-05 0 -0.049095261226849263 7.3042205392909667e-05 0 -0.049479741050383663 -6.1870406220270436e-05 0 -0.049753315747178582 4.5052257272795341e-05 0 -0.049999138606174519 1.0851903183980745e-07 0 -0.049753315747178582 4.5052257272795341e-05 0 -0.049999138606174519 1.0851903183980745e-07 0 -0.049797870122660008 3.5828970279883603e-05 0 -0.049999998129198239 2.8065074933817242e-10 0 -0.049998333148606321 -4.899356537950611e-08 0 -0.049999997078344433 -5.9239614369557447e-10 0 -0.050000271201142046 1.4506371868180116e-07 0 -0.049577413609748718 1.8600188679055918e-05 0 -0.049998333148606321 -4.899356537950611e-08 0 -0.049999997078344433 -5.9239614369557447e-10 0 -0.04999989677649775 -4.655523068229111e-08 0 -0.049999997078344433 -5.9239614369557447e-10 0 -0.04999989677649775 -4.655523068229111e-08 0 -0.050000001382748016 2.4190397081768516e-10 0 -0.049923251076622856 1.2318800195166152e-05 0 -0.049945756567383308 1.2299851704826185e-05 0 -0.049958425119089066 6.1752408412352105e-07 0 -0.049577413609748718 1.8600188679055918e-05 0 -0.050040081391319803 -1.8795396159737907e-05 0 -0.049945756567383308 1.2299851704826185e-05 0 -0.049958425119089066 6.1752408412352105e-07 0 -0.049970055767031882 1.6380859481648459e-05 0 -0.050040081391319803 -1.8795396159737907e-05 0 -0.04999993186995165 2.1798763728251409e-08 0 -0.049958425119089066 6.1752408412352105e-07 0 -0.049987395682109373 1.0037660429067964e-05 0 -0.049970055767031882 1.6380859481648459e-05 0 -0.049958425119089066 6.1752408412352105e-07 0 -0.049999936749477461 -1.4585362240044501e-08 0 -0.049987395682109373 1.0037660429067964e-05 0 -0.049968145268383432 3.1764878611583807e-05 0 -0.049984276653288334 1.9727932537625969e-05 0 -0.049977358171668367 3.7334399439767563e-05 0 -0.049987395682109373 1.0037660429067964e-05 0 -0.049970055767031882 1.6380859481648459e-05 0 -0.049984276653288334 1.9727932537625969e-05 0 -0.049970055767031882 1.6380859481648459e-05 0 -0.049968145268383432 3.1764878611583807e-05 0 -0.049984276653288334 1.9727932537625969e-05 0 -0.049945756567383308 1.2299851704826185e-05 0 -0.049970055767031882 1.6380859481648459e-05 0 -0.049968145268383432 3.1764878611583807e-05 0 -0.049923251076622856 1.2318800195166152e-05 0 -0.049945756567383308 1.2299851704826185e-05 0 -0.049964078275915078 4.625359799950524e-05 0 -0.049577413609748718 1.8600188679055918e-05 0 -0.049545411453188172 0.00022381095781151927 0 -0.048794777138681703 0.00032618907894669554 0 -0.048785646294865315 0.00010465752987685806 0 -0.049064547321168772 0.00037873637247323537 0 -0.050022541042662301 8.2690948574203482e-06 0 -0.049545411453188172 0.00022381095781151927 0 -0.050000008154436885 1.1722199601783454e-08 0 -0.049994676490188197 7.1121035994182379e-06 0 -0.049995562608574691 1.6332137238175809e-05 0 -0.050000008154436885 1.1722199601783454e-08 0 -0.049995562608574691 1.6332137238175809e-05 0 -0.049999398213320709 3.9667945478007973e-06 0 -0.049999936749477461 -1.4585362240044501e-08 0 -0.050000008154436885 1.1722199601783454e-08 0 -0.049994676490188197 7.1121035994182379e-06 0 -0.049999936749477461 -1.4585362240044501e-08 0 -0.049987395682109373 1.0037660429067964e-05 0 -0.049994676490188197 7.1121035994182379e-06 0 -0.049987395682109373 1.0037660429067964e-05 0 -0.049994676490188197 7.1121035994182379e-06 0 -0.049984276653288334 1.9727932537625969e-05 0 -0.049994676490188197 7.1121035994182379e-06 0 -0.049984276653288334 1.9727932537625969e-05 0 -0.049995562608574691 1.6332137238175809e-05 0 -0.049984276653288334 1.9727932537625969e-05 0 -0.049995562608574691 1.6332137238175809e-05 0 -0.049977358171668367 3.7334399439767563e-05 0 -0.04830196182549084 -5.3546977548107171e-05 0 -0.048293560764292219 -2.9806636016964978e-05 0 -0.048324155149573111 -5.9093243918689993e-05 0 -0.048304318175499128 -7.5572326908618069e-05 0 -0.04830196182549084 -5.3546977548107171e-05 0 -0.048324155149573111 -5.9093243918689993e-05 0 -0.048304318175499128 -7.5572326908618069e-05 0 -0.04830196182549084 -5.3546977548107171e-05 0 -0.048283230515611633 -5.0605342671930959e-05 0 -0.049210098496544757 -7.555667608449101e-05 0 -0.048986173381047569 0.00027843108219195549 0 -0.04830196182549084 -5.3546977548107171e-05 0 -0.048283230515611633 -5.0605342671930959e-05 0 -0.048291851200216902 -4.1878521199098536e-05 0 -0.048160956174455059 0.0015199617049308943 0 -0.047691792068823888 0.00038527671971410124 0 -0.048426036748998293 0.0013335089723770966 0 -0.048986173381047569 0.00027843108219195549 0 -0.047763026067806413 0.00042945219867983504 0 -0.048160956174455059 0.0015199617049308943 0 -0.047691792068823888 0.00038527671971410124 0 -0.047098667547322712 0.00079445925517809617 0 -0.047691792068823888 0.00038527671971410124 0 -0.047098667547322712 0.00079445925517809617 0 -0.046953662438602148 -0.00056822693524007095 0 -0.048534264357666536 0.00082975770558156733 0 -0.048902965107950627 0.00064518314896425642 0 -0.04830196182549084 -5.3546977548107171e-05 0 -0.048291851200216902 -4.1878521199098536e-05 0 -0.048293560764292219 -2.9806636016964978e-05 0 -0.047098667547322712 0.00079445925517809617 0 -0.046038503754732792 6.2893701451823637e-05 0 -0.046953662438602148 -0.00056822693524007095 0 -0.047763026067806413 0.00042945219867983504 0 -0.046117891003438112 2.413388743209149e-05 0 -0.049064547321168772 0.00037873637247323537 0 -0.048907329244125636 0.00050900452525094362 0 -0.048991961114225269 0.00067396584574948445 0 -0.048794777138681703 0.00032618907894669554 0 -0.049064547321168772 0.00037873637247323537 0 -0.048907329244125636 0.00050900452525094362 0 -0.048789027297874127 0.00048351850962787939 0 -0.048907329244125636 0.00050900452525094362 0 -0.04887328181117475 0.00073104217678523738 0 -0.049064547321168772 0.00037873637247323537 0 -0.049174628783921363 0.00056134082689430153 0 -0.048991961114225269 0.00067396584574948445 0 -0.049545411453188172 0.00022381095781151927 0 -0.048986173381047569 0.00027843108219195549 0 -0.049545411453188172 0.00022381095781151927 0 -0.048902965107950627 0.00064518314896425642 0 -0.049323033703514867 0.00043736702871525915 0 -0.04907100717611828 0.00026507868101700844 0 -0.049147860443902763 0.00021116692097155614 0 -0.048986173381047569 0.00027843108219195549 0 -0.048902965107950627 0.00064518314896425642 0 -0.048902965107950627 0.00064518314896425642 0 -0.049021717637998841 0.00063519757294926149 0 -0.048974618604008383 0.00070896386776746168 0 -0.048991961114225269 0.00067396584574948445 0 -0.0489721411852529 0.0007151042428409129 0 -0.048962644160420801 0.00073669471149743668 0 -0.048974618604008383 0.00070896386776746168 0 -0.0489721411852529 0.0007151042428409129 0 -0.048962644160420801 0.00073669471149743668 0 -0.0489721411852529 0.0007151042428409129 0 -0.048954870787355331 0.00076653372508403645 0 -0.048991961114225269 0.00067396584574948445 0 -0.0489721411852529 0.0007151042428409129 0 -0.048954870787355331 0.00076653372508403645 0 -0.048991961114225269 0.00067396584574948445 0 -0.04887328181117475 0.00073104217678523738 0 -0.048954870787355331 0.00076653372508403645 0 -0.048907329244125636 0.00050900452525094362 0 -0.048991961114225269 0.00067396584574948445 0 -0.04887328181117475 0.00073104217678523738 0 -0.04887328181117475 0.00073104217678523738 0 -0.048889004342518722 0.00084878625237711739 0 -0.048954870787355331 0.00076653372508403645 0 -0.046420449569663319 0.00074677852671153986 0 -0.043418611074348232 0.00051007505965530644 0 -0.048889004342518722 0.00084878625237711739 0 -0.048954870787355331 0.00076653372508403645 0 -0.048930820163624406 0.00078022549366683761 0 -0.038925818700924673 0.00073321727518359963 0 -0.039707256605035449 0.00019567557933731675 0 -0.039403720742101821 0.00091953158278393777 0 -0.042918992146294792 0.00048829954582655982 0 -0.042959199672852881 0.00066519662641258549 0 -0.043149510298696347 0.00054458081749088057 0 -0.04079279921793854 0.00077070688362973429 0 -0.043418611074348232 0.00051007505965530644 0 -0.042918992146294792 0.00048829954582655982 0 -0.042959199672852881 0.00066519662641258549 0 -0.042787702696154617 0.00059710148135477478 0 -0.042772327694946585 0.00064609210869103839 0 -0.042849583480682504 0.00015560760347983548 0 -0.04271170217240685 0.00056488662517856865 0 -0.046117891003438112 2.413388743209149e-05 0 -0.041551486316540653 0.00030643858369901249 0 -0.044292802194767368 -0.000193913455380864 0 -0.043913566313493704 6.1193770605624188e-05 0 -0.044146770532532471 0.00038487764313041101 0 -0.046117891003438112 2.413388743209149e-05 0 -0.044814544655091264 0.00012441493063916026 0 -0.044814544655091264 0.00012441493063916026 0 -0.041551486316540653 0.00030643858369901249 0 -0.048962644160420801 0.00073669471149743668 0 -0.048954870787355331 0.00076653372508403645 0 -0.048930820163624406 0.00078022549366683761 0 -0.048962644160420801 0.00073669471149743668 0 -0.04893092291703216 0.00075610843798286332 0 -0.048930820163624406 0.00078022549366683761 0 -0.044814544655091264 0.00012441493063916026 0 -0.043418611074348232 0.00051007505965530644 0 -0.048534264357666536 0.00082975770558156733 0 -0.044814544655091264 0.00012441493063916026 0 -0.039793699775198685 0.00056544727874017207 0 -0.040449944348338734 0.0003623276656761975 0 -0.040573149946203445 0.0011461281380324643 0 -0.040457514738129877 -3.03627747770698e-05 0 -0.040100939797803263 0.00024970814730129824 0 -0.040449944348338734 0.0003623276656761975 0 -0.039707256605035449 0.00019567557933731675 0 -0.039793699775198685 0.00056544727874017207 0 -0.040449944348338734 0.0003623276656761975 0 -0.039707256605035449 0.00019567557933731675 0 -0.039793699775198685 0.00056544727874017207 0 -0.039403720742101821 0.00091953158278393777 0 -0.043418611074348232 0.00051007505965530644 0 -0.039329236009983934 5.2640592278262463e-05 0 -0.040449944348338734 0.0003623276656761975 0 -0.040737898589366238 0.00027100308465409739 0 -0.040573149946203445 0.0011461281380324643 0 -0.041551486316540653 0.00030643858369901249 0 -0.038106314372083151 0.0014844895174197345 0 -0.040457514738129877 -3.03627747770698e-05 0 -0.040449944348338734 0.0003623276656761975 0 -0.040737898589366238 0.00027100308465409739 0 -0.038671642687596507 0.00070590596245545501 0 -0.038550539124217187 0.0011460893774931989 0 -0.038933991053033801 0.0010822276351953794 0 -0.038633200739511216 0.0012146062371670356 0 -0.038550539124217187 0.0011460893774931989 0 -0.038933991053033801 0.0010822276351953794 0 -0.031993155660796503 0.001843184342898231 0 -0.03544421107291932 0.0017393547878877106 0 -0.03069492139032572 0.0019663006903860056 0 -0.031993155660796503 0.001843184342898231 0 -0.033263818179545587 0.0017564958060387586 0 -0.033242752163757404 0.0018100559956466427 0 -0.033372488564995383 0.0017574577010249664 0 -0.031993155660796503 0.001843184342898231 0 -0.032534325940873646 0.0018344440745315066 0 -0.033173382718263367 0.0017534529989850333 0 -0.033263818179545587 0.0017564958060387586 0 -0.033242752163757404 0.0018100559956466427 0 -0.03544421107291932 0.0017393547878877106 0 -0.038106314372083151 0.0014844895174197345 0 -0.040338179322559037 0.0010813503542906628 0 -0.040293566984034107 0.0012774855987462007 0 -0.039886412247443909 0.0010916668458739499 0 -0.036754393025584656 0.0014179675223929778 0 -0.036628255921603445 0.0013156569935629928 0 -0.036585898163955174 0.0014930015345668913 0 -0.038106314372083151 0.0014844895174197345 0 -0.035690688832764168 0.0014305886198066275 0 -0.03544421107291932 0.0017393547878877106 0 -0.035690688832764168 0.0014305886198066275 0 -0.039886412247443909 0.0010916668458739499 0 -0.039572875766565471 0.0016087812347449345 0 -0.039403720742101821 0.00091953158278393777 0 -0.040293566984034107 0.0012774855987462007 0 -0.039886412247443909 0.0010916668458739499 0 -0.039572875766565471 0.0016087812347449345 0 -0.039793699775198685 0.00056544727874017207 0 -0.040338179322559037 0.0010813503542906628 0 -0.039886412247443909 0.0010916668458739499 0 -0.040468015281540398 0.00081062279668551952 0 -0.038106314372083151 0.0014844895174197345 0 -0.039793699775198685 0.00056544727874017207 0 -0.039886412247443909 0.0010916668458739499 0 -0.039403720742101821 0.00091953158278393777 0 -0.032526781418575852 0.0019747874499050767 0 -0.031611406956903745 0.0028151800456764852 0 -0.030400445049406099 0.0022420049550312413 0 -0.030060873530669753 0.0024149246517705691 0 -0.030136436155582428 0.0019717799536801144 0 -0.034300680266335759 0.0018320189758616141 0 -0.03415865775130502 0.0018950525815225011 0 -0.034290489247526465 0.001866786137714307 0 -0.03415865775130502 0.0018950525815225011 0 -0.03416746578579706 0.001936462956976681 0 -0.034290489247526465 0.001866786137714307 0 -0.035690688832764168 0.0014305886198066275 0 -0.037414280952675426 0.0016407332940481605 0 -0.026773759484527315 0.0037003550507760364 0 -0.026362452827585352 0.003444217968224415 0 -0.027004198147250195 0.0025371938572673579 0 -0.031611406956903745 0.0028151800456764852 0 -0.028375386622581836 0.0022629156702076883 0 -0.033263818179545587 0.0017564958060387586 0 -0.033372488564995383 0.0017574577010249664 0 -0.033396428954750729 0.0016461130670531842 0 -0.035690688832764168 0.0014305886198066275 0 -0.031611406956903745 0.0028151800456764852 0 -0.031993155660796503 0.001843184342898231 0 -0.031611406956903745 0.0028151800456764852 0 -0.026283148659422995 0.0039472213541582989 0 -0.026773759484527315 0.0037003550507760364 0 -0.026362452827585352 0.003444217968224415 0 -0.033163794774167275 0.0017537732422282203 0 -0.033263818179545587 0.0017564958060387586 0 -0.033396428954750729 0.0016461130670531842 0 -0.026194476725083064 0.0038816822236584303 0 -0.026283148659422995 0.0039472213541582989 0 -0.026362452827585352 0.003444217968224415 0 -0.038925818700924673 0.00073321727518359963 0 -0.038957483027713083 0.0013303282321555769 0 -0.038181658662325077 0.0012366827275858514 0 -0.042959199672852881 0.00066519662641258549 0 -0.042764616776455683 0.00077357523002056225 0 -0.042787702696154617 0.00059710148135477478 0 -0.04079279921793854 0.00077070688362973429 0 -0.039315009750558697 0.00063064760395891263 0 -0.038925818700924673 0.00073321727518359963 0 -0.038957483027713083 0.0013303282321555769 0 -0.039403720742101821 0.00091953158278393777 0 -0.039572875766565471 0.0016087812347449345 0 -0.038957483027713083 0.0013303282321555769 0 -0.039403720742101821 0.00091953158278393777 0 -0.039572875766565471 0.0016087812347449345 0 -0.038957483027713083 0.0013303282321555769 0 -0.038801384684503885 0.0019401798670802054 0 -0.03415865775130502 0.0018950525815225011 0 -0.033940082180718777 0.0019820066084670312 0 -0.033978990809712693 0.0020282901306912888 0 -0.03415865775130502 0.0018950525815225011 0 -0.03416746578579706 0.001936462956976681 0 -0.033978990809712693 0.0020282901306912888 0 -0.037414280952675426 0.0016407332940481605 0 -0.034668083070083337 0.0015903268244649197 0 -0.039315009750558697 0.00063064760395891263 0 -0.034668083070083337 0.0015903268244649197 0 -0.038957483027713083 0.0013303282321555769 0 -0.038181658662325077 0.0012366827275858514 0 -0.038801384684503885 0.0019401798670802054 0 -0.039315009750558697 0.00063064760395891263 0 -0.036333211951347484 4.9503101602005384e-05 0 -0.03703320407094824 6.3751065645145851e-06 0 -0.037035629399355639 3.4443655741504955e-05 0 -0.037026365345579751 -2.396320841942152e-05 0 -0.03703320407094824 6.3751065645145851e-06 0 -0.037035629399355639 3.4443655741504955e-05 0 -0.036974919710449805 1.2434047446214626e-05 0 -0.039315009750558697 0.00063064760395891263 0 -0.039641266107951663 0.00017313350487369186 0 -0.037084622712616082 -3.9292254659673682e-05 0 -0.037042821941803541 -5.2155906870213748e-05 0 -0.037063590252340795 -3.7681640137333678e-05 0 -0.037084622712616082 -3.9292254659673682e-05 0 -0.037042821941803541 -5.2155906870213748e-05 0 -0.037026365345579751 -2.396320841942152e-05 0 -0.037042821941803541 -5.2155906870213748e-05 0 -0.037026365345579751 -2.396320841942152e-05 0 -0.037000503804007309 -6.4673085842516129e-05 0 -0.037026365345579751 -2.396320841942152e-05 0 -0.037000503804007309 -6.4673085842516129e-05 0 -0.036974871211437887 -1.3702419915399905e-05 0 -0.037990542051161105 -0.0001586641276431646 0 -0.037093679525531983 -0.00018409565432128471 0 -0.038994373345704984 -5.0515367089944257e-05 0 -0.039886630912425475 2.424259356632112e-08 0 -0.037025192416006707 -6.4072147167862112e-07 0 -0.038994373345704984 -5.0515367089944257e-05 0 -0.039886630912425475 2.424259356632112e-08 0 -0.04110214115420318 -0.00012079601893739926 0 -0.037042821941803541 -5.2155906870213748e-05 0 -0.037000503804007309 -6.4673085842516129e-05 0 -0.037099388177836749 -4.1166647223409821e-05 0 -0.037990542051161105 -0.0001586641276431646 0 -0.038924692335012244 -0.00022126238901609441 0 -0.037042821941803541 -5.2155906870213748e-05 0 -0.037099388177836749 -4.1166647223409821e-05 0 -0.037063590252340795 -3.7681640137333678e-05 0 -0.037099388177836749 -4.1166647223409821e-05 0 -0.037156181482650409 3.3020977987541115e-05 0 -0.037063590252340795 -3.7681640137333678e-05 0 -0.039886630912425475 2.424259356632112e-08 0 -0.04110214115420318 -0.00012079601893739926 0 -0.042746410062170052 -6.7531641112474725e-07 0 -0.043269272471075461 8.565543975816946e-05 0 -0.042746410062170052 -6.7531641112474725e-07 0 -0.042648700064917021 7.8453031893898996e-05 0 -0.04110214115420318 -0.00012079601893739926 0 -0.042746410062170052 -6.7531641112474725e-07 0 -0.042648700064917021 7.8453031893898996e-05 0 -0.04154203356556966 0.00026850139479931746 0 -0.039641266107951663 0.00017313350487369186 0 -0.038924692335012244 -0.00022126238901609441 0 -0.04154203356556966 0.00026850139479931746 0 -0.042498328475835338 0.0003899511504906393 0 -0.042494362484658911 0.00041615417433673126 0 -0.042698385720221749 0.00043892305456949305 0 -0.043993596491974207 0.0009325740980106645 0 -0.045754139101968593 0.00072384344624147124 0 -0.042494362484658911 0.00041615417433673126 0 -0.042698385720221749 0.00043892305456949305 0 -0.042625535703152036 0.00058151197561868311 0 -0.046420449569663319 0.00074677852671153986 0 -0.045754139101968593 0.00072384344624147124 0 -0.042918992146294792 0.00048829954582655982 0 -0.042698385720221749 0.00043892305456949305 0 -0.042787702696154617 0.00059710148135477478 0 -0.04887328181117475 0.00073104217678523738 0 -0.048889004342518722 0.00084878625237711739 0 -0.048638518159169787 0.0010072689638089718 0 -0.042764616776455683 0.00077357523002056225 0 -0.042787702696154617 0.00059710148135477478 0 -0.042625535703152036 0.00058151197561868311 0 -0.042698385720221749 0.00043892305456949305 0 -0.042787702696154617 0.00059710148135477478 0 -0.042625535703152036 0.00058151197561868311 0 -0.037289074017719533 -0.0016099381625010213 0 -0.03721019655974131 -0.0021278677493966436 0 -0.036526630928626964 -0.0018202251351348323 0 -0.03721019655974131 -0.0021278677493966436 0 -0.036555538572909968 -0.0023557386187945438 0 -0.036526630928626964 -0.0018202251351348323 0 -0.037289074017719533 -0.0016099381625010213 0 -0.03721019655974131 -0.0021278677493966436 0 -0.03814970865126624 -0.0019872011777732675 0 -0.044954189867476388 -5.0910933527878859e-05 0 -0.044982795521691328 0.00053941337329683667 0 -0.046578719602488133 0.00043967866972338302 0 -0.044954189867476388 -5.0910933527878859e-05 0 -0.046578719602488133 0.00043967866972338302 0 -0.046528706214144629 -0.00070201885736616287 0 -0.040455054182573967 -0.00077696575842462216 0 -0.042738032647920289 -0.0015046497354318071 0 -0.037289074017719533 -0.0016099381625010213 0 -0.03814970865126624 -0.0019872011777732675 0 -0.039210664508125034 -0.0022766933074756532 0 -0.048201039788003434 0.00028234344872377358 0 -0.048097586290747105 0.00026029680171551096 0 -0.049966253206555115 3.5266694842823969e-05 0 -0.049959009225524931 2.7180320507046922e-05 0 -0.049950459500281937 7.1618442308606493e-05 0 -0.049966253206555115 3.5266694842823969e-05 0 -0.049959009225524931 2.7180320507046922e-05 0 -0.049969802842467353 2.3807834669710746e-05 0 -0.049959009225524931 2.7180320507046922e-05 0 -0.04996140308232512 2.1002297863153914e-05 0 -0.049969802842467353 2.3807834669710746e-05 0 -0.044954189867476388 -5.0910933527878859e-05 0 -0.044982795521691328 0.00053941337329683667 0 -0.043371366873064414 0.00061313121105191341 0 -0.04996140308232512 2.1002297863153914e-05 0 -0.049967287711615994 1.4035725655539154e-05 0 -0.049952240656424438 1.7201666854387337e-05 0 -0.049959009225524931 2.7180320507046922e-05 0 -0.04996140308232512 2.1002297863153914e-05 0 -0.049952240656424438 1.7201666854387337e-05 0 -0.04996140308232512 2.1002297863153914e-05 0 -0.049969802842467353 2.3807834669710746e-05 0 -0.049967287711615994 1.4035725655539154e-05 0 -0.049969802842467353 2.3807834669710746e-05 0 -0.049981141218618227 1.1911156659981694e-05 0 -0.049967287711615994 1.4035725655539154e-05 0 -0.049969802842467353 2.3807834669710746e-05 0 -0.049981141218618227 1.1911156659981694e-05 0 -0.049979453192889912 1.710840488937163e-05 0 -0.049981141218618227 1.1911156659981694e-05 0 -0.049989001046444229 2.4054150065664079e-06 0 -0.049967287711615994 1.4035725655539154e-05 0 -0.049981141218618227 1.1911156659981694e-05 0 -0.049999952594629055 6.5696455595789986e-09 0 -0.049989001046444229 2.4054150065664079e-06 0 -0.049981141218618227 1.1911156659981694e-05 0 -0.049999952594629055 6.5696455595789986e-09 0 -0.049979453192889912 1.710840488937163e-05 0 -0.049999952594629055 6.5696455595789986e-09 0 -0.049979453192889912 1.710840488937163e-05 0 -0.050000041842221281 2.6486371212485996e-08 0 -0.049966253206555115 3.5266694842823969e-05 0 -0.049969802842467353 2.3807834669710746e-05 0 -0.049979453192889912 1.710840488937163e-05 0 -0.049966253206555115 3.5266694842823969e-05 0 -0.049979453192889912 1.710840488937163e-05 0 -0.049959912470677888 3.2604616821511126e-05 0 -0.049979453192889912 1.710840488937163e-05 0 -0.049959912470677888 3.2604616821511126e-05 0 -0.050000041842221281 2.6486371212485996e-08 0 -0.049959912470677888 3.2604616821511126e-05 0 -0.050000041842221281 2.6486371212485996e-08 0 -0.049924684910466359 3.2562111440836503e-05 0 -0.050000041842221281 2.6486371212485996e-08 0 -0.049924684910466359 3.2562111440836503e-05 0 -0.049999581782582708 -9.5130731526077549e-08 0 -0.049011970161139506 0.00019282558456963492 0 -0.048097586290747105 0.00026029680171551096 0 -0.049924684910466359 3.2562111440836503e-05 0 -0.049854405706931712 0.00011912634807240508 0 -0.049817522247960058 5.0197603687661364e-05 0 -0.049924684910466359 3.2562111440836503e-05 0 -0.049854405706931712 0.00011912634807240508 0 -0.049950459500281937 7.1618442308606493e-05 0 -0.049959912470677888 3.2604616821511126e-05 0 -0.049924684910466359 3.2562111440836503e-05 0 -0.049950459500281937 7.1618442308606493e-05 0 -0.049966253206555115 3.5266694842823969e-05 0 -0.049959912470677888 3.2604616821511126e-05 0 -0.049950459500281937 7.1618442308606493e-05 0 -0.046578719602488133 0.00043967866972338302 0 -0.046879181065438778 -0.00079526081349984333 0 -0.046528706214144629 -0.00070201885736616287 0 -0.046578719602488133 0.00043967866972338302 0 -0.047761693285525333 -0.00048676387745665673 0 -0.046879181065438778 -0.00079526081349984333 0 -0.048094935680784386 0.00029688980260345418 0 -0.046578719602488133 0.00043967866972338302 0 -0.047761693285525333 -0.00048676387745665673 0 -0.048094935680784386 0.00029688980260345418 0 -0.047761693285525333 -0.00048676387745665673 0 -0.048885779646586164 -0.00072122366777543575 0 -0.049011970161139506 0.00019282558456963492 0 -0.049529191848119505 8.0883321537617662e-05 0 -0.048094935680784386 0.00029688980260345418 0 -0.049581961904811053 5.2689370992598089e-05 0 -0.048885779646586164 -0.00072122366777543575 0 -0.049581961904811053 5.2689370992598089e-05 0 -0.049633674643185251 -0.00072316151060067876 0 -0.048885779646586164 -0.00072122366777543575 0 -0.049581961904811053 5.2689370992598089e-05 0 -0.049752881593576916 6.4673387933040816e-05 0 -0.049882570901401198 0.0001013164241515893 0 -0.049581961904811053 5.2689370992598089e-05 0 -0.049817522247960058 5.0197603687661364e-05 0 -0.049752881593576916 6.4673387933040816e-05 0 -0.049854405706931712 0.00011912634807240508 0 -0.049581961904811053 5.2689370992598089e-05 0 -0.049817522247960058 5.0197603687661364e-05 0 -0.049924684910466359 3.2562111440836503e-05 0 -0.049817522247960058 5.0197603687661364e-05 0 -0.049999581782582708 -9.5130731526077549e-08 0 -0.049817522247960058 5.0197603687661364e-05 0 -0.049999581782582708 -9.5130731526077549e-08 0 -0.049752881593576916 6.4673387933040816e-05 0 -0.049999778690543145 1.1454190043985374e-07 0 -0.050027936738750937 2.6030669015525755e-05 0 -0.050000001303746516 3.2752183785775484e-09 0 -0.049998692680800316 5.5903853920513423e-06 0 -0.049994995585415321 1.1606704271573031e-06 0 -0.050000003943452914 -2.2617344059123892e-09 0 -0.050000001303746516 3.2752183785775484e-09 0 -0.049998692680800316 5.5903853920513423e-06 0 -0.050000001303746516 3.2752183785775484e-09 0 -0.049994995585415321 1.1606704271573031e-06 0 -0.049999973381695775 -7.8550783648037065e-09 0 -0.048006769674442687 -0.00040254838302969734 0 -0.047936889906318801 -0.00034749171519668872 0 -0.047986878149422131 -0.00021083322957613724 0 -0.050027936738750937 2.6030669015525755e-05 0 -0.04902703120771703 -9.4936250659171899e-05 0 -0.04899201987224526 -0.00021318358015487342 0 -0.04902703120771703 -9.4936250659171899e-05 0 -0.049998692680800316 5.5903853920513423e-06 0 -0.049979278848474244 7.4002671005444006e-06 0 -0.049970770543149495 2.4365415383961495e-05 0 -0.049998692680800316 5.5903853920513423e-06 0 -0.049979278848474244 7.4002671005444006e-06 0 -0.049994995585415321 1.1606704271573031e-06 0 -0.04899201987224526 -0.00021318358015487342 0 -0.049500901186609172 -0.00018984495476659548 0 -0.048006769674442687 -0.00040254838302969734 0 -0.0480277109812145 -0.00059255965858811231 0 -0.047924361880953323 -0.00052640623259164895 0 -0.049979278848474244 7.4002671005444006e-06 0 -0.049994995585415321 1.1606704271573031e-06 0 -0.049991690060249734 -9.4640088123688904e-07 0 -0.049500901186609172 -0.00018984495476659548 0 -0.049040017995898445 -0.00010451456710713565 0 -0.049999258084457134 3.9589948613872232e-07 0 -0.050000004087736742 1.0365348443879406e-09 0 -0.049999988723822976 -1.3525809964276896e-09 0 -0.049999098040239102 -6.4561790733032248e-07 0 -0.049999998283828805 -8.6609598091886202e-10 0 -0.049999999659100798 6.6412878274461539e-11 0 -0.049500901186609172 -0.00018984495476659548 0 -0.049999592310084301 -4.1129208663046295e-07 0 -0.049500901186609172 -0.00018984495476659548 0 -0.049998750891887898 -2.1905609828858194e-07 0 -0.049994995585415321 1.1606704271573031e-06 0 -0.049991690060249734 -9.4640088123688904e-07 0 -0.049999973381695775 -7.8550783648037065e-09 0 -0.050000008154436885 1.1722199601783454e-08 0 -0.049999995842008163 3.9023228050917276e-10 0 -0.049999398213320709 3.9667945478007973e-06 0 -0.049999258084457134 3.9589948613872232e-07 0 -0.049999988723822976 -1.3525809964276896e-09 0 -0.049993126630397906 2.2467619735531373e-06 0 -0.049999406712037973 -1.4939462315387492e-07 0 -0.049040017995898445 -0.00010451456710713565 0 -0.049210098496544757 -7.555667608449101e-05 0 -0.049040017995898445 -0.00010451456710713565 0 -0.048006769674442687 -0.00040254838302969734 0 -0.047924361880953323 -0.00052640623259164895 0 -0.047936889906318801 -0.00034749171519668872 0 -0.047924361880953323 -0.00052640623259164895 0 -0.047936889906318801 -0.00034749171519668872 0 -0.047831064164831183 -0.00024898866414381938 0 -0.048304318175499128 -7.5572326908618069e-05 0 -0.048349432476489512 -0.00010679862903519255 0 -0.048324155149573111 -5.9093243918689993e-05 0 -0.049040017995898445 -0.00010451456710713565 0 -0.048204141253239977 -0.00022523379550103958 0 -0.047831064164831183 -0.00024898866414381938 0 -0.047986878149422131 -0.00021083322957613724 0 -0.047825462904640105 -8.2868463504178188e-05 0 -0.047954080463044509 -0.00023336576469020054 0 -0.047931363663667646 -0.00011966617202980437 0 -0.047825462904640105 -8.2868463504178188e-05 0 -0.04902703120771703 -9.4936250659171899e-05 0 -0.047693245240331722 5.3508318203080676e-05 0 -0.047936889906318801 -0.00034749171519668872 0 -0.047831064164831183 -0.00024898866414381938 0 -0.047986878149422131 -0.00021083322957613724 0 -0.047954080463044509 -0.00023336576469020054 0 -0.047934577873978354 -2.5579850006210556e-05 0 -0.047931363663667646 -0.00011966617202980437 0 -0.04902703120771703 -9.4936250659171899e-05 0 -0.04900686201334261 -0.00024110534196492104 0 -0.049581961904811053 5.2689370992598089e-05 0 -0.049882570901401198 0.0001013164241515893 0 -0.050071893064835275 -0.00029339139072024641 0 -0.049581961904811053 5.2689370992598089e-05 0 -0.050071893064835275 -0.00029339139072024641 0 -0.049633674643185251 -0.00072316151060067876 0 -0.047742443857426972 1.8770011415046986e-05 0 -0.047931363663667646 -0.00011966617202980437 0 -0.047825462904640105 -8.2868463504178188e-05 0 -0.046117891003438112 2.413388743209149e-05 0 -0.048400828377037214 -0.00029226003181574413 0 -0.046117891003438112 2.413388743209149e-05 0 -0.048204141253239977 -0.00022523379550103958 0 -0.047742443857426972 1.8770011415046986e-05 0 -0.047831064164831183 -0.00024898866414381938 0 -0.047825462904640105 -8.2868463504178188e-05 0 -0.047652568115296778 3.5807891920130469e-05 0 -0.047934577873978354 -2.5579850006210556e-05 0 -0.047931363663667646 -0.00011966617202980437 0 -0.046117891003438112 2.413388743209149e-05 0 -0.046231734106942361 -0.00010835004290355365 0 -0.042772327694946585 0.00064609210869103839 0 -0.04271170217240685 0.00056488662517856865 0 -0.042407140817550898 0.00037105782202733389 0 -0.04271170217240685 0.00056488662517856865 0 -0.042407140817550898 0.00037105782202733389 0 -0.042587870646811091 0.0002337437559523433 0 -0.042669241786277394 0.00048340595909937187 0 -0.042575284152187899 0.00032490949587597073 0 -0.047652568115296778 3.5807891920130469e-05 0 -0.047934577873978354 -2.5579850006210556e-05 0 -0.047911872600414095 0.00021747544775520012 0 -0.042849583480682504 0.00015560760347983548 0 -0.04271170217240685 0.00056488662517856865 0 -0.042491859904630863 0.00018419960260824736 0 -0.050071893064835275 -0.00029339139072024641 0 -0.050175851006489594 -0.001051478341546502 0 -0.049633674643185251 -0.00072316151060067876 0 -0.050175851006489594 -0.001051478341546502 0 -0.049308757335137871 -0.0017624865927439188 0 -0.049633674643185251 -0.00072316151060067876 0 -0.04900686201334261 -0.00024110534196492104 0 -0.046231734106942361 -0.00010835004290355365 0 -0.038246864486969429 0.00010336874157495352 0 -0.043268561152485487 -0.0018437575997418763 0 -0.043472565684092954 -0.00051431767456226447 0 -0.043459152551987637 -0.00086209953396536906 0 -0.04313916904420164 -0.00074710455385872435 0 -0.04049268950021654 -0.00033570140407081174 0 -0.043268561152485487 -0.0018437575997418763 0 -0.046231734106942361 -0.00010835004290355365 0 -0.04049268950021654 -0.00033570140407081174 0 -0.046231734106942361 -0.00010835004290355365 0 -0.043268561152485487 -0.0018437575997418763 0 -0.042587870646811091 0.0002337437559523433 0 -0.042438124700844564 -9.930174908917848e-05 0 -0.042392879850189163 -7.8742148034098542e-05 0 -0.042484286235921848 -6.3432611881208717e-05 0 -0.042491859904630863 0.00018419960260824736 0 -0.042279201507965297 -0.00023296387979871035 0 -0.042849583480682504 0.00015560760347983548 0 -0.042484286235921848 -6.3432611881208717e-05 0 -0.042467789533656139 -0.00031531632542598976 0 -0.042407140817550898 0.00037105782202733389 0 -0.042587870646811091 0.0002337437559523433 0 -0.042392879850189163 -7.8742148034098542e-05 0 -0.042575284152187899 0.00032490949587597073 0 -0.039889111860605571 0.0001048675669058839 0 -0.041551486316540653 0.00030643858369901249 0 -0.038593449420566743 0.00094354652869018752 0 -0.042849583480682504 0.00015560760347983548 0 -0.042484286235921848 -6.3432611881208717e-05 0 -0.042491859904630863 0.00018419960260824736 0 -0.032598673287382481 0.0014687755055642555 0 -0.033130850755275505 0.0011081554450706565 0 -0.033455102038588473 0.0015455716151872355 0 -0.042484286235921848 -6.3432611881208717e-05 0 -0.042279201507965297 -0.00023296387979871035 0 -0.042467789533656139 -0.00031531632542598976 0 -0.038818834352995941 -3.7691559831238593e-05 0 -0.037351666215279473 0.00061052701311188531 0 -0.037708221863356088 0.0010827539536732386 0 -0.038593449420566743 0.00094354652869018752 0 -0.036463119643860065 0.00060156389768014078 0 -0.036463119643860065 0.00060156389768014078 0 -0.038246864486969429 0.00010336874157495352 0 -0.038818834352995941 -3.7691559831238593e-05 0 -0.037708221863356088 0.0010827539536732386 0 -0.039010117809108381 0.00043598200741411952 0 -0.039889111860605571 0.0001048675669058839 0 -0.038593449420566743 0.00094354652869018752 0 -0.035845339862771296 0.00074327728390413672 0 -0.035634527902095245 0.00084801560604716724 0 -0.035590763486658968 0.00074854980062502758 0 -0.036463119643860065 0.00060156389768014078 0 -0.033120516097543955 0.0010986755396693128 0 -0.035845339862771296 0.00074327728390413672 0 -0.035587292843033635 0.00042138239851914139 0 -0.035590763486658968 0.00074854980062502758 0 -0.032598673287382481 0.0014687755055642555 0 -0.032523302041937006 0.0014094487557531404 0 -0.033130850755275505 0.0011081554450706565 0 -0.03544421107291932 0.0017393547878877106 0 -0.038593449420566743 0.00094354652869018752 0 -0.031993155660796503 0.001843184342898231 0 -0.036463119643860065 0.00060156389768014078 0 -0.034296501696079333 0.0023457995800959595 0 -0.033554932826167345 0.0017575655971139202 0 -0.037042851382065978 0.00021526781549685987 0 -0.034296501696079333 0.0023457995800959595 0 -0.037042851382065978 0.00021526781549685987 0 -0.037462612031103779 0.00077143034528453732 0 -0.030320943025347661 0.0025076746871939156 0 -0.029412203777105933 0.0018001598551538565 0 -0.02940693726371536 0.0022956364476355972 0 -0.026194476725083064 0.0038816822236584303 0 -0.026362452827585352 0.003444217968224415 0 -0.025209659596523753 0.0031415684089704261 0 -0.03069492139032572 0.0019663006903860056 0 -0.031785453281897906 0.0015041507164468488 0 -0.032598673287382481 0.0014687755055642555 0 -0.033450302157898695 0.0016618828777667208 0 -0.033455102038588473 0.0015455716151872355 0 -0.026362452827585352 0.003444217968224415 0 -0.025209659596523753 0.0031415684089704261 0 -0.026161483415164576 0.0028604629776463396 0 -0.03069492139032572 0.0019663006903860056 0 -0.027162822853797824 0.0025863695749083751 0 -0.030095171922962072 0.0014972020751365914 0 -0.033035518477864324 0.0011246592079079049 0 -0.027162822853797824 0.0025863695749083751 0 -0.031785453281897906 0.0015041507164468488 0 -0.028635142660685727 0.0018531000086756298 0 -0.029373551156862625 0.0017998780250659692 0 -0.029175063221269046 0.0025462112104323717 0 -0.030095171922962072 0.0014972020751365914 0 -0.032145875095402517 0.0012875493357232121 0 -0.031132522197786092 0.00097476255831324232 0 -0.031871574583609272 0.0019415322890747059 0 -0.031495325354025203 0.0018536981528419513 0 -0.029373551156862625 0.0017998780250659692 0 -0.029175063221269046 0.0025462112104323717 0 -0.02936515736482604 0.0025901439741375211 0 -0.032145875095402517 0.0012875493357232121 0 -0.033035518477864324 0.0011246592079079049 0 -0.032145875095402517 0.0012875493357232121 0 -0.031785453281897906 0.0015041507164468488 0 -0.031785453281897906 0.0015041507164468488 0 -0.033120516097543955 0.0010986755396693128 0 -0.032145875095402517 0.0012875493357232121 0 -0.033120516097543955 0.0010986755396693128 0 -0.032495987161949 0.00079853519754528857 0 -0.03289860950031108 0.00089309809548268008 0 -0.032888485575991902 0.0013158674967831217 0 -0.034219461373371098 0.00047734900525245224 0 -0.034158942825787512 0.00046455716355599914 0 -0.034262795156196277 0.00052948806293756005 0 -0.037133844933238062 -0.00094369870927232054 0 -0.036912566788685416 -0.00083772882556703209 0 -0.037002930573132121 -0.00080650071680838742 0 -0.03701145394845537 -0.0008196511209393588 0 -0.036999017254141758 -0.00079331449977664817 0 -0.037080973702892775 -0.00090199330317869094 0 -0.039288621179075882 1.4615684360623446e-05 0 -0.039521023060218242 -0.00054931609126687275 0 -0.043137946594830279 -0.0019017476192040171 0 -0.036912566788685416 -0.00083772882556703209 0 -0.03701145394845537 -0.0008196511209393588 0 -0.037002930573132121 -0.00080650071680838742 0 -0.03701145394845537 -0.0008196511209393588 0 -0.037002930573132121 -0.00080650071680838742 0 -0.036999017254141758 -0.00079331449977664817 0 -0.033035518477864324 0.0011246592079079049 0 -0.036279248778190082 -1.9839180156746781e-05 0 -0.033120516097543955 0.0010986755396693128 0 -0.036279248778190082 -1.9839180156746781e-05 0 -0.037133844933238062 -0.00094369870927232054 0 -0.037002930573132121 -0.00080650071680838742 0 -0.037002790052272909 -0.00078759613023247519 0 -0.034158942825787512 0.00046455716355599914 0 -0.034262795156196277 0.00052948806293756005 0 -0.034270410381986714 0.0006909626233580332 0 -0.037002930573132121 -0.00080650071680838742 0 -0.036999017254141758 -0.00079331449977664817 0 -0.037002790052272909 -0.00078759613023247519 0 -0.038246864486969429 0.00010336874157495352 0 -0.036279248778190082 -1.9839180156746781e-05 0 -0.038246864486969429 0.00010336874157495352 0 -0.04049268950021654 -0.00033570140407081174 0 -0.038929527963404376 -2.619900082982129e-05 0 -0.03898497086993423 0.0001145762065900285 0 -0.039071114833282738 -8.8731149806358915e-05 0 -0.039889111860605571 0.0001048675669058839 0 -0.04049268950021654 -0.00033570140407081174 0 -0.039889111860605571 0.0001048675669058839 0 -0.038246864486969429 0.00010336874157495352 0 -0.037074182182346295 -0.00080113745761068247 0 -0.037181024933456465 -0.00084905707902664955 0 -0.037080973702892775 -0.00090199330317869094 0 -0.03701145394845537 -0.0008196511209393588 0 -0.037074182182346295 -0.00080113745761068247 0 -0.037080973702892775 -0.00090199330317869094 0 -0.036953946069529543 -0.00083932589978805464 0 -0.036156237350631247 -0.00046814859036590931 0 -0.036912566788685416 -0.00083772882556703209 0 -0.03701145394845537 -0.0008196511209393588 0 -0.037074182182346295 -0.00080113745761068247 0 -0.036912566788685416 -0.00083772882556703209 0 -0.035877684448104505 -0.00033106494989549532 0 -0.035523027510104228 -0.0014149325464527438 0 -0.037133844933238062 -0.00094369870927232054 0 -0.036912566788685416 -0.00083772882556703209 0 -0.035523027510104228 -0.0014149325464527438 0 -0.030484883602549362 0.0015793226701888816 0 -0.03068526239565153 0.0020447093257849212 0 -0.029344654190818147 0.0017349022933805581 0 -0.030484883602549362 0.0015793226701888816 0 -0.029344654190818147 0.0017349022933805581 0 -0.029095059283232 0.0010119513732102737 0 -0.033035518477864324 0.0011246592079079049 0 -0.03295645778607361 0.00010463606767165592 0 -0.035877684448104505 -0.00033106494989549532 0 -0.035523027510104228 -0.0014149325464527438 0 -0.034414794310286261 -0.0008752848843722956 0 -0.035523027510104228 -0.0014149325464527438 0 -0.034414794310286261 -0.0008752848843722956 0 -0.033757582890979299 -0.0018237046088178761 0 -0.03295645778607361 0.00010463606767165592 0 -0.028830037041336631 0.00074002907555732473 0 -0.035877684448104505 -0.00033106494989549532 0 -0.034414794310286261 -0.0008752848843722956 0 -0.034813472963465458 0.00018568481976190095 0 -0.036156237350631247 -0.00046814859036590931 0 -0.03755468231843196 -0.0022298619132273302 0 -0.041527096684586144 -0.0045594271914312619 0 -0.041352876822227054 -0.0038527881539758228 0 -0.040335265057210516 -0.0040207722166498228 0 -0.043268561152485487 -0.0018437575997418763 0 -0.045785891718362198 -0.0019986959005085002 0 -0.041527096684586144 -0.0045594271914312619 0 -0.041352876822227054 -0.0038527881539758228 0 -0.042588628598773971 -0.0038185822530199579 0 -0.041352876822227054 -0.0038527881539758228 0 -0.042588628598773971 -0.0038185822530199579 0 -0.040946021684189898 -0.0030158292454937692 0 -0.03755468231843196 -0.0022298619132273302 0 -0.043268561152485487 -0.0018437575997418763 0 -0.049308757335137871 -0.0017624865927439188 0 -0.049633674643185251 -0.00072316151060067876 0 -0.048885779646586164 -0.00072122366777543575 0 -0.049308757335137871 -0.0017624865927439188 0 -0.048885779646586164 -0.00072122366777543575 0 -0.048045048188857978 -0.001267336435699862 0 -0.047761693285525333 -0.00048676387745665673 0 -0.048885779646586164 -0.00072122366777543575 0 -0.048045048188857978 -0.001267336435699862 0 -0.045785891718362198 -0.0019986959005085002 0 -0.042738032647920289 -0.0015046497354318071 0 -0.040946021684189898 -0.0030158292454937692 0 -0.039210664508125034 -0.0022766933074756532 0 -0.039895869229987335 -0.0031996612110862487 0 -0.045785891718362198 -0.0019986959005085002 0 -0.047614424684216353 -0.00093191945270111153 0 -0.047761693285525333 -0.00048676387745665673 0 -0.048045048188857978 -0.001267336435699862 0 -0.046879181065438778 -0.00079526081349984333 0 -0.047921850856959693 -0.0013150242333587914 0 -0.046879181065438778 -0.00079526081349984333 0 -0.046528706214144629 -0.00070201885736616287 0 -0.039210664508125034 -0.0022766933074756532 0 -0.039895869229987335 -0.0031996612110862487 0 -0.03908506708994712 -0.0034675158599365408 0 -0.039895869229987335 -0.0031996612110862487 0 -0.03908506708994712 -0.0034675158599365408 0 -0.040335265057210516 -0.0040207722166498228 0 -0.037843152201906323 -0.0030932993673205406 0 -0.038240761663282483 -0.0038293895211352568 0 -0.037061872952934449 -0.0036216834554894119 0 -0.038467121184474831 -0.0034000107313723843 0 -0.039391110535295537 -0.004022844001691759 0 -0.038467121184474831 -0.0034000107313723843 0 -0.038368780164208652 -0.0039131481457894187 0 -0.038421303788902891 -0.0039152803250349496 0 -0.037630077009944488 -0.0035320261887834097 0 -0.03805314109419259 -0.0032357877483126379 0 -0.040946021684189898 -0.0030158292454937692 0 -0.039895869229987335 -0.0031996612110862487 0 -0.040335265057210516 -0.0040207722166498228 0 -0.041352876822227054 -0.0038527881539758228 0 -0.040946021684189898 -0.0030158292454937692 0 -0.040335265057210516 -0.0040207722166498228 0 -0.036849726845921277 -0.0031438100723315239 0 -0.037630077009944488 -0.0035320261887834097 0 -0.037563932909028958 -0.0030953597994188824 0 -0.03755468231843196 -0.0022298619132273302 0 -0.039391110535295537 -0.004022844001691759 0 -0.037563932909028958 -0.0030953597994188824 0 -0.037676794507799732 -0.0025598500003507769 0 -0.03805314109419259 -0.0032357877483126379 0 -0.036849726845921277 -0.0031438100723315239 0 -0.037563932909028958 -0.0030953597994188824 0 -0.037676794507799732 -0.0025598500003507769 0 -0.034414794310286261 -0.0008752848843722956 0 -0.034813472963465458 0.00018568481976190095 0 -0.033268275233447588 -0.00086924633407845398 0 -0.03755468231843196 -0.0022298619132273302 0 -0.034739313474566887 -0.0024073770054601554 0 -0.037630077009944488 -0.0035320261887834097 0 -0.037563932909028958 -0.0030953597994188824 0 -0.03805314109419259 -0.0032357877483126379 0 -0.034414794310286261 -0.0008752848843722956 0 -0.033268275233447588 -0.00086924633407845398 0 -0.033757582890979299 -0.0018237046088178761 0 -0.030529139684113468 3.3992469983811298e-05 0 -0.030261553701187896 -0.00063260217946638881 0 -0.030954503421909977 -0.00079463885450762077 0 -0.034739313474566887 -0.0024073770054601554 0 -0.028830037041336631 0.00074002907555732473 0 -0.038639530907569469 -0.00459144384776563 0 -0.037921749910005673 -0.0051394342398739332 0 -0.037618815860372412 -0.0043550940876248851 0 -0.030529139684113468 3.3992469983811298e-05 0 -0.030261553701187896 -0.00063260217946638881 0 -0.02948014543039159 -0.0006711979241895451 0 -0.034739313474566887 -0.0024073770054601554 0 -0.034153043840128954 -0.0027245572027017237 0 -0.034739313474566887 -0.0024073770054601554 0 -0.038368780164208652 -0.0039131481457894187 0 -0.038639530907569469 -0.00459144384776563 0 -0.038240761663282483 -0.0038293895211352568 0 -0.037618815860372412 -0.0043550940876248851 0 -0.038240761663282483 -0.0038293895211352568 0 -0.037618815860372412 -0.0043550940876248851 0 -0.037061872952934449 -0.0036216834554894119 0 -0.037618815860372412 -0.0043550940876248851 0 -0.036956536147096687 -0.0048507351495849218 0 -0.037061872952934449 -0.0036216834554894119 0 -0.037921749910005673 -0.0051394342398739332 0 -0.036956536147096687 -0.0048507351495849218 0 -0.037153299264469794 -0.0057691953364031774 0 -0.037921749910005673 -0.0051394342398739332 0 -0.037618815860372412 -0.0043550940876248851 0 -0.036956536147096687 -0.0048507351495849218 0 -0.036956536147096687 -0.0048507351495849218 0 -0.036286031718911642 -0.0043169117163719519 0 -0.036028796834823532 -0.0053412480318383686 0 -0.036956536147096687 -0.0048507351495849218 0 -0.036286031718911642 -0.0043169117163719519 0 -0.037061872952934449 -0.0036216834554894119 0 -0.036286031718911642 -0.0043169117163719519 0 -0.037061872952934449 -0.0036216834554894119 0 -0.036100909054174901 -0.0032120283187046005 0 -0.036705952602181693 -0.0029764293157161508 0 -0.037061872952934449 -0.0036216834554894119 0 -0.036100909054174901 -0.0032120283187046005 0 -0.036705952602181693 -0.0029764293157161508 0 -0.037061872952934449 -0.0036216834554894119 0 -0.037103487819470697 -0.0027429723885043118 0 -0.037843152201906323 -0.0030932993673205406 0 -0.037061872952934449 -0.0036216834554894119 0 -0.037103487819470697 -0.0027429723885043118 0 -0.03814970865126624 -0.0019872011777732675 0 -0.038962846745157577 -0.0035723089475936474 0 -0.037757839353257772 -0.0029867751633140473 0 -0.03814970865126624 -0.0019872011777732675 0 -0.039210664508125034 -0.0022766933074756532 0 -0.03908506708994712 -0.0034675158599365408 0 -0.038353346630286438 -0.0021510121841254578 0 -0.038467121184474831 -0.0034000107313723843 0 -0.038467121184474831 -0.0034000107313723843 0 -0.037406749852496902 -0.0028384542552773338 0 -0.03721019655974131 -0.0021278677493966436 0 -0.03814970865126624 -0.0019872011777732675 0 -0.037757839353257772 -0.0029867751633140473 0 -0.036705952602181693 -0.0029764293157161508 0 -0.036555538572909968 -0.0023557386187945438 0 -0.036100909054174901 -0.0032120283187046005 0 -0.03721019655974131 -0.0021278677493966436 0 -0.037757839353257772 -0.0029867751633140473 0 -0.036555538572909968 -0.0023557386187945438 0 -0.037406749852496902 -0.0028384542552773338 0 -0.036637076751278919 -0.0024211353321449245 0 -0.036705952602181693 -0.0029764293157161508 0 -0.037103487819470697 -0.0027429723885043118 0 -0.036555538572909968 -0.0023557386187945438 0 -0.020278747558002505 1.0123568756374594e-05 0 -0.01980784846326358 -0.00064071593726629543 0 -0.019483833556449146 0.00021917591929293526 0 -0.020278747558002505 1.0123568756374594e-05 0 -0.020647799660791048 -0.00071659304666082837 0 -0.01980784846326358 -0.00064071593726629543 0 -0.021067301459356955 0.00035289812804370561 0 -0.021690630719240534 -0.00010354031099144902 0 -0.020647799660791048 -0.00071659304666082837 0 -0.020278747558002505 1.0123568756374594e-05 0 -0.021067301459356955 0.00035289812804370561 0 -0.020647799660791048 -0.00071659304666082837 0 -0.020278747558002505 1.0123568756374594e-05 0 -0.021067301459356955 0.00035289812804370561 0 -0.02043508438999329 0.00082281646310821332 0 -0.021067301459356955 0.00035289812804370561 0 -0.02043508438999329 0.00082281646310821332 0 -0.021396656493328368 0.0012551252444421989 0 -0.020278747558002505 1.0123568756374594e-05 0 -0.02043508438999329 0.00082281646310821332 0 -0.019483833556449146 0.00021917591929293526 0 -0.02043508438999329 0.00082281646310821332 0 -0.019449021185644733 0.0010931095879828945 0 -0.019483833556449146 0.00021917591929293526 0 -0.02043508438999329 0.00082281646310821332 0 -0.020033533593487775 0.0017972303565654054 0 -0.019449021185644733 0.0010931095879828945 0 -0.036028796834823532 -0.0053412480318383686 0 -0.037153299264469794 -0.0057691953364031774 0 -0.035467450736875086 -0.0064377862781079776 0 -0.027161540994590026 -0.00047614083280813371 0 -0.027647748362457581 -0.002395738113770913 0 -0.020033533593487775 0.0017972303565654054 0 -0.020854560276738213 0.0023028387338228191 0 -0.019100451654290151 0.0019599205749865054 0 -0.036956536147096687 -0.0048507351495849218 0 -0.036028796834823532 -0.0053412480318383686 0 -0.037153299264469794 -0.0057691953364031774 0 -0.019425938534622881 0.00093371402999723363 0 -0.027161540994590026 -0.00047614083280813371 0 -0.020730024278568179 0.0022745828756068264 0 -0.021363133946320115 0.0019002125754037991 0 -0.021751619498298059 0.0025274520215870793 0 -0.027161540994590026 -0.00047614083280813371 0 -0.024988333476130154 0.00060009007047878953 0 -0.034153043840128954 -0.0027245572027017237 0 -0.027161540994590026 -0.00047614083280813371 0 -0.020730024278568179 0.0022745828756068264 0 -0.020788334359362316 0.0016180968242556193 0 -0.021363133946320115 0.0019002125754037991 0 -0.020788334359362316 0.0016180968242556193 0 -0.021396656493328368 0.0012551252444421989 0 -0.021363133946320115 0.0019002125754037991 0 -0.02043508438999329 0.00082281646310821332 0 -0.020033533593487775 0.0017972303565654054 0 -0.020788334359362316 0.0016180968242556193 0 -0.02043508438999329 0.00082281646310821332 0 -0.020788334359362316 0.0016180968242556193 0 -0.021396656493328368 0.0012551252444421989 0 -0.020033533593487775 0.0017972303565654054 0 -0.020730024278568179 0.0022745828756068264 0 -0.020788334359362316 0.0016180968242556193 0 -0.021396656493328368 0.0012551252444421989 0 -0.022171842434376296 0.0018222918395079295 0 -0.021960775959688695 0.00090404819772587264 0 -0.021396656493328368 0.0012551252444421989 0 -0.021363133946320115 0.0019002125754037991 0 -0.022171842434376296 0.0018222918395079295 0 -0.02948014543039159 -0.0006711979241895451 0 -0.028398513014231515 -0.0014102524621876212 0 -0.029700580638805037 -0.0011004983606283701 0 -0.021363133946320115 0.0019002125754037991 0 -0.021751619498298059 0.0025274520215870793 0 -0.022171842434376296 0.0018222918395079295 0 -0.030261553701187896 -0.00063260217946638881 0 -0.02948014543039159 -0.0006711979241895451 0 -0.029700580638805037 -0.0011004983606283701 0 -0.021751619498298059 0.0025274520215870793 0 -0.022804133873017315 0.002764114673028336 0 -0.022171842434376296 0.0018222918395079295 0 -0.022804133873017315 0.002764114673028336 0 -0.022171842434376296 0.0018222918395079295 0 -0.023180371841675044 0.0020246695949549488 0 -0.030261553701187896 -0.00063260217946638881 0 -0.029700580638805037 -0.0011004983606283701 0 -0.030954503421909977 -0.00079463885450762077 0 -0.024988333476130154 0.00060009007047878953 0 -0.028830037041336631 0.00074002907555732473 0 -0.028830037041336631 0.00074002907555732473 0 -0.025717748619014845 0.0016465769472524656 0 -0.022171842434376296 0.0018222918395079295 0 -0.022739159244649226 0.0013571534639347125 0 -0.021960775959688695 0.00090404819772587264 0 -0.022171842434376296 0.0018222918395079295 0 -0.022739159244649226 0.0013571534639347125 0 -0.023180371841675044 0.0020246695949549488 0 -0.022739159244649226 0.0013571534639347125 0 -0.022651465928279598 0.0005766651978084985 0 -0.02357602931281029 0.0012757876383591498 0 -0.02213794547661721 0.00055335384969744568 0 -0.021524721889092879 -4.0969320202442652e-05 0 -0.022739159244649226 0.0013571534639347125 0 -0.022651465928279598 0.0005766651978084985 0 -0.021960775959688695 0.00090404819772587264 0 -0.022651465928279598 0.0005766651978084985 0 -0.021960775959688695 0.00090404819772587264 0 -0.021690630719240534 -0.00010354031099144902 0 -0.021067301459356955 0.00035289812804370561 0 -0.021960775959688695 0.00090404819772587264 0 -0.021690630719240534 -0.00010354031099144902 0 -0.021067301459356955 0.00035289812804370561 0 -0.021396656493328368 0.0012551252444421989 0 -0.021960775959688695 0.00090404819772587264 0 -0.021524721889092879 -4.0969320202442652e-05 0 -0.020727897213268488 -0.0006579819646450202 0 -0.021290885672070513 -3.0302075918063789e-05 0 -0.021804561038158046 -0.00062551740051787063 0 -0.020647799660791048 -0.00071659304666082837 0 -0.021290885672070513 -3.0302075918063789e-05 0 -0.022236416791974918 0.00018074276657674599 0 -0.021804561038158046 -0.00062551740051787063 0 -0.022236416791974918 0.00018074276657674599 0 -0.022907831326447217 -0.00021688345490819249 0 -0.021804561038158046 -0.00062551740051787063 0 -0.022059518319403251 0.00067749643645437913 0 -0.021290885672070513 -3.0302075918063789e-05 0 -0.022236416791974918 0.00018074276657674599 0 -0.022907831326447217 -0.00021688345490819249 0 -0.023402731758758576 0.00047188946633165121 0 -0.022886124257183373 0.00041140447801034141 0 -0.022236416791974918 0.00018074276657674599 0 -0.022907831326447217 -0.00021688345490819249 0 -0.022886124257183373 0.00041140447801034141 0 -0.022907831326447217 -0.00021688345490819249 0 -0.023845961626296708 -0.00024297110938752042 0 -0.023402731758758576 0.00047188946633165121 0 -0.023845961626296708 -0.00024297110938752042 0 -0.023475071997806584 0.00059210580790193307 0 -0.02429963064055354 0.00047558895869565567 0 -0.023812347465430133 -0.00017457375326917541 0 -0.023419608067181845 0.00060362720490149651 0 -0.023475071997806584 0.00059210580790193307 0 -0.023995843384870472 0.00098757541531599045 0 -0.02429963064055354 0.00047558895869565567 0 -0.023995843384870472 0.00098757541531599045 0 -0.023683758171958582 0.0013031414095915524 0 -0.024096722725067233 0.0016517723204924496 0 -0.023995843384870472 0.00098757541531599045 0 -0.024096722725067233 0.0016517723204924496 0 -0.024528692872816966 0.0012963758160905686 0 -0.023475071997806584 0.00059210580790193307 0 -0.023683758171958582 0.0013031414095915524 0 -0.023073818137102721 0.0014003311306139551 0 -0.023475071997806584 0.00059210580790193307 0 -0.023995843384870472 0.00098757541531599045 0 -0.023683758171958582 0.0013031414095915524 0 -0.022059518319403251 0.00067749643645437913 0 -0.022236416791974918 0.00018074276657674599 0 -0.022997414236895986 0.0011220490242671434 0 -0.022236416791974918 0.00018074276657674599 0 -0.022886124257183373 0.00041140447801034141 0 -0.022996358899536801 0.0012334398828876096 0 -0.022059518319403251 0.00067749643645437913 0 -0.022997414236895986 0.0011220490242671434 0 -0.02289529911123173 0.0013190913735470079 0 -0.02207836286320515 0.00018845411818699907 0 -0.023839592874334938 0.0010788588809705429 0 -0.02213794547661721 0.00055335384969744568 0 -0.025162236931648891 0.00071324720174794514 0 -0.023419608067181845 0.00060362720490149651 0 -0.023839592874334938 0.0010788588809705429 0 -0.023402731758758576 0.00047188946633165121 0 -0.022886124257183373 0.00041140447801034141 0 -0.022996358899536801 0.0012334398828876096 0 -0.028825837854422446 -0.00013801374736210781 0 -0.028425180425634817 0.00064431539180892592 0 -0.02956570162390618 0.00042473822352757094 0 -0.024926971392041624 0.00036418964188053934 0 -0.024708844710156396 0.0007770673136472463 0 -0.026050163327006128 0.0018281222487778498 0 -0.023839592874334938 0.0010788588809705429 0 -0.025162236931648891 0.00071324720174794514 0 -0.025162236931648891 0.00071324720174794514 0 -0.026765754636265165 0.0013215056926803117 0 -0.025162236931648891 0.00071324720174794514 0 -0.025717748619014845 0.0016465769472524656 0 -0.022739159244649226 0.0013571534639347125 0 -0.02357602931281029 0.0012757876383591498 0 -0.023180371841675044 0.0020246695949549488 0 -0.029344654190818147 0.0017349022933805581 0 -0.028019424366449504 0.0014224948360236863 0 -0.029095059283232 0.0010119513732102737 0 -0.029095059283232 0.0010119513732102737 0 -0.028425180425634817 0.00064431539180892592 0 -0.02956570162390618 0.00042473822352757094 0 -0.028019424366449504 0.0014224948360236863 0 -0.029095059283232 0.0010119513732102737 0 -0.028425180425634817 0.00064431539180892592 0 -0.030484883602549362 0.0015793226701888816 0 -0.029095059283232 0.0010119513732102737 0 -0.02956570162390618 0.00042473822352757094 0 -0.028458473518157886 0.0021846661163170528 0 -0.027297123742332917 0.00069628229411563473 0 -0.028085102221565603 0.0013050152610680518 0 -0.030095171922962072 0.0014972020751365914 0 -0.026765754636265165 0.0013215056926803117 0 -0.026765754636265165 0.0013215056926803117 0 -0.026359205577118988 0.001736254365626366 0 -0.024884902065219199 0.0019117851215731312 0 -0.026359205577118988 0.001736254365626366 0 -0.024033249517018726 0.0020847858204190214 0 -0.023671569864237175 0.0021755537973223429 0 -0.024278940173159333 0.0026415664754065402 0 -0.024033249517018726 0.0020847858204190214 0 -0.023671569864237175 0.0021755537973223429 0 -0.023710493861900994 0.0017228026036845486 0 -0.024033249517018726 0.0020847858204190214 0 -0.024096722725067233 0.0016517723204924496 0 -0.024528273198319489 0.0021550674927446091 0 -0.023073818137102721 0.0014003311306139551 0 -0.023671569864237175 0.0021755537973223429 0 -0.023710493861900994 0.0017228026036845486 0 -0.023839592874334938 0.0010788588809705429 0 -0.026765754636265165 0.0013215056926803117 0 -0.023683758171958582 0.0013031414095915524 0 -0.023073818137102721 0.0014003311306139551 0 -0.023710493861900994 0.0017228026036845486 0 -0.024033249517018726 0.0020847858204190214 0 -0.023710493861900994 0.0017228026036845486 0 -0.024096722725067233 0.0016517723204924496 0 -0.023683758171958582 0.0013031414095915524 0 -0.023710493861900994 0.0017228026036845486 0 -0.024096722725067233 0.0016517723204924496 0 -0.024096722725067233 0.0016517723204924496 0 -0.024528273198319489 0.0021550674927446091 0 -0.024528692872816966 0.0012963758160905686 0 -0.025065179120443124 0.0019378768741192625 0 -0.024528273198319489 0.0021550674927446091 0 -0.024528692872816966 0.0012963758160905686 0 -0.027162822853797824 0.0025863695749083751 0 -0.024939824578773164 0.0020333141975222052 0 -0.025053866036542704 0.0032340023333268155 0 -0.025065179120443124 0.0019378768741192625 0 -0.024528273198319489 0.0021550674927446091 0 -0.025053866036542704 0.0032340023333268155 0 -0.024528273198319489 0.0021550674927446091 0 -0.024265060841870866 0.0026235907463619643 0 -0.024033249517018726 0.0020847858204190214 0 -0.024528273198319489 0.0021550674927446091 0 -0.024265060841870866 0.0026235907463619643 0 -0.030095171922962072 0.0014972020751365914 0 -0.026359205577118988 0.001736254365626366 0 -0.028635142660685727 0.0018531000086756298 0 -0.029373551156862625 0.0017998780250659692 0 -0.028238564289354867 0.00091737862913083017 0 -0.027162822853797824 0.0025863695749083751 0 -0.026359205577118988 0.001736254365626366 0 -0.025209659596523753 0.0031415684089704261 0 -0.025181119760084605 0.0019003396820249545 0 -0.02601947394768617 0.0021413762333357088 0 -0.025209659596523753 0.0031415684089704261 0 -0.02601947394768617 0.0021413762333357088 0 -0.026161483415164576 0.0028604629776463396 0 -0.025181119760084605 0.0019003396820249545 0 -0.02601947394768617 0.0021413762333357088 0 -0.025944267270625581 0.0012394474788893631 0 -0.025944267270625581 0.0012394474788893631 0 -0.025105546690661177 0.0006115708537151489 0 -0.026148181881222671 0.0001511918358666674 0 -0.025181119760084605 0.0019003396820249545 0 -0.025944267270625581 0.0012394474788893631 0 -0.025105546690661177 0.0006115708537151489 0 -0.024939824578773164 0.0020333141975222052 0 -0.025147370974873566 0.00064086047286232627 0 -0.025065179120443124 0.0019378768741192625 0 -0.024528692872816966 0.0012963758160905686 0 -0.025105546690661177 0.0006115708537151489 0 -0.023995843384870472 0.00098757541531599045 0 -0.024528692872816966 0.0012963758160905686 0 -0.02429963064055354 0.00047558895869565567 0 -0.024528692872816966 0.0012963758160905686 0 -0.025105546690661177 0.0006115708537151489 0 -0.02429963064055354 0.00047558895869565567 0 -0.025105546690661177 0.0006115708537151489 0 -0.02429963064055354 0.00047558895869565567 0 -0.024816118936695147 -0.00012692957430582205 0 -0.023845961626296708 -0.00024297110938752042 0 -0.02429963064055354 0.00047558895869565567 0 -0.024816118936695147 -0.00012692957430582205 0 -0.024816118936695147 -0.00012692957430582205 0 -0.024926171036634404 -0.0010653072360766423 0 -0.026148181881222671 0.0001511918358666674 0 -0.025105546690661177 0.0006115708537151489 0 -0.024816118936695147 -0.00012692957430582205 0 -0.026148181881222671 0.0001511918358666674 0 -0.024091693887407086 -0.00028755049920559984 0 -0.025412355546587186 0.0013557003971405442 0 -0.023182102975801089 0.00050797037878815531 0 -0.02496178145497847 0.002348212108595686 0 -0.025100829854129258 0.00088050561808636113 0 -0.023182102975801089 0.00050797037878815531 0 -0.024270683580640117 -4.7047122474719621e-05 0 -0.025100829854129258 0.00088050561808636113 0 -0.023845961626296708 -0.00024297110938752042 0 -0.024816118936695147 -0.00012692957430582205 0 -0.024926171036634404 -0.0010653072360766423 0 -0.024091693887407086 -0.00028755049920559984 0 -0.022510342074683252 -0.001717107526442383 0 -0.023182102975801089 0.00050797037878815531 0 -0.023656481688139056 -0.0012724995673668868 0 -0.021461225943890924 -0.0013017774670016605 0 -0.024270683580640117 -4.7047122474719621e-05 0 -0.023656481688139056 -0.0012724995673668868 0 -0.025257127782962026 -0.00044193978753336824 0 -0.023182102975801089 0.00050797037878815531 0 -0.024270683580640117 -4.7047122474719621e-05 0 -0.023656481688139056 -0.0012724995673668868 0 -0.023656481688139056 -0.0012724995673668868 0 -0.022724275279042045 -0.0030901437579982697 0 -0.024966719605119994 -0.0021939709405994884 0 -0.024887039764539584 -0.0021010926705214042 0 -0.022000918238645494 -0.00038930167327514586 0 -0.023656481688139056 -0.0012724995673668868 0 -0.025257127782962026 -0.00044193978753336824 0 -0.025189155411732625 -0.0023287456092169535 0 -0.016359720433802096 0.00086058780338025512 0 -0.01540541129086505 0.0014798069435674318 0 -0.017380627299367839 0.0022416675166937955 0 -0.018955089019410665 -0.00075551121349186432 0 -0.022000918238645494 -0.00038930167327514586 0 -0.023656481688139056 -0.0012724995673668868 0 -0.022724275279042045 -0.0030901437579982697 0 -0.021461225943890924 -0.0013017774670016605 0 -0.022724275279042045 -0.0030901437579982697 0 -0.021461225943890924 -0.0013017774670016605 0 -0.021217684778044574 -0.0027424299999479632 0 -0.022510342074683252 -0.001717107526442383 0 -0.021741235168469569 -0.0033987811287481502 0 -0.021461225943890924 -0.0013017774670016605 0 -0.021217684778044574 -0.0027424299999479632 0 -0.019751507576759676 -0.0030633411752975267 0 -0.022724275279042045 -0.0030901437579982697 0 -0.021217684778044574 -0.0027424299999479632 0 -0.020380358245776851 -0.0039715378487949369 0 -0.018955089019410665 -0.00075551121349186432 0 -0.016645246775714943 -0.0016618388284529906 0 -0.021217684778044574 -0.0027424299999479632 0 -0.019751507576759676 -0.0030633411752975267 0 -0.020380358245776851 -0.0039715378487949369 0 -0.023740940349794532 -0.0021726797257140681 0 -0.02260552296738029 -0.0032804650242085334 0 -0.022567225616639777 -0.0019865114713806557 0 -0.022567225616639777 -0.0019865114713806557 0 -0.023471125307562846 -0.0011522535837084143 0 -0.022524804556643099 -0.0010725550938274308 0 -0.024926171036634404 -0.0010653072360766423 0 -0.023740940349794532 -0.0021726797257140681 0 -0.023471125307562846 -0.0011522535837084143 0 -0.023740940349794532 -0.0021726797257140681 0 -0.022567225616639777 -0.0019865114713806557 0 -0.023471125307562846 -0.0011522535837084143 0 -0.022907831326447217 -0.00021688345490819249 0 -0.023845961626296708 -0.00024297110938752042 0 -0.023471125307562846 -0.0011522535837084143 0 -0.023845961626296708 -0.00024297110938752042 0 -0.024926171036634404 -0.0010653072360766423 0 -0.023471125307562846 -0.0011522535837084143 0 -0.022907831326447217 -0.00021688345490819249 0 -0.023471125307562846 -0.0011522535837084143 0 -0.022524804556643099 -0.0010725550938274308 0 -0.022907831326447217 -0.00021688345490819249 0 -0.022524804556643099 -0.0010725550938274308 0 -0.021804561038158046 -0.00062551740051787063 0 -0.022524804556643099 -0.0010725550938274308 0 -0.021804561038158046 -0.00062551740051787063 0 -0.021519176876741472 -0.0015024703903883296 0 -0.021804561038158046 -0.00062551740051787063 0 -0.021519176876741472 -0.0015024703903883296 0 -0.020647799660791048 -0.00071659304666082837 0 -0.021519176876741472 -0.0015024703903883296 0 -0.02059687371972219 -0.0019919028691891072 0 -0.020647799660791048 -0.00071659304666082837 0 -0.021435585760497939 -0.0015261854476793855 0 -0.020256048341250579 -0.0019331037358427934 0 -0.022567225616639777 -0.0019865114713806557 0 -0.022524804556643099 -0.0010725550938274308 0 -0.021519176876741472 -0.0015024703903883296 0 -0.022567225616639777 -0.0019865114713806557 0 -0.021519176876741472 -0.0015024703903883296 0 -0.021385259947066578 -0.0027508135803080667 0 -0.02260552296738029 -0.0032804650242085334 0 -0.022567225616639777 -0.0019865114713806557 0 -0.021385259947066578 -0.0027508135803080667 0 -0.02260552296738029 -0.0032804650242085334 0 -0.021385259947066578 -0.0027508135803080667 0 -0.021393988595299604 -0.0044635098574812172 0 -0.021385259947066578 -0.0027508135803080667 0 -0.020122839585079554 -0.0034115250540888197 0 -0.021393988595299604 -0.0044635098574812172 0 -0.021519176876741472 -0.0015024703903883296 0 -0.021385259947066578 -0.0027508135803080667 0 -0.019981770558787006 -0.0018484681849603778 0 -0.021385259947066578 -0.0027508135803080667 0 -0.020122839585079554 -0.0034115250540888197 0 -0.019981770558787006 -0.0018484681849603778 0 -0.020122839585079554 -0.0034115250540888197 0 -0.019097203473834271 -0.003090800581547854 0 -0.019981770558787006 -0.0018484681849603778 0 -0.019097203473834271 -0.003090800581547854 0 -0.0187248512128394 -0.0042601781071079006 0 -0.018122926862677649 -0.0032091677059485494 0 -0.020122839585079554 -0.0034115250540888197 0 -0.019097203473834271 -0.003090800581547854 0 -0.0187248512128394 -0.0042601781071079006 0 -0.019097203473834271 -0.003090800581547854 0 -0.018525606281796683 -0.002290651913792849 0 -0.018122926862677649 -0.0032091677059485494 0 -0.019097203473834271 -0.003090800581547854 0 -0.018525606281796683 -0.002290651913792849 0 -0.019981770558787006 -0.0018484681849603778 0 -0.01915718676225012 -0.0023856524120567557 0 -0.020256048341250579 -0.0019331037358427934 0 -0.019470823701045258 -0.0025137372241302485 0 -0.019811470914824488 -0.0015429061734304305 0 -0.02059687371972219 -0.0019919028691891072 0 -0.019811470914824488 -0.0015429061734304305 0 -0.02059687371972219 -0.0019919028691891072 0 -0.020647799660791048 -0.00071659304666082837 0 -0.019811470914824488 -0.0015429061734304305 0 -0.01980784846326358 -0.00064071593726629543 0 -0.019053754803332958 -0.0012279286333492312 0 -0.019811470914824488 -0.0015429061734304305 0 -0.020647799660791048 -0.00071659304666082837 0 -0.01980784846326358 -0.00064071593726629543 0 -0.03161315294489004 -0.00030892534094596963 0 -0.032423329694155359 -0.00017264130469650996 0 -0.031557836484329728 0.00058376002545367856 0 -0.03161315294489004 -0.00030892534094596963 0 -0.031557836484329728 0.00058376002545367856 0 -0.030258616729112751 0.00047031955090621504 0 -0.029517611976955301 0.00063094486845083136 0 -0.028978360627019598 0.0011822105825814828 0 -0.028750618328061375 0.0005208793923519925 0 -0.031118001211875582 -0.00017429351395062886 0 -0.029484726587684328 0.00096426938609714516 0 -0.029517611976955301 0.00063094486845083136 0 -0.028750618328061375 0.0005208793923519925 0 -0.029374451947044317 -0.00022374694585257945 0 -0.031118001211875582 -0.00017429351395062886 0 -0.028176970112563208 0.0011655948927746687 0 -0.03161315294489004 -0.00030892534094596963 0 -0.032423329694155359 -0.00017264130469650996 0 -0.032213943891571034 -0.00020319387014370411 0 -0.031653137905363546 -1.7176088904231691e-06 0 -0.032423329694155359 -0.00017264130469650996 0 -0.032213943891571034 -0.00020319387014370411 0 -0.031653137905363546 -1.7176088904231691e-06 0 -0.034157460209109453 1.7738168640027635e-06 0 -0.032423329694155359 -0.00017264130469650996 0 -0.034157460209109453 1.7738168640027635e-06 0 -0.032423329694155359 -0.00017264130469650996 0 -0.032486904568146187 0.0010272674114648807 0 -0.032423329694155359 -0.00017264130469650996 0 -0.032486904568146187 0.0010272674114648807 0 -0.031557836484329728 0.00058376002545367856 0 -0.034165742505620822 2.153996908678492e-07 0 -0.034758242156893326 0.00055023397114060556 0 -0.034169668564430836 1.3337797572852e-06 0 -0.036948311311624536 0.00022490129816882303 0 -0.036844741110462959 -8.667428811846606e-05 0 -0.034169668564430836 1.3337797572852e-06 0 -0.037025192416006707 -6.4072147167862112e-07 0 -0.036844741110462959 -8.667428811846606e-05 0 -0.038994373345704984 -5.0515367089944257e-05 0 -0.037025192416006707 -6.4072147167862112e-07 0 -0.036844741110462959 -8.667428811846606e-05 0 -0.037000503804007309 -6.4673085842516129e-05 0 -0.036844741110462959 -8.667428811846606e-05 0 -0.036974871211437887 -1.3702419915399905e-05 0 -0.036948311311624536 0.00022490129816882303 0 -0.036844741110462959 -8.667428811846606e-05 0 -0.036974871211437887 -1.3702419915399905e-05 0 -0.036948311311624536 0.00022490129816882303 0 -0.036974871211437887 -1.3702419915399905e-05 0 -0.037046517373696457 5.7592756769038523e-06 0 -0.037026365345579751 -2.396320841942152e-05 0 -0.036974871211437887 -1.3702419915399905e-05 0 -0.037046517373696457 5.7592756769038523e-06 0 -0.032486904568146187 0.0010272674114648807 0 -0.031557836484329728 0.00058376002545367856 0 -0.031196166782848807 0.0018316177942099506 0 -0.034758242156893326 0.00055023397114060556 0 -0.033793901297847893 0.00096275496257605935 0 -0.031557836484329728 0.00058376002545367856 0 -0.031196166782848807 0.0018316177942099506 0 -0.030258616729112751 0.00047031955090621504 0 -0.033793901297847893 0.00096275496257605935 0 -0.034668083070083337 0.0015903268244649197 0 -0.03703320407094824 6.3751065645145851e-06 0 -0.037026365345579751 -2.396320841942152e-05 0 -0.037046517373696457 5.7592756769038523e-06 0 -0.03703320407094824 6.3751065645145851e-06 0 -0.037046517373696457 5.7592756769038523e-06 0 -0.036974919710449805 1.2434047446214626e-05 0 -0.031196166782848807 0.0018316177942099506 0 -0.029395855119789954 0.0022477648435146888 0 -0.029347200943879256 0.0027512275031495856 0 -0.029395855119789954 0.0022477648435146888 0 -0.029347200943879256 0.0027512275031495856 0 -0.029055180766320982 0.0024257128939938581 0 -0.030175219692346988 0.0023816374516859606 0 -0.03152144508904467 0.00188302065726708 0 -0.034668083070083337 0.0015903268244649197 0 -0.03152144508904467 0.00188302065726708 0 -0.030400445049406099 0.0022420049550312413 0 -0.030754149995060855 0.002066239389239968 0 -0.030486657966919097 0.0017921784139493916 0 -0.032526781418575852 0.0019747874499050767 0 -0.03152144508904467 0.00188302065726708 0 -0.028978991532388056 0.0023859170032134776 0 -0.028676041166058763 0.0018063471294618657 0 -0.028194797244276263 0.0016007998324169778 0 -0.029395855119789954 0.0022477648435146888 0 -0.028978991532388056 0.0023859170032134776 0 -0.028676041166058763 0.0018063471294618657 0 -0.03152144508904467 0.00188302065726708 0 -0.029280072856692201 0.0016357009287362781 0 -0.028676041166058763 0.0018063471294618657 0 -0.028194797244276263 0.0016007998324169778 0 -0.028495099779315507 0.0013594870452620215 0 -0.028207550392997677 0.0012931489027209705 0 -0.028495099779315507 0.0013594870452620215 0 -0.028354239959619332 0.0010112741683214127 0 -0.028194797244276263 0.0016007998324169778 0 -0.028207550392997677 0.0012931489027209705 0 -0.028495099779315507 0.0013594870452620215 0 -0.028676041166058763 0.0018063471294618657 0 -0.028495099779315507 0.0013594870452620215 0 -0.028978360627019598 0.0011822105825814828 0 -0.031196166782848807 0.0018316177942099506 0 -0.029395855119789954 0.0022477648435146888 0 -0.030258616729112751 0.00047031955090621504 0 -0.028759986918971428 0.0017140934048661611 0 -0.029484726587684328 0.00096426938609714516 0 -0.029395855119789954 0.0022477648435146888 0 -0.028676041166058763 0.0018063471294618657 0 -0.030258616729112751 0.00047031955090621504 0 -0.02601947394768617 0.0021413762333357088 0 -0.026161483415164576 0.0028604629776463396 0 -0.027004198147250195 0.0025371938572673579 0 -0.026362452827585352 0.003444217968224415 0 -0.026161483415164576 0.0028604629776463396 0 -0.027004198147250195 0.0025371938572673579 0 -0.030400445049406099 0.0022420049550312413 0 -0.030486657966919097 0.0017921784139493916 0 -0.030136436155582428 0.0019717799536801144 0 -0.030486657966919097 0.0017921784139493916 0 -0.030136436155582428 0.0019717799536801144 0 -0.030214237098465494 0.0015178772624497262 0 -0.028375386622581836 0.0022629156702076883 0 -0.027935458359886672 0.0019408728057573488 0 -0.028194797244276263 0.0016007998324169778 0 -0.028207550392997677 0.0012931489027209705 0 -0.027806430612445379 0.0012182793030805208 0 -0.029280072856692201 0.0016357009287362781 0 -0.027935458359886672 0.0019408728057573488 0 -0.02601947394768617 0.0021413762333357088 0 -0.025944267270625581 0.0012394474788893631 0 -0.027263410800949382 0.0013461192697356902 0 -0.02601947394768617 0.0021413762333357088 0 -0.027004198147250195 0.0025371938572673579 0 -0.027263410800949382 0.0013461192697356902 0 -0.027935458359886672 0.0019408728057573488 0 -0.025412355546587186 0.0013557003971405442 0 -0.025944267270625581 0.0012394474788893631 0 -0.027263410800949382 0.0013461192697356902 0 -0.026148181881222671 0.0001511918358666674 0 -0.027935458359886672 0.0019408728057573488 0 -0.027413593509359756 0.0013399349288383275 0 -0.027806430612445379 0.0012182793030805208 0 -0.027856536597044661 0.00045828565429149371 0 -0.028354239959619332 0.0010112741683214127 0 -0.026682693862595683 0.0041543040108774675 0 -0.027190101805002084 0.0019212035461634023 0 -0.02496178145497847 0.002348212108595686 0 -0.027190101805002084 0.0019212035461634023 0 -0.02496178145497847 0.002348212108595686 0 -0.025100829854129258 0.00088050561808636113 0 -0.028495099779315507 0.0013594870452620215 0 -0.028978360627019598 0.0011822105825814828 0 -0.028354239959619332 0.0010112741683214127 0 -0.028978360627019598 0.0011822105825814828 0 -0.028354239959619332 0.0010112741683214127 0 -0.028750618328061375 0.0005208793923519925 0 -0.028207550392997677 0.0012931489027209705 0 -0.027806430612445379 0.0012182793030805208 0 -0.028354239959619332 0.0010112741683214127 0 -0.027856536597044661 0.00045828565429149371 0 -0.028750618328061375 0.0005208793923519925 0 -0.028494519768331505 -3.3598787611343392e-05 0 -0.027856536597044661 0.00045828565429149371 0 -0.028354239959619332 0.0010112741683214127 0 -0.028750618328061375 0.0005208793923519925 0 -0.028750618328061375 0.0005208793923519925 0 -0.028494519768331505 -3.3598787611343392e-05 0 -0.029374451947044317 -0.00022374694585257945 0 -0.027856536597044661 0.00045828565429149371 0 -0.028494519768331505 -3.3598787611343392e-05 0 -0.027737022729760915 -0.00044976566898777216 0 -0.027737022729760915 -0.00044976566898777216 0 -0.028640587505256446 -0.00061603090260578378 0 -0.027340167821620062 -0.0014141524394218098 0 -0.028494519768331505 -3.3598787611343392e-05 0 -0.027737022729760915 -0.00044976566898777216 0 -0.028640587505256446 -0.00061603090260578378 0 -0.025767203951101998 0.00091838424912480808 0 -0.024587600007554198 0.00029909516418467858 0 -0.028494519768331505 -3.3598787611343392e-05 0 -0.028640587505256446 -0.00061603090260578378 0 -0.029374451947044317 -0.00022374694585257945 0 -0.025100829854129258 0.00088050561808636113 0 -0.026364277496260271 0.00028042480041899029 0 -0.025257127782962026 -0.00044193978753336824 0 -0.027190101805002084 0.0019212035461634023 0 -0.025100829854129258 0.00088050561808636113 0 -0.026364277496260271 0.00028042480041899029 0 -0.027190101805002084 0.0019212035461634023 0 -0.027737022729760915 -0.00044976566898777216 0 -0.026364277496260271 0.00028042480041899029 0 -0.027413593509359756 0.0013399349288383275 0 -0.027782260753055746 -0.00045171304798276172 0 -0.027737022729760915 -0.00044976566898777216 0 -0.026402240075547406 -0.0008467271669062961 0 -0.027340167821620062 -0.0014141524394218098 0 -0.027737022729760915 -0.00044976566898777216 0 -0.026364277496260271 0.00028042480041899029 0 -0.026402240075547406 -0.0008467271669062961 0 -0.026402240075547406 -0.0008467271669062961 0 -0.025257127782962026 -0.00044193978753336824 0 -0.025189155411732625 -0.0023287456092169535 0 -0.026364277496260271 0.00028042480041899029 0 -0.026402240075547406 -0.0008467271669062961 0 -0.025257127782962026 -0.00044193978753336824 0 -0.024270683580640117 -4.7047122474719621e-05 0 -0.025100829854129258 0.00088050561808636113 0 -0.025257127782962026 -0.00044193978753336824 0 -0.020266078918913539 0.0014225632535756723 0 -0.021282034286681285 0.0014054481840150795 0 -0.02102457032354612 0.00090611343585262261 0 -0.020266078918913539 0.0014225632535756723 0 -0.021282034286681285 0.0014054481840150795 0 -0.021585083981839712 0.0019643946580129947 0 -0.022000918238645494 -0.00038930167327514586 0 -0.024587600007554198 0.00029909516418467858 0 -0.026402240075547406 -0.0008467271669062961 0 -0.025189155411732625 -0.0023287456092169535 0 -0.027340167821620062 -0.0014141524394218098 0 -0.021282034286681285 0.0014054481840150795 0 -0.0216804115795129 0.0011326932558818805 0 -0.02187031500693111 0.0015989502699212683 0 -0.021282034286681285 0.0014054481840150795 0 -0.021585083981839712 0.0019643946580129947 0 -0.02187031500693111 0.0015989502699212683 0 -0.012489446734277293 0.0057781601408023967 0 -0.011807695579188465 0.0062529723444009104 0 -0.011085068358341272 0.0050340484689495851 0 -0.020366086955431458 0.0020585732188697393 0 -0.016569490552294522 0.0027776935217012997 0 -0.020366086955431458 0.0020585732188697393 0 -0.016143417958661845 0.003283056335869615 0 -0.021282034286681285 0.0014054481840150795 0 -0.0216804115795129 0.0011326932558818805 0 -0.02102457032354612 0.00090611343585262261 0 -0.018212717241642074 0.0029050669498216913 0 -0.017877315681685647 0.0020449721039401754 0 -0.017160326730845211 0.0025382422480026766 0 -0.021568666762211499 0.0011417629086771823 0 -0.021324822662840477 0.00054588036292762035 0 -0.021827401285466525 0.00065467236327291253 0 -0.016143417958661845 0.003283056335869615 0 -0.018901411516661446 0.0025136054472483971 0 -0.016143417958661845 0.003283056335869615 0 -0.016569490552294522 0.0027776935217012997 0 -0.016359720433802096 0.00086058780338025512 0 -0.017380627299367839 0.0022416675166937955 0 -0.018352563762402175 0.0015708304048935771 0 -0.012549407176737375 0.0032706831619914137 0 -0.016569490552294522 0.0027776935217012997 0 -0.009372059770626202 0.005432094736023246 0 -0.011807695579188465 0.0062529723444009104 0 -0.011085068358341272 0.0050340484689495851 0 -0.022000918238645494 -0.00038930167327514586 0 -0.016569490552294522 0.0027776935217012997 0 -0.022983202951010043 0.0025200260091284409 0 -0.023409539702732532 0.0015148129764153478 0 -0.022596383775110428 0.0014403500078442729 0 -0.022983202951010043 0.0025200260091284409 0 -0.021585083981839712 0.0019643946580129947 0 -0.02187031500693111 0.0015989502699212683 0 -0.022983202951010043 0.0025200260091284409 0 -0.02187031500693111 0.0015989502699212683 0 -0.022596383775110428 0.0014403500078442729 0 -0.021683844114892291 0.0011235527413474503 0 -0.02187031500693111 0.0015989502699212683 0 -0.022596383775110428 0.0014403500078442729 0 -0.020366086955431458 0.0020585732188697393 0 -0.021090297665581494 0.0017138015221583689 0 -0.020366086955431458 0.0020585732188697393 0 -0.022719593757213597 0.0015433139448420492 0 -0.023409539702732532 0.0015148129764153478 0 -0.022134180073379469 0.00048246964725358706 0 -0.022156633547711239 0.00059956696577294377 0 -0.022596383775110428 0.0014403500078442729 0 -0.021999811127096553 0.00095932417967936091 0 -0.022156633547711239 0.00059956696577294377 0 -0.021568666762211499 0.0011417629086771823 0 -0.022596383775110428 0.0014403500078442729 0 -0.021999811127096553 0.00095932417967936091 0 -0.021568666762211499 0.0011417629086771823 0 -0.021999811127096553 0.00095932417967936091 0 -0.021827401285466525 0.00065467236327291253 0 -0.021827401285466525 0.00065467236327291253 0 -0.0221327493918076 0.00047689949240157766 0 -0.022156633547711239 0.00059956696577294377 0 -0.021999811127096553 0.00095932417967936091 0 -0.021827401285466525 0.00065467236327291253 0 -0.022156633547711239 0.00059956696577294377 0 -0.020146636867968269 0.0019195340319249218 0 -0.020205139355471431 0.0017650811482296982 0 -0.021827401285466525 0.00065467236327291253 0 -0.0221327493918076 0.00047689949240157766 0 -0.021813849113282761 0.00021052125725055465 0 -0.020146636867968269 0.0019195340319249218 0 -0.018901411516661446 0.0025136054472483971 0 -0.020146636867968269 0.0019195340319249218 0 -0.018683109504076229 0.0028045389254187847 0 -0.021324822662840477 0.00054588036292762035 0 -0.021827401285466525 0.00065467236327291253 0 -0.021813849113282761 0.00021052125725055465 0 -0.020131877842292319 0.0021370998353337739 0 -0.02054361637143972 0.0020581472230911373 0 -0.020094905063665125 0.0019113301916305759 0 -0.020816659948716617 0.0027186086061388088 0 -0.02054361637143972 0.0020581472230911373 0 -0.021119926671117523 0.0019423518092190476 0 -0.020816659948716617 0.0027186086061388088 0 -0.020131877842292319 0.0021370998353337739 0 -0.02054361637143972 0.0020581472230911373 0 -0.022346348186947151 0.0020613508283271126 0 -0.020146636867968269 0.0019195340319249218 0 -0.023409539702732532 0.0015148129764153478 0 -0.022596383775110428 0.0014403500078442729 0 -0.022156633547711239 0.00059956696577294377 0 -0.020816659948716617 0.0027186086061388088 0 -0.021521150704259841 0.0025448145213289941 0 -0.021119926671117523 0.0019423518092190476 0 -0.021521150704259841 0.0025448145213289941 0 -0.022251479920333297 0.0027741547461474655 0 -0.021876571033792355 0.0019910356101459563 0 -0.021521150704259841 0.0025448145213289941 0 -0.021119926671117523 0.0019423518092190476 0 -0.021876571033792355 0.0019910356101459563 0 -0.021521150704259841 0.0025448145213289941 0 -0.021546968636763062 0.0033174249788252784 0 -0.022251479920333297 0.0027741547461474655 0 -0.020816659948716617 0.0027186086061388088 0 -0.021521150704259841 0.0025448145213289941 0 -0.021546968636763062 0.0033174249788252784 0 -0.022346348186947151 0.0020613508283271126 0 -0.022500133064064395 0.0031582584288504093 0 -0.025767203951101998 0.00091838424912480808 0 -0.026909895258048259 0.0014952113935231561 0 -0.022983202951010043 0.0025200260091284409 0 -0.024448213705200793 0.0030634816974809136 0 -0.024665933501656263 0.0025412340647620606 0 -0.022983202951010043 0.0025200260091284409 0 -0.023409539702732532 0.0015148129764153478 0 -0.024665933501656263 0.0025412340647620606 0 -0.024448213705200793 0.0030634816974809136 0 -0.024665933501656263 0.0025412340647620606 0 -0.025991643676157899 0.0036039873619308983 0 -0.029517611976955301 0.00063094486845083136 0 -0.029374451947044317 -0.00022374694585257945 0 -0.030069129917691673 7.6017162504377482e-05 0 -0.026909895258048259 0.0014952113935231561 0 -0.028176970112563208 0.0011655948927746687 0 -0.022500133064064395 0.0031582584288504093 0 -0.028176970112563208 0.0011655948927746687 0 -0.031642545004424538 9.0804606875754186e-07 0 -0.03049836917540015 -0.00011890836383137121 0 -0.029274896255278671 0.00021086966450788524 0 -0.031642545004424538 9.0804606875754186e-07 0 -0.029763995882624759 -8.439075448615975e-07 0 -0.03049836917540015 -0.00011890836383137121 0 -0.031648467899733967 2.363229180004709e-08 0 -0.028176970112563208 0.0011655948927746687 0 -0.029955466144044977 -0.00010488600872110352 0 -0.030072111078328162 -0.00020241557862341072 0 -0.030243090652514276 -3.3145683301199424e-05 0 -0.029955466144044977 -0.00010488600872110352 0 -0.03049836917540015 -0.00011890836383137121 0 -0.030072111078328162 -0.00020241557862341072 0 -0.029955466144044977 -0.00010488600872110352 0 -0.029763995882624759 -8.439075448615975e-07 0 -0.03049836917540015 -0.00011890836383137121 0 -0.03049836917540015 -0.00011890836383137121 0 -0.029274896255278671 0.00021086966450788524 0 -0.030072111078328162 -0.00020241557862341072 0 -0.021546968636763062 0.0033174249788252784 0 -0.022326809565052067 0.003924864919594641 0 -0.022633838270751827 0.0035901642124767331 0 -0.029274896255278671 0.00021086966450788524 0 -0.030072111078328162 -0.00020241557862341072 0 -0.029946735093392424 -0.00051661403849055155 0 -0.028176970112563208 0.0011655948927746687 0 -0.026774868245225902 0.0017863845209532222 0 -0.027265416160658303 0.0012226900470341539 0 -0.026774868245225902 0.0017863845209532222 0 -0.021546968636763062 0.0033174249788252784 0 -0.022633838270751827 0.0035901642124767331 0 -0.022251479920333297 0.0027741547461474655 0 -0.026774868245225902 0.0017863845209532222 0 -0.022983338828858637 0.0017349810573047879 0 -0.025528474998706079 0.0027390480863456615 0 -0.027877196806409019 3.9416605621180762e-06 0 -0.024303296446964884 0.00030662196730279752 0 -0.026774868245225902 0.0017863845209532222 0 -0.027883971751118175 -8.2196430990506322e-07 0 -0.029955466144044977 -0.00010488600872110352 0 -0.029763995882624759 -8.439075448615975e-07 0 -0.027884709685701642 8.2836781175641514e-07 0 -0.029955466144044977 -0.00010488600872110352 0 -0.030243090652514276 -3.3145683301199424e-05 0 -0.027884709685701642 8.2836781175641514e-07 0 -0.027877196806409019 3.9416605621180762e-06 0 -0.024303296446964884 0.00030662196730279752 0 -0.024625879595113236 -0.00018246676939063185 0 -0.024303296446964884 0.00030662196730279752 0 -0.024625879595113236 -0.00018246676939063185 0 -0.023282964459551629 -0.00029147812330209652 0 -0.022983338828858637 0.0017349810573047879 0 -0.022593159959703509 0.00077621232337280453 0 -0.027877196806409019 3.9416605621180762e-06 0 -0.024625879595113236 -0.00018246676939063185 0 -0.025376951687994708 -1.7353189711562757e-06 0 -0.024625879595113236 -0.00018246676939063185 0 -0.025376951687994708 -1.7353189711562757e-06 0 -0.023316873018753025 -0.00037643284614383886 0 -0.025376951687994708 -1.7353189711562757e-06 0 -0.023316873018753025 -0.00037643284614383886 0 -0.022870946882457135 -2.1970288730512769e-07 0 -0.024625879595113236 -0.00018246676939063185 0 -0.023316873018753025 -0.00037643284614383886 0 -0.023282964459551629 -0.00029147812330209652 0 -0.023316873018753025 -0.00037643284614383886 0 -0.022370947632313759 -0.00055646367805562314 0 -0.022141539338201798 -0.00044021093644621058 0 -0.023316873018753025 -0.00037643284614383886 0 -0.022870946882457135 -2.1970288730512769e-07 0 -0.022141539338201798 -0.00044021093644621058 0 -0.021119926671117523 0.0019423518092190476 0 -0.021295409433540042 0.0015607860593701043 0 -0.020944134424165758 0.0012906786106503297 0 -0.021119926671117523 0.0019423518092190476 0 -0.021295409433540042 0.0015607860593701043 0 -0.021876571033792355 0.0019910356101459563 0 -0.023316873018753025 -0.00037643284614383886 0 -0.023282964459551629 -0.00029147812330209652 0 -0.022370947632313759 -0.00055646367805562314 0 -0.022593159959703509 0.00077621232337280453 0 -0.021963357603238844 0.00032923895104496937 0 -0.021295409433540042 0.0015607860593701043 0 -0.021876571033792355 0.0019910356101459563 0 -0.021550806144089631 0.0011858528113450697 0 -0.021295409433540042 0.0015607860593701043 0 -0.021550806144089631 0.0011858528113450697 0 -0.020944134424165758 0.0012906786106503297 0 -0.021550806144089631 0.0011858528113450697 0 -0.020944134424165758 0.0012906786106503297 0 -0.020964303609265132 0.00075465606367343808 0 -0.021963357603238844 0.00032923895104496937 0 -0.021934055838236384 -0.00026920384193176587 0 -0.021550806144089631 0.0011858528113450697 0 -0.020964303609265132 0.00075465606367343808 0 -0.021154470787121009 0.00017966225229943129 0 -0.020964303609265132 0.00075465606367343808 0 -0.021154470787121009 0.00017966225229943129 0 -0.02028743346271402 0.0001467176291320945 0 -0.022370947632313759 -0.00055646367805562314 0 -0.021970061913221033 -0.00040771594596457529 0 -0.022141539338201798 -0.00044021093644621058 0 -0.022370947632313759 -0.00055646367805562314 0 -0.021970061913221033 -0.00040771594596457529 0 -0.022297511269042964 -0.00031251558353606878 0 -0.021970061913221033 -0.00040771594596457529 0 -0.021846896631800065 8.015559489742995e-05 0 -0.021114284225166681 -0.00016531215078682162 0 -0.021970061913221033 -0.00040771594596457529 0 -0.021846896631800065 8.015559489742995e-05 0 -0.022297511269042964 -0.00031251558353606878 0 -0.021934055838236384 -0.00026920384193176587 0 -0.019655177601392265 0.001306964365427933 0 -0.021846896631800065 8.015559489742995e-05 0 -0.022297511269042964 -0.00031251558353606878 0 -0.022689016454486982 0.00057435955460386975 0 -0.022870946882457135 -2.1970288730512769e-07 0 -0.020365264697346903 -1.760935022292624e-06 0 -0.022141539338201798 -0.00044021093644621058 0 -0.020365264697346903 -1.760935022292624e-06 0 -0.022141539338201798 -0.00044021093644621058 0 -0.021114284225166681 -0.00016531215078682162 0 -0.021970061913221033 -0.00040771594596457529 0 -0.022141539338201798 -0.00044021093644621058 0 -0.021114284225166681 -0.00016531215078682162 0 -0.021846896631800065 8.015559489742995e-05 0 -0.021114284225166681 -0.00016531215078682162 0 -0.02102612981536766 0.00033973000528956593 0 -0.021114284225166681 -0.00016531215078682162 0 -0.019907979214262319 7.729293228172734e-06 0 -0.02102612981536766 0.00033973000528956593 0 -0.020365264697346903 -1.760935022292624e-06 0 -0.017865068276199738 3.5109691865004408e-06 0 -0.019907979214262319 7.729293228172734e-06 0 -0.020365264697346903 -1.760935022292624e-06 0 -0.021114284225166681 -0.00016531215078682162 0 -0.019907979214262319 7.729293228172734e-06 0 -0.017865068276199738 3.5109691865004408e-06 0 -0.019907979214262319 7.729293228172734e-06 0 -0.020121783396593595 0.0013759432878862931 0 -0.017859235166778637 -3.5325335072979874e-08 0 -0.016971426948785034 0.00081840622122832552 0 -0.01785734298974688 1.5642338815966709e-06 0 -0.014100716583457917 0.00036249083737568711 0 -0.015281788334883141 -1.715356579486151e-07 0 -0.017865068276199738 3.5109691865004408e-06 0 -0.020065321261056562 0.0017368112191065641 0 -0.020121783396593595 0.0013759432878862931 0 -0.020091752398823687 0.0014467273217404889 0 -0.020512881408233766 0.0015352978620481522 0 -0.020121783396593595 0.0013759432878862931 0 -0.019078707898022795 0.0022061494540519715 0 -0.019526753095179841 0.0014408101808177725 0 -0.020065321261056562 0.0017368112191065641 0 -0.020121783396593595 0.0013759432878862931 0 -0.019526753095179841 0.0014408101808177725 0 -0.019907979214262319 7.729293228172734e-06 0 -0.020121783396593595 0.0013759432878862931 0 -0.02102612981536766 0.00033973000528956593 0 -0.020121783396593595 0.0013759432878862931 0 -0.02102612981536766 0.00033973000528956593 0 -0.021826788671728325 0.00090409106086616117 0 -0.021846896631800065 8.015559489742995e-05 0 -0.02102612981536766 0.00033973000528956593 0 -0.021826788671728325 0.00090409106086616117 0 -0.020512881408233766 0.0015352978620481522 0 -0.019655177601392265 0.001306964365427933 0 -0.021846896631800065 8.015559489742995e-05 0 -0.021826788671728325 0.00090409106086616117 0 -0.022689016454486982 0.00057435955460386975 0 -0.019078707898022795 0.0022061494540519715 0 -0.01779656333966103 0.0026137416998026773 0 -0.018452307885404272 0.0012242283517974325 0 -0.01779656333966103 0.0026137416998026773 0 -0.018452307885404272 0.0012242283517974325 0 -0.017137617017250521 0.0012029616024163089 0 -0.019078707898022795 0.0022061494540519715 0 -0.019526753095179841 0.0014408101808177725 0 -0.018452307885404272 0.0012242283517974325 0 -0.019526753095179841 0.0014408101808177725 0 -0.018452307885404272 0.0012242283517974325 0 -0.019405493009773109 0.00031701409388878603 0 -0.018452307885404272 0.0012242283517974325 0 -0.01831053549684742 0.00012697025538111728 0 -0.019405493009773109 0.00031701409388878603 0 -0.018452307885404272 0.0012242283517974325 0 -0.017800080086092802 0.00069770836091341255 0 -0.017137617017250521 0.0012029616024163089 0 -0.018452307885404272 0.0012242283517974325 0 -0.017800080086092802 0.00069770836091341255 0 -0.01831053549684742 0.00012697025538111728 0 -0.01831053549684742 0.00012697025538111728 0 -0.017405929762119601 -3.0687833036234821e-05 0 -0.018374815920450545 -0.0009324535807632196 0 -0.013928262586371436 0.00088476514442456077 0 -0.01393739406082862 -0.00036168421239822745 0 -0.017800080086092802 0.00069770836091341255 0 -0.01831053549684742 0.00012697025538111728 0 -0.017405929762119601 -3.0687833036234821e-05 0 -0.015938762886375243 9.3237349884127383e-05 0 -0.01393739406082862 -0.00036168421239822745 0 -0.01831053549684742 0.00012697025538111728 0 -0.019405493009773109 0.00031701409388878603 0 -0.018374815920450545 -0.0009324535807632196 0 -0.012135314242751633 -0.00012587266489804435 0 -0.013300344195703103 -0.0001388644115777737 0 -0.011965700710988587 -0.0003572148668664558 0 -0.012135314242751633 -0.00012587266489804435 0 -0.011965700710988587 -0.0003572148668664558 0 -0.011740108987017493 -0.0003003569531396848 0 -0.012704902469608296 -4.8620602412369713e-07 0 -0.013300344195703103 -0.0001388644115777737 0 -0.011965700710988587 -0.0003572148668664558 0 -0.012704902469608296 -4.8620602412369713e-07 0 -0.013300344195703103 -0.0001388644115777737 0 -0.015281788334883141 -1.715356579486151e-07 0 -0.014100716583457917 0.00036249083737568711 0 -0.013300344195703103 -0.0001388644115777737 0 -0.015281788334883141 -1.715356579486151e-07 0 -0.016971426948785034 0.00081840622122832552 0 -0.015938762886375243 9.3237349884127383e-05 0 -0.014100716583457917 0.00036249083737568711 0 -0.012135314242751633 -0.00012587266489804435 0 -0.013300344195703103 -0.0001388644115777737 0 -0.020065321261056562 0.0017368112191065641 0 -0.019526753095179841 0.0014408101808177725 0 -0.019405493009773109 0.00031701409388878603 0 -0.0064424560172457561 0.003950911001948003 0 -0.0081598261523597518 0.0037591973976949127 0 -0.0060139122029880601 0.0048475600548551941 0 -0.0057002382990847854 0.0033915756877114837 0 -0.0052116440366787743 0.0020054736611157002 0 -0.007304616283211357 0.0034843978824111474 0 -0.0057002382990847854 0.0033915756877114837 0 -0.0064424560172457561 0.003950911001948003 0 -0.007304616283211357 0.0034843978824111474 0 -0.0057002382990847854 0.0033915756877114837 0 -0.0064424560172457561 0.003950911001948003 0 -0.0050810583057980035 0.0042711669511726284 0 -0.0064424560172457561 0.003950911001948003 0 -0.0050810583057980035 0.0042711669511726284 0 -0.0060139122029880601 0.0048475600548551941 0 -0.0050810583057980035 0.0042711669511726284 0 -0.0040680704415243414 0.0030582063611111214 0 -0.0041351363471686473 0.0047824729353731048 0 -0.0040680704415243414 0.0030582063611111214 0 -0.0041351363471686473 0.0047824729353731048 0 -0.0019958501535461129 0.0026856274166197226 0 -0.0057002382990847854 0.0033915756877114837 0 -0.0050810583057980035 0.0042711669511726284 0 -0.0040680704415243414 0.0030582063611111214 0 -0.0053554692359240024 0.001986633130689541 0 -0.003362527968354896 0.0004147436209468209 0 -0.0057002382990847854 0.0033915756877114837 0 -0.0040680704415243414 0.0030582063611111214 0 -0.0052116440366787743 0.0020054736611157002 0 -0.0040680704415243414 0.0030582063611111214 0 -0.0052116440366787743 0.0020054736611157002 0 -0.0032502691049867056 0.00065125254726357306 0 -0.0053554692359240024 0.001986633130689541 0 -0.0071438026745799209 0.0033754234593289258 0 -0.0054023109345738814 0.001877643108583831 0 -0.0081676102198172396 0.0023396187381114694 0 -0.007304616283211357 0.0034843978824111474 0 -0.0054023109345738814 0.001877643108583831 0 -0.0081676102198172396 0.0023396187381114694 0 -0.0077803511154965537 0.00075459857581150187 0 -0.0081676102198172396 0.0023396187381114694 0 -0.01013364040797661 0.0019377383869200711 0 -0.0077803511154965537 0.00075459857581150187 0 -0.0081676102198172396 0.0023396187381114694 0 -0.01013364040797661 0.0019377383869200711 0 -0.0081598261523597518 0.0037591973976949127 0 -0.013928262586371436 0.00088476514442456077 0 -0.01237229078343045 0.0022875807160227359 0 -0.017405929762119601 -3.0687833036234821e-05 0 -0.017137617017250521 0.0012029616024163089 0 -0.016296498170027787 0.00088157015902196837 0 -0.017800080086092802 0.00069770836091341255 0 -0.017405929762119601 -3.0687833036234821e-05 0 -0.017137617017250521 0.0012029616024163089 0 -0.0081676102198172396 0.0023396187381114694 0 -0.007304616283211357 0.0034843978824111474 0 -0.0081598261523597518 0.0037591973976949127 0 -0.017137617017250521 0.0012029616024163089 0 -0.016296498170027787 0.00088157015902196837 0 -0.016431261109083457 0.0016188818830428541 0 -0.0064424560172457561 0.003950911001948003 0 -0.007304616283211357 0.0034843978824111474 0 -0.0081598261523597518 0.0037591973976949127 0 -0.01237229078343045 0.0022875807160227359 0 -0.0092975003925116467 0.0036418785993279842 0 -0.016296498170027787 0.00088157015902196837 0 -0.015878824005496867 0.0020974324641831114 0 -0.015026196411193781 0.0019798755988464905 0 -0.016296498170027787 0.00088157015902196837 0 -0.016431261109083457 0.0016188818830428541 0 -0.015878824005496867 0.0020974324641831114 0 -0.016618519519915442 0.0021672702976398128 0 -0.015878824005496867 0.0020974324641831114 0 -0.016246786452582693 0.0027735818829750271 0 -0.016431261109083457 0.0016188818830428541 0 -0.016618519519915442 0.0021672702976398128 0 -0.015878824005496867 0.0020974324641831114 0 -0.017849028986426596 0.0030320349675273389 0 -0.017137617017250521 0.0012029616024163089 0 -0.016618519519915442 0.0021672702976398128 0 -0.019655177601392265 0.001306964365427933 0 -0.01677290420213666 0.0017774112086279942 0 -0.017137617017250521 0.0012029616024163089 0 -0.016431261109083457 0.0016188818830428541 0 -0.016618519519915442 0.0021672702976398128 0 -0.017849028986426596 0.0030320349675273389 0 -0.016618519519915442 0.0021672702976398128 0 -0.016246786452582693 0.0027735818829750271 0 -0.019655177601392265 0.001306964365427933 0 -0.01712034068351526 0.0010613467372165657 0 -0.017849028986426596 0.0030320349675273389 0 -0.016246786452582693 0.0027735818829750271 0 -0.01590659982910737 0.0035651706354257063 0 -0.015878824005496867 0.0020974324641831114 0 -0.016246786452582693 0.0027735818829750271 0 -0.015174916483336858 0.0028701497530511958 0 -0.016246786452582693 0.0027735818829750271 0 -0.01590659982910737 0.0035651706354257063 0 -0.015174916483336858 0.0028701497530511958 0 -0.01712034068351526 0.0010613467372165657 0 -0.0088576061076297129 0.0028052013762382456 0 -0.01712034068351526 0.0010613467372165657 0 -0.011756356308115194 0.00083070472087018584 0 -0.0031157762372991766 0.0013854661517197159 0 -0.0025915906705435122 0.0013829286112020699 0 -0.0027633609006817153 0.0015017887014225106 0 -0.012850807138823505 0.0018634709474132333 0 -0.011858998562750453 0.00091278427732867839 0 -0.012058931008273642 0.0020774534038970043 0 -0.0029673497918700298 0.0015570638396201761 0 -0.0031157762372991766 0.0013854661517197159 0 -0.0032001607010946512 0.0016957413576062866 0 -0.0029673497918700298 0.0015570638396201761 0 -0.0027325020612721392 0.0016317391093443312 0 -0.0032001607010946512 0.0016957413576062866 0 -0.0088576061076297129 0.0028052013762382456 0 -0.011756356308115194 0.00083070472087018584 0 -0.0029673497918700298 0.0015570638396201761 0 -0.0031157762372991766 0.0013854661517197159 0 -0.0027633609006817153 0.0015017887014225106 0 -0.0029673497918700298 0.0015570638396201761 0 -0.0027325020612721392 0.0016317391093443312 0 -0.0027633609006817153 0.0015017887014225106 0 -0.0088576061076297129 0.0028052013762382456 0 -0.0026871779054501044 0.0029210415695712809 0 -0.0063679400595700198 0.0068878218240524163 0 -0.0061252076830446084 0.0055235201454749737 0 -0.0041351363471686473 0.0047824729353731048 0 -0.0081598261523597518 0.0037591973976949127 0 -0.0061363346437362338 0.0055795316733056937 0 -0.0060139122029880601 0.0048475600548551941 0 -0.015878824005496867 0.0020974324641831114 0 -0.015174916483336858 0.0028701497530511958 0 -0.015026196411193781 0.0019798755988464905 0 -0.0088576061076297129 0.0028052013762382456 0 -0.0092975003925116467 0.0036418785993279842 0 -0.0050810583057980035 0.0042711669511726284 0 -0.0061252076830446084 0.0055235201454749737 0 -0.0041351363471686473 0.0047824729353731048 0 -0.0050810583057980035 0.0042711669511726284 0 -0.0061252076830446084 0.0055235201454749737 0 -0.0060139122029880601 0.0048475600548551941 0 -0.0092975003925116467 0.0036418785993279842 0 -0.0083545132262853438 0.0045024611692568188 0 -0.0031157762372991766 0.0013854661517197159 0 -0.0025261315345307374 0.0010030246809585963 0 -0.0025484064942575104 0.0012256252911505205 0 -0.0025261315345307374 0.0010030246809585963 0 -0.0025484064942575104 0.0012256252911505205 0 -0.0021785990684967224 0.0011078985192433774 0 -0.0025484064942575104 0.0012256252911505205 0 -0.0024034662525802965 0.0013336196964877701 0 -0.0021785990684967224 0.0011078985192433774 0 -0.0031157762372991766 0.0013854661517197159 0 -0.0025484064942575104 0.0012256252911505205 0 -0.0025915906705435122 0.0013829286112020699 0 -0.0024034662525802965 0.0013336196964877701 0 -0.0025915906705435122 0.0013829286112020699 0 -0.0025104825737346332 0.0015146826984523464 0 -0.0025484064942575104 0.0012256252911505205 0 -0.0024034662525802965 0.0013336196964877701 0 -0.0025915906705435122 0.0013829286112020699 0 -0.0025915906705435122 0.0013829286112020699 0 -0.0027633609006817153 0.0015017887014225106 0 -0.0025104825737346332 0.0015146826984523464 0 -0.0027325020612721392 0.0016317391093443312 0 -0.0027633609006817153 0.0015017887014225106 0 -0.0025104825737346332 0.0015146826984523464 0 -0.0027325020612721392 0.0016317391093443312 0 -0.0025104825737346332 0.0015146826984523464 0 -0.0024417001048841602 0.0016943114179045538 0 -0.0025104825737346332 0.0015146826984523464 0 -0.0024417001048841602 0.0016943114179045538 0 -0.0022851119717919965 0.001552480514486713 0 -0.0024034662525802965 0.0013336196964877701 0 -0.0025104825737346332 0.0015146826984523464 0 -0.0022851119717919965 0.001552480514486713 0 -0.0027325020612721392 0.0016317391093443312 0 -0.0025011359343560776 0.0018280092908784303 0 -0.0032001607010946512 0.0016957413576062866 0 -0.0027325020612721392 0.0016317391093443312 0 -0.0024417001048841602 0.0016943114179045538 0 -0.0025011359343560776 0.0018280092908784303 0 -0.011915295289221601 0.00034113067270367497 0 -0.013615444014095784 -0.00011651098867373004 0 -0.012473742665650463 0.0016881178012330481 0 -0.0058739202549020694 0.00091764744493930161 0 -0.0068493016974484969 0.0011505956616592221 0 -0.0024417001048841602 0.0016943114179045538 0 -0.0024785327252099662 0.0017769957870895628 0 -0.002344600673797968 0.0016722637802547913 0 -0.0068493016974484969 0.0011505956616592221 0 -0.011756356308115194 0.00083070472087018584 0 -0.011756356308115194 0.00083070472087018584 0 -0.016763299538351709 0.0011377888407086835 0 -0.013615444014095784 -0.00011651098867373004 0 -0.012473742665650463 0.0016881178012330481 0 -0.01397831287019298 0.0018609311108810493 0 -0.010422026193946022 0.00063192045525160714 0 -0.01110494352032667 0.0023768114298137145 0 -0.0097992414210617933 0.0015022915592731759 0 -0.0068493016974484969 0.0011505956616592221 0 -0.012105120333640305 0.0020809010867026286 0 -0.01110494352032667 0.0023768114298137145 0 -0.0097992414210617933 0.0015022915592731759 0 -0.0098530042594453856 0.002431732489706644 0 -0.020753572066492271 -0.00078151035297971958 0 -0.019616799084399464 -0.00047434596769436961 0 -0.02028743346271402 0.0001467176291320945 0 -0.021154470787121009 0.00017966225229943129 0 -0.020753572066492271 -0.00078151035297971958 0 -0.02028743346271402 0.0001467176291320945 0 -0.01905240743887749 -0.0010973561905926472 0 -0.018562225241221333 -0.0009630544214783485 0 -0.020025838432958975 -0.00019094285141004779 0 -0.018562225241221333 -0.0009630544214783485 0 -0.020025838432958975 -0.00019094285141004779 0 -0.018892886243747898 0.00078335431213431416 0 -0.01712034068351526 0.0010613467372165657 0 -0.020339864764161018 -0.00010352802844326215 0 -0.020025838432958975 -0.00019094285141004779 0 -0.018892886243747898 0.00078335431213431416 0 -0.020127074042546159 0.00092375169749968334 0 -0.020964303609265132 0.00075465606367343808 0 -0.020025838432958975 -0.00019094285141004779 0 -0.020127074042546159 0.00092375169749968334 0 -0.020860793946589254 0.0006926813237598192 0 -0.020339864764161018 -0.00010352802844326215 0 -0.020944134424165758 0.0012906786106503297 0 -0.020127074042546159 0.00092375169749968334 0 -0.020053772243076317 0.0019603965131222366 0 -0.020817964472486076 0.0013927905611160446 0 -0.020471956146893771 0.0016527424756674943 0 -0.020944134424165758 0.0012906786106503297 0 -0.020964303609265132 0.00075465606367343808 0 -0.020127074042546159 0.00092375169749968334 0 -0.018892886243747898 0.00078335431213431416 0 -0.019186153528058303 0.0025584615309330681 0 -0.020053772243076317 0.0019603965131222366 0 -0.018892886243747898 0.00078335431213431416 0 -0.020127074042546159 0.00092375169749968334 0 -0.020053772243076317 0.0019603965131222366 0 -0.016763299538351709 0.0011377888407086835 0 -0.018683109504076229 0.0028045389254187847 0 -0.019390474581911798 0.0022965279493652757 0 -0.019392041534135658 0.0023011063891531501 0 -0.019388609512856359 0.002303778212116058 0 -0.018901411516661446 0.0025136054472483971 0 -0.018683109504076229 0.0028045389254187847 0 -0.02054361637143972 0.0020581472230911373 0 -0.020094905063665125 0.0019113301916305759 0 -0.020556751951323071 0.0015915058920627661 0 -0.018683109504076229 0.0028045389254187847 0 -0.020471956146893771 0.0016527424756674943 0 -0.021119926671117523 0.0019423518092190476 0 -0.020944134424165758 0.0012906786106503297 0 -0.020556751951323071 0.0015915058920627661 0 -0.02054361637143972 0.0020581472230911373 0 -0.021119926671117523 0.0019423518092190476 0 -0.020556751951323071 0.0015915058920627661 0 -0.012105120333640305 0.0020809010867026286 0 -0.012221847559832862 0.0037016122954361733 0 -0.01110494352032667 0.0023768114298137145 0 -0.011792806019823443 0.0040793697089620308 0 -0.0099639181378856512 0.0036296689820444353 0 -0.01110494352032667 0.0023768114298137145 0 -0.0099639181378856512 0.0036296689820444353 0 -0.0098530042594453856 0.002431732489706644 0 -0.012473742665650463 0.0016881178012330481 0 -0.01397831287019298 0.0018609311108810493 0 -0.013033773291596813 0.0030166846475498453 0 -0.01397831287019298 0.0018609311108810493 0 -0.014341068099873346 0.0038089235531221775 0 -0.013033773291596813 0.0030166846475498453 0 -0.014088146391674166 0.0039824647800197318 0 -0.014341068099873346 0.0038089235531221775 0 -0.013033773291596813 0.0030166846475498453 0 -0.012489446734277293 0.0057781601408023967 0 -0.011792806019823443 0.0040793697089620308 0 -0.011085068358341272 0.0050340484689495851 0 -0.013583073955420296 0.0043308265767332587 0 -0.014088146391674166 0.0039824647800197318 0 -0.013033773291596813 0.0030166846475498453 0 -0.016143417958661845 0.003283056335869615 0 -0.012221847559832862 0.0037016122954361733 0 -0.011792806019823443 0.0040793697089620308 0 -0.011085068358341272 0.0050340484689495851 0 -0.0099639181378856512 0.0036296689820444353 0 -0.009372059770626202 0.005432094736023246 0 -0.011085068358341272 0.0050340484689495851 0 -0.0099639181378856512 0.0036296689820444353 0 -0.009372059770626202 0.005432094736023246 0 -0.0099639181378856512 0.0036296689820444353 0 -0.0081184237311801646 0.0034726292822728532 0 -0.0099639181378856512 0.0036296689820444353 0 -0.008983569414565705 0.0027576254485249833 0 -0.0081184237311801646 0.0034726292822728532 0 -0.0099639181378856512 0.0036296689820444353 0 -0.008983569414565705 0.0027576254485249833 0 -0.0098530042594453856 0.002431732489706644 0 -0.0081184237311801646 0.0034726292822728532 0 -0.0069155865823739473 0.0032166924339347694 0 -0.007230004548187367 0.002478989678623826 0 -0.0081184237311801646 0.0034726292822728532 0 -0.007230004548187367 0.002478989678623826 0 -0.0080742235058986669 0.0024214495348024866 0 -0.008983569414565705 0.0027576254485249833 0 -0.0081184237311801646 0.0034726292822728532 0 -0.0080742235058986669 0.0024214495348024866 0 -0.009372059770626202 0.005432094736023246 0 -0.0081184237311801646 0.0034726292822728532 0 -0.0069660618853128325 0.0045939080273880318 0 -0.012549407176737375 0.0032706831619914137 0 -0.010806441657672455 0.0023505150615277296 0 -0.016359720433802096 0.00086058780338025512 0 -0.01540541129086505 0.0014798069435674318 0 -0.014331201805349972 0.00014148395783353352 0 -0.01540541129086505 0.0014798069435674318 0 -0.014331201805349972 0.00014148395783353352 0 -0.013402717448552537 0.00070343323348791005 0 -0.019751507576759676 -0.0030633411752975267 0 -0.020380358245776851 -0.0039715378487949369 0 -0.018028886607640703 -0.0048344775874750437 0 -0.010806441657672455 0.0023505150615277296 0 -0.0080117712107246712 0.0017066662712449424 0 -0.014331201805349972 0.00014148395783353352 0 -0.013402717448552537 0.00070343323348791005 0 -0.012291753634485177 -0.0005774861249284582 0 -0.016645246775714943 -0.0016618388284529906 0 -0.01602707700012038 -0.0025345888302400798 0 -0.0069660618853128325 0.0045939080273880318 0 -0.0058207628639555132 0.0030851611132452369 0 -0.0046522034399700584 0.0037440751107398994 0 -0.0058207628639555132 0.0030851611132452369 0 -0.0046522034399700584 0.0037440751107398994 0 -0.0042972931957392701 0.0023027190994278344 0 -0.0069660618853128325 0.0045939080273880318 0 -0.0058207628639555132 0.0030851611132452369 0 -0.0069155865823739473 0.0032166924339347694 0 -0.0081184237311801646 0.0034726292822728532 0 -0.0069660618853128325 0.0045939080273880318 0 -0.0069155865823739473 0.0032166924339347694 0 -0.0058207628639555132 0.0030851611132452369 0 -0.0069155865823739473 0.0032166924339347694 0 -0.0064792934605558718 0.0025092827121743016 0 -0.0066873133844971323 0.0017646809465142698 0 -0.0072711970366229383 0.0015880054588192569 0 -0.0053886432512016188 0.0013251798332551874 0 -0.0069155865823739473 0.0032166924339347694 0 -0.007230004548187367 0.002478989678623826 0 -0.0064792934605558718 0.0025092827121743016 0 -0.007230004548187367 0.002478989678623826 0 -0.0064792934605558718 0.0025092827121743016 0 -0.0066873133844971323 0.0017646809465142698 0 -0.0058207628639555132 0.0030851611132452369 0 -0.0064792934605558718 0.0025092827121743016 0 -0.0058082203383025138 0.0020998431820346032 0 -0.0064792934605558718 0.0025092827121743016 0 -0.0066873133844971323 0.0017646809465142698 0 -0.0058082203383025138 0.0020998431820346032 0 -0.0066670487109627826 0.0014950149104025394 0 -0.0055459101998686072 0.001628826678692066 0 -0.007230004548187367 0.002478989678623826 0 -0.0066873133844971323 0.0017646809465142698 0 -0.0073016514712111449 0.0015776675194161796 0 -0.0058082203383025138 0.0020998431820346032 0 -0.0053886432512016188 0.0013251798332551874 0 -0.0042972931957392701 0.0023027190994278344 0 -0.0058207628639555132 0.0030851611132452369 0 -0.0058082203383025138 0.0020998431820346032 0 -0.0042972931957392701 0.0023027190994278344 0 -0.0066873133844971323 0.0017646809465142698 0 -0.0058082203383025138 0.0020998431820346032 0 -0.0053886432512016188 0.0013251798332551874 0 -0.0014753941080374307 0.0014756099476942155 0 -0.0015801616203254679 0.0015174147079965465 0 -0.001436930117977734 0.0013680052168987492 0 -0.0017347930832898968 0.001738779748595219 0 -0.0014753941080374307 0.0014756099476942155 0 -0.0015801616203254679 0.0015174147079965465 0 -0.0055459101998686072 0.001628826678692066 0 -0.0032481588122750967 0.0013848139174749865 0 -0.0015801616203254679 0.0015174147079965465 0 -0.001585061176468668 0.0014301460892286663 0 -0.001436930117977734 0.0013680052168987492 0 -0.0017347930832898968 0.001738779748595219 0 -0.001715399570964576 0.0015988487596721873 0 -0.0015801616203254679 0.0015174147079965465 0 -0.001715399570964576 0.0015988487596721873 0 -0.0018169112495076123 0.0015597512651739623 0 -0.001585061176468668 0.0014301460892286663 0 -0.001715399570964576 0.0015988487596721873 0 -0.0015801616203254679 0.0015174147079965465 0 -0.001585061176468668 0.0014301460892286663 0 -0.001715399570964576 0.0015988487596721873 0 -0.0018169112495076123 0.0015597512651739623 0 -0.0018619325952994588 0.0016578327938145108 0 -0.0017347930832898968 0.001738779748595219 0 -0.0018619325952994588 0.0016578327938145108 0 -0.0020692291292629412 0.0017823334110508191 0 -0.0055459101998686072 0.001628826678692066 0 -0.0051838383879511656 0.0014706209709677762 0 -0.0017347930832898968 0.001738779748595219 0 -0.001715399570964576 0.0015988487596721873 0 -0.0018619325952994588 0.0016578327938145108 0 -0.0018619325952994588 0.0016578327938145108 0 -0.0019922184977851595 0.0016085414647388954 0 -0.0020692291292629412 0.0017823334110508191 0 -0.0018169112495076123 0.0015597512651739623 0 -0.0018619325952994588 0.0016578327938145108 0 -0.0019922184977851595 0.0016085414647388954 0 -0.0019922184977851595 0.0016085414647388954 0 -0.0022134473024526462 0.001682464905792162 0 -0.0020922691017532546 0.0015134947823151931 0 -0.0024785327252099662 0.0017769957870895628 0 -0.0022134473024526462 0.001682464905792162 0 -0.0020692291292629412 0.0017823334110508191 0 -0.010422026193946022 0.00063192045525160714 0 -0.0088127714789258509 0.0010384799700888306 0 -0.0097992414210617933 0.0015022915592731759 0 -0.0019922184977851595 0.0016085414647388954 0 -0.0022134473024526462 0.001682464905792162 0 -0.0020692291292629412 0.0017823334110508191 0 -0.0068493016974484969 0.0011505956616592221 0 -0.0051838383879511656 0.0014706209709677762 0 -0.0024785327252099662 0.0017769957870895628 0 -0.002344600673797968 0.0016722637802547913 0 -0.0022134473024526462 0.001682464905792162 0 -0.0024417001048841602 0.0016943114179045538 0 -0.002344600673797968 0.0016722637802547913 0 -0.0022851119717919965 0.001552480514486713 0 -0.002344600673797968 0.0016722637802547913 0 -0.0022134473024526462 0.001682464905792162 0 -0.0022851119717919965 0.001552480514486713 0 -0.0088127714789258509 0.0010384799700888306 0 -0.00892290959054968 0.0018329364094105786 0 -0.0097992414210617933 0.0015022915592731759 0 -0.00892290959054968 0.0018329364094105786 0 -0.0097992414210617933 0.0015022915592731759 0 -0.0098530042594453856 0.002431732489706644 0 -0.008983569414565705 0.0027576254485249833 0 -0.00892290959054968 0.0018329364094105786 0 -0.0098530042594453856 0.002431732489706644 0 -0.0070151750172702983 0.0015069070383561076 0 -0.0088127714789258509 0.0010384799700888306 0 -0.00892290959054968 0.0018329364094105786 0 -0.0055459101998686072 0.001628826678692066 0 -0.0093238934021467948 0.0018902389679781579 0 -0.008983569414565705 0.0027576254485249833 0 -0.00892290959054968 0.0018329364094105786 0 -0.0080742235058986669 0.0024214495348024866 0 -0.0073016514712111449 0.0015776675194161796 0 -0.00892290959054968 0.0018329364094105786 0 -0.0080742235058986669 0.0024214495348024866 0 -0.007230004548187367 0.002478989678623826 0 -0.0073016514712111449 0.0015776675194161796 0 -0.0080742235058986669 0.0024214495348024866 0 -0.015046391472263155 -0.0035882863710597988 0 -0.015808599542580015 -0.0029921153976018222 0 -0.018444859411430151 -0.0053958339882420473 0 -0.0187248512128394 -0.0042601781071079006 0 -0.017794159720591542 -0.0050783457692047005 0 -0.018444859411430151 -0.0053958339882420473 0 -0.0187248512128394 -0.0042601781071079006 0 -0.019905996178490908 -0.0049522203465054504 0 -0.010969597467042669 -0.0013552581872439359 0 -0.011472107103228208 -0.0011068663180690663 0 -0.011224733642633848 -0.0014219940141418767 0 -0.020122839585079554 -0.0034115250540888197 0 -0.0187248512128394 -0.0042601781071079006 0 -0.019905996178490908 -0.0049522203465054504 0 -0.011472107103228208 -0.0011068663180690663 0 -0.011764603817255307 -0.0013387742910022035 0 -0.011224733642633848 -0.0014219940141418767 0 -0.0086158193036311743 -0.00043836892917670722 0 -0.01602707700012038 -0.0025345888302400798 0 -0.015808599542580015 -0.0029921153976018222 0 -0.01602707700012038 -0.0025345888302400798 0 -0.011472107103228208 -0.0011068663180690663 0 -0.011764603817255307 -0.0013387742910022035 0 -0.012369840172009379 -0.0007699025034018181 0 -0.020122839585079554 -0.0034115250540888197 0 -0.019905996178490908 -0.0049522203465054504 0 -0.021393988595299604 -0.0044635098574812172 0 -0.021741235168469569 -0.0033987811287481502 0 -0.01602707700012038 -0.0025345888302400798 0 -0.013402717448552537 0.00070343323348791005 0 -0.011397656315869885 -7.6707540331617295e-05 0 -0.012291753634485177 -0.0005774861249284582 0 -0.0086158193036311743 -0.00043836892917670722 0 -0.0080117712107246712 0.0017066662712449424 0 -0.010247989568306918 -0.0012954846891856651 0 -0.011397656315869885 -7.6707540331617295e-05 0 -0.012291753634485177 -0.0005774861249284582 0 -0.0025325323862257988 0.0029097823158379175 0 -0.0046522034399700584 0.0037440751107398994 0 -0.0042972931957392701 0.0023027190994278344 0 -0.0053886432512016188 0.0013251798332551874 0 -0.0042972931957392701 0.0023027190994278344 0 -0.0035501163168153438 0.0011333974660918502 0 -0.0042972931957392701 0.0023027190994278344 0 -0.0035501163168153438 0.0011333974660918502 0 -0.0027144973840159052 0.0018337381213791885 0 -0.0014753941080374307 0.0014756099476942155 0 -0.0015532349461617034 0.0012426684417270806 0 -0.001436930117977734 0.0013680052168987492 0 -0.0032481588122750967 0.0013848139174749865 0 -0.0026126428382507502 0.0012239759854187006 0 -0.0035501163168153438 0.0011333974660918502 0 -0.0027144973840159052 0.0018337381213791885 0 -0.00186650462754974 0.0012167629431557633 0 -0.0026126428382507502 0.0012239759854187006 0 -0.0019271750724497423 0.0011891554848823566 0 -0.0015532349461617034 0.0012426684417270806 0 -0.00186650462754974 0.0012167629431557633 0 -0.0015703127420686267 0.0013031359653117383 0 -0.0025325323862257988 0.0029097823158379175 0 -0.0042972931957392701 0.0023027190994278344 0 -0.0027144973840159052 0.0018337381213791885 0 -0.0086158193036311743 -0.00043836892917670722 0 -0.012088487767150902 -0.0012081478326854134 0 -0.0025325323862257988 0.0029097823158379175 0 -0.0027144973840159052 0.0018337381213791885 0 -0.001692320454757653 0.0017443527159039191 0 -0.011233871008561519 -0.0013888400200645287 0 -0.011224733642633848 -0.0014219940141418767 0 -0.011217947262285607 -0.001489574492377231 0 -0.0086158193036311743 -0.00043836892917670722 0 -0.0064039899105168508 0.00014144176472039843 0 -0.001692320454757653 0.0017443527159039191 0 -0.00186650462754974 0.0012167629431557633 0 -0.0015724560337677055 0.0012198065427843647 0 -0.0027144973840159052 0.0018337381213791885 0 -0.001692320454757653 0.0017443527159039191 0 -0.00186650462754974 0.0012167629431557633 0 -0.011217947262285607 -0.001489574492377231 0 -0.011000072006647018 -0.0016835782463712771 0 -0.011044500301778079 -0.001504589851857195 0 -0.011000072006647018 -0.0016835782463712771 0 -0.011044500301778079 -0.001504589851857195 0 -0.010854869908173366 -0.0015712526292760085 0 -0.0064039899105168508 0.00014144176472039843 0 -0.0053426854422524202 0.00063866503329455435 0 -0.011224733642633848 -0.0014219940141418767 0 -0.011217947262285607 -0.001489574492377231 0 -0.011044500301778079 -0.001504589851857195 0 -0.010969597467042669 -0.0013552581872439359 0 -0.011224733642633848 -0.0014219940141418767 0 -0.011044500301778079 -0.001504589851857195 0 -0.001730809426397278 0.0012803176672710069 0 -0.0017732672104862741 0.0012856801961197155 0 -0.0016612648972717987 0.0011213602166898148 0 -0.001738737381598416 0.0013898129393219905 0 -0.001730809426397278 0.0012803176672710069 0 -0.0017840280380713759 0.0012725200807076422 0 -0.001738737381598416 0.0013898129393219905 0 -0.001730809426397278 0.0012803176672710069 0 -0.001552279471732979 0.0012944996727392228 0 -0.0053426854422524202 0.00063866503329455435 0 -0.00037592359114374632 0.001803911721190369 0 -0.00186650462754974 0.0012167629431557633 0 -0.0015724560337677055 0.0012198065427843647 0 -0.0017840280380713759 0.0012725200807076422 0 -0.001730809426397278 0.0012803176672710069 0 -0.0017840280380713759 0.0012725200807076422 0 -0.0017732672104862741 0.0012856801961197155 0 -0.0017840280380713759 0.0012725200807076422 0 -0.0015930271906109987 0.0013991860303020794 0 -0.0015703127420686267 0.0013031359653117383 0 -0.0017840280380713759 0.0012725200807076422 0 -0.0015930271906109987 0.0013991860303020794 0 -0.0017732672104862741 0.0012856801961197155 0 -0.0010876775758371547 0.0012451585300344923 0 -0.001122610652501645 0.0010879449396982378 0 -0.00186650462754974 0.0012167629431557633 0 -0.0017840280380713759 0.0012725200807076422 0 -0.0015703127420686267 0.0013031359653117383 0 -0.0015703127420686267 0.0013031359653117383 0 -0.001436930117977734 0.0013680052168987492 0 -0.0012801091732247167 0.0012950438951028205 0 -0.0015532349461617034 0.0012426684417270806 0 -0.0015703127420686267 0.0013031359653117383 0 -0.001436930117977734 0.0013680052168987492 0 -0.00054346785793662599 0.0011283872270250554 0 -0.0012801091732247167 0.0012950438951028205 0 -0.00099171909085216201 0.00089704315959434971 0 -0.0010876775758371547 0.0012451585300344923 0 -0.0012663761931918564 0.001298056464837969 0 -0.0015930271906109987 0.0013991860303020794 0 -0.0015703127420686267 0.0013031359653117383 0 -0.0012801091732247167 0.0012950438951028205 0 -0.00054346785793662599 0.0011283872270250554 0 -0.00062119810498777249 0.00084863246902673042 0 -0.00099171909085216201 0.00089704315959434971 0 -0.00062119810498777249 0.00084863246902673042 0 -0.00083089920268288498 0.0006307974698015618 0 -0.00099171909085216201 0.00089704315959434971 0 -0.00083089920268288498 0.0006307974698015618 0 -0.00047970702760693405 0.00054843061989031142 0 -0.00063727424362231618 0.00041490225080591459 0 -0.00062119810498777249 0.00084863246902673042 0 -0.00083089920268288498 0.0006307974698015618 0 -0.00047970702760693405 0.00054843061989031142 0 -0.00062119810498777249 0.00084863246902673042 0 -0.00047970702760693405 0.00054843061989031142 0 -0.00039362159826042273 0.00092580099678736896 0 -0.00047970702760693405 0.00054843061989031142 0 -0.00039362159826042273 0.00092580099678736896 0 -0.00019105253677022911 0.00046014622419369023 0 -0.00054346785793662599 0.0011283872270250554 0 -0.00062119810498777249 0.00084863246902673042 0 -0.00039362159826042273 0.00092580099678736896 0 -0.00054346785793662599 0.0011283872270250554 0 -0.00039362159826042273 0.00092580099678736896 0 -0.00046980457228687847 0.00086905664279841594 0 -0.00039362159826042273 0.00092580099678736896 0 -0.00046980457228687847 0.00086905664279841594 0 -0.00063536693573601293 0.0010846372714587863 0 -0.0003767701010237503 0.00091437478996159855 0 -0.0003228113539116193 0.00086120465232295766 0 -0.00039362159826042273 0.00092580099678736896 0 -0.00063536693573601293 0.0010846372714587863 0 -0.00044254567339653485 0.001269580999790593 0 -0.00063536693573601293 0.0010846372714587863 0 -0.00087846467396640864 0.00086850366541372549 0 -0.0009422057337364286 0.0012050175421580833 0 -0.00063536693573601293 0.0010846372714587863 0 -0.00074026226472146057 0.0013963168210735868 0 -0.0009422057337364286 0.0012050175421580833 0 -0.00046980457228687847 0.00086905664279841594 0 -0.00063536693573601293 0.0010846372714587863 0 -0.00087846467396640864 0.00086850366541372549 0 -0.001122610652501645 0.0010879449396982378 0 -0.0012601724259765207 0.00099998001119844032 0 -0.0019388281391060722 0.0012748948355905307 0 -0.0021785990684967224 0.0011078985192433774 0 -0.0017993531388125923 0.00098716994085856552 0 -0.0019388281391060722 0.0012748948355905307 0 -0.0016371856364952642 0.0012332940477668586 0 -0.0017993531388125923 0.00098716994085856552 0 -0.0024034662525802965 0.0013336196964877701 0 -0.0021785990684967224 0.0011078985192433774 0 -0.0021759315956170039 0.0013565174537611862 0 -0.0019388281391060722 0.0012748948355905307 0 -0.0021785990684967224 0.0011078985192433774 0 -0.0021759315956170039 0.0013565174537611862 0 -0.0019388281391060722 0.0012748948355905307 0 -0.0021759315956170039 0.0013565174537611862 0 -0.0020922691017532546 0.0015134947823151931 0 -0.0024034662525802965 0.0013336196964877701 0 -0.0021759315956170039 0.0013565174537611862 0 -0.0022851119717919965 0.001552480514486713 0 -0.0022134473024526462 0.001682464905792162 0 -0.0022851119717919965 0.001552480514486713 0 -0.0020922691017532546 0.0015134947823151931 0 -0.0021759315956170039 0.0013565174537611862 0 -0.0022851119717919965 0.001552480514486713 0 -0.0020922691017532546 0.0015134947823151931 0 -0.0018169112495076123 0.0015597512651739623 0 -0.0019922184977851595 0.0016085414647388954 0 -0.0018329145442876314 0.001431902335364763 0 -0.0019922184977851595 0.0016085414647388954 0 -0.0020922691017532546 0.0015134947823151931 0 -0.0018329145442876314 0.001431902335364763 0 -0.0019388281391060722 0.0012748948355905307 0 -0.0020922691017532546 0.0015134947823151931 0 -0.0018329145442876314 0.001431902335364763 0 -0.0019388281391060722 0.0012748948355905307 0 -0.0018329145442876314 0.001431902335364763 0 -0.0016371856364952642 0.0012332940477668586 0 -0.0018169112495076123 0.0015597512651739623 0 -0.0018329145442876314 0.001431902335364763 0 -0.001585061176468668 0.0014301460892286663 0 -0.0018329145442876314 0.001431902335364763 0 -0.001585061176468668 0.0014301460892286663 0 -0.0016371856364952642 0.0012332940477668586 0 -0.001585061176468668 0.0014301460892286663 0 -0.001436930117977734 0.0013680052168987492 0 -0.0012801091732247167 0.0012950438951028205 0 -0.0012801091732247167 0.0012950438951028205 0 -0.0016371856364952642 0.0012332940477668586 0 -0.0014159863731547952 0.00085642723665367256 0 -0.001585061176468668 0.0014301460892286663 0 -0.0012801091732247167 0.0012950438951028205 0 -0.0016371856364952642 0.0012332940477668586 0 -0.0016371856364952642 0.0012332940477668586 0 -0.0014159863731547952 0.00085642723665367256 0 -0.0017993531388125923 0.00098716994085856552 0 -0.0012801091732247167 0.0012950438951028205 0 -0.0014159863731547952 0.00085642723665367256 0 -0.00099171909085216201 0.00089704315959434971 0 -0.0014159863731547952 0.00085642723665367256 0 -0.00099171909085216201 0.00089704315959434971 0 -0.0011036157165849596 0.00066622056157786833 0 -0.00083089920268288498 0.0006307974698015618 0 -0.00099171909085216201 0.00089704315959434971 0 -0.0011036157165849596 0.00066622056157786833 0 -0.0011036157165849596 0.00066622056157786833 0 -0.0013464569465956578 0.0006047722667402158 0 -0.000993323293556886 0.00044003151431142951 0 -0.00083089920268288498 0.0006307974698015618 0 -0.0011036157165849596 0.00066622056157786833 0 -0.000993323293556886 0.00044003151431142951 0 -0.0013464569465956578 0.0006047722667402158 0 -0.0016290449489559898 0.00071472576528853104 0 -0.0015428788317263396 0.00038505285278693665 0 -0.0014159863731547952 0.00085642723665367256 0 -0.0013464569465956578 0.0006047722667402158 0 -0.0016290449489559898 0.00071472576528853104 0 -0.0014159863731547952 0.00085642723665367256 0 -0.0011036157165849596 0.00066622056157786833 0 -0.0013464569465956578 0.0006047722667402158 0 -0.0021395289366660424 0.001728280960764388 0 -0.00086221382153964579 0.00056876500924645326 0 -0.0019958501535461129 0.0026856274166197226 0 -0.001647902570953166 0.00091182166703548278 0 -0.00018221491173046778 0.00072990565083515182 0 -0.0016290449489559898 0.00071472576528853104 0 -0.0020407567688669557 0.00071336141337578329 0 -0.0015428788317263396 0.00038505285278693665 0 -0.0016290449489559898 0.00071472576528853104 0 -0.0017993531388125923 0.00098716994085856552 0 -0.0020407567688669557 0.00071336141337578329 0 -0.0014159863731547952 0.00085642723665367256 0 -0.0016290449489559898 0.00071472576528853104 0 -0.0017993531388125923 0.00098716994085856552 0 -0.0026871779054501044 0.0029210415695712809 0 -0.0021395289366660424 0.001728280960764388 0 -0.0025261315345307374 0.0010030246809585963 0 -0.0021785990684967224 0.0011078985192433774 0 -0.0020407567688669557 0.00071336141337578329 0 -0.0021785990684967224 0.0011078985192433774 0 -0.0017993531388125923 0.00098716994085856552 0 -0.0020407567688669557 0.00071336141337578329 0 -0.0040680704415243414 0.0030582063611111214 0 -0.0019958501535461129 0.0026856274166197226 0 -0.0032502691049867056 0.00065125254726357306 0 -0.0019958501535461129 0.0026856274166197226 0 -0.001647902570953166 0.00091182166703548278 0 -0.0032502691049867056 0.00065125254726357306 0 -0.001647902570953166 0.00091182166703548278 0 -0.0014585801132915622 -0.00043943216516481668 0 -0.0032502691049867056 0.00065125254726357306 0 -0.0012903294033806299 -0.0001464347064535862 0 -0.003362527968354896 0.0004147436209468209 0 -0.00018900418966112092 0.00019429310833649996 0 -0.001996523628102521 0.00052204230011786124 0 -0.0012903294033806299 -0.0001464347064535862 0 -0.0045771781797610206 -5.9578044284037982e-05 0 -0.0015717286597834946 -0.0012651738994082535 0 -0.0034857413086937391 0.0002942285095279095 0 -0.0045105741271873959 -0.0014185921837803687 0 -0.00062430045184055753 0.00092595884036458548 0 -0.0011796660134982364 0.0013850123260440899 0 -0.0044683392620140944 0.00028550868111238027 0 -0.00067808812292167683 -0.00023900287414744951 0 -6.5667159921687363e-05 3.3583760927142463e-05 0 0.00015612182790801128 5.845194887192364e-05 0 -0.0014585801132915622 -0.00043943216516481668 0 -0.00078802928408630373 0.00027316821823590543 0 -6.5667159921687363e-05 3.3583760927142463e-05 0 -0.0012903294033806299 -0.0001464347064535862 0 -0.00016416158533805929 -5.3672766231417776e-05 0 -0.00067808812292167683 -0.00023900287414744951 0 -0.00086669409462306296 -9.6428906503101512e-05 0 -6.5667159921687363e-05 3.3583760927142463e-05 0 -0.00018900418966112092 0.00019429310833649996 0 0.00012296369929721917 8.395798529873093e-06 0 -0.00018900418966112092 0.00019429310833649996 0 0.0005271781824593573 9.6264915172065556e-05 0 -0.00018900418966112092 0.00019429310833649996 0 -0.0012903294033806299 -0.0001464347064535862 0 -0.001647902570953166 0.00091182166703548278 0 -0.0014585801132915622 -0.00043943216516481668 0 -0.00078802928408630373 0.00027316821823590543 0 -0.001647902570953166 0.00091182166703548278 0 -0.00078802928408630373 0.00027316821823590543 0 -0.00018221491173046778 0.00072990565083515182 0 -0.00078802928408630373 0.00027316821823590543 0 -0.00018221491173046778 0.00072990565083515182 0 -6.5667159921687363e-05 3.3583760927142463e-05 0 -0.0015428788317263396 0.00038505285278693665 0 -0.000993323293556886 0.00044003151431142951 0 -0.00091262579931984168 8.6397040959951678e-05 0 -0.0013464569465956578 0.0006047722667402158 0 -0.0015428788317263396 0.00038505285278693665 0 -0.000993323293556886 0.00044003151431142951 0 -0.00086221382153964579 0.00056876500924645326 0 -0.00028362178661436036 4.1872301871362971e-05 0 -0.00018221491173046778 0.00072990565083515182 0 -6.5667159921687363e-05 3.3583760927142463e-05 0 0.00015612182790801128 5.845194887192364e-05 0 -0.000993323293556886 0.00044003151431142951 0 -0.00063727424362231618 0.00041490225080591459 0 -0.00058697111816605045 0.00021560556484333558 0 -0.00083089920268288498 0.0006307974698015618 0 -0.000993323293556886 0.00044003151431142951 0 -0.00063727424362231618 0.00041490225080591459 0 -0.000993323293556886 0.00044003151431142951 0 -0.00091262579931984168 8.6397040959951678e-05 0 -0.00058697111816605045 0.00021560556484333558 0 -0.00091262579931984168 8.6397040959951678e-05 0 -0.00058697111816605045 0.00021560556484333558 0 -7.6070157285493937e-05 4.0932027589055024e-05 0 -0.00018221491173046778 0.00072990565083515182 0 0.00039371592256617183 -8.9952174268003818e-05 0 0.00015612182790801128 5.845194887192364e-05 0 0.00039371592256617183 -8.9952174268003818e-05 0 0.00015612182790801128 5.845194887192364e-05 0 0.0003712214318745914 0.00015179499782222141 0 0.00039178601251293723 7.0372325699563073e-05 0 0.00015612182790801128 5.845194887192364e-05 0 0.0003712214318745914 0.00015179499782222141 0 0.0003712214318745914 0.00015179499782222141 0 0.00039358741330402283 0.00019040744452761713 0 0.0005098852693311808 0.00029689799145006328 0 0.00039371592256617183 -8.9952174268003818e-05 0 0.0003712214318745914 0.00015179499782222141 0 0.00032379695542011352 6.5953968431222296e-05 0 0.0003712214318745914 0.00015179499782222141 0 0.00032379695542011352 6.5953968431222296e-05 0 0.00039358741330402283 0.00019040744452761713 0 -0.00028362178661436036 4.1872301871362971e-05 0 -0.00012397514786036389 4.5346302322559744e-05 0 0.00032379695542011352 6.5953968431222296e-05 0 0.00039358741330402283 0.00019040744452761713 0 -7.6070157285493937e-05 4.0932027589055024e-05 0 0.00039371592256617183 -8.9952174268003818e-05 0 0.00032379695542011352 6.5953968431222296e-05 0 -7.6070157285493937e-05 4.0932027589055024e-05 0 0.00039358741330402283 0.00019040744452761713 0 0.00030075570611717649 0.00024718320859503669 0 0.00050015261886731126 0.00027762661875442931 0 0.00039358741330402283 0.00019040744452761713 0 0.00030075570611717649 0.00024718320859503669 0 -7.6070157285493937e-05 4.0932027589055024e-05 0 0.00039358741330402283 0.00019040744452761713 0 0.0005098852693311808 0.00029689799145006328 0 0.00050015261886731126 0.00027762661875442931 0 0.0005098852693311808 0.00029689799145006328 0 0.00050502113342020634 0.00038708215087575901 0 0.00054836143884081159 0.00036357116242593217 0 0.00050502113342020634 0.00038708215087575901 0 0.00054836143884081159 0.00036357116242593217 0 0.00047065054751536576 0.0004886667338324782 0 0.00049289450298133964 0.00033466650395926832 0 0.00050502113342020634 0.00038708215087575901 0 0.00043795863485699609 0.0006180578168175089 0 0.00049289450298133964 0.00033466650395926832 0 0.00050502113342020634 0.00038708215087575901 0 0.00047681648468822588 0.00028600537237319465 0 0.0005098852693311808 0.00029689799145006328 0 0.00050502113342020634 0.00038708215087575901 0 0.00047681648468822588 0.00028600537237319465 0 0.0003712214318745914 0.00015179499782222141 0 0.0005098852693311808 0.00029689799145006328 0 0.00047681648468822588 0.00028600537237319465 0 0.00049289450298133964 0.00033466650395926832 0 0.0003712214318745914 0.00015179499782222141 0 0.00047681648468822588 0.00028600537237319465 0 -0.00069804354876601177 0.0015811342687775012 0 -0.00074026226472146057 0.0013963168210735868 0 -0.00050017991172690275 0.0015855215047407044 0 -0.00081984247283692824 0.0015272456898569717 0 -0.00074026226472146057 0.0013963168210735868 0 -0.00097274691249300002 0.0014505213502433248 0 -0.00069804354876601177 0.0015811342687775012 0 -0.00081984247283692824 0.0015272456898569717 0 -0.00087160227512312683 0.0016817121297245134 0 -0.00069804354876601177 0.0015811342687775012 0 -0.00081984247283692824 0.0015272456898569717 0 -0.00074026226472146057 0.0013963168210735868 0 -0.00074026226472146057 0.0013963168210735868 0 -0.00044254567339653485 0.001269580999790593 0 -0.00050017991172690275 0.0015855215047407044 0 -0.0003228113539116193 0.00086120465232295766 0 -0.000321267060112915 0.00086913691791353311 0 -0.00063536693573601293 0.0010846372714587863 0 -0.00074026226472146057 0.0013963168210735868 0 -0.00044254567339653485 0.001269580999790593 0 -0.00011736321893405438 0.0001480757354934831 0 -0.00035692364836064581 0.00021787856448353816 0 -0.00011771964697804194 7.4073038598967373e-05 0 -0.00019105253677022911 0.00046014622419369023 0 -0.00011736321893405438 0.0001480757354934831 0 -0.00035692364836064581 0.00021787856448353816 0 -0.00047970702760693405 0.00054843061989031142 0 -0.00019105253677022911 0.00046014622419369023 0 -0.00035692364836064581 0.00021787856448353816 0 -0.00047970702760693405 0.00054843061989031142 0 -0.00035692364836064581 0.00021787856448353816 0 -0.00063727424362231618 0.00041490225080591459 0 -0.00035692364836064581 0.00021787856448353816 0 -0.00063727424362231618 0.00041490225080591459 0 -0.00058697111816605045 0.00021560556484333558 0 -0.00035692364836064581 0.00021787856448353816 0 -0.00058697111816605045 0.00021560556484333558 0 -7.6070157285493937e-05 4.0932027589055024e-05 0 -0.00035692364836064581 0.00021787856448353816 0 -7.6070157285493937e-05 4.0932027589055024e-05 0 -0.00011771964697804194 7.4073038598967373e-05 0 -7.6070157285493937e-05 4.0932027589055024e-05 0 7.4242002737801737e-05 0.0001582569300389548 0 -0.00011771964697804194 7.4073038598967373e-05 0 0.00030075570611717649 0.00024718320859503669 0 -7.6070157285493937e-05 4.0932027589055024e-05 0 7.4242002737801737e-05 0.0001582569300389548 0 7.4242002737801737e-05 0.0001582569300389548 0 -7.5069013979446258e-05 0.0001915725861208043 0 -0.00011771964697804194 7.4073038598967373e-05 0 -7.5069013979446258e-05 0.0001915725861208043 0 -0.00011771964697804194 7.4073038598967373e-05 0 -0.00013756159992168456 0.00010786858046406133 0 -0.00011736321893405438 0.0001480757354934831 0 -0.00011771964697804194 7.4073038598967373e-05 0 -0.00013756159992168456 0.00010786858046406133 0 -0.00069804354876601177 0.0015811342687775012 0 -0.00050017991172690275 0.0015855215047407044 0 -0.00054223706050447642 0.0018921811996519835 0 -0.000321267060112915 0.00086913691791353311 0 -0.00023183795264161944 0.0010136029696860831 0 0.00016952533419889587 0.00025781098980961944 0 -0.00023183795264161944 0.0010136029696860831 0 -0.00066448632516449119 0.0016639707539566426 0 -0.00078264853459889742 0.0016968238859916666 0 -0.00084751721411955043 0.0015623075362613354 0 -0.00066448632516449119 0.0016639707539566426 0 -0.00078264853459889742 0.0016968238859916666 0 -0.00068065535488491806 0.0018062815639290836 0 -0.00023183795264161944 0.0010136029696860831 0 -0.00090813223394736731 0.0017420565373037931 0 -0.00069804354876601177 0.0015811342687775012 0 -0.00054223706050447642 0.0018921811996519835 0 -0.00087160227512312683 0.0016817121297245134 0 0.0028853044831904495 0.0014856707172816073 0 0.0027648899309134067 0.0014782791364341562 0 0.0031656080992140982 0.0016161854194990733 0 -0.00062725066350002802 0.0018912790176982852 0 -0.00039899086194356654 0.0020844988401815968 0 -0.00077445108264111032 0.0019380071990856944 0 0.0027648899309134067 0.0014782791364341562 0 0.002724774525854263 0.0014757902054374429 0 0.0031656080992140982 0.0016161854194990733 0 0.00073348663866342726 0.0014657023621962716 0 0.0014587733630096228 0.0019388475169397259 0 0.0030560213434965068 0.001444444432462422 0 0.0028853044831904495 0.0014856707172816073 0 0.0031656080992140982 0.0016161854194990733 0 0.0030560213434965068 0.001444444432462422 0 0.0028853044831904495 0.0014856707172816073 0 0.002930231022304941 0.0013898440864517653 0 -0.00077328791653108789 0.0017888053196096639 0 0.00073348663866342726 0.0014657023621962716 0 0.0028853044831904495 0.0014856707172816073 0 0.0027648899309134067 0.0014782791364341562 0 0.0028409359313264207 0.0014399565399523927 0 0.0027648899309134067 0.0014782791364341562 0 0.0028031441664948843 0.0014390911385158819 0 0.0027716128947988571 0.0014237972282905786 0 0.0027648899309134067 0.0014782791364341562 0 0.0028031441664948843 0.0014390911385158819 0 0.0028409359313264207 0.0014399565399523927 0 -0.00071108800970018707 0.0018397968383900938 0 -0.00076951051635530232 0.001830133886220301 0 -0.00068606175597895702 0.0018930607489815335 0 -0.00071108800970018707 0.0018397968383900938 0 -0.00076951051635530232 0.001830133886220301 0 -0.00073409071054346094 0.0018071736093238343 0 -0.00090066136432290916 0.0018503023626814635 0 5.3707941164540724e-05 0.0011213091931835096 0 -0.00076951051635530232 0.001830133886220301 0 -0.00077401866034593355 0.0017647874307487128 0 -0.00073409071054346094 0.0018071736093238343 0 -0.00076951051635530232 0.001830133886220301 0 -0.00077401866034593355 0.0017647874307487128 0 -0.00083445884088891834 0.0017798677153985929 0 -0.00078264853459889742 0.0016968238859916666 0 -0.00077401866034593355 0.0017647874307487128 0 -0.00068089557229325981 0.0017949208961755096 0 -0.00078264853459889742 0.0016968238859916666 0 -0.00077401866034593355 0.0017647874307487128 0 -0.00083445884088891834 0.0017798677153985929 0 -0.00077401866034593355 0.0017647874307487128 0 -0.00073409071054346094 0.0018071736093238343 0 -0.00068089557229325981 0.0017949208961755096 0 -0.00071108800970018707 0.0018397968383900938 0 -0.00073409071054346094 0.0018071736093238343 0 -0.00068089557229325981 0.0017949208961755096 0 0.00041520317827258165 0.00037097080331897301 0 0.00047381710701578525 0.00042064427711616722 0 0.00048588820395998472 0.0003042717653034653 0 -0.00023183795264161944 0.0010136029696860831 0 5.3707941164540724e-05 0.0011213091931835096 0 0.00097231148736416227 0.00082210362774722391 0 0.00080708241997390177 0.00056185952227779182 0 0.00090820672860894428 0.0006010578518017537 0 -0.00071108800970018707 0.0018397968383900938 0 -0.00068089557229325981 0.0017949208961755096 0 -0.00068606175597895702 0.0018930607489815335 0 0.00097231148736416227 0.00082210362774722391 0 0.0010036369987732217 0.00063898830110663643 0 0.00090820672860894428 0.0006010578518017537 0 5.3707941164540724e-05 0.0011213091931835096 0 0.00073348663866342726 0.0014657023621962716 0 5.3707941164540724e-05 0.0011213091931835096 0 0.00073384505151599558 0.00031846691168475048 0 0.0027648899309134067 0.0014782791364341562 0 0.002724774525854263 0.0014757902054374429 0 0.0027716128947988571 0.0014237972282905786 0 0.00042321494236729801 0.00027741212302900961 0 0.00028888295948081085 0.00029835752399715558 0 0.00045500222434786042 0.00025701168971727838 0 0.00048588820395998472 0.0003042717653034653 0 0.00042321494236729801 0.00027741212302900961 0 0.00045260656624903636 0.00025176718201689907 0 0.00042321494236729801 0.00027741212302900961 0 0.00045500222434786042 0.00025701168971727838 0 0.00045260656624903636 0.00025176718201689907 0 0.00041520317827258165 0.00037097080331897301 0 0.00042321494236729801 0.00027741212302900961 0 0.00028888295948081085 0.00029835752399715558 0 0.00041520317827258165 0.00037097080331897301 0 0.00048588820395998472 0.0003042717653034653 0 0.00042321494236729801 0.00027741212302900961 0 0.00016952533419889587 0.00025781098980961944 0 0.00026287374062105483 0.00030182712626358071 0 7.4242002737801737e-05 0.0001582569300389548 0 -7.5069013979446258e-05 0.0001915725861208043 0 0.00028888295948081085 0.00029835752399715558 0 0.00030075570611717649 0.00024718320859503669 0 0.00028888295948081085 0.00029835752399715558 0 0.00047995884980762732 0.00028521304351928738 0 0.00030075570611717649 0.00024718320859503669 0 7.4242002737801737e-05 0.0001582569300389548 0 0.00028888295948081085 0.00029835752399715558 0 0.00028888295948081085 0.00029835752399715558 0 0.00045500222434786042 0.00025701168971727838 0 0.00047995884980762732 0.00028521304351928738 0 0.00045500222434786042 0.00025701168971727838 0 0.00047995884980762732 0.00028521304351928738 0 0.00058925461921955247 0.00026008089506458543 0 0.00055931917775623396 0.00026351784447172595 0 0.0006127762568833078 0.00027834891245440802 0 0.00045260656624903636 0.00025176718201689907 0 0.00045500222434786042 0.00025701168971727838 0 0.00055931917775623396 0.00026351784447172595 0 0.00058925461921955247 0.00026008089506458543 0 0.00055931917775623396 0.00026351784447172595 0 0.00064559956543035408 0.00026693975434496827 0 0.00058925461921955247 0.00026008089506458543 0 0.00055931917775623396 0.00026351784447172595 0 0.00064559956543035408 0.00026693975434496827 0 0.0006127762568833078 0.00027834891245440802 0 0.00064559956543035408 0.00026693975434496827 0 0.0007123954364231383 0.00028030839787356363 0 0.0006127762568833078 0.00027834891245440802 0 0.0006929532963320102 0.00032247310558840308 0 0.0006127762568833078 0.00027834891245440802 0 0.00045260656624903636 0.00025176718201689907 0 0.0006929532963320102 0.00032247310558840308 0 0.00081793021810795934 0.00045351018697603466 0 0.00069313892525169117 0.00029203357092807676 0 0.0007123954364231383 0.00028030839787356363 0 0.0006929532963320102 0.00032247310558840308 0 0.0006127762568833078 0.00027834891245440802 0 0.0007123954364231383 0.00028030839787356363 0 0.0006929532963320102 0.00032247310558840308 0 0.00069313892525169117 0.00029203357092807676 0 0.0007123954364231383 0.00028030839787356363 0 0.00080436823568369713 0.00025181916768520136 0 0.00069313892525169117 0.00029203357092807676 0 0.0006929532963320102 0.00032247310558840308 0 0.00081793021810795934 0.00045351018697603466 0 0.00080708241997390177 0.00056185952227779182 0 0.0023087058772720613 0.001158928735634814 0 0.0018148200637110997 0.00083531480110676695 0 0.0020342008581475087 0.0008211282192327014 0 0.0017352714353649028 0.00079879283919970093 0 0.001230133346322629 0.00053245232664842499 0 0.0022032023701040234 0.00088799817145889426 0 0.0023087058772720613 0.001158928735634814 0 0.0020342008581475087 0.0008211282192327014 0 0.00064992937927706358 0.00035330576204424855 0 0.00073384505151599558 0.00031846691168475048 0 0.0023458637106108971 0.00098501750950674423 0 0.0024112731905543976 0.00084560847835783032 0 0.0024603346644477449 0.0010434193441226061 0 0.0022032023701040234 0.00088799817145889426 0 0.0023458637106108971 0.00098501750950674423 0 0.0024112731905543976 0.00084560847835783032 0 0.0023458637106108971 0.00098501750950674423 0 0.0023087058772720613 0.001158928735634814 0 0.0024603346644477449 0.0010434193441226061 0 0.0023087058772720613 0.001158928735634814 0 0.0024910434661923274 0.001192791744813983 0 0.0024603346644477449 0.0010434193441226061 0 0.0022032023701040234 0.00088799817145889426 0 0.0023458637106108971 0.00098501750950674423 0 0.0023087058772720613 0.001158928735634814 0 0.00045500222434786042 0.00025701168971727838 0 0.00055931917775623396 0.00026351784447172595 0 0.00045260656624903636 0.00025176718201689907 0 0.00081793021810795934 0.00045351018697603466 0 0.00080708241997390177 0.00056185952227779182 0 0.00090820672860894428 0.0006010578518017537 0 0.00073348663866342726 0.0014657023621962716 0 0.0017352714353649028 0.00079879283919970093 0 0.0010000732441041199 0.00063873801806264569 0 0.00081793021810795934 0.00045351018697603466 0 0.00090820672860894428 0.0006010578518017537 0 0.002724774525854263 0.0014757902054374429 0 0.0023087058772720613 0.001158928735634814 0 0.0026507976989019167 0.0013665600805610096 0 0.0023087058772720613 0.001158928735634814 0 0.0026507976989019167 0.0013665600805610096 0 0.0024910434661923274 0.001192791744813983 0 0.00073348663866342726 0.0014657023621962716 0 0.00082487142933508129 0.00093455661535032399 0 0.00269821283990838 0.0014187694486642503 0 0.0027405767042988347 0.0013794539759271313 0 0.0026507976989019167 0.0013665600805610096 0 0.002724774525854263 0.0014757902054374429 0 0.00269821283990838 0.0014187694486642503 0 0.0026507976989019167 0.0013665600805610096 0 0.002724774525854263 0.0014757902054374429 0 0.0027357244972136471 0.0014301304262101307 0 0.0027716128947988571 0.0014237972282905786 0 0.0027357244972136471 0.0014301304262101307 0 0.00269821283990838 0.0014187694486642503 0 0.0027405767042988347 0.0013794539759271313 0 0.002724774525854263 0.0014757902054374429 0 0.0027357244972136471 0.0014301304262101307 0 0.00269821283990838 0.0014187694486642503 0 0.0027357244972136471 0.0014301304262101307 0 0.0027405767042988347 0.0013794539759271313 0 0.0027716128947988571 0.0014237972282905786 0 0.0027405767042988347 0.0013794539759271313 0 0.0027212749438754969 0.0013074441796330481 0 0.0026507976989019167 0.0013665600805610096 0 0.0027212749438754969 0.0013074441796330481 0 0.0026507976989019167 0.0013665600805610096 0 0.0026792240851466688 0.0012562020505242479 0 0.0027405767042988347 0.0013794539759271313 0 0.0027212749438754969 0.0013074441796330481 0 0.0027847869244007253 0.0013199341335471423 0 0.0026507976989019167 0.0013665600805610096 0 0.0025959247928637233 0.0012364433781228755 0 0.0026792240851466688 0.0012562020505242479 0 0.0027212749438754969 0.0013074441796330481 0 0.0026792240851466688 0.0012562020505242479 0 0.0027665946220437874 0.0012360313945971452 0 0.0026792240851466688 0.0012562020505242479 0 0.0026619659268089699 0.0011328254141320952 0 0.0027665946220437874 0.0012360313945971452 0 0.0025959247928637233 0.0012364433781228755 0 0.0026792240851466688 0.0012562020505242479 0 0.0026619659268089699 0.0011328254141320952 0 0.0025959247928637233 0.0012364433781228755 0 0.0024910434661923274 0.001192791744813983 0 0.0026619659268089699 0.0011328254141320952 0 0.0026507976989019167 0.0013665600805610096 0 0.0025959247928637233 0.0012364433781228755 0 0.0024910434661923274 0.001192791744813983 0 0.0024603346644477449 0.0010434193441226061 0 0.0026247292762463484 0.00092247142190758299 0 0.0026619659268089699 0.0011328254141320952 0 0.0024910434661923274 0.001192791744813983 0 0.0024603346644477449 0.0010434193441226061 0 0.0026619659268089699 0.0011328254141320952 0 0.0024112731905543976 0.00084560847835783032 0 0.0024603346644477449 0.0010434193441226061 0 0.0026247292762463484 0.00092247142190758299 0 0.0026247292762463484 0.00092247142190758299 0 0.0028481835959594222 0.0010063538936796283 0 0.002808555784099942 0.00082355041445936672 0 0.0026247292762463484 0.00092247142190758299 0 0.0026619659268089699 0.0011328254141320952 0 0.0028481835959594222 0.0010063538936796283 0 0.0026619659268089699 0.0011328254141320952 0 0.0028481835959594222 0.0010063538936796283 0 0.0028720426572247108 0.001157694272488351 0 0.0028481835959594222 0.0010063538936796283 0 0.002808555784099942 0.00082355041445936672 0 0.0030461956818694739 0.00083829024903348502 0 0.0028481835959594222 0.0010063538936796283 0 0.0030461956818694739 0.00083829024903348502 0 0.0030670817429268777 0.0010918354102458288 0 0.0028481835959594222 0.0010063538936796283 0 0.0030670817429268777 0.0010918354102458288 0 0.0028720426572247108 0.001157694272488351 0 0.0030670817429268777 0.0010918354102458288 0 0.0029865663428038608 0.0012000796559167876 0 0.0028720426572247108 0.001157694272488351 0 0.0030670817429268777 0.0010918354102458288 0 0.0029865663428038608 0.0012000796559167876 0 0.0030935263675252764 0.0012920890703008445 0 0.0029865663428038608 0.0012000796559167876 0 0.0028937804561426756 0.0012847592702407856 0 0.0030935263675252764 0.0012920890703008445 0 0.0026619659268089699 0.0011328254141320952 0 0.0028720426572247108 0.001157694272488351 0 0.0027665946220437874 0.0012360313945971452 0 0.0027212749438754969 0.0013074441796330481 0 0.0027665946220437874 0.0012360313945971452 0 0.0027847869244007253 0.0013199341335471423 0 0.0027665946220437874 0.0012360313945971452 0 0.0028937804561426756 0.0012847592702407856 0 0.0027847869244007253 0.0013199341335471423 0 0.0028720426572247108 0.001157694272488351 0 0.0027665946220437874 0.0012360313945971452 0 0.0028937804561426756 0.0012847592702407856 0 0.0029865663428038608 0.0012000796559167876 0 0.0028720426572247108 0.001157694272488351 0 0.0028937804561426756 0.0012847592702407856 0 0.0028937804561426756 0.0012847592702407856 0 0.0028173660299974984 0.0013851374494499404 0 0.002930231022304941 0.0013898440864517653 0 0.0028937804561426756 0.0012847592702407856 0 0.0027847869244007253 0.0013199341335471423 0 0.0028173660299974984 0.0013851374494499404 0 0.0027405767042988347 0.0013794539759271313 0 0.0027847869244007253 0.0013199341335471423 0 0.0028173660299974984 0.0013851374494499404 0 0.0027405767042988347 0.0013794539759271313 0 0.0028173660299974984 0.0013851374494499404 0 0.0027716128947988571 0.0014237972282905786 0 0.0028173660299974984 0.0013851374494499404 0 0.0028031441664948843 0.0014390911385158819 0 0.0028409359313264207 0.0014399565399523927 0 0.0028173660299974984 0.0013851374494499404 0 0.0028031441664948843 0.0014390911385158819 0 0.0027716128947988571 0.0014237972282905786 0 0.0028853044831904495 0.0014856707172816073 0 0.0028409359313264207 0.0014399565399523927 0 0.002930231022304941 0.0013898440864517653 0 0.0028173660299974984 0.0013851374494499404 0 0.0028409359313264207 0.0014399565399523927 0 0.002930231022304941 0.0013898440864517653 0 0.0028937804561426756 0.0012847592702407856 0 0.002930231022304941 0.0013898440864517653 0 0.0030935263675252764 0.0012920890703008445 0 0.0030560213434965068 0.001444444432462422 0 0.002930231022304941 0.0013898440864517653 0 0.0030935263675252764 0.0012920890703008445 0 0.00059975375025492163 0.00030502439943992632 0 0.00060016275139889612 0.0002829053071832714 0 0.00070232056916674128 0.00024406831046533002 0 0.00059975375025492163 0.00030502439943992632 0 0.00070232056916674128 0.00024406831046533002 0 0.00056602737297659295 0.00026825295849600535 0 0.00054836143884081159 0.00036357116242593217 0 0.00059975375025492163 0.00030502439943992632 0 0.00056602737297659295 0.00026825295849600535 0 0.0005098852693311808 0.00029689799145006328 0 0.00054836143884081159 0.00036357116242593217 0 0.00059975375025492163 0.00030502439943992632 0 0.00059975375025492163 0.00030502439943992632 0 0.00050015261886731126 0.00027762661875442931 0 0.00060016275139889612 0.0002829053071832714 0 0.00050015261886731126 0.00027762661875442931 0 0.00047995884980762732 0.00028521304351928738 0 0.00060016275139889612 0.0002829053071832714 0 0.0005098852693311808 0.00029689799145006328 0 0.00059975375025492163 0.00030502439943992632 0 0.00050015261886731126 0.00027762661875442931 0 0.00030075570611717649 0.00024718320859503669 0 0.00050015261886731126 0.00027762661875442931 0 0.00047995884980762732 0.00028521304351928738 0 0.00047995884980762732 0.00028521304351928738 0 0.00066730019024270734 0.00026062489168800261 0 0.00058925461921955247 0.00026008089506458543 0 0.00060016275139889612 0.0002829053071832714 0 0.00066730019024270734 0.00026062489168800261 0 0.00070232056916674128 0.00024406831046533002 0 0.00047995884980762732 0.00028521304351928738 0 0.00060016275139889612 0.0002829053071832714 0 0.00066730019024270734 0.00026062489168800261 0 0.00066730019024270734 0.00026062489168800261 0 0.00083845489929827309 0.00023251664952393905 0 0.00070232056916674128 0.00024406831046533002 0 0.00066730019024270734 0.00026062489168800261 0 0.00072226310394760661 0.00025327139409226805 0 0.00083845489929827309 0.00023251664952393905 0 0.00066730019024270734 0.00026062489168800261 0 0.00058925461921955247 0.00026008089506458543 0 0.00072226310394760661 0.00025327139409226805 0 0.00064559956543035408 0.00026693975434496827 0 0.00058925461921955247 0.00026008089506458543 0 0.00072226310394760661 0.00025327139409226805 0 0.0007123954364231383 0.00028030839787356363 0 0.00072226310394760661 0.00025327139409226805 0 0.00080436823568369713 0.00025181916768520136 0 0.00064559956543035408 0.00026693975434496827 0 0.0007123954364231383 0.00028030839787356363 0 0.00072226310394760661 0.00025327139409226805 0 0.00072226310394760661 0.00025327139409226805 0 0.00080436823568369713 0.00025181916768520136 0 0.00083845489929827309 0.00023251664952393905 0 0.00080436823568369713 0.00025181916768520136 0 0.00083845489929827309 0.00023251664952393905 0 0.00098599471041509027 0.00024385635596815125 0 0.00083845489929827309 0.00023251664952393905 0 0.00083009658545520895 0.00014770480213672946 0 0.0010027700033885931 0.00017625843936876234 0 0.00083845489929827309 0.00023251664952393905 0 0.00083009658545520895 0.00014770480213672946 0 0.00070232056916674128 0.00024406831046533002 0 0.00070232056916674128 0.00024406831046533002 0 0.00066131967476623307 0.00016719165973225203 0 0.00056602737297659295 0.00026825295849600535 0 0.00083009658545520895 0.00014770480213672946 0 0.00070232056916674128 0.00024406831046533002 0 0.00066131967476623307 0.00016719165973225203 0 0.00083009658545520895 0.00014770480213672946 0 0.00066131967476623307 0.00016719165973225203 0 0.00064592272074292655 3.8662567509813947e-05 0 0.00064592272074292655 3.8662567509813947e-05 0 0.00035837498802332283 -5.7511021214902982e-05 0 0.00037788660430568651 -0.00014760761053973846 0 0.00064592272074292655 3.8662567509813947e-05 0 0.00035837498802332283 -5.7511021214902982e-05 0 0.00046893949374182334 0.00011203576836020865 0 0.00035837498802332283 -5.7511021214902982e-05 0 0.00046893949374182334 0.00011203576836020865 0 0.0002022630540054779 2.612342341364479e-05 0 0.00046893949374182334 0.00011203576836020865 0 0.00036504258507441263 0.00024033549381630726 0 0.0002022630540054779 2.612342341364479e-05 0 0.00066131967476623307 0.00016719165973225203 0 0.00046893949374182334 0.00011203576836020865 0 0.00056602737297659295 0.00026825295849600535 0 0.00066131967476623307 0.00016719165973225203 0 0.00064592272074292655 3.8662567509813947e-05 0 0.00046893949374182334 0.00011203576836020865 0 0.00046893949374182334 0.00011203576836020865 0 0.00056602737297659295 0.00026825295849600535 0 0.00036504258507441263 0.00024033549381630726 0 0.00036504258507441263 0.00024033549381630726 0 0.00043752696209164657 0.00041612371767565048 0 0.00019098319105419751 0.00045898597696269946 0 0.00036504258507441263 0.00024033549381630726 0 0.00019098319105419751 0.00045898597696269946 0 0.0001306958780843866 0.00026821251234505851 0 0.00056602737297659295 0.00026825295849600535 0 0.00036504258507441263 0.00024033549381630726 0 0.00043752696209164657 0.00041612371767565048 0 0.00054836143884081159 0.00036357116242593217 0 0.00056602737297659295 0.00026825295849600535 0 0.00043752696209164657 0.00041612371767565048 0 -0.00015844260386881987 0.00045437453791513828 0 -0.00011583485804951356 0.00018943804436685901 0 -0.00055778644753642394 0.00050230572698774277 0 -0.00015844260386881987 0.00045437453791513828 0 -0.00055778644753642394 0.00050230572698774277 0 -0.00059418427523539729 0.00067893945486054966 0 -0.00015844260386881987 0.00045437453791513828 0 0.0001306958780843866 0.00026821251234505851 0 -0.00011583485804951356 0.00018943804436685901 0 -0.00015844260386881987 0.00045437453791513828 0 0.00019098319105419751 0.00045898597696269946 0 0.0001306958780843866 0.00026821251234505851 0 0.00036504258507441263 0.00024033549381630726 0 0.0001306958780843866 0.00026821251234505851 0 0.0002022630540054779 2.612342341364479e-05 0 0.0001306958780843866 0.00026821251234505851 0 -0.00011583485804951356 0.00018943804436685901 0 0.0002022630540054779 2.612342341364479e-05 0 -0.00011583485804951356 0.00018943804436685901 0 -6.9868741553774565e-05 -0.00019682451613826127 0 -0.00052891366096841357 1.0850018766487046e-05 0 -0.00011583485804951356 0.00018943804436685901 0 -6.9868741553774565e-05 -0.00019682451613826127 0 0.0002022630540054779 2.612342341364479e-05 0 0.00035837498802332283 -5.7511021214902982e-05 0 0.0002022630540054779 2.612342341364479e-05 0 0.00018769557754467556 -0.00021550036750904664 0 -6.9868741553774565e-05 -0.00019682451613826127 0 0.00018769557754467556 -0.00021550036750904664 0 8.8063989471622205e-05 -0.00036977338507117856 0 -6.9868741553774565e-05 -0.00019682451613826127 0 0.0002022630540054779 2.612342341364479e-05 0 0.00018769557754467556 -0.00021550036750904664 0 -6.9868741553774565e-05 -0.00019682451613826127 0 -0.00042310261145855855 -0.00030914712702662556 0 8.8063989471622205e-05 -0.00036977338507117856 0 -0.00017083402955365705 -0.00043189079349322299 0 -0.00042310261145855855 -0.00030914712702662556 0 -0.0011375410668992105 -0.0003459154006996098 0 -0.00017083402955365705 -0.00043189079349322299 0 -0.00042310261145855855 -0.00030914712702662556 0 8.8063989471622205e-05 -0.00036977338507117856 0 -0.00042310261145855855 -0.00030914712702662556 0 -0.0011375410668992105 -0.0003459154006996098 0 -0.0011170567565635075 -0.00012841199108273347 0 -0.00042310261145855855 -0.00030914712702662556 0 -0.00052891366096841357 1.0850018766487046e-05 0 -0.0011170567565635075 -0.00012841199108273347 0 -6.9868741553774565e-05 -0.00019682451613826127 0 -0.00042310261145855855 -0.00030914712702662556 0 -0.00052891366096841357 1.0850018766487046e-05 0 -0.00069202776218490309 -4.409143832470278e-07 0 -0.0011375410668992105 -0.0003459154006996098 0 0.0004857397742852562 -0.00033630089051390506 0 -0.00017083402955365705 -0.00043189079349322299 0 -0.0011375410668992105 -0.0003459154006996098 0 0.0004857397742852562 -0.00033630089051390506 0 -0.00069202776218490309 -4.409143832470278e-07 0 -0.0011375410668992105 -0.0003459154006996098 0 -0.0034308573489706413 -1.6811283563557708e-06 0 -0.0011375410668992105 -0.0003459154006996098 0 -0.0034308573489706413 -1.6811283563557708e-06 0 -0.0026522793259092662 -2.4076423761642165e-05 0 -0.0011375410668992105 -0.0003459154006996098 0 -0.0026522793259092662 -2.4076423761642165e-05 0 -0.0011170567565635075 -0.00012841199108273347 0 -0.0026522793259092662 -2.4076423761642165e-05 0 -0.0011170567565635075 -0.00012841199108273347 0 -0.0012025273818957564 0.00040719737525168718 0 -0.0026522793259092662 -2.4076423761642165e-05 0 -0.0012025273818957564 0.00040719737525168718 0 -0.0026130732200203887 0.0013308248006415736 0 -0.0034308573489706413 -1.6811283563557708e-06 0 -0.0026522793259092662 -2.4076423761642165e-05 0 -0.0061642068548289136 4.0095442423453291e-06 0 -0.0026522793259092662 -2.4076423761642165e-05 0 -0.0061642068548289136 4.0095442423453291e-06 0 -0.0026130732200203887 0.0013308248006415736 0 -0.00011583485804951356 0.00018943804436685901 0 -0.00052891366096841357 1.0850018766487046e-05 0 -0.00055778644753642394 0.00050230572698774277 0 -0.00052891366096841357 1.0850018766487046e-05 0 -0.0011170567565635075 -0.00012841199108273347 0 -0.0012025273818957564 0.00040719737525168718 0 -0.0012025273818957564 0.00040719737525168718 0 -0.00055778644753642394 0.00050230572698774277 0 -0.0010389136397077113 0.0011291856865067213 0 -0.0012025273818957564 0.00040719737525168718 0 -0.0010389136397077113 0.0011291856865067213 0 -0.0026130732200203887 0.0013308248006415736 0 -0.00052891366096841357 1.0850018766487046e-05 0 -0.0012025273818957564 0.00040719737525168718 0 -0.00055778644753642394 0.00050230572698774277 0 -0.0028708124237668614 -0.00013302602138764842 0 -0.0010567603007335098 0.0015661564402536402 0 -0.00059418427523539729 0.00067893945486054966 0 -0.0020166534576027267 0.00051867153309074685 0 -0.00074779745148917528 0.00066002212475767383 0 -0.00055778644753642394 0.00050230572698774277 0 -0.0010389136397077113 0.0011291856865067213 0 -0.00059418427523539729 0.00067893945486054966 0 -0.0020166534576027267 0.00051867153309074685 0 -0.0040023189535094879 0.00039172700328237673 0 -0.0028708124237668614 -0.00013302602138764842 0 -0.0010567603007335098 0.0015661564402536402 0 -0.0045907902158807117 0.0011823548225810786 0 -0.011293801496649325 9.5832798484512505e-05 0 -0.010931275796406986 -0.00027721840545840386 0 -0.011158466630765184 0.00041081570038583736 0 -0.0059927373655338399 0.00064952467326793691 0 -0.0078149284564059274 0.00070826568177164958 0 -0.011293801496649325 9.5832798484512505e-05 0 -0.010931275796406986 -0.00027721840545840386 0 -0.011439780466075833 2.2562791233023371e-05 0 -0.0075503759359093082 3.0978424368026095e-07 0 -0.0078149284564059274 0.00070826568177164958 0 -0.0061687493968193129 1.7284081546787643e-07 0 -0.0040023189535094879 0.00039172700328237673 0 -0.006175400481938916 -2.2813964074159284e-06 0 -0.0075439215628402808 2.3584867034984019e-06 0 -0.0054968816591747568 -0.00047498667026952114 0 -0.0075439215628402808 2.3584867034984019e-06 0 -0.0054968816591747568 -0.00047498667026952114 0 -0.0045907902158807117 0.0011823548225810786 0 -0.0028708124237668614 -0.00013302602138764842 0 -0.0054968816591747568 -0.00047498667026952114 0 -0.0045907902158807117 0.0011823548225810786 0 -0.0075552261264261828 2.5016451174990752e-06 0 -0.011158466630765184 0.00041081570038583736 0 -0.010819136940892513 -0.00023984946678660705 0 -0.011293801496649325 9.5832798484512505e-05 0 -0.011158466630765184 0.00041081570038583736 0 -0.010819136940892513 -0.00023984946678660705 0 -0.0075552261264261828 2.5016451174990752e-06 0 -0.010126997894687432 -1.3567867314155001e-06 0 -0.010819136940892513 -0.00023984946678660705 0 -0.010126997894687432 -1.3567867314155001e-06 0 -0.010819136940892513 -0.00023984946678660705 0 -0.011965700710988587 -0.0003572148668664558 0 -0.011293801496649325 9.5832798484512505e-05 0 -0.010819136940892513 -0.00023984946678660705 0 -0.011345839496262392 -0.00015075560168422222 0 -0.010819136940892513 -0.00023984946678660705 0 -0.011548784333259421 -0.00032597697334857086 0 -0.011345839496262392 -0.00015075560168422222 0 -0.010819136940892513 -0.00023984946678660705 0 -0.011965700710988587 -0.0003572148668664558 0 -0.011548784333259421 -0.00032597697334857086 0 -0.011965700710988587 -0.0003572148668664558 0 -0.011548784333259421 -0.00032597697334857086 0 -0.011740108987017493 -0.0003003569531396848 0 -0.012704902469608296 -4.8620602412369713e-07 0 -0.010126997894687432 -1.3567867314155001e-06 0 -0.011965700710988587 -0.0003572148668664558 0 -0.010931275796406986 -0.00027721840545840386 0 -0.011439780466075833 2.2562791233023371e-05 0 -0.010504262330237272 0.00048521421697075731 0 -0.011747800321068943 0.00015482373949491095 0 -0.010699073489715501 -0.00025396277838278124 0 -0.011936743978524306 -0.0002009732136024341 0 -0.011950090024568037 -0.00067246620816838589 0 -0.012517954272837766 -5.5326326770923307e-05 0 -0.011936743978524306 -0.0002009732136024341 0 -0.011439780466075833 2.2562791233023371e-05 0 -0.012517954272837766 -5.5326326770923307e-05 0 -0.011293801496649325 9.5832798484512505e-05 0 -0.011439780466075833 2.2562791233023371e-05 0 -0.011345839496262392 -0.00015075560168422222 0 -0.011548784333259421 -0.00032597697334857086 0 -0.011345839496262392 -0.00015075560168422222 0 -0.011508220041783137 -0.00021802241238399713 0 -0.011439780466075833 2.2562791233023371e-05 0 -0.011345839496262392 -0.00015075560168422222 0 -0.011508220041783137 -0.00021802241238399713 0 -0.011936743978524306 -0.0002009732136024341 0 -0.011439780466075833 2.2562791233023371e-05 0 -0.011697483801188915 -0.0002017662987590033 0 -0.011439780466075833 2.2562791233023371e-05 0 -0.011508220041783137 -0.00021802241238399713 0 -0.011697483801188915 -0.0002017662987590033 0 -0.011154114961804547 7.502841180741342e-05 0 -0.01393739406082862 -0.00036168421239822745 0 -0.011508220041783137 -0.00021802241238399713 0 -0.011697483801188915 -0.0002017662987590033 0 -0.011950090024568037 -0.00067246620816838589 0 -0.012135314242751633 -0.00012587266489804435 0 -0.011740108987017493 -0.0003003569531396848 0 -0.01163300239340807 -0.0002979833400284244 0 -0.011508220041783137 -0.00021802241238399713 0 -0.011740108987017493 -0.0003003569531396848 0 -0.01163300239340807 -0.0002979833400284244 0 -0.011548784333259421 -0.00032597697334857086 0 -0.011508220041783137 -0.00021802241238399713 0 -0.011740108987017493 -0.0003003569531396848 0 -0.012079474666953645 0.000131845715543613 0 -0.0095386475257499305 2.3683991176891451e-05 0 -0.010508040064277016 -0.0017385019545781331 0 -0.01393739406082862 -0.00036168421239822745 0 -0.010699073489715501 -0.00025396277838278124 0 -0.011936743978524306 -0.0002009732136024341 0 -0.011697483801188915 -0.0002017662987590033 0 -0.011950090024568037 -0.00067246620816838589 0 -0.01013364040797661 0.0019377383869200711 0 -0.012079474666953645 0.000131845715543613 0 -0.0095386475257499305 2.3683991176891451e-05 0 -0.01013364040797661 0.0019377383869200711 0 -0.0095386475257499305 2.3683991176891451e-05 0 -0.0077803511154965537 0.00075459857581150187 0 -0.0095386475257499305 2.3683991176891451e-05 0 -0.010508040064277016 -0.0017385019545781331 0 -0.007486974985731574 -0.0015855123912210892 0 -0.010518955826475893 0.0009618371575871509 0 -0.0078889292012638522 0.0011065964043980977 0 -0.0097960140408411955 9.7070353579692046e-05 0 -0.010699073489715501 -0.00025396277838278124 0 -0.0076359592380980511 -0.00025639157920501172 0 -0.010699073489715501 -0.00025396277838278124 0 -0.010226823733033527 9.913735206373687e-05 0 -0.0078889292012638522 0.0011065964043980977 0 -0.0097960140408411955 9.7070353579692046e-05 0 -0.0081783766851270204 -0.00022619771975609284 0 -0.0095386475257499305 2.3683991176891451e-05 0 -0.007486974985731574 -0.0015855123912210892 0 -0.0077803511154965537 0.00075459857581150187 0 -0.007486974985731574 -0.0015855123912210892 0 -0.0077803511154965537 0.00075459857581150187 0 -0.0060168016724896495 -6.6068814550349092e-05 0 -0.0054023109345738814 0.001877643108583831 0 -0.0077803511154965537 0.00075459857581150187 0 -0.0060168016724896495 -6.6068814550349092e-05 0 -0.0054023109345738814 0.001877643108583831 0 -0.0060168016724896495 -6.6068814550349092e-05 0 -0.0034857413086937391 0.0002942285095279095 0 -0.0060168016724896495 -6.6068814550349092e-05 0 -0.0034857413086937391 0.0002942285095279095 0 -0.0045105741271873959 -0.0014185921837803687 0 -0.0011796660134982364 0.0013850123260440899 0 -0.0045845431653424298 0.0012536233859720854 0 -0.0044683392620140944 0.00028550868111238027 0 -0.0078889292012638522 0.0011065964043980977 0 -0.0044683392620140944 0.00028550868111238027 0 -0.0081783766851270204 -0.00022619771975609284 0 -0.0078889292012638522 0.0011065964043980977 0 -0.0045845431653424298 0.0012536233859720854 0 -0.0044683392620140944 0.00028550868111238027 0 -0.007486974985731574 -0.0015855123912210892 0 -0.0060168016724896495 -6.6068814550349092e-05 0 -0.0045105741271873959 -0.0014185921837803687 0 -0.0076359592380980511 -0.00025639157920501172 0 -0.0045771781797610206 -5.9578044284037982e-05 0 -0.001996523628102521 0.00052204230011786124 0 -0.0040636686871086559 0.00040862930912906071 0 0.00043795863485699609 0.0006180578168175089 0 0.0003283264669870212 0.00064227148637524838 0 0.00010036708251092375 0.0010314907402062905 0 0.00043795863485699609 0.0006180578168175089 0 0.0003283264669870212 0.00064227148637524838 0 0.00047065054751536576 0.0004886667338324782 0 0.00050502113342020634 0.00038708215087575901 0 0.00043795863485699609 0.0006180578168175089 0 0.00047065054751536576 0.0004886667338324782 0 0.00054836143884081159 0.00036357116242593217 0 0.00043752696209164657 0.00041612371767565048 0 0.00047065054751536576 0.0004886667338324782 0 0.00043752696209164657 0.00041612371767565048 0 0.0003283264669870212 0.00064227148637524838 0 0.00047065054751536576 0.0004886667338324782 0 0.00043752696209164657 0.00041612371767565048 0 0.00019098319105419751 0.00045898597696269946 0 0.0003283264669870212 0.00064227148637524838 0 -0.00015844260386881987 0.00045437453791513828 0 0.00019098319105419751 0.00045898597696269946 0 -6.4431090964754928e-05 0.00072428232825541333 0 0.00019098319105419751 0.00045898597696269946 0 0.0003283264669870212 0.00064227148637524838 0 -6.4431090964754928e-05 0.00072428232825541333 0 -0.00015844260386881987 0.00045437453791513828 0 -6.4431090964754928e-05 0.00072428232825541333 0 -0.00059418427523539729 0.00067893945486054966 0 -0.0010567603007335098 0.0015661564402536402 0 -6.4431090964754928e-05 0.00072428232825541333 0 -0.00059418427523539729 0.00067893945486054966 0 -0.0010567603007335098 0.0015661564402536402 0 -6.4431090964754928e-05 0.00072428232825541333 0 0.00010036708251092375 0.0010314907402062905 0 -0.0059927373655338399 0.00064952467326793691 0 -0.0040636686871086559 0.00040862930912906071 0 -0.010931275796406986 -0.00027721840545840386 0 -0.0097960140408411955 9.7070353579692046e-05 0 -0.0081783766851270204 -0.00022619771975609284 0 -0.010931275796406986 -0.00027721840545840386 0 -0.010504262330237272 0.00048521421697075731 0 -0.0097960140408411955 9.7070353579692046e-05 0 0.0003283264669870212 0.00064227148637524838 0 -6.4431090964754928e-05 0.00072428232825541333 0 0.00010036708251092375 0.0010314907402062905 0 0.0067463187420037712 -0.001115392785164257 0 0.0065711060890843677 -0.0010360103361436266 0 0.0065882462223524141 -0.0012228267480937462 0 0.0067463187420037712 -0.001115392785164257 0 0.0065711060890843677 -0.0010360103361436266 0 0.0066184829122782722 -0.00085677456551856788 0 0.0065711060890843677 -0.0010360103361436266 0 0.006430273537119763 -0.0011259379216735225 0 0.0064619686115857979 -0.00091862662658536267 0 0.0065711060890843677 -0.0010360103361436266 0 0.0065882462223524141 -0.0012228267480937462 0 0.006430273537119763 -0.0011259379216735225 0 0.0065711060890843677 -0.0010360103361436266 0 0.0066184829122782722 -0.00085677456551856788 0 0.0064619686115857979 -0.00091862662658536267 0 0.0066184829122782722 -0.00085677456551856788 0 0.0064619686115857979 -0.00091862662658536267 0 0.0065388197880756347 -0.00082271814230096415 0 0.0068110742339999473 -0.0013200244587857615 0 0.0067724113615822935 -0.0010725377075308641 0 0.0069498799400324503 -0.0011195968990900932 0 0.0010930113326193709 -0.0010994945001989152 0 0.0076221590693680303 -0.0012034574566191685 0 -0.0054891153305705312 -0.00046624283362648155 0 -0.0055192637618607498 -0.00057406705399298016 0 -0.0052533735796264107 -0.00036076806406267322 0 -0.0051457175480623049 -0.00067960797226342259 0 -0.0055192637618607498 -0.00057406705399298016 0 -0.0052533735796264107 -0.00036076806406267322 0 -0.0048678144069841363 -0.00083053563639580734 0 -0.0044435059008079182 -0.00072057041503419638 0 -0.0051457175480623049 -0.00067960797226342259 0 -0.0035689854245362154 -0.0013842701588696975 0 -0.0045700589144414975 -0.0012191881864600368 0 -0.0051457175480623049 -0.00067960797226342259 0 -0.0055192637618607498 -0.00057406705399298016 0 -0.0057690199035374543 -0.00045566884722426226 0 -0.0051457175480623049 -0.00067960797226342259 0 -0.0058941297747715097 -0.00043611443934025627 0 -0.0057690199035374543 -0.00045566884722426226 0 -0.0051457175480623049 -0.00067960797226342259 0 -0.0058941297747715097 -0.00043611443934025627 0 -0.0058272431110368969 -0.00077901718500773278 0 0.0010930113326193709 -0.0010994945001989152 0 0.00030571838412007441 -0.0010092293786447552 0 -0.0055310665477430673 -0.00051474151865268795 0 -0.0055192637618607498 -0.00057406705399298016 0 -0.0057690199035374543 -0.00045566884722426226 0 -0.0055310665477430673 -0.00051474151865268795 0 -0.0054891153305705312 -0.00046624283362648155 0 -0.0055192637618607498 -0.00057406705399298016 0 -0.0055310665477430673 -0.00051474151865268795 0 -0.0057690199035374543 -0.00045566884722426226 0 -0.0058904481800246553 -0.00011068210994232323 0 -0.0057690199035374543 -0.00045566884722426226 0 -0.0058904481800246553 -0.00011068210994232323 0 -0.0064473617095350405 8.5668801107686244e-05 0 0.0010930113326193709 -0.0010994945001989152 0 -0.0063629451015944907 0.00075536646298374037 0 -0.0058941297747715097 -0.00043611443934025627 0 -0.0064473617095350405 8.5668801107686244e-05 0 -0.0066148031878198134 -8.9847502711923476e-05 0 -0.0058941297747715097 -0.00043611443934025627 0 -0.0057690199035374543 -0.00045566884722426226 0 -0.0064473617095350405 8.5668801107686244e-05 0 -0.0064473617095350405 8.5668801107686244e-05 0 -0.0065755336185562806 0.00045954000842779165 0 -0.0071628102135328723 0.00087111360658271219 0 -0.0064473617095350405 8.5668801107686244e-05 0 -0.0073550032012470413 0.00067097621340270284 0 -0.0071628102135328723 0.00087111360658271219 0 -0.0065755336185562806 0.00045954000842779165 0 -0.007145763912990542 0.0012580258053616917 0 -0.0071628102135328723 0.00087111360658271219 0 -0.0058904481800246553 -0.00011068210994232323 0 -0.0064473617095350405 8.5668801107686244e-05 0 -0.0065755336185562806 0.00045954000842779165 0 -0.0058904481800246553 -0.00011068210994232323 0 -0.0065755336185562806 0.00045954000842779165 0 -0.0060645720707866281 0.00055290783326511625 0 -0.0065755336185562806 0.00045954000842779165 0 -0.0060645720707866281 0.00055290783326511625 0 -0.007145763912990542 0.0012580258053616917 0 -0.0058904481800246553 -0.00011068210994232323 0 -0.0060645720707866281 0.00055290783326511625 0 -0.0051065294019527301 0.00012162748523769109 0 -0.0060645720707866281 0.00055290783326511625 0 -0.0051065294019527301 0.00012162748523769109 0 -0.0055836185499022872 0.0014621569353750826 0 0.0010930113326193709 -0.0010994945001989152 0 0.00099728374562966073 -0.0005408727644052435 0 0.0067463187420037712 -0.001115392785164257 0 0.0066765807058262279 -0.0014460213613362175 0 0.0065882462223524141 -0.0012228267480937462 0 -0.0054656826760240288 -0.00089921265054177912 0 -0.0058904481800246553 -0.00011068210994232323 0 -0.0051065294019527301 0.00012162748523769109 0 0.0065882462223524141 -0.0012228267480937462 0 0.0063902233167008231 -0.0014785013520292986 0 0.006430273537119763 -0.0011259379216735225 0 0.0066765807058262279 -0.0014460213613362175 0 0.0065882462223524141 -0.0012228267480937462 0 0.0063902233167008231 -0.0014785013520292986 0 0.0066765807058262279 -0.0014460213613362175 0 0.0063902233167008231 -0.0014785013520292986 0 0.0065365588203935834 -0.0018676675275697133 0 0.00099728374562966073 -0.0005408727644052435 0 -0.0013762738039214278 -0.00031062903337877889 0 0.0063902233167008231 -0.0014785013520292986 0 0.0059071220290762526 -0.0016604332666884138 0 0.0061174496071052633 -0.0012968749641842862 0 0.0063902233167008231 -0.0014785013520292986 0 0.0059071220290762526 -0.0016604332666884138 0 0.0061681017444029677 -0.0019690476993808829 0 0.0059071220290762526 -0.0016604332666884138 0 0.0061174496071052633 -0.0012968749641842862 0 0.0054139895191012595 -0.0013788262849770037 0 0.0061174496071052633 -0.0012968749641842862 0 0.0054139895191012595 -0.0013788262849770037 0 0.0061749200212019729 -0.00096671398671305416 0 0.0063902233167008231 -0.0014785013520292986 0 0.0061174496071052633 -0.0012968749641842862 0 0.006430273537119763 -0.0011259379216735225 0 0.0057885194674336966 -0.0013099217430430311 0 0.0056303974784386555 -0.0015417448079587559 0 0.0054139895191012595 -0.0013788262849770037 0 0.0050373375708172496 -0.0021298211453789698 0 0.0052976347326492883 -0.0017991562900781669 0 0.0056303974784386555 -0.0015417448079587559 0 0.005904194493935159 -0.0010906324196784882 0 0.0061800188536116811 -0.001121565805541562 0 0.0060520256189737229 -0.0013400736511789001 0 0.0060137384751650196 -0.0011828909068020046 0 0.0059071220290762526 -0.0016604332666884138 0 0.0054139895191012595 -0.0013788262849770037 0 0.0052976347326492883 -0.0017991562900781669 0 0.0057885194674336966 -0.0013099217430430311 0 0.0061331325163132425 -0.0009721939866355571 0 0.0060996046280406262 -0.0010459301068700053 0 0.0059543941395644642 -0.0010557469881399928 0 0.0060137384751650196 -0.0011828909068020046 0 0.0061800188536116811 -0.001121565805541562 0 0.0060996046280406262 -0.0010459301068700053 0 0.0061825276122678876 -0.00097039616319117747 0 0.0061800188536116811 -0.001121565805541562 0 0.0060996046280406262 -0.0010459301068700053 0 0.0060137384751650196 -0.0011828909068020046 0 0.0061334269929968791 -0.00094195486239402712 0 0.0061132520643772236 -0.00088768751624260928 0 0.0060294311923530172 -0.00096726755746669049 0 0.0060996046280406262 -0.0010459301068700053 0 0.0061334269929968791 -0.00094195486239402712 0 0.0060294311923530172 -0.00096726755746669049 0 0.0060996046280406262 -0.0010459301068700053 0 0.0059543941395644642 -0.0010557469881399928 0 0.0060294311923530172 -0.00096726755746669049 0 0.0060996046280406262 -0.0010459301068700053 0 0.0061334269929968791 -0.00094195486239402712 0 0.0061825276122678876 -0.00097039616319117747 0 0.0061334269929968791 -0.00094195486239402712 0 0.0061825276122678876 -0.00097039616319117747 0 0.0062042441610294409 -0.00087870846794511209 0 0.0061800188536116811 -0.001121565805541562 0 0.0061825276122678876 -0.00097039616319117747 0 0.0061749200212019729 -0.00096671398671305416 0 0.0061825276122678876 -0.00097039616319117747 0 0.006306752309278716 -0.00084370903386604538 0 0.0061749200212019729 -0.00096671398671305416 0 0.0061825276122678876 -0.00097039616319117747 0 0.006306752309278716 -0.00084370903386604538 0 0.0062042441610294409 -0.00087870846794511209 0 0.006306752309278716 -0.00084370903386604538 0 0.0062042441610294409 -0.00087870846794511209 0 0.0062227826210882161 -0.00077735449953722599 0 0.0061132520643772236 -0.00088768751624260928 0 0.0062227826210882161 -0.00077735449953722599 0 0.0059516736546452306 -0.00086442888517471823 0 0.0061334269929968791 -0.00094195486239402712 0 0.0062042441610294409 -0.00087870846794511209 0 0.0061132520643772236 -0.00088768751624260928 0 0.0062042441610294409 -0.00087870846794511209 0 0.0061132520643772236 -0.00088768751624260928 0 0.0062227826210882161 -0.00077735449953722599 0 0.006430273537119763 -0.0011259379216735225 0 0.0061749200212019729 -0.00096671398671305416 0 0.0064619686115857979 -0.00091862662658536267 0 0.0061174496071052633 -0.0012968749641842862 0 0.006430273537119763 -0.0011259379216735225 0 0.0061749200212019729 -0.00096671398671305416 0 0.006306752309278716 -0.00084370903386604538 0 0.0061749200212019729 -0.00096671398671305416 0 0.0064204256390257763 -0.00082216407428291555 0 0.0061749200212019729 -0.00096671398671305416 0 0.0064619686115857979 -0.00091862662658536267 0 0.0064204256390257763 -0.00082216407428291555 0 0.0064619686115857979 -0.00091862662658536267 0 0.0065388197880756347 -0.00082271814230096415 0 0.0064204256390257763 -0.00082216407428291555 0 0.0065388197880756347 -0.00082271814230096415 0 0.0064204256390257763 -0.00082216407428291555 0 0.0065382499006843928 -0.00077957951401459681 0 0.006306752309278716 -0.00084370903386604538 0 0.0064204256390257763 -0.00082216407428291555 0 0.0064119130344407064 -0.00076130375206899146 0 0.0064204256390257763 -0.00082216407428291555 0 0.0064774104285533424 -0.00077268065101271626 0 0.0064119130344407064 -0.00076130375206899146 0 0.0064204256390257763 -0.00082216407428291555 0 0.0064774104285533424 -0.00077268065101271626 0 0.0065382499006843928 -0.00077957951401459681 0 0.0064774104285533424 -0.00077268065101271626 0 0.0064119130344407064 -0.00076130375206899146 0 0.0064749635787157136 -0.00077764000486650739 0 0.0064774104285533424 -0.00077268065101271626 0 0.0064749635787157136 -0.00077764000486650739 0 0.0065177698146036611 -0.00080651451842094109 0 0.0064774104285533424 -0.00077268065101271626 0 0.0065667040727600918 -0.00073839737958138283 0 0.0065177698146036611 -0.00080651451842094109 0 0.0064774104285533424 -0.00077268065101271626 0 0.0065382499006843928 -0.00077957951401459681 0 0.0065667040727600918 -0.00073839737958138283 0 0.0065388197880756347 -0.00082271814230096415 0 0.0065382499006843928 -0.00077957951401459681 0 0.0066488355562474982 -0.00076283000259693714 0 0.0066011655531419081 -0.00075027846997561848 0 0.0065382499006843928 -0.00077957951401459681 0 0.0065667040727600918 -0.00073839737958138283 0 0.0066011655531419081 -0.00075027846997561848 0 0.0065382499006843928 -0.00077957951401459681 0 0.0066488355562474982 -0.00076283000259693714 0 0.0066011655531419081 -0.00075027846997561848 0 0.0066761341756754059 -0.00071046476809353816 0 0.0066488355562474982 -0.00076283000259693714 0 0.0062227826210882161 -0.00077735449953722599 0 0.00638962065740403 -0.00067780093313243167 0 0.0059845360829617741 -0.00079360285070078545 0 0.00638962065740403 -0.00067780093313243167 0 0.0070512669716098269 -0.00022590294435422865 0 0.0069882975351464646 -0.00040523731000314183 0 0.0067411846325878249 -0.00070519264946907714 0 0.00638962065740403 -0.00067780093313243167 0 0.0069882975351464646 -0.00040523731000314183 0 0.0063779812326834641 -0.00068175573805983323 0 0.0065461903646400633 -0.00041687631987930197 0 0.006306752309278716 -0.00084370903386604538 0 0.0062227826210882161 -0.00077735449953722599 0 0.00638962065740403 -0.00067780093313243167 0 0.00638962065740403 -0.00067780093313243167 0 0.0064119130344407064 -0.00076130375206899146 0 0.0064525640907319281 -0.00075127601423730843 0 0.006306752309278716 -0.00084370903386604538 0 0.00638962065740403 -0.00067780093313243167 0 0.0064119130344407064 -0.00076130375206899146 0 0.0064119130344407064 -0.00076130375206899146 0 0.0064749635787157136 -0.00077764000486650739 0 0.0064525640907319281 -0.00075127601423730843 0 0.0064749635787157136 -0.00077764000486650739 0 0.0064525640907319281 -0.00075127601423730843 0 0.0065424571642861912 -0.00083073116217715422 0 0.0064749635787157136 -0.00077764000486650739 0 0.0065424571642861912 -0.00083073116217715422 0 0.0065177698146036611 -0.00080651451842094109 0 0.0064525640907319281 -0.00075127601423730843 0 0.0065674916917637383 -0.00080655454025082348 0 0.0065424571642861912 -0.00083073116217715422 0 0.00638962065740403 -0.00067780093313243167 0 0.0064525640907319281 -0.00075127601423730843 0 0.0065674916917637383 -0.00080655454025082348 0 0.0067411846325878249 -0.00070519264946907714 0 0.0065674916917637383 -0.00080655454025082348 0 0.0066814174635675683 -0.00093102459533459805 0 0.0067411846325878249 -0.00070519264946907714 0 0.0066814174635675683 -0.00093102459533459805 0 0.007061519415967929 -0.00080249657620522241 0 0.0067411846325878249 -0.00070519264946907714 0 0.00638962065740403 -0.00067780093313243167 0 0.0065674916917637383 -0.00080655454025082348 0 0.020836934601677379 -0.0031525641047095488 0 0.02061213486986626 -0.0029555579648229448 0 0.020867337409707358 -0.0029846243448012756 0 0.0065674916917637383 -0.00080655454025082348 0 0.0066814174635675683 -0.00093102459533459805 0 0.0065424571642861912 -0.00083073116217715422 0 0.0066814174635675683 -0.00093102459533459805 0 0.0065919429163249872 -0.00088605360954750344 0 0.0066209719063330128 -0.00093696150770656813 0 0.0066814174635675683 -0.00093102459533459805 0 0.0065919429163249872 -0.00088605360954750344 0 0.0065424571642861912 -0.00083073116217715422 0 0.0065919429163249872 -0.00088605360954750344 0 0.0065424571642861912 -0.00083073116217715422 0 0.0065177698146036611 -0.00080651451842094109 0 0.0065919429163249872 -0.00088605360954750344 0 0.0065811863863478428 -0.00089355049146536787 0 0.0065177698146036611 -0.00080651451842094109 0 0.013171519419447433 -0.0020515806349647829 0 0.016124129123435239 -0.0027052626987813431 0 0.016124129123435239 -0.0027052626987813431 0 0.0058364069239549453 0.00027009519983926588 0 0.0065811863863478428 -0.00089355049146536787 0 0.0066209719063330128 -0.00093696150770656813 0 0.0065279155464157967 -0.00085287575815345225 0 0.0065919429163249872 -0.00088605360954750344 0 0.0065811863863478428 -0.00089355049146536787 0 0.0066209719063330128 -0.00093696150770656813 0 0.022416714029958314 -0.0030641403015015398 0 0.016124129123435239 -0.0027052626987813431 0 0.020836934601677379 -0.0031525641047095488 0 0.02061213486986626 -0.0029555579648229448 0 0.019951178364876507 -0.0035194251333064246 0 0.020836934601677379 -0.0031525641047095488 0 0.020619887055460608 -0.0032235761721578012 0 0.020782687873402955 -0.00325079313555038 0 0.020836934601677379 -0.0031525641047095488 0 0.020782687873402955 -0.00325079313555038 0 0.020913738700080713 -0.0032337272789156892 0 0.0066632870359748016 -0.00069406505197919157 0 0.0067183918321820002 -0.00064002208811939488 0 0.0067481361303560333 -0.00066241707132244534 0 0.0066632870359748016 -0.00069406505197919157 0 0.0067481361303560333 -0.00066241707132244534 0 0.0066761341756754059 -0.00071046476809353816 0 0.0066512068768999639 -0.0006652678739183577 0 0.0066632870359748016 -0.00069406505197919157 0 0.0067183918321820002 -0.00064002208811939488 0 0.0066011655531419081 -0.00075027846997561848 0 0.0066632870359748016 -0.00069406505197919157 0 0.0066761341756754059 -0.00071046476809353816 0 0.0066011655531419081 -0.00075027846997561848 0 0.0066632870359748016 -0.00069406505197919157 0 0.0065667040727600918 -0.00073839737958138283 0 0.0066512068768999639 -0.0006652678739183577 0 0.0066632870359748016 -0.00069406505197919157 0 0.0065667040727600918 -0.00073839737958138283 0 0.0065667040727600918 -0.00073839737958138283 0 0.0065177698146036611 -0.00080651451842094109 0 0.0065279155464157967 -0.00085287575815345225 0 0.0065811863863478428 -0.00089355049146536787 0 0.0065177698146036611 -0.00080651451842094109 0 0.0065279155464157967 -0.00085287575815345225 0 0.0066512068768999639 -0.0006652678739183577 0 0.0065667040727600918 -0.00073839737958138283 0 0.0066703625162557413 -0.00063915211716729326 0 0.0068675832708157605 -0.0010263143025445237 0 0.0058364069239549453 0.00027009519983926588 0 0.018694402548974379 -0.00370457332649824 0 0.019016006378268214 -0.0034951811525136349 0 0.019419664555492554 -0.0034051040729659041 0 0.0066512068768999639 -0.0006652678739183577 0 0.0066703625162557413 -0.00063915211716729326 0 0.0066837118814386566 -0.00063231471013174673 0 0.0067664512508350729 -0.00065958236266917174 0 0.006699544705805578 -0.00063252007608516 0 0.0066976774471323329 -0.00059970756474103507 0 0.0066703625162557413 -0.00063915211716729326 0 0.006699544705805578 -0.00063252007608516 0 0.0066837118814386566 -0.00063231471013174673 0 0.016124129123435239 -0.0027052626987813431 0 0.012456407988219738 -0.002102808416083493 0 0.0067664512508350729 -0.00065958236266917174 0 0.0066703625162557413 -0.00063915211716729326 0 0.006699544705805578 -0.00063252007608516 0 0.006699544705805578 -0.00063252007608516 0 0.0066837118814386566 -0.00063231471013174673 0 0.0066976774471323329 -0.00059970756474103507 0 0.0066837118814386566 -0.00063231471013174673 0 0.0067183918321820002 -0.00064002208811939488 0 0.0067414361471506102 -0.00059394731430793672 0 0.0066837118814386566 -0.00063231471013174673 0 0.0067414361471506102 -0.00059394731430793672 0 0.0066976774471323329 -0.00059970756474103507 0 0.0066512068768999639 -0.0006652678739183577 0 0.0066837118814386566 -0.00063231471013174673 0 0.0067183918321820002 -0.00064002208811939488 0 0.0067183918321820002 -0.00064002208811939488 0 0.0067414361471506102 -0.00059394731430793672 0 0.0068017052865479866 -0.00060242489716361592 0 0.0068017052865479866 -0.00060242489716361592 0 0.0069157934667668291 -0.00060837048826326012 0 0.0067481361303560333 -0.00066241707132244534 0 0.0067183918321820002 -0.00064002208811939488 0 0.0068017052865479866 -0.00060242489716361592 0 0.0067481361303560333 -0.00066241707132244534 0 0.0068642343452413237 -0.00035772664298120072 0 0.0069717180267742035 -0.0005401446439519716 0 0.0068594055511580669 -0.00063221873717573987 0 0.0068642343452413237 -0.00035772664298120072 0 0.0069717180267742035 -0.0005401446439519716 0 0.0071153358889687098 -0.00031462115907440757 0 0.0069717180267742035 -0.0005401446439519716 0 0.0068594055511580669 -0.00063221873717573987 0 0.0069374790613554648 -0.00071643007033012518 0 0.0069717180267742035 -0.0005401446439519716 0 0.0069374790613554648 -0.00071643007033012518 0 0.0071174396965808552 -0.00061598260126963982 0 0.0068642343452413237 -0.00035772664298120072 0 0.0068594055511580669 -0.00063221873717573987 0 0.0067208999624374533 -0.00070250448406150871 0 0.0069157934667668291 -0.00060837048826326012 0 0.0067481361303560333 -0.00066241707132244534 0 0.0067208999624374533 -0.00070250448406150871 0 0.0061820525498203684 -0.00056868076713657454 0 0.0069176958861231694 -0.0006125231130840763 0 0.0068594055511580669 -0.00063221873717573987 0 0.0067208999624374533 -0.00070250448406150871 0 0.0067939027736156595 -0.00079625604910976418 0 0.0067481361303560333 -0.00066241707132244534 0 0.0067208999624374533 -0.00070250448406150871 0 0.0066761341756754059 -0.00071046476809353816 0 0.0067208999624374533 -0.00070250448406150871 0 0.0066761341756754059 -0.00071046476809353816 0 0.0066488355562474982 -0.00076283000259693714 0 0.0067724113615822935 -0.0010725377075308641 0 0.0066488355562474982 -0.00076283000259693714 0 0.0067939027736156595 -0.00079625604910976418 0 0.0067208999624374533 -0.00070250448406150871 0 0.0066488355562474982 -0.00076283000259693714 0 0.0067939027736156595 -0.00079625604910976418 0 0.0068594055511580669 -0.00063221873717573987 0 0.0067939027736156595 -0.00079625604910976418 0 0.0069374790613554648 -0.00071643007033012518 0 0.0067939027736156595 -0.00079625604910976418 0 0.0069374790613554648 -0.00071643007033012518 0 0.0068889777276625718 -0.00087050110375629282 0 0.0069374790613554648 -0.00071643007033012518 0 0.0068889777276625718 -0.00087050110375629282 0 0.0070011982059138911 -0.00081376466908064508 0 0.0068889777276625718 -0.00087050110375629282 0 0.0069570866907753739 -0.00097080970067334529 0 0.0070011982059138911 -0.00081376466908064508 0 0.0067724113615822935 -0.0010725377075308641 0 0.0068889777276625718 -0.00087050110375629282 0 0.0069570866907753739 -0.00097080970067334529 0 0.0067724113615822935 -0.0010725377075308641 0 0.0067939027736156595 -0.00079625604910976418 0 0.0068889777276625718 -0.00087050110375629282 0 0.0067724113615822935 -0.0010725377075308641 0 0.0069498799400324503 -0.0011195968990900932 0 0.0069570866907753739 -0.00097080970067334529 0 0.0076221590693680303 -0.0012034574566191685 0 0.0063469442070873639 -0.00061615226874210042 0 0.0066184829122782722 -0.00085677456551856788 0 0.0065388197880756347 -0.00082271814230096415 0 0.0066488355562474982 -0.00076283000259693714 0 -0.0044435059008079182 -0.00072057041503419638 0 0.0045209152675278856 5.7213666508435888e-05 0 -0.003586286470230759 -0.0018488015834082475 0 -0.0035689854245362154 -0.0013842701588696975 0 -0.0026521786411552255 -0.0022541595979952431 0 -0.003586286470230759 -0.0018488015834082475 0 -0.0026521786411552255 -0.0022541595979952431 0 -0.0031739443236184369 -0.0024834298541799612 0 -0.003586286470230759 -0.0018488015834082475 0 -0.0031739443236184369 -0.0024834298541799612 0 -0.003996725869911572 -0.001870449139924334 0 -0.003586286470230759 -0.0018488015834082475 0 -0.0035689854245362154 -0.0013842701588696975 0 -0.0045700589144414975 -0.0012191881864600368 0 0.00030571838412007441 -0.0010092293786447552 0 0.0045209152675278856 5.7213666508435888e-05 0 0.0069498799400324503 -0.0011195968990900932 0 0.0069570866907753739 -0.00097080970067334529 0 0.0071086624655834737 -0.00088057356932169401 0 -0.0054891153305705312 -0.00046624283362648155 0 -0.0052533735796264107 -0.00036076806406267322 0 -0.0052453851164752791 -8.9111757873837832e-05 0 0.0071086624655834737 -0.00088057356932169401 0 0.0070011982059138911 -0.00081376466908064508 0 0.0071174396965808552 -0.00061598260126963982 0 0.0045209152675278856 5.7213666508435888e-05 0 0.012923312354977992 0.001521721086924725 0 0.0069374790613554648 -0.00071643007033012518 0 0.0070011982059138911 -0.00081376466908064508 0 0.0071174396965808552 -0.00061598260126963982 0 0.0069570866907753739 -0.00097080970067334529 0 0.0071086624655834737 -0.00088057356932169401 0 0.0070011982059138911 -0.00081376466908064508 0 0.0045209152675278856 5.7213666508435888e-05 0 0.0074368342891928422 0.00026274027805305125 0 -0.0026521786411552255 -0.0022541595979952431 0 -0.0031739443236184369 -0.0024834298541799612 0 -0.0022971595276974808 -0.0035066212619796863 0 -0.0031739443236184369 -0.0024834298541799612 0 -0.0022971595276974808 -0.0035066212619796863 0 -0.0028507320861193104 -0.0030863809489914181 0 0.016810734448450947 0.0044818133780992154 0 0.016497093946119541 0.0034592889971480243 0 0.017323403471793633 0.0035261154513139448 0 0.016497093946119541 0.0034592889971480243 0 0.017323403471793633 0.0035261154513139448 0 0.016962683076610283 0.0024858518220351217 0 0.018050180754043361 0.0023035984507251668 0 0.016962683076610283 0.0024858518220351217 0 0.017491473306004996 0.0019662167816296523 0 0.017323403471793633 0.0035261154513139448 0 0.018050180754043361 0.0023035984507251668 0 0.016962683076610283 0.0024858518220351217 0 0.0069717180267742035 -0.0005401446439519716 0 0.0071174396965808552 -0.00061598260126963982 0 0.0071153358889687098 -0.00031462115907440757 0 0.012923312354977992 0.001521721086924725 0 0.012371585958727813 0.001045381935633553 0 0.0074368342891928422 0.00026274027805305125 0 0.0072906434434356071 -0.00063279308310728666 0 0.016497093946119541 0.0034592889971480243 0 0.016962683076610283 0.0024858518220351217 0 0.01585802165971362 0.0021576276389430713 0 -0.0016970706285270782 -0.0037636438195561808 0 9.9433438311336819e-05 -0.0031925278274667203 0 -0.0011665443457169018 -0.0031268184614079947 0 -0.0022971595276974808 -0.0035066212619796863 0 -0.0016970706285270782 -0.0037636438195561808 0 -0.0011665443457169018 -0.0031268184614079947 0 -0.0018904368093324625 -0.003751065740025086 0 -0.0022127523332990773 -0.0038097752080063518 0 -0.0016970706285270782 -0.0037636438195561808 0 -0.0028507320861193104 -0.0030863809489914181 0 -0.004269429374650963 -0.0029742295317687689 0 -0.0022971595276974808 -0.0035066212619796863 0 -0.0016970706285270782 -0.0037636438195561808 0 -0.0028507320861193104 -0.0030863809489914181 0 -0.0016970706285270782 -0.0037636438195561808 0 -8.7324425829971592e-05 -0.0038389970342914319 0 -0.00011681907658013508 -0.0050005294773040046 0 -8.7324425829971592e-05 -0.0038389970342914319 0 0.00062152368789080857 -0.0041709119581564971 0 -0.00011681907658013508 -0.0050005294773040046 0 -8.7324425829971592e-05 -0.0038389970342914319 0 9.9433438311336819e-05 -0.0031925278274667203 0 0.0007872781613516936 -0.0034816518427202925 0 -8.7324425829971592e-05 -0.0038389970342914319 0 0.0007872781613516936 -0.0034816518427202925 0 0.00062152368789080857 -0.0041709119581564971 0 -0.0016970706285270782 -0.0037636438195561808 0 -8.7324425829971592e-05 -0.0038389970342914319 0 9.9433438311336819e-05 -0.0031925278274667203 0 0.0007872781613516936 -0.0034816518427202925 0 0.0013797377537494949 -0.0033369121467735213 0 0.0012371390145954385 -0.0039293472283654053 0 0.0007872781613516936 -0.0034816518427202925 0 0.00062152368789080857 -0.0041709119581564971 0 0.0012371390145954385 -0.0039293472283654053 0 0.0018031184255039954 -0.003618099540551077 0 0.0020098059525426215 -0.0032145102247803591 0 0.0016676961664046956 -0.0030215877429067054 0 0.0013797377537494949 -0.0033369121467735213 0 0.0018031184255039954 -0.003618099540551077 0 0.0016676961664046956 -0.0030215877429067054 0 0.0013797377537494949 -0.0033369121467735213 0 0.0018031184255039954 -0.003618099540551077 0 0.0012371390145954385 -0.0039293472283654053 0 0.0018031184255039954 -0.003618099540551077 0 0.0017051682387263744 -0.004398232531553384 0 0.0022614589710589317 -0.0040702890138391273 0 0.0018031184255039954 -0.003618099540551077 0 0.0017051682387263744 -0.004398232531553384 0 0.0012371390145954385 -0.0039293472283654053 0 0.0017051682387263744 -0.004398232531553384 0 0.0012371390145954385 -0.0039293472283654053 0 0.00095464725384258051 -0.0045967233924260964 0 0.00062152368789080857 -0.0041709119581564971 0 0.00095464725384258051 -0.0045967233924260964 0 -0.00011681907658013508 -0.0050005294773040046 0 0.00062152368789080857 -0.0041709119581564971 0 0.0012371390145954385 -0.0039293472283654053 0 0.00095464725384258051 -0.0045967233924260964 0 0.00072144492609382675 -0.005106563273397949 0 0.0014228198549601355 -0.005075387372769362 0 0.0013152355855265193 -0.0059778900117363806 0 0.00095464725384258051 -0.0045967233924260964 0 0.00072144492609382675 -0.005106563273397949 0 -0.00011681907658013508 -0.0050005294773040046 0 0.00095464725384258051 -0.0045967233924260964 0 0.00072144492609382675 -0.005106563273397949 0 0.0014228198549601355 -0.005075387372769362 0 0.0014228198549601355 -0.005075387372769362 0 0.0013152355855265193 -0.0059778900117363806 0 0.0022342053836450896 -0.0049511841322835036 0 0.0017051682387263744 -0.004398232531553384 0 0.00095464725384258051 -0.0045967233924260964 0 0.0014228198549601355 -0.005075387372769362 0 0.0017051682387263744 -0.004398232531553384 0 0.0014228198549601355 -0.005075387372769362 0 0.0022342053836450896 -0.0049511841322835036 0 -0.00072672785583438842 -0.0020894030065035088 0 0.00014851274839137676 -0.0011703018910144841 0 -0.00011700677641420606 -0.0017667501627787895 0 0.00067327311408888488 -0.0042122517760833905 0 0.00096189984810245968 -0.0033142791507059471 0 0.00030947157949607295 -0.0017454426451689879 0 -0.0011715276673180321 -0.00237458661755994 0 -0.00053492975825771341 -0.00085191980841983089 0 -0.0019748467998007922 -0.0010012155100033195 0 0.00067327311408888488 -0.0042122517760833905 0 -0.0011715276673180321 -0.00237458661755994 0 -0.00072672785583438842 -0.0020894030065035088 0 -0.00011700677641420606 -0.0017667501627787895 0 -0.00060037931481104914 -0.0022932954135600229 0 0.00072144492609382675 -0.005106563273397949 0 0.00078795146130098738 -0.0054607453920092518 0 0.00057676340454210771 -0.0053626354150259851 0 0.00078795146130098738 -0.0054607453920092518 0 0.00057676340454210771 -0.0053626354150259851 0 0.00075113303690617155 -0.0055433828274145391 0 -0.005302492042487038 -0.0018992287854219937 0 -0.005308732784795712 -0.0014403740352263614 0 -0.0057027225908461735 -0.0011841695078314677 0 0.00097482006385482848 -0.0056810037301410175 0 0.00067327311408888488 -0.0042122517760833905 0 -0.0022354611987254916 -0.0039167797178778834 0 -0.0026753585995905669 -0.0017253464689573855 0 -0.005302492042487038 -0.0018992287854219937 0 -0.005308732784795712 -0.0014403740352263614 0 -0.005110317140818158 -0.0015662955850869705 0 -0.005308732784795712 -0.0014403740352263614 0 -0.005110317140818158 -0.0015662955850869705 0 -0.0051131304114149694 -0.0013089657625959023 0 -0.0049516915200996043 -0.0013995311751160997 0 -0.005110317140818158 -0.0015662955850869705 0 -0.0051131304114149694 -0.0013089657625959023 0 -0.0049516915200996043 -0.0013995311751160997 0 -0.005110317140818158 -0.0015662955850869705 0 -0.0047925050591529602 -0.0016463593874042771 0 -0.005302492042487038 -0.0018992287854219937 0 -0.0044672712607730872 -0.0020224325918794138 0 -0.0047925050591529602 -0.0016463593874042771 0 -0.005302492042487038 -0.0018992287854219937 0 -0.005110317140818158 -0.0015662955850869705 0 -0.0047925050591529602 -0.0016463593874042771 0 -0.0044672712607730872 -0.0020224325918794138 0 -0.0047925050591529602 -0.0016463593874042771 0 -0.0045757927583254671 -0.0014761334620757632 0 -0.0047925050591529602 -0.0016463593874042771 0 -0.004853535538977681 -0.0013319752367035929 0 -0.0045757927583254671 -0.0014761334620757632 0 -0.0049516915200996043 -0.0013995311751160997 0 -0.0047925050591529602 -0.0016463593874042771 0 -0.004853535538977681 -0.0013319752367035929 0 -0.003586286470230759 -0.0018488015834082475 0 -0.003996725869911572 -0.001870449139924334 0 -0.0045700589144414975 -0.0012191881864600368 0 -0.0045757927583254671 -0.0014761334620757632 0 -0.003996725869911572 -0.001870449139924334 0 -0.0045700589144414975 -0.0012191881864600368 0 -0.0044672712607730872 -0.0020224325918794138 0 -0.0045757927583254671 -0.0014761334620757632 0 -0.003996725869911572 -0.001870449139924334 0 -0.0044672712607730872 -0.0020224325918794138 0 -0.003996725869911572 -0.001870449139924334 0 -0.0037445484171160438 -0.0023989311175982293 0 -0.0037445484171160438 -0.0023989311175982293 0 -0.0028507320861193104 -0.0030863809489914181 0 -0.004269429374650963 -0.0029742295317687689 0 -0.0031739443236184369 -0.0024834298541799612 0 -0.003996725869911572 -0.001870449139924334 0 -0.0037445484171160438 -0.0023989311175982293 0 -0.0031739443236184369 -0.0024834298541799612 0 -0.0037445484171160438 -0.0023989311175982293 0 -0.0028507320861193104 -0.0030863809489914181 0 -0.0022354611987254916 -0.0039167797178778834 0 -0.0022127523332990773 -0.0038097752080063518 0 0.00072144492609382675 -0.005106563273397949 0 0.00057676340454210771 -0.0053626354150259851 0 -0.00011681907658013508 -0.0050005294773040046 0 -0.005302492042487038 -0.0018992287854219937 0 -0.0044672712607730872 -0.0020224325918794138 0 -0.004269429374650963 -0.0029742295317687689 0 -0.0044672712607730872 -0.0020224325918794138 0 -0.0037445484171160438 -0.0023989311175982293 0 -0.004269429374650963 -0.0029742295317687689 0 0.0030935263675252764 0.0012920890703008445 0 0.0033587228059003636 0.001324700589734508 0 0.0032070578146188673 0.0014401680509332204 0 0.0030560213434965068 0.001444444432462422 0 0.0030935263675252764 0.0012920890703008445 0 0.0032070578146188673 0.0014401680509332204 0 0.0033587228059003636 0.001324700589734508 0 0.003264379107312667 0.0011578033615198856 0 0.0035540464979241502 0.0011252734468994862 0 0.0030670817429268777 0.0010918354102458288 0 0.0030935263675252764 0.0012920890703008445 0 0.003264379107312667 0.0011578033615198856 0 0.0030935263675252764 0.0012920890703008445 0 0.0033587228059003636 0.001324700589734508 0 0.003264379107312667 0.0011578033615198856 0 0.0030670817429268777 0.0010918354102458288 0 0.003264379107312667 0.0011578033615198856 0 0.0033039752374339599 0.00092580795566688391 0 0.0030461956818694739 0.00083829024903348502 0 0.0030670817429268777 0.0010918354102458288 0 0.0033039752374339599 0.00092580795566688391 0 0.0030461956818694739 0.00083829024903348502 0 0.0033039752374339599 0.00092580795566688391 0 0.0033030597245544647 0.00068742760881752049 0 0.0033039752374339599 0.00092580795566688391 0 0.0035692549293094172 0.00085058097282271646 0 0.0033030597245544647 0.00068742760881752049 0 0.003264379107312667 0.0011578033615198856 0 0.0033039752374339599 0.00092580795566688391 0 0.0035540464979241502 0.0011252734468994862 0 0.0033039752374339599 0.00092580795566688391 0 0.0035692549293094172 0.00085058097282271646 0 0.0035540464979241502 0.0011252734468994862 0 0.0035692549293094172 0.00085058097282271646 0 0.00384799283692805 0.0010986328119839304 0 0.0037659597022229783 0.00078849255661795964 0 0.0041304788542386823 0.0015002986488453472 0 0.0026179606805455859 -0.00080131641795101543 0 0.0035692549293094172 0.00085058097282271646 0 0.0035540464979241502 0.0011252734468994862 0 0.0038037626192231992 0.0011431179712197339 0 0.0033587228059003636 0.001324700589734508 0 0.0035540464979241502 0.0011252734468994862 0 0.0036923397339679938 0.001450428411972574 0 0.0035540464979241502 0.0011252734468994862 0 0.0038037626192231992 0.0011431179712197339 0 0.0036923397339679938 0.001450428411972574 0 0.00098117070588913616 -0.00031930625054763971 0 0.00079539753181659216 -0.0010306557809201533 0 0.0011698697038338736 -0.00094882069599787431 0 0.0026179606805455859 -0.00080131641795101543 0 0.00096189984810245968 -0.0033142791507059471 0 0.00098117070588913616 -0.00031930625054763971 0 0.00014851274839137676 -0.0011703018910144841 0 0.00079539753181659216 -0.0010306557809201533 0 0.0030046445467554273 -0.0039921902403344343 0 0.0025848308824853237 -0.0037558403034455325 0 0.0022614589710589317 -0.0040702890138391273 0 0.0026179606805455859 -0.00080131641795101543 0 0.0024033810861246682 0.00021676624390056534 0 0.00384799283692805 0.0010986328119839304 0 0.0037659597022229783 0.00078849255661795964 0 0.0039680118690414226 0.00083391454516337576 0 0.0027031099267465718 -0.0034535694444445884 0 0.0025848308824853237 -0.0037558403034455325 0 0.0024676935014598944 -0.0034189217687660006 0 0.0027031099267465718 -0.0034535694444445884 0 0.0024676935014598944 -0.0034189217687660006 0 0.002509059795553411 -0.0032635039034588065 0 0.0026179606805455859 -0.00080131641795101543 0 0.0032563047981884361 -0.001206320020519072 0 0.0030046445467554273 -0.0039921902403344343 0 0.0027031099267465718 -0.0034535694444445884 0 0.0025848308824853237 -0.0037558403034455325 0 0.0025848308824853237 -0.0037558403034455325 0 0.0022667249800797152 -0.0035519369352825379 0 0.0022614589710589317 -0.0040702890138391273 0 0.0022667249800797152 -0.0035519369352825379 0 0.0024676935014598944 -0.0034189217687660006 0 0.0023285831323297201 -0.0032181888221848166 0 0.0025848308824853237 -0.0037558403034455325 0 0.0022667249800797152 -0.0035519369352825379 0 0.0024676935014598944 -0.0034189217687660006 0 0.0018031184255039954 -0.003618099540551077 0 0.0022667249800797152 -0.0035519369352825379 0 0.0020098059525426215 -0.0032145102247803591 0 0.0022667249800797152 -0.0035519369352825379 0 0.0020098059525426215 -0.0032145102247803591 0 0.0023285831323297201 -0.0032181888221848166 0 0.0018031184255039954 -0.003618099540551077 0 0.0022667249800797152 -0.0035519369352825379 0 0.0022614589710589317 -0.0040702890138391273 0 0.0017051682387263744 -0.004398232531553384 0 0.0022614589710589317 -0.0040702890138391273 0 0.0022342053836450896 -0.0049511841322835036 0 0.0030046445467554273 -0.0039921902403344343 0 0.0022614589710589317 -0.0040702890138391273 0 0.0022342053836450896 -0.0049511841322835036 0 0.00014851274839137676 -0.0011703018910144841 0 0.00054535953044452948 -0.0013808027854162925 0 0.00079539753181659216 -0.0010306557809201533 0 0.00014851274839137676 -0.0011703018910144841 0 0.00021932912693595194 -0.0015322443315683382 0 0.00054535953044452948 -0.0013808027854162925 0 0.00014851274839137676 -0.0011703018910144841 0 0.00021932912693595194 -0.0015322443315683382 0 -0.00011700677641420606 -0.0017667501627787895 0 -1.8017254196484937e-05 -0.0020648025589001906 0 0.00014428064048211834 -0.0017519390191618907 0 0.00075890706277014603 -0.0018005324947024382 0 -0.00011700677641420606 -0.0017667501627787895 0 0.00029235360027349787 -0.001814977620699727 0 -0.00060037931481104914 -0.0022932954135600229 0 -1.8017254196484937e-05 -0.0020648025589001906 0 0.00014428064048211834 -0.0017519390191618907 0 -0.0008953172771312785 -0.0022419794744919096 0 0.00021932912693595194 -0.0015322443315683382 0 -0.00011700677641420606 -0.0017667501627787895 0 0.00029235360027349787 -0.001814977620699727 0 -0.0012855772669802003 0.00024714277958292014 0 -0.0012144075677220072 0.00027265260726478324 0 -0.0012623864599026426 0.00020848893593922312 0 -0.00053492975825771341 -0.00085191980841983089 0 -0.00055232031176232605 0.0001848932572176735 0 0.00021932912693595194 -0.0015322443315683382 0 0.00029235360027349787 -0.001814977620699727 0 0.00054535953044452948 -0.0013808027854162925 0 -0.00055232031176232605 0.0001848932572176735 0 -0.0012981912264690386 0.0011202492380748572 0 0.00030947157949607295 -0.0017454426451689879 0 0.0010117699602051828 -0.0013814006944905077 0 -0.0013176396940973801 0.0019601269351804517 0 -0.0011802773537360721 0.0020053739037251914 0 -0.0012647198956612993 0.0018307522327809739 0 0.00014428064048211834 -0.0017519390191618907 0 0.00075890706277014603 -0.0018005324947024382 0 0.0011177231794347324 -0.0013295771949707912 0 -0.00055232031176232605 0.0001848932572176735 0 0.00057957747568854613 0.00091859676388372465 0 0.00075890706277014603 -0.0018005324947024382 0 0.0011177231794347324 -0.0013295771949707912 0 0.0013715583113261993 -0.0015712895302330044 0 0.00029235360027349787 -0.001814977620699727 0 0.0011177231794347324 -0.0013295771949707912 0 0.00054535953044452948 -0.0013808027854162925 0 0.0011177231794347324 -0.0013295771949707912 0 0.00054535953044452948 -0.0013808027854162925 0 0.00079539753181659216 -0.0010306557809201533 0 0.0011177231794347324 -0.0013295771949707912 0 0.00079539753181659216 -0.0010306557809201533 0 0.0011698697038338736 -0.00094882069599787431 0 0.0033989344375412347 0.0015173186606308989 0 0.0035743729004173328 0.0017513818039750298 0 0.0031656080992140982 0.0016161854194990733 0 0.0033587228059003636 0.001324700589734508 0 0.0036923397339679938 0.001450428411972574 0 0.0033989344375412347 0.0015173186606308989 0 0.0036923397339679938 0.001450428411972574 0 0.0033989344375412347 0.0015173186606308989 0 0.0035743729004173328 0.0017513818039750298 0 0.0024033810861246682 0.00021676624390056534 0 0.00057957747568854613 0.00091859676388372465 0 0.0011177231794347324 -0.0013295771949707912 0 0.0011698697038338736 -0.00094882069599787431 0 0.0013715583113261993 -0.0015712895302330044 0 0.00057957747568854613 0.00091859676388372465 0 -0.0012365783132584878 0.0020067510667722693 0 -0.00097527809747189568 0.0018318104835666105 0 -0.00083445884088891834 0.0017798677153985929 0 -0.00093058177114898406 0.0016819071660415597 0 -0.00097527809747189568 0.0018318104835666105 0 -0.00083445884088891834 0.0017798677153985929 0 -0.00077445108264111032 0.0019380071990856944 0 -0.00077328791653108789 0.0017888053196096639 0 -0.00078491935171005791 0.0018095010356878529 0 0.00057957747568854613 0.00091859676388372465 0 0.0014587733630096228 0.0019388475169397259 0 -0.00062725066350002802 0.0018912790176982852 0 -0.00083445884088891834 0.0017798677153985929 0 -0.00077445108264111032 0.0019380071990856944 0 0.0033989344375412347 0.0015173186606308989 0 0.0031656080992140982 0.0016161854194990733 0 0.0032070578146188673 0.0014401680509332204 0 0.0033587228059003636 0.001324700589734508 0 0.0033989344375412347 0.0015173186606308989 0 0.0032070578146188673 0.0014401680509332204 0 0.0030560213434965068 0.001444444432462422 0 0.0031656080992140982 0.0016161854194990733 0 0.0032070578146188673 0.0014401680509332204 0 -0.00084751721411955043 0.0015623075362613354 0 -0.00087097573752275691 0.0016512575920152677 0 -0.00098358185697467555 0.0015455023500389761 0 -0.0012365783132584878 0.0020067510667722693 0 -0.00091730142924224584 0.0014333641069214538 0 -0.00078264853459889742 0.0016968238859916666 0 -0.00084751721411955043 0.0015623075362613354 0 -0.00087097573752275691 0.0016512575920152677 0 -0.00087097573752275691 0.0016512575920152677 0 -0.00093058177114898406 0.0016819071660415597 0 -0.00098358185697467555 0.0015455023500389761 0 -0.00078264853459889742 0.0016968238859916666 0 -0.00083445884088891834 0.0017798677153985929 0 -0.00087097573752275691 0.0016512575920152677 0 -0.00083445884088891834 0.0017798677153985929 0 -0.00087097573752275691 0.0016512575920152677 0 -0.00093058177114898406 0.0016819071660415597 0 -0.0011104292829111722 0.0018031720263834816 0 -0.0012143587148325224 0.0016446258279685226 0 -0.0012647198956612993 0.0018307522327809739 0 -0.0011802773537360721 0.0020053739037251914 0 -0.0011104292829111722 0.0018031720263834816 0 -0.0012647198956612993 0.0018307522327809739 0 -0.0012143587148325224 0.0016446258279685226 0 -0.0011810830684658611 0.0015359546449822837 0 -0.00098358185697467555 0.0015455023500389761 0 -0.0011104292829111722 0.0018031720263834816 0 -0.0012143587148325224 0.0016446258279685226 0 -0.00098358185697467555 0.0015455023500389761 0 -0.0012143587148325224 0.0016446258279685226 0 -0.001384714946397919 0.0016365274501784876 0 -0.0012647198956612993 0.0018307522327809739 0 -0.0012143587148325224 0.0016446258279685226 0 -0.001384714946397919 0.0016365274501784876 0 -0.0013103600455393633 0.0015247894140937106 0 -0.001384714946397919 0.0016365274501784876 0 -0.0012647198956612993 0.0018307522327809739 0 -0.001425757487720013 0.0018009235651824317 0 -0.0013176396940973801 0.0019601269351804517 0 -0.0012647198956612993 0.0018307522327809739 0 -0.001425757487720013 0.0018009235651824317 0 -0.0012623864599026426 0.00020848893593922312 0 -0.0013021779179867461 0.00015375481291904952 0 -0.001348328548065605 0.00022040097402090185 0 -0.0012855772669802003 0.00024714277958292014 0 -0.0012623864599026426 0.00020848893593922312 0 -0.001348328548065605 0.00022040097402090185 0 -0.0012981912264690386 0.0011202492380748572 0 -0.0020084304840949098 0.0009748843722603151 0 -0.001384714946397919 0.0016365274501784876 0 -0.001425757487720013 0.0018009235651824317 0 -0.0015298027269637976 0.0016322452449747294 0 -0.0020084304840949098 0.0009748843722603151 0 -0.0015832804068890783 0.0015985192143124884 0 -0.001384714946397919 0.0016365274501784876 0 -0.0015298027269637976 0.0016322452449747294 0 -0.0014600098831475531 0.0015069300694146438 0 -0.001582086950949265 0.0016175950321551161 0 -0.0014247007063143272 0.0013849947532082458 0 -0.0019467917434800935 0.0014684952708727693 0 -0.0017321392219725939 0.001845219160640204 0 -0.001582086950949265 0.0016175950321551161 0 -0.0019467917434800935 0.0014684952708727693 0 -0.0080164975492132366 0.001348519358974217 0 -0.0080065606338828761 0.001209025893534735 0 -0.0079025137227971467 0.0012420072013866583 0 -0.0057434031185539637 0.00074182193231018244 0 -0.004631417686275432 0.0012834185788004159 0 -0.0014247007063143272 0.0013849947532082458 0 -0.0019467917434800935 0.0014684952708727693 0 -0.0015743322505452177 0.001147654091161707 0 -0.0014247007063143272 0.0013849947532082458 0 -0.0013280273920196514 0.0012813137149893343 0 -0.0012055734357900073 0.0014350000803728025 0 -0.0014247007063143272 0.0013849947532082458 0 -0.0013280273920196514 0.0012813137149893343 0 -0.0015743322505452177 0.001147654091161707 0 -0.0014247007063143272 0.0013849947532082458 0 -0.0013103600455393633 0.0015247894140937106 0 -0.0012055734357900073 0.0014350000803728025 0 -0.0014600098831475531 0.0015069300694146438 0 -0.0014247007063143272 0.0013849947532082458 0 -0.0013103600455393633 0.0015247894140937106 0 -0.0015832804068890783 0.0015985192143124884 0 -0.0014267377385261109 0.0013892467785646357 0 -0.001384714946397919 0.0016365274501784876 0 -0.0014600098831475531 0.0015069300694146438 0 -0.0013103600455393633 0.0015247894140937106 0 -0.0013103600455393633 0.0015247894140937106 0 -0.0011810830684658611 0.0015359546449822837 0 -0.0012055734357900073 0.0014350000803728025 0 -0.0012143587148325224 0.0016446258279685226 0 -0.0013103600455393633 0.0015247894140937106 0 -0.0011810830684658611 0.0015359546449822837 0 -0.0011810830684658611 0.0015359546449822837 0 -0.0012055734357900073 0.0014350000803728025 0 -0.00098358185697467555 0.0015455023500389761 0 -0.0012055734357900073 0.0014350000803728025 0 -0.0011688698637863063 0.0012653592643799767 0 -0.00097274691249300002 0.0014505213502433248 0 -0.0013280273920196514 0.0012813137149893343 0 -0.0012055734357900073 0.0014350000803728025 0 -0.0011688698637863063 0.0012653592643799767 0 -0.0013280273920196514 0.0012813137149893343 0 -0.0011688698637863063 0.0012653592643799767 0 -0.0013002659459149118 0.0011447291234999506 0 -0.00074026226472146057 0.0013963168210735868 0 -0.00097274691249300002 0.0014505213502433248 0 -0.0009422057337364286 0.0012050175421580833 0 -0.0011688698637863063 0.0012653592643799767 0 -0.00097274691249300002 0.0014505213502433248 0 -0.0009422057337364286 0.0012050175421580833 0 -0.00081984247283692824 0.0015272456898569717 0 -0.00087160227512312683 0.0016817121297245134 0 -0.00097274691249300002 0.0014505213502433248 0 -0.00084751721411955043 0.0015623075362613354 0 -0.0012055734357900073 0.0014350000803728025 0 -0.00098358185697467555 0.0015455023500389761 0 -0.00087160227512312683 0.0016817121297245134 0 -0.0012055734357900073 0.0014350000803728025 0 -0.00097274691249300002 0.0014505213502433248 0 -0.00090813223394736731 0.0017420565373037931 0 -0.0011732281199271328 0.0014060794649166273 0 -0.0070981813585844376 -0.00057648177030113353 0 -0.0058272431110368969 -0.00077901718500773278 0 -0.0074760122602534193 -0.0015186983582652156 0 -0.0060004119010759723 -0.0009850248290486723 0 -0.0058042070818708977 -0.00069500560986156257 0 -0.0070981813585844376 -0.00057648177030113353 0 -0.0074760122602534193 -0.0015186983582652156 0 -0.0082404334689081364 -0.00043507944817111182 0 -0.0051457175480623049 -0.00067960797226342259 0 -0.0058272431110368969 -0.00077901718500773278 0 -0.0052354161473016298 -0.00092795080860899181 0 -0.0058272431110368969 -0.00077901718500773278 0 -0.0052354161473016298 -0.00092795080860899181 0 -0.0050250779938329675 -0.001040287470808597 0 -0.0070981813585844376 -0.00057648177030113353 0 -0.0058272431110368969 -0.00077901718500773278 0 -0.0066148031878198134 -8.9847502711923476e-05 0 -0.0058941297747715097 -0.00043611443934025627 0 -0.0058272431110368969 -0.00077901718500773278 0 -0.0066148031878198134 -8.9847502711923476e-05 0 -0.0051457175480623049 -0.00067960797226342259 0 -0.0052354161473016298 -0.00092795080860899181 0 -0.0045700589144414975 -0.0012191881864600368 0 -0.0045757927583254671 -0.0014761334620757632 0 -0.0045700589144414975 -0.0012191881864600368 0 -0.0050123214361299916 -0.001068416912170588 0 -0.0052354161473016298 -0.00092795080860899181 0 -0.0045700589144414975 -0.0012191881864600368 0 -0.0050123214361299916 -0.001068416912170588 0 -0.0052354161473016298 -0.00092795080860899181 0 -0.0050123214361299916 -0.001068416912170588 0 -0.0050250779938329675 -0.001040287470808597 0 -0.004853535538977681 -0.0013319752367035929 0 -0.0045757927583254671 -0.0014761334620757632 0 -0.0050123214361299916 -0.001068416912170588 0 -0.0049516915200996043 -0.0013995311751160997 0 -0.004853535538977681 -0.0013319752367035929 0 -0.0049889947137932503 -0.0011947469145385152 0 -0.004853535538977681 -0.0013319752367035929 0 -0.0050123214361299916 -0.001068416912170588 0 -0.0049889947137932503 -0.0011947469145385152 0 -0.0050123214361299916 -0.001068416912170588 0 -0.0050204131424929571 -0.0010891584745591986 0 -0.0049889947137932503 -0.0011947469145385152 0 -0.0050123214361299916 -0.001068416912170588 0 -0.0050250779938329675 -0.001040287470808597 0 -0.0050204131424929571 -0.0010891584745591986 0 -0.0050250779938329675 -0.001040287470808597 0 -0.0051022492964240334 -0.0010824746220927579 0 -0.0053241013183190954 -0.0010761916223203849 0 -0.0050250779938329675 -0.001040287470808597 0 -0.0050500474636862606 -0.001080880705236983 0 -0.0051022492964240334 -0.0010824746220927579 0 -0.0050250779938329675 -0.001040287470808597 0 -0.0050500474636862606 -0.001080880705236983 0 -0.0050204131424929571 -0.0010891584745591986 0 -0.0050500474636862606 -0.001080880705236983 0 -0.0050644526640655583 -0.0011142446641825574 0 -0.0051022492964240334 -0.0010824746220927579 0 -0.0050500474636862606 -0.001080880705236983 0 -0.0050204131424929571 -0.0010891584745591986 0 -0.0050644526640655583 -0.0011142446641825574 0 -0.0050644526640655583 -0.0011142446641825574 0 -0.0051022492964240334 -0.0010824746220927579 0 -0.005118448552228318 -0.0011416072108451803 0 -0.0051022492964240334 -0.0010824746220927579 0 -0.005118448552228318 -0.0011416072108451803 0 -0.0051888509488280847 -0.0011419987508748931 0 -0.005118448552228318 -0.0011416072108451803 0 -0.0051572404159626146 -0.0012044345787915738 0 -0.0051888509488280847 -0.0011419987508748931 0 -0.0050644526640655583 -0.0011142446641825574 0 -0.005118448552228318 -0.0011416072108451803 0 -0.0050855395999724762 -0.0011845195831119758 0 -0.005118448552228318 -0.0011416072108451803 0 -0.0050855395999724762 -0.0011845195831119758 0 -0.0051572404159626146 -0.0012044345787915738 0 -0.0050644526640655583 -0.0011142446641825574 0 -0.0050855395999724762 -0.0011845195831119758 0 -0.0049889947137932503 -0.0011947469145385152 0 -0.0050204131424929571 -0.0010891584745591986 0 -0.0050644526640655583 -0.0011142446641825574 0 -0.0049889947137932503 -0.0011947469145385152 0 -0.0050855395999724762 -0.0011845195831119758 0 -0.0049889947137932503 -0.0011947469145385152 0 -0.0051131304114149694 -0.0013089657625959023 0 -0.0049516915200996043 -0.0013995311751160997 0 -0.0049889947137932503 -0.0011947469145385152 0 -0.0051131304114149694 -0.0013089657625959023 0 -0.0051572404159626146 -0.0012044345787915738 0 -0.0051131304114149694 -0.0013089657625959023 0 -0.0052439145162790088 -0.0012443608023848625 0 -0.0050855395999724762 -0.0011845195831119758 0 -0.0051572404159626146 -0.0012044345787915738 0 -0.0051131304114149694 -0.0013089657625959023 0 -0.005308732784795712 -0.0014403740352263614 0 -0.0051131304114149694 -0.0013089657625959023 0 -0.0052439145162790088 -0.0012443608023848625 0 -0.0041092542801237589 -0.00023055693260648643 0 -0.0041112303932015429 -0.00023348687602828383 0 -0.0041138571270754468 -0.00022263787195006803 0 -0.0052818162795971691 -0.0011442464797744262 0 -0.0051888509488280847 -0.0011419987508748931 0 -0.0053241013183190954 -0.0010761916223203849 0 -0.0051572404159626146 -0.0012044345787915738 0 -0.0052439145162790088 -0.0012443608023848625 0 -0.0051888509488280847 -0.0011419987508748931 0 -0.0052439145162790088 -0.0012443608023848625 0 -0.0052818162795971691 -0.0011442464797744262 0 -0.0051888509488280847 -0.0011419987508748931 0 -0.0052439145162790088 -0.0012443608023848625 0 -0.0052818162795971691 -0.0011442464797744262 0 -0.005408259667385916 -0.0012398450026754359 0 -0.0052818162795971691 -0.0011442464797744262 0 -0.005408259667385916 -0.0012398450026754359 0 -0.0053241013183190954 -0.0010761916223203849 0 -0.005308732784795712 -0.0014403740352263614 0 -0.0052439145162790088 -0.0012443608023848625 0 -0.005408259667385916 -0.0012398450026754359 0 -0.005408259667385916 -0.0012398450026754359 0 -0.0053241013183190954 -0.0010761916223203849 0 -0.0057027225908461735 -0.0011841695078314677 0 -0.0046980354315659927 -0.00083984008922417287 0 -0.0026753585995905669 -0.0017253464689573855 0 -0.005308732784795712 -0.0014403740352263614 0 -0.005408259667385916 -0.0012398450026754359 0 -0.0057027225908461735 -0.0011841695078314677 0 -0.0041112303932015429 -0.00023348687602828383 0 -0.0041119808937600541 -0.00023886626790639161 0 -0.0041138571270754468 -0.00022263787195006803 0 -0.0058042070818708977 -0.00069500560986156257 0 -0.0046980354315659927 -0.00083984008922417287 0 -0.0051022492964240334 -0.0010824746220927579 0 -0.0051888509488280847 -0.0011419987508748931 0 -0.0053241013183190954 -0.0010761916223203849 0 -0.0041776010879316337 -0.0001916207992828566 0 -0.0040731215706956867 -0.00036773267283848253 0 -0.0041243117904187603 -0.00022861639590525805 0 -1.8017254196484937e-05 -0.0020648025589001906 0 -0.00083682534210238746 -0.0023397460473892785 0 -0.0008953172771312785 -0.0022419794744919096 0 -0.0020084304840949098 0.0009748843722603151 0 -0.0019748467998007922 -0.0010012155100033195 0 -0.0040731215706956867 -0.00036773267283848253 0 -0.0040159863679835378 -0.00035161153816306299 0 -0.0041243117904187603 -0.00022861639590525805 0 0.00078795146130098738 -0.0054607453920092518 0 0.00080541336284991401 -0.0054981819757201431 0 0.00075113303690617155 -0.0055433828274145391 0 -0.0010710941919938343 -0.0014224787790253737 0 -0.0013444898776301042 -0.00096921642413777662 0 -0.0025804259337740732 -0.0019689513960113886 0 -0.0019748467998007922 -0.0010012155100033195 0 -0.0011715276673180321 -0.00237458661755994 0 -0.0011715276673180321 -0.00237458661755994 0 -0.0026753585995905669 -0.0017253464689573855 0 -0.0019748467998007922 -0.0010012155100033195 0 -0.0026753585995905669 -0.0017253464689573855 0 -0.0041119808937600541 -0.00023886626790639161 0 -0.0041243117904187603 -0.00022861639590525805 0 -0.0041138571270754468 -0.00022263787195006803 0 -0.0026753585995905669 -0.0017253464689573855 0 -0.0045364883231327254 0.00031113213977770172 0 -0.0041243117904187603 -0.00022861639590525805 0 -0.0041271045254252627 -0.0001956935480529762 0 -0.0041138571270754468 -0.00022263787195006803 0 -0.0041776010879316337 -0.0001916207992828566 0 -0.0041243117904187603 -0.00022861639590525805 0 -0.0041271045254252627 -0.0001956935480529762 0 -0.0041092542801237589 -0.00023055693260648643 0 -0.0041138571270754468 -0.00022263787195006803 0 -0.0041097390539512413 -0.00019592921171115413 0 -0.0058042070818708977 -0.00069500560986156257 0 -0.006194314092273545 -0.00040708491165691212 0 -0.0041271045254252627 -0.0001956935480529762 0 -0.0041138571270754468 -0.00022263787195006803 0 -0.0041097390539512413 -0.00019592921171115413 0 -0.0082404334689081364 -0.00043507944817111182 0 -0.0081828921496327148 0.00021907793727232212 0 -0.0074623263249620668 7.2020443222327971e-05 0 -0.0082404334689081364 -0.00043507944817111182 0 -0.0081828921496327148 0.00021907793727232212 0 -0.0087041437180637466 0.00023588095933952099 0 -0.006194314092273545 -0.00040708491165691212 0 -0.0057434031185539637 0.00074182193231018244 0 -0.0041776010879316337 -0.0001916207992828566 0 -0.0041271045254252627 -0.0001956935480529762 0 -0.0041442789334035822 -0.00012943540100438268 0 -0.0020084304840949098 0.0009748843722603151 0 -0.0057434031185539637 0.00074182193231018244 0 -0.0041271045254252627 -0.0001956935480529762 0 -0.0041097390539512413 -0.00019592921171115413 0 -0.0041442789334035822 -0.00012943540100438268 0 -0.0080164975492132366 0.001348519358974217 0 -0.0081002921797499825 0.0012327129227514065 0 -0.0080065606338828761 0.001209025893534735 0 -0.0057434031185539637 0.00074182193231018244 0 -0.0084533514029443754 0.00086644976156467128 0 -0.0081828921496327148 0.00021907793727232212 0 -0.0087041437180637466 0.00023588095933952099 0 -0.0083176816023346218 0.0008214110433965784 0 -0.0081828921496327148 0.00021907793727232212 0 -0.0078477323808319645 0.00055427603273125784 0 -0.0083176816023346218 0.0008214110433965784 0 -0.0081828921496327148 0.00021907793727232212 0 -0.0078477323808319645 0.00055427603273125784 0 -0.0074623263249620668 7.2020443222327971e-05 0 -0.0078477323808319645 0.00055427603273125784 0 -0.0079263606166288508 0.00088251704606977103 0 -0.0083176816023346218 0.0008214110433965784 0 -0.0078477323808319645 0.00055427603273125784 0 -0.0074623263249620668 7.2020443222327971e-05 0 -0.0073550032012470413 0.00067097621340270284 0 -0.0078477323808319645 0.00055427603273125784 0 -0.0073550032012470413 0.00067097621340270284 0 -0.0079263606166288508 0.00088251704606977103 0 -0.0070981813585844376 -0.00057648177030113353 0 -0.0082404334689081364 -0.00043507944817111182 0 -0.0074623263249620668 7.2020443222327971e-05 0 -0.0070981813585844376 -0.00057648177030113353 0 -0.0074623263249620668 7.2020443222327971e-05 0 -0.0066148031878198134 -8.9847502711923476e-05 0 -0.0064473617095350405 8.5668801107686244e-05 0 -0.0066148031878198134 -8.9847502711923476e-05 0 -0.0073550032012470413 0.00067097621340270284 0 -0.0074623263249620668 7.2020443222327971e-05 0 -0.0066148031878198134 -8.9847502711923476e-05 0 -0.0073550032012470413 0.00067097621340270284 0 -0.0073550032012470413 0.00067097621340270284 0 -0.0077112648095055639 0.0011043328573835472 0 -0.0071628102135328723 0.00087111360658271219 0 -0.0073550032012470413 0.00067097621340270284 0 -0.0077112648095055639 0.0011043328573835472 0 -0.0079267984107235911 0.001079442232963722 0 -0.0080603235404611961 0.001125846649137353 0 -0.0077112648095055639 0.0011043328573835472 0 -0.0080286606109048302 0.0011450891026681094 0 -0.0080603235404611961 0.001125846649137353 0 -0.0077112648095055639 0.0011043328573835472 0 -0.0079267984107235911 0.001079442232963722 0 -0.0079267984107235911 0.001079442232963722 0 -0.0081404318887616824 0.0011147745541442537 0 -0.0082130830241199 0.0010946534164482235 0 -0.0080603235404611961 0.001125846649137353 0 -0.0079267984107235911 0.001079442232963722 0 -0.0082130830241199 0.0010946534164482235 0 -0.0079267984107235911 0.001079442232963722 0 -0.0079263606166288508 0.00088251704606977103 0 -0.0081404318887616824 0.0011147745541442537 0 -0.0073550032012470413 0.00067097621340270284 0 -0.0079267984107235911 0.001079442232963722 0 -0.0079263606166288508 0.00088251704606977103 0 -0.0084533514029443754 0.00086644976156467128 0 -0.0080868573364029205 0.0011886093867852197 0 -0.0081002921797499825 0.0012327129227514065 0 -0.0080812468789119643 0.0011212068933704163 0 -0.0081404318887616824 0.0011147745541442537 0 -0.0079263606166288508 0.00088251704606977103 0 -0.0083176816023346218 0.0008214110433965784 0 -0.0081404318887616824 0.0011147745541442537 0 -0.0081002921797499825 0.0012327129227514065 0 -0.0080065606338828761 0.001209025893534735 0 -0.0080812468789119643 0.0011212068933704163 0 -0.0080065606338828761 0.001209025893534735 0 -0.0080812468789119643 0.0011212068933704163 0 -0.0079263542777308696 0.001159283830948273 0 -0.0080812468789119643 0.0011212068933704163 0 -0.0080999332005388773 0.0010118149052722901 0 -0.0079783084237039208 0.0010675420572035603 0 -0.0081404318887616824 0.0011147745541442537 0 -0.0082167792225686636 0.0010469695187796334 0 -0.0082130830241199 0.0010946534164482235 0 -0.0080812468789119643 0.0011212068933704163 0 -0.0081404318887616824 0.0011147745541442537 0 -0.0082167792225686636 0.0010469695187796334 0 -0.0082167792225686636 0.0010469695187796334 0 -0.0083437931809264513 0.00090561808764220845 0 -0.008218022426794239 0.0009320524801750158 0 -0.0082167792225686636 0.0010469695187796334 0 -0.0083437931809264513 0.00090561808764220845 0 -0.0083345662016468345 0.0009986739783805793 0 -0.0082167792225686636 0.0010469695187796334 0 -0.0080999332005388773 0.0010118149052722901 0 -0.008218022426794239 0.0009320524801750158 0 -0.0080812468789119643 0.0011212068933704163 0 -0.0082167792225686636 0.0010469695187796334 0 -0.0080999332005388773 0.0010118149052722901 0 -0.0080999332005388773 0.0010118149052722901 0 -0.0081069030387693267 0.00086496089281605385 0 -0.008218022426794239 0.0009320524801750158 0 -0.0080999332005388773 0.0010118149052722901 0 -0.0081069030387693267 0.00086496089281605385 0 -0.0079738793101095419 0.0009543831165078761 0 -0.0081069030387693267 0.00086496089281605385 0 -0.0082848660357452159 0.00076125519379851593 0 -0.008218022426794239 0.0009320524801750158 0 -0.0081069030387693267 0.00086496089281605385 0 -0.0080549587851893346 0.00075902753848415257 0 -0.0081528434900400779 0.00070044938682757563 0 -0.0081069030387693267 0.00086496089281605385 0 -0.0082848660357452159 0.00076125519379851593 0 -0.0081528434900400779 0.00070044938682757563 0 -0.0082848660357452159 0.00076125519379851593 0 -0.0083437931809264513 0.00090561808764220845 0 -0.0085050710786026187 0.0006942588211222712 0 -0.0082848660357452159 0.00076125519379851593 0 -0.0083437931809264513 0.00090561808764220845 0 -0.008218022426794239 0.0009320524801750158 0 -0.0083437931809264513 0.00090561808764220845 0 -0.0085227877965117892 0.00086596430489065644 0 -0.0085050710786026187 0.0006942588211222712 0 -0.0083437931809264513 0.00090561808764220845 0 -0.0085227877965117892 0.00086596430489065644 0 -0.0083345662016468345 0.0009986739783805793 0 -0.0085227877965117892 0.00086596430489065644 0 -0.008459246181887866 0.0010013485679103277 0 -0.0083345662016468345 0.0009986739783805793 0 -0.0085227877965117892 0.00086596430489065644 0 -0.008459246181887866 0.0010013485679103277 0 -0.0087471640130609186 0.00084051412845637921 0 -0.0086066131936344738 0.00099119684977288808 0 -0.008459246181887866 0.0010013485679103277 0 -0.0087471640130609186 0.00084051412845637921 0 -0.0086066131936344738 0.00099119684977288808 0 -0.008459246181887866 0.0010013485679103277 0 -0.0083243513230722398 0.0010985924265592255 0 -0.008459246181887866 0.0010013485679103277 0 -0.0083243513230722398 0.0010985924265592255 0 -0.0082130830241199 0.0010946534164482235 0 -0.0080603235404611961 0.001125846649137353 0 -0.0083243513230722398 0.0010985924265592255 0 -0.0080286606109048302 0.0011450891026681094 0 -0.0080603235404611961 0.001125846649137353 0 -0.0083243513230722398 0.0010985924265592255 0 -0.0082130830241199 0.0010946534164482235 0 -0.0082167792225686636 0.0010469695187796334 0 -0.0082130830241199 0.0010946534164482235 0 -0.0083345662016468345 0.0009986739783805793 0 -0.008459246181887866 0.0010013485679103277 0 -0.0082130830241199 0.0010946534164482235 0 -0.0083345662016468345 0.0009986739783805793 0 -0.0012601724259765207 0.00099998001119844032 0 -0.0013064431943110057 0.00097775148643668955 0 -0.00087846467396640864 0.00086850366541372549 0 -0.0009422057337364286 0.0012050175421580833 0 -0.001161054857445661 0.0010933860352311821 0 -0.0011688698637863063 0.0012653592643799767 0 -0.0009422057337364286 0.0012050175421580833 0 -0.001161054857445661 0.0010933860352311821 0 -0.0011688698637863063 0.0012653592643799767 0 -0.001161054857445661 0.0010933860352311821 0 -0.0013002659459149118 0.0011447291234999506 0 -0.001161054857445661 0.0010933860352311821 0 -0.0013002659459149118 0.0011447291234999506 0 -0.0012718644258490142 0.0010608409489304303 0 -0.0013002659459149118 0.0011447291234999506 0 -0.0012718644258490142 0.0010608409489304303 0 -0.0013265029661672521 0.0010597764022320553 0 -0.0013143351203498013 0.00097475703968537275 0 -0.0012897315683578316 0.00098970510517477992 0 -0.0013265029661672521 0.0010597764022320553 0 -0.0012718644258490142 0.0010608409489304303 0 -0.0013143351203498013 0.00097475703968537275 0 -0.0013265029661672521 0.0010597764022320553 0 -0.001161054857445661 0.0010933860352311821 0 -0.0012718644258490142 0.0010608409489304303 0 -0.0013143351203498013 0.00097475703968537275 0 -0.00087846467396640864 0.00086850366541372549 0 -0.001161054857445661 0.0010933860352311821 0 -0.0013143351203498013 0.00097475703968537275 0 -0.0016612648972717987 0.0011213602166898148 0 -0.0013143351203498013 0.00097475703968537275 0 -0.0014457025858109138 0.0010976612358416223 0 -0.0013143351203498013 0.00097475703968537275 0 -0.0014457025858109138 0.0010976612358416223 0 -0.0012897315683578316 0.00098970510517477992 0 -0.0077057601297117551 0.0011206650557563785 0 -0.0078369317934075342 0.0011353124517733287 0 -0.0079025137227971467 0.0012420072013866583 0 -0.0077057601297117551 0.0011206650557563785 0 -0.0077717150902777699 0.0010489772299023576 0 -0.0078369317934075342 0.0011353124517733287 0 -0.0077717150902777699 0.0010489772299023576 0 -0.0078369317934075342 0.0011353124517733287 0 -0.0078742707164003879 0.0010827495446040114 0 -0.0077717150902777699 0.0010489772299023576 0 -0.0078742707164003879 0.0010827495446040114 0 -0.0078875446926501089 0.0010257838747510476 0 -0.0013280273920196514 0.0012813137149893343 0 -0.0013002659459149118 0.0011447291234999506 0 -0.0015743322505452177 0.001147654091161707 0 -0.0013002659459149118 0.0011447291234999506 0 -0.0013265029661672521 0.0010597764022320553 0 -0.0015743322505452177 0.001147654091161707 0 -0.004543286897581959 0.0010503822882461657 0 -0.004631417686275432 0.0012834185788004159 0 -0.0012897315683578316 0.00098970510517477992 0 -0.0013265029661672521 0.0010597764022320553 0 -0.0015743322505452177 0.001147654091161707 0 -0.0078369317934075342 0.0011353124517733287 0 -0.0079025137227971467 0.0012420072013866583 0 -0.0079263542777308696 0.001159283830948273 0 -0.0080065606338828761 0.001209025893534735 0 -0.0079025137227971467 0.0012420072013866583 0 -0.0079263542777308696 0.001159283830948273 0 -0.0080812468789119643 0.0011212068933704163 0 -0.0079263542777308696 0.001159283830948273 0 -0.0079783084237039208 0.0010675420572035603 0 -0.0078369317934075342 0.0011353124517733287 0 -0.0079263542777308696 0.001159283830948273 0 -0.0078742707164003879 0.0010827495446040114 0 -0.0078742707164003879 0.0010827495446040114 0 -0.0079783084237039208 0.0010675420572035603 0 -0.0078875446926501089 0.0010257838747510476 0 -0.0079263542777308696 0.001159283830948273 0 -0.0078742707164003879 0.0010827495446040114 0 -0.0079783084237039208 0.0010675420572035603 0 -0.0080999332005388773 0.0010118149052722901 0 -0.0079783084237039208 0.0010675420572035603 0 -0.0079738793101095419 0.0009543831165078761 0 -0.0079783084237039208 0.0010675420572035603 0 -0.0078875446926501089 0.0010257838747510476 0 -0.0079738793101095419 0.0009543831165078761 0 -0.0078875446926501089 0.0010257838747510476 0 -0.0079738793101095419 0.0009543831165078761 0 -0.0078313242896564869 0.00097317943870058835 0 -0.0079738793101095419 0.0009543831165078761 0 -0.0078541320627293111 0.0008692681838258601 0 -0.0078313242896564869 0.00097317943870058835 0 -0.0081069030387693267 0.00086496089281605385 0 -0.0079738793101095419 0.0009543831165078761 0 -0.0079563304047120323 0.00081210502299801791 0 -0.0081069030387693267 0.00086496089281605385 0 -0.0080549587851893346 0.00075902753848415257 0 -0.0079563304047120323 0.00081210502299801791 0 -0.0080549587851893346 0.00075902753848415257 0 -0.0079563304047120323 0.00081210502299801791 0 -0.0080015233367534081 0.00065071606336730985 0 -0.0079563304047120323 0.00081210502299801791 0 -0.0078554933019769398 0.00073604506617729482 0 -0.0080015233367534081 0.00065071606336730985 0 -0.0079738793101095419 0.0009543831165078761 0 -0.0079563304047120323 0.00081210502299801791 0 -0.0078541320627293111 0.0008692681838258601 0 -0.0079563304047120323 0.00081210502299801791 0 -0.0078541320627293111 0.0008692681838258601 0 -0.0078554933019769398 0.00073604506617729482 0 -0.0078541320627293111 0.0008692681838258601 0 -0.0078554933019769398 0.00073604506617729482 0 -0.0077583949686724652 0.00079124335371246423 0 -0.0078554933019769398 0.00073604506617729482 0 -0.0077172617623965378 0.00066915656001654297 0 -0.0078334907478011338 0.00060234876158307715 0 -0.0078554933019769398 0.00073604506617729482 0 -0.0077172617623965378 0.00066915656001654297 0 -0.0077583949686724652 0.00079124335371246423 0 -0.0077172617623965378 0.00066915656001654297 0 -0.0077583949686724652 0.00079124335371246423 0 -0.0076219522697003207 0.0007947869130011247 0 -0.0078541320627293111 0.0008692681838258601 0 -0.0077583949686724652 0.00079124335371246423 0 -0.0077499675121958838 0.00089625348225675543 0 -0.0077583949686724652 0.00079124335371246423 0 -0.0077499675121958838 0.00089625348225675543 0 -0.0076219522697003207 0.0007947869130011247 0 -0.0077499675121958838 0.00089625348225675543 0 -0.0077564339308192091 0.00096960001273963242 0 -0.007670948262596131 0.00095758519113396179 0 -0.0077499675121958838 0.00089625348225675543 0 -0.0078313242896564869 0.00097317943870058835 0 -0.0077564339308192091 0.00096960001273963242 0 -0.0078541320627293111 0.0008692681838258601 0 -0.0077499675121958838 0.00089625348225675543 0 -0.0078313242896564869 0.00097317943870058835 0 -0.0077717150902777699 0.0010489772299023576 0 -0.0078875446926501089 0.0010257838747510476 0 -0.0078313242896564869 0.00097317943870058835 0 -0.0077717150902777699 0.0010489772299023576 0 -0.0077564339308192091 0.00096960001273963242 0 -0.007670948262596131 0.00095758519113396179 0 -0.0077057601297117551 0.0011206650557563785 0 -0.0077717150902777699 0.0010489772299023576 0 -0.007670948262596131 0.00095758519113396179 0 -0.0077717150902777699 0.0010489772299023576 0 -0.0078313242896564869 0.00097317943870058835 0 -0.0077564339308192091 0.00096960001273963242 0 -0.0014457025858109138 0.0010976612358416223 0 -0.0012897315683578316 0.00098970510517477992 0 -0.001552279471732979 0.0012944996727392228 0 -0.004543286897581959 0.0010503822882461657 0 -0.0043449406294193702 0.0011104931835232916 0 -0.0077057601297117551 0.0011206650557563785 0 -0.007670948262596131 0.00095758519113396179 0 -0.0074286724135901724 0.00089910447028122072 0 -0.007670948262596131 0.00095758519113396179 0 -0.0076219522697003207 0.0007947869130011247 0 -0.0074286724135901724 0.00089910447028122072 0 -0.0077499675121958838 0.00089625348225675543 0 -0.007670948262596131 0.00095758519113396179 0 -0.0076219522697003207 0.0007947869130011247 0 -0.0076219522697003207 0.0007947869130011247 0 -0.007430979786833645 0.00067346584343471686 0 -0.0074286724135901724 0.00089910447028122072 0 -0.0077172617623965378 0.00066915656001654297 0 -0.0076219522697003207 0.0007947869130011247 0 -0.0075866400318954693 0.00061005699285267951 0 -0.0076219522697003207 0.0007947869130011247 0 -0.007430979786833645 0.00067346584343471686 0 -0.0075866400318954693 0.00061005699285267951 0 -0.0071363869660238041 0.00060227200393871019 0 -0.007430979786833645 0.00067346584343471686 0 -0.0074286724135901724 0.00089910447028122072 0 -0.0053426854422524202 0.00063866503329455435 0 -0.0043449406294193702 0.0011104931835232916 0 -0.0016612648972717987 0.0011213602166898148 0 -0.0014457025858109138 0.0010976612358416223 0 -0.001552279471732979 0.0012944996727392228 0 -0.001730809426397278 0.0012803176672710069 0 -0.0016612648972717987 0.0011213602166898148 0 -0.001552279471732979 0.0012944996727392228 0 -0.015046391472263155 -0.0035882863710597988 0 -0.011335646113896383 -0.0017977853594871231 0 -0.010969597467042669 -0.0013552581872439359 0 -0.010854869908173366 -0.0015712526292760085 0 -0.010716403695854713 -0.0014720538812066579 0 -0.018444859411430151 -0.0053958339882420473 0 -0.016393539934168973 -0.0063858079588798369 0 -0.017794159720591542 -0.0050783457692047005 0 -0.010969597467042669 -0.0013552581872439359 0 -0.011044500301778079 -0.001504589851857195 0 -0.010854869908173366 -0.0015712526292760085 0 -0.0092777702616441571 -0.00067858708179800904 0 -0.011335646113896383 -0.0017977853594871231 0 -0.0071363869660238041 0.00060227200393871019 0 -0.007430979786833645 0.00067346584343471686 0 -0.0073669980487552408 0.00045439967703896712 0 -0.0053426854422524202 0.00063866503329455435 0 -0.0092777702616441571 -0.00067858708179800904 0 -0.007430979786833645 0.00067346584343471686 0 -0.0073669980487552408 0.00045439967703896712 0 -0.0075866400318954693 0.00061005699285267951 0 -0.0073669980487552408 0.00045439967703896712 0 -0.0075866400318954693 0.00061005699285267951 0 -0.0075919103515226039 0.00045793885573961515 0 -0.0077172617623965378 0.00066915656001654297 0 -0.0075866400318954693 0.00061005699285267951 0 -0.0077106547957584417 0.0005234664766926606 0 -0.0075919103515226039 0.00045793885573961515 0 -0.0076932735532377807 0.00036787929567541698 0 -0.0077106547957584417 0.0005234664766926606 0 -0.0075866400318954693 0.00061005699285267951 0 -0.0075919103515226039 0.00045793885573961515 0 -0.0077106547957584417 0.0005234664766926606 0 -0.0075919103515226039 0.00045793885573961515 0 -0.0076932735532377807 0.00036787929567541698 0 -0.0075858161388792401 0.00031355024210348321 0 -0.0081940108722336237 -0.0011620461310710732 0 -0.011335646113896383 -0.0017977853594871231 0 -0.0076932735532377807 0.00036787929567541698 0 -0.0075879354296655719 0.0003262412869620166 0 -0.0077768835467535782 0.00029968989814995367 0 -0.0073669980487552408 0.00045439967703896712 0 -0.0075919103515226039 0.00045793885573961515 0 -0.0075858161388792401 0.00031355024210348321 0 -0.0075879354296655719 0.0003262412869620166 0 -0.0077768835467535782 0.00029968989814995367 0 -0.0078747039673770121 -3.9395427324612718e-06 0 -0.011335646113896383 -0.0017977853594871231 0 -0.010728588206048596 -0.0023491080386416228 0 -0.0079118175576408031 0.00029015074505957337 0 -0.0077768835467535782 0.00029968989814995367 0 -0.0078747039673770121 -3.9395427324612718e-06 0 -0.0079118175576408031 0.00029015074505957337 0 -0.0077768835467535782 0.00029968989814995367 0 -0.0078254455700656651 0.00043837895527515044 0 -0.0079118175576408031 0.00029015074505957337 0 -0.0078254455700656651 0.00043837895527515044 0 -0.0079554178210294729 0.00041262207969759441 0 -0.0076932735532377807 0.00036787929567541698 0 -0.0077768835467535782 0.00029968989814995367 0 -0.0078254455700656651 0.00043837895527515044 0 -0.0077106547957584417 0.0005234664766926606 0 -0.0078334907478011338 0.00060234876158307715 0 -0.0078254455700656651 0.00043837895527515044 0 -0.0076932735532377807 0.00036787929567541698 0 -0.0077106547957584417 0.0005234664766926606 0 -0.0078254455700656651 0.00043837895527515044 0 -0.0077172617623965378 0.00066915656001654297 0 -0.0077106547957584417 0.0005234664766926606 0 -0.0078334907478011338 0.00060234876158307715 0 -0.0078554933019769398 0.00073604506617729482 0 -0.0078334907478011338 0.00060234876158307715 0 -0.0080015233367534081 0.00065071606336730985 0 -0.0078334907478011338 0.00060234876158307715 0 -0.0078254455700656651 0.00043837895527515044 0 -0.0079320123372767625 0.00052018287927510932 0 -0.0078254455700656651 0.00043837895527515044 0 -0.0079320123372767625 0.00052018287927510932 0 -0.0079554178210294729 0.00041262207969759441 0 -0.0079320123372767625 0.00052018287927510932 0 -0.0080015233367534081 0.00065071606336730985 0 -0.0080605003491063896 0.00047948544932015626 0 -0.0079320123372767625 0.00052018287927510932 0 -0.0080605003491063896 0.00047948544932015626 0 -0.0079554178210294729 0.00041262207969759441 0 -0.0078334907478011338 0.00060234876158307715 0 -0.0079320123372767625 0.00052018287927510932 0 -0.0080015233367534081 0.00065071606336730985 0 -0.0080015233367534081 0.00065071606336730985 0 -0.0081425221451016175 0.00057615540135117806 0 -0.0081528434900400779 0.00070044938682757563 0 -0.0080549587851893346 0.00075902753848415257 0 -0.0080015233367534081 0.00065071606336730985 0 -0.0081528434900400779 0.00070044938682757563 0 -0.0080015233367534081 0.00065071606336730985 0 -0.0080605003491063896 0.00047948544932015626 0 -0.0081425221451016175 0.00057615540135117806 0 -0.0080605003491063896 0.00047948544932015626 0 -0.0081425221451016175 0.00057615540135117806 0 -0.0082386880330537586 0.00041172286813312414 0 -0.0080605003491063896 0.00047948544932015626 0 -0.0080667517088120408 0.00033652584724004121 0 -0.0082386880330537586 0.00041172286813312414 0 -0.0079118175576408031 0.00029015074505957337 0 -0.0079554178210294729 0.00041262207969759441 0 -0.0080667517088120408 0.00033652584724004121 0 -0.0080605003491063896 0.00047948544932015626 0 -0.0079554178210294729 0.00041262207969759441 0 -0.0080667517088120408 0.00033652584724004121 0 -0.0079118175576408031 0.00029015074505957337 0 -0.0080667517088120408 0.00033652584724004121 0 -0.00803851034231199 0.00018837293902092728 0 -0.0079118175576408031 0.00029015074505957337 0 -0.00803851034231199 0.00018837293902092728 0 -0.0078747039673770121 -3.9395427324612718e-06 0 -0.0080667517088120408 0.00033652584724004121 0 -0.00803851034231199 0.00018837293902092728 0 -0.0081755603337599209 0.00020787019281973758 0 -0.0080667517088120408 0.00033652584724004121 0 -0.0081755603337599209 0.00020787019281973758 0 -0.0082386880330537586 0.00041172286813312414 0 -0.010407242245809547 -0.00020622230631140296 0 -0.014976947398375197 -0.004014149450858288 0 -0.013171197063262424 -0.0043510659685493001 0 -0.010728588206048596 -0.0023491080386416228 0 -0.0088486967230991913 -0.00046382962187790894 0 -0.0083806468622447845 -0.00010881353794128416 0 -0.0078747039673770121 -3.9395427324612718e-06 0 -0.0088722305500090366 -0.00038690042305969803 0 -0.0081602341160472557 8.0103544626325174e-05 0 -0.0083806468622447845 -0.00010881353794128416 0 -0.0083328665443482674 7.0389590296755141e-05 0 -0.0081755603337599209 0.00020787019281973758 0 -0.0081602341160472557 8.0103544626325174e-05 0 -0.0083328665443482674 7.0389590296755141e-05 0 -0.00803851034231199 0.00018837293902092728 0 -0.0081755603337599209 0.00020787019281973758 0 -0.0081602341160472557 8.0103544626325174e-05 0 -0.00803851034231199 0.00018837293902092728 0 -0.0081602341160472557 8.0103544626325174e-05 0 -0.0078747039673770121 -3.9395427324612718e-06 0 -0.0081602341160472557 8.0103544626325174e-05 0 -0.0083806468622447845 -0.00010881353794128416 0 -0.0078747039673770121 -3.9395427324612718e-06 0 -0.010407242245809547 -0.00020622230631140296 0 -0.013171197063262424 -0.0043510659685493001 0 -0.0088722305500090366 -0.00038690042305969803 0 -0.014437144754138752 -0.0033157053573862122 0 -0.01464350064860484 -0.0032237155852982338 0 -0.014833580923145838 -0.0034505396871243395 0 -0.012438886103137236 -0.0017803504275765954 0 -0.014865627439606096 -0.0038377775303122938 0 -0.014437144754138752 -0.0033157053573862122 0 -0.014833580923145838 -0.0034505396871243395 0 -0.014976947398375197 -0.004014149450858288 0 -0.014437144754138752 -0.0033157053573862122 0 -0.01464350064860484 -0.0032237155852982338 0 -0.014473490600673 -0.0031379010853204849 0 -0.01464350064860484 -0.0032237155852982338 0 -0.014833580923145838 -0.0034505396871243395 0 -0.015079624491454235 -0.0030465512861122192 0 -0.014833580923145838 -0.0034505396871243395 0 -0.015559194116973872 -0.0032900194938070004 0 -0.015079624491454235 -0.0030465512861122192 0 -0.015559194116973872 -0.0032900194938070004 0 -0.015766233749585742 -0.002764738596257782 0 -0.015079624491454235 -0.0030465512861122192 0 -0.014833580923145838 -0.0034505396871243395 0 -0.014976947398375197 -0.004014149450858288 0 -0.015559194116973872 -0.0032900194938070004 0 -0.016393539934168973 -0.0063858079588798369 0 -0.014976947398375197 -0.004014149450858288 0 -0.013171197063262424 -0.0043510659685493001 0 -0.016393539934168973 -0.0063858079588798369 0 -0.014976947398375197 -0.004014149450858288 0 -0.016364198241619374 -0.0047964800614034584 0 -0.016393539934168973 -0.0063858079588798369 0 -0.016364198241619374 -0.0047964800614034584 0 -0.017794159720591542 -0.0050783457692047005 0 -0.014976947398375197 -0.004014149450858288 0 -0.016364198241619374 -0.0047964800614034584 0 -0.015897141187427407 -0.0037968711894259418 0 -0.016364198241619374 -0.0047964800614034584 0 -0.015897141187427407 -0.0037968711894259418 0 -0.01673801694663794 -0.0031770410303476639 0 -0.015897141187427407 -0.0037968711894259418 0 -0.015559194116973872 -0.0032900194938070004 0 -0.01673801694663794 -0.0031770410303476639 0 -0.015559194116973872 -0.0032900194938070004 0 -0.01673801694663794 -0.0031770410303476639 0 -0.015766233749585742 -0.002764738596257782 0 -0.014976947398375197 -0.004014149450858288 0 -0.015897141187427407 -0.0037968711894259418 0 -0.015559194116973872 -0.0032900194938070004 0 -0.0187248512128394 -0.0042601781071079006 0 -0.01757666829120803 -0.0039790780848163836 0 -0.018122926862677649 -0.0032091677059485494 0 -0.0187248512128394 -0.0042601781071079006 0 -0.01757666829120803 -0.0039790780848163836 0 -0.017794159720591542 -0.0050783457692047005 0 -0.016364198241619374 -0.0047964800614034584 0 -0.01673801694663794 -0.0031770410303476639 0 -0.017794159720591542 -0.0050783457692047005 0 -0.017141869736177585 -0.0035606017472397033 0 -0.017751243811717117 -0.0050276374446719943 0 -0.00870843294973043 0.00049591853208716483 0 -0.0089210432411095976 0.00049260531248157189 0 -0.00873500285283124 0.00067620917435023747 0 -0.00870843294973043 0.00049591853208716483 0 -0.0085567229727242042 0.00033328767980914722 0 -0.0087782501198529327 0.00027058801728601094 0 -0.00870843294973043 0.00049591853208716483 0 -0.0087782501198529327 0.00027058801728601094 0 -0.0090365519740012376 0.00027835102020175328 0 -0.00870843294973043 0.00049591853208716483 0 -0.0089210432411095976 0.00049260531248157189 0 -0.0090365519740012376 0.00027835102020175328 0 -0.0091240531770199629 0.00041320367660055413 0 -0.0089210432411095976 0.00049260531248157189 0 -0.0090365519740012376 0.00027835102020175328 0 -0.0091240531770199629 0.00041320367660055413 0 -0.0093647032605148391 0.00026969114538295081 0 -0.0092851035356106369 0.00045031509112894929 0 -0.0091240531770199629 0.00041320367660055413 0 -0.0089996134596184389 0.00060678741664468307 0 -0.0092851035356106369 0.00045031509112894929 0 -0.0091240531770199629 0.00041320367660055413 0 -0.0089996134596184389 0.00060678741664468307 0 -0.0089210432411095976 0.00049260531248157189 0 -0.0089996134596184389 0.00060678741664468307 0 -0.0089210432411095976 0.00049260531248157189 0 -0.00873500285283124 0.00067620917435023747 0 -0.0089996134596184389 0.00060678741664468307 0 -0.0087471640130609186 0.00084051412845637921 0 -0.00873500285283124 0.00067620917435023747 0 -0.0089996134596184389 0.00060678741664468307 0 -0.0087471640130609186 0.00084051412845637921 0 -0.0090052920266983933 0.00074520031109147269 0 -0.0085227877965117892 0.00086596430489065644 0 -0.0087471640130609186 0.00084051412845637921 0 -0.00873500285283124 0.00067620917435023747 0 -0.0085227877965117892 0.00086596430489065644 0 -0.00873500285283124 0.00067620917435023747 0 -0.0085050710786026187 0.0006942588211222712 0 -0.00870843294973043 0.00049591853208716483 0 -0.00873500285283124 0.00067620917435023747 0 -0.0085050710786026187 0.0006942588211222712 0 -0.0082848660357452159 0.00076125519379851593 0 -0.0085050710786026187 0.0006942588211222712 0 -0.0083960264629723298 0.00054680626029541483 0 -0.0085050710786026187 0.0006942588211222712 0 -0.0083960264629723298 0.00054680626029541483 0 -0.008540254430683342 0.00052129286955939933 0 -0.00870843294973043 0.00049591853208716483 0 -0.0085050710786026187 0.0006942588211222712 0 -0.008540254430683342 0.00052129286955939933 0 -0.0081425221451016175 0.00057615540135117806 0 -0.0081528434900400779 0.00070044938682757563 0 -0.0082493760852541849 0.00060731251803302255 0 -0.0082848660357452159 0.00076125519379851593 0 -0.0083960264629723298 0.00054680626029541483 0 -0.0082493760852541849 0.00060731251803302255 0 -0.0082848660357452159 0.00076125519379851593 0 -0.0081528434900400779 0.00070044938682757563 0 -0.0082493760852541849 0.00060731251803302255 0 -0.0083960264629723298 0.00054680626029541483 0 -0.0082493760852541849 0.00060731251803302255 0 -0.0082386880330537586 0.00041172286813312414 0 -0.0081425221451016175 0.00057615540135117806 0 -0.0082493760852541849 0.00060731251803302255 0 -0.0082386880330537586 0.00041172286813312414 0 -0.0083960264629723298 0.00054680626029541483 0 -0.0082386880330537586 0.00041172286813312414 0 -0.0084133250910772353 0.00029003963600773743 0 -0.0084133250910772353 0.00029003963600773743 0 -0.0083223417767801355 0.00021685316726400609 0 -0.0084346925210370717 9.070514200484856e-05 0 -0.0082386880330537586 0.00041172286813312414 0 -0.0084133250910772353 0.00029003963600773743 0 -0.0083223417767801355 0.00021685316726400609 0 -0.0081755603337599209 0.00020787019281973758 0 -0.0082386880330537586 0.00041172286813312414 0 -0.0083223417767801355 0.00021685316726400609 0 -0.00870843294973043 0.00049591853208716483 0 -0.008540254430683342 0.00052129286955939933 0 -0.0085567229727242042 0.00033328767980914722 0 -0.0083960264629723298 0.00054680626029541483 0 -0.0084133250910772353 0.00029003963600773743 0 -0.0085567229727242042 0.00033328767980914722 0 -0.0083960264629723298 0.00054680626029541483 0 -0.008540254430683342 0.00052129286955939933 0 -0.0085567229727242042 0.00033328767980914722 0 -0.0084133250910772353 0.00029003963600773743 0 -0.0085567229727242042 0.00033328767980914722 0 -0.0085345645320864232 0.00010959753399353499 0 -0.0085567229727242042 0.00033328767980914722 0 -0.008688884970260307 0.00011106174897452765 0 -0.0087782501198529327 0.00027058801728601094 0 -0.0085567229727242042 0.00033328767980914722 0 -0.008688884970260307 0.00011106174897452765 0 -0.0085345645320864232 0.00010959753399353499 0 -0.0085345645320864232 0.00010959753399353499 0 -0.0085424995956052911 -9.81953493802111e-05 0 -0.0085158130564526452 -8.9441461762114127e-05 0 -0.008688884970260307 0.00011106174897452765 0 -0.0085345645320864232 0.00010959753399353499 0 -0.0085424995956052911 -9.81953493802111e-05 0 -0.008688884970260307 0.00011106174897452765 0 -0.0085424995956052911 -9.81953493802111e-05 0 -0.0087587793913977609 -6.608582890159328e-05 0 -0.0081755603337599209 0.00020787019281973758 0 -0.0083223417767801355 0.00021685316726400609 0 -0.0083328665443482674 7.0389590296755141e-05 0 -0.0083223417767801355 0.00021685316726400609 0 -0.0083328665443482674 7.0389590296755141e-05 0 -0.0084346925210370717 9.070514200484856e-05 0 -0.0083328665443482674 7.0389590296755141e-05 0 -0.0084346925210370717 9.070514200484856e-05 0 -0.0084576707909710964 -4.6740133643354267e-05 0 -0.0084133250910772353 0.00029003963600773743 0 -0.0085345645320864232 0.00010959753399353499 0 -0.0084346925210370717 9.070514200484856e-05 0 -0.0085345645320864232 0.00010959753399353499 0 -0.0084346925210370717 9.070514200484856e-05 0 -0.0085158130564526452 -8.9441461762114127e-05 0 -0.0085424995956052911 -9.81953493802111e-05 0 -0.0085158130564526452 -8.9441461762114127e-05 0 -0.008534071955605977 -0.00027444931914172348 0 -0.0085158130564526452 -8.9441461762114127e-05 0 -0.0085715574174748919 -0.00019836221388866207 0 -0.008534071955605977 -0.00027444931914172348 0 -0.0084346925210370717 9.070514200484856e-05 0 -0.0085158130564526452 -8.9441461762114127e-05 0 -0.0084576707909710964 -4.6740133643354267e-05 0 -0.0083806468622447845 -0.00010881353794128416 0 -0.0084576707909710964 -4.6740133643354267e-05 0 -0.0085715574174748919 -0.00019836221388866207 0 -0.0085158130564526452 -8.9441461762114127e-05 0 -0.0084576707909710964 -4.6740133643354267e-05 0 -0.0085715574174748919 -0.00019836221388866207 0 -0.0083806468622447845 -0.00010881353794128416 0 -0.0083328665443482674 7.0389590296755141e-05 0 -0.0084576707909710964 -4.6740133643354267e-05 0 -0.0088722305500090366 -0.00038690042305969803 0 -0.0083023375028241052 -0.00028433689764216757 0 -0.0068530039854703137 0.0018935211193978497 0 -0.010407242245809547 -0.00020622230631140296 0 -0.0088722305500090366 -0.00038690042305969803 0 -0.0068530039854703137 0.0018935211193978497 0 -0.0083806468622447845 -0.00010881353794128416 0 -0.0085715574174748919 -0.00019836221388866207 0 -0.0088722305500090366 -0.00038690042305969803 0 -0.0085424995956052911 -9.81953493802111e-05 0 -0.008534071955605977 -0.00027444931914172348 0 -0.0083023375028241052 -0.00028433689764216757 0 -0.0085715574174748919 -0.00019836221388866207 0 -0.0088722305500090366 -0.00038690042305969803 0 -0.008534071955605977 -0.00027444931914172348 0 -0.0088722305500090366 -0.00038690042305969803 0 -0.008534071955605977 -0.00027444931914172348 0 -0.0083023375028241052 -0.00028433689764216757 0 -0.0083023375028241052 -0.00028433689764216757 0 -0.0087054428851318175 -0.00040041185797954373 0 -0.0086669853880597964 -0.00066622546556431789 0 -0.0086232715395331127 -0.00021687429167007349 0 -0.0087587793913977609 -6.608582890159328e-05 0 -0.0088440465130277136 -0.00025524088876171456 0 -0.0085424995956052911 -9.81953493802111e-05 0 -0.0086232715395331127 -0.00021687429167007349 0 -0.0087587793913977609 -6.608582890159328e-05 0 -0.0085424995956052911 -9.81953493802111e-05 0 -0.0083023375028241052 -0.00028433689764216757 0 -0.0086232715395331127 -0.00021687429167007349 0 -0.0083023375028241052 -0.00028433689764216757 0 -0.0086232715395331127 -0.00021687429167007349 0 -0.0087054428851318175 -0.00040041185797954373 0 -0.0086232715395331127 -0.00021687429167007349 0 -0.0087054428851318175 -0.00040041185797954373 0 -0.0088440465130277136 -0.00025524088876171456 0 -0.0088440465130277136 -0.00025524088876171456 0 -0.009283309524560435 -0.00019518639196877203 0 -0.009139936210939472 -0.00050918187730523143 0 -0.0087054428851318175 -0.00040041185797954373 0 -0.0088440465130277136 -0.00025524088876171456 0 -0.009139936210939472 -0.00050918187730523143 0 -0.009283309524560435 -0.00019518639196877203 0 -0.0089883875453144451 -7.5825505032827109e-05 0 -0.0091585912164948262 1.0506382097262937e-05 0 -0.0088440465130277136 -0.00025524088876171456 0 -0.009283309524560435 -0.00019518639196877203 0 -0.0089883875453144451 -7.5825505032827109e-05 0 -0.0087587793913977609 -6.608582890159328e-05 0 -0.0088440465130277136 -0.00025524088876171456 0 -0.0089883875453144451 -7.5825505032827109e-05 0 -0.0087587793913977609 -6.608582890159328e-05 0 -0.0089883875453144451 -7.5825505032827109e-05 0 -0.0089069727338895524 9.8952609952368382e-05 0 -0.008688884970260307 0.00011106174897452765 0 -0.0087587793913977609 -6.608582890159328e-05 0 -0.0089069727338895524 9.8952609952368382e-05 0 -0.0089883875453144451 -7.5825505032827109e-05 0 -0.0089069727338895524 9.8952609952368382e-05 0 -0.0091585912164948262 1.0506382097262937e-05 0 -0.0089069727338895524 9.8952609952368382e-05 0 -0.0091585912164948262 1.0506382097262937e-05 0 -0.0090365519740012376 0.00027835102020175328 0 -0.0089069727338895524 9.8952609952368382e-05 0 -0.0087782501198529327 0.00027058801728601094 0 -0.0090365519740012376 0.00027835102020175328 0 -0.008688884970260307 0.00011106174897452765 0 -0.0089069727338895524 9.8952609952368382e-05 0 -0.0087782501198529327 0.00027058801728601094 0 -0.0091240531770199629 0.00041320367660055413 0 -0.0093647032605148391 0.00026969114538295081 0 -0.0090365519740012376 0.00027835102020175328 0 -0.0093647032605148391 0.00026969114538295081 0 -0.0090365519740012376 0.00027835102020175328 0 -0.009380173879513596 7.4704391799004124e-05 0 -0.0091585912164948262 1.0506382097262937e-05 0 -0.0090365519740012376 0.00027835102020175328 0 -0.009380173879513596 7.4704391799004124e-05 0 -0.0093647032605148391 0.00026969114538295081 0 -0.009380173879513596 7.4704391799004124e-05 0 -0.009640034139605496 0.00010530274863036395 0 -0.009380173879513596 7.4704391799004124e-05 0 -0.0096586720327334948 -0.00012478408667895683 0 -0.009640034139605496 0.00010530274863036395 0 -0.009283309524560435 -0.00019518639196877203 0 -0.0091585912164948262 1.0506382097262937e-05 0 -0.009380173879513596 7.4704391799004124e-05 0 -0.009283309524560435 -0.00019518639196877203 0 -0.009380173879513596 7.4704391799004124e-05 0 -0.0096586720327334948 -0.00012478408667895683 0 -0.009283309524560435 -0.00019518639196877203 0 -0.0096586720327334948 -0.00012478408667895683 0 -0.0096573497056779856 -0.00042629516698575924 0 -0.0096586720327334948 -0.00012478408667895683 0 -0.0099087519997314889 -0.00031603722839830111 0 -0.0096573497056779856 -0.00042629516698575924 0 -0.0096586720327334948 -0.00012478408667895683 0 -0.0099491291904691085 -8.1838691178624695e-05 0 -0.0099087519997314889 -0.00031603722839830111 0 -0.0096586720327334948 -0.00012478408667895683 0 -0.0099491291904691085 -8.1838691178624695e-05 0 -0.009640034139605496 0.00010530274863036395 0 -0.0099491291904691085 -8.1838691178624695e-05 0 -0.009640034139605496 0.00010530274863036395 0 -0.0099090510983563928 0.0001537854736446296 0 -0.0099491291904691085 -8.1838691178624695e-05 0 -0.010328309279136206 -2.830104394780052e-05 0 -0.010228620081580209 -0.0003711783281102884 0 -0.0099491291904691085 -8.1838691178624695e-05 0 -0.0099087519997314889 -0.00031603722839830111 0 -0.010228620081580209 -0.0003711783281102884 0 -0.010328309279136206 -2.830104394780052e-05 0 -0.01011578794541476 0.00021336770539283481 0 -0.010510018511003838 0.00010101229204982115 0 -0.010328309279136206 -2.830104394780052e-05 0 -0.010659847778113794 -2.270347945846365e-05 0 -0.01071936504266263 -0.00030102978316525045 0 -0.010328309279136206 -2.830104394780052e-05 0 -0.010659847778113794 -2.270347945846365e-05 0 -0.010510018511003838 0.00010101229204982115 0 -0.0099491291904691085 -8.1838691178624695e-05 0 -0.010328309279136206 -2.830104394780052e-05 0 -0.0099090510983563928 0.0001537854736446296 0 -0.010328309279136206 -2.830104394780052e-05 0 -0.01011578794541476 0.00021336770539283481 0 -0.0099090510983563928 0.0001537854736446296 0 -0.01011578794541476 0.00021336770539283481 0 -0.0097665713892644973 0.00034599996025971722 0 -0.0099320084879694903 0.00037656670402028922 0 -0.01011578794541476 0.00021336770539283481 0 -0.010201498240712377 0.00028543352280903432 0 -0.0099320084879694903 0.00037656670402028922 0 -0.01011578794541476 0.00021336770539283481 0 -0.0097665713892644973 0.00034599996025971722 0 -0.0099090510983563928 0.0001537854736446296 0 -0.0097665713892644973 0.00034599996025971722 0 -0.0095682625119128863 0.00031176952303164668 0 -0.0099090510983563928 0.0001537854736446296 0 -0.0093647032605148391 0.00026969114538295081 0 -0.0095682625119128863 0.00031176952303164668 0 -0.009640034139605496 0.00010530274863036395 0 -0.0093647032605148391 0.00026969114538295081 0 -0.0095682625119128863 0.00031176952303164668 0 -0.0092851035356106369 0.00045031509112894929 0 -0.0095682625119128863 0.00031176952303164668 0 -0.009640034139605496 0.00010530274863036395 0 -0.0099090510983563928 0.0001537854736446296 0 -0.013785156055261085 0.0016940950598184588 0 -0.013196940517301895 0.0015959006133267882 0 -0.013699715041905654 0.0011919620024237847 0 -0.014525572232744602 0.0019992230994747987 0 -0.015456680524857736 0.00031892580356257836 0 -0.010510018511003838 0.00010101229204982115 0 -0.010472769305897864 0.00013359148942768923 0 -0.011023268599526251 7.3913781297889526e-05 0 -0.011791583814890098 0.00095232669046903359 0 -0.012358034367010086 0.00049347042841436733 0 -0.010659847778113794 -2.270347945846365e-05 0 -0.010510018511003838 0.00010101229204982115 0 -0.011023268599526251 7.3913781297889526e-05 0 -0.010510018511003838 0.00010101229204982115 0 -0.010201498240712377 0.00028543352280903432 0 -0.010472769305897864 0.00013359148942768923 0 -0.01011578794541476 0.00021336770539283481 0 -0.010510018511003838 0.00010101229204982115 0 -0.010201498240712377 0.00028543352280903432 0 -0.014525572232744602 0.0019992230994747987 0 -0.01352216645694344 0.0022166936254649381 0 -0.013785156055261085 0.0016940950598184588 0 -0.013196940517301895 0.0015959006133267882 0 -0.011573122056898484 0.0011603780707467376 0 -0.015289858088445407 0.0026514197905201683 0 -0.015170397623767016 0.0032202155153606372 0 -0.015423350264075751 0.0030274583413496285 0 -0.010472769305897864 0.00013359148942768923 0 -0.010182553686107777 0.00056275431099876239 0 -0.010865081199540855 0.0010812437707399638 0 -0.011791583814890098 0.00095232669046903359 0 -0.011048179750995436 0.0011631541410650249 0 -0.013196940517301895 0.0015959006133267882 0 -0.011573122056898484 0.0011603780707467376 0 -0.010865081199540855 0.0010812437707399638 0 -0.010201498240712377 0.00028543352280903432 0 -0.010472769305897864 0.00013359148942768923 0 -0.010182553686107777 0.00056275431099876239 0 -0.010201498240712377 0.00028543352280903432 0 -0.010182553686107777 0.00056275431099876239 0 -0.0098626414338430154 0.00055253831406962218 0 -0.010182553686107777 0.00056275431099876239 0 -0.0097491395968977591 0.00080036271114914271 0 -0.0098626414338430154 0.00055253831406962218 0 -0.010182553686107777 0.00056275431099876239 0 -0.0097491395968977591 0.00080036271114914271 0 -0.010073709581603313 0.00094634093312123398 0 -0.0097491395968977591 0.00080036271114914271 0 -0.010073709581603313 0.00094634093312123398 0 -0.0096499355764799108 0.0010195109567216693 0 -0.0097491395968977591 0.00080036271114914271 0 -0.0092885270073231729 0.00092269941461745031 0 -0.0096499355764799108 0.0010195109567216693 0 -0.010073709581603313 0.00094634093312123398 0 -0.0096499355764799108 0.0010195109567216693 0 -0.010006625729424857 0.0010857854684737107 0 -0.010182553686107777 0.00056275431099876239 0 -0.010073709581603313 0.00094634093312123398 0 -0.010865081199540855 0.0010812437707399638 0 -0.015170397623767016 0.0032202155153606372 0 -0.015243107683462539 0.0034167332728173463 0 -0.015035153515762659 0.0036844574688001479 0 -0.01352216645694344 0.0022166936254649381 0 -0.011530747321913075 0.0018756793810098512 0 -0.011573122056898484 0.0011603780707467376 0 -0.010865081199540855 0.0010812437707399638 0 -0.0097960748382875246 0.0010907394351668482 0 -0.010073709581603313 0.00094634093312123398 0 -0.010865081199540855 0.0010812437707399638 0 -0.010006625729424857 0.0010857854684737107 0 -0.015170397623767016 0.0032202155153606372 0 -0.015243107683462539 0.0034167332728173463 0 -0.015364569766497775 0.0032619466764093144 0 -0.0094435028043671383 0.00049869124587136407 0 -0.0096326599206496312 0.00053013159610882732 0 -0.0092602883921195939 0.0007125086312237582 0 -0.0094435028043671383 0.00049869124587136407 0 -0.0091933646419204689 0.00060828105246071742 0 -0.0092602883921195939 0.0007125086312237582 0 -0.0094435028043671383 0.00049869124587136407 0 -0.0091933646419204689 0.00060828105246071742 0 -0.0092851035356106369 0.00045031509112894929 0 -0.0089996134596184389 0.00060678741664468307 0 -0.0091933646419204689 0.00060828105246071742 0 -0.0092851035356106369 0.00045031509112894929 0 -0.0095682625119128863 0.00031176952303164668 0 -0.0094435028043671383 0.00049869124587136407 0 -0.0092851035356106369 0.00045031509112894929 0 -0.0097665713892644973 0.00034599996025971722 0 -0.0095682625119128863 0.00031176952303164668 0 -0.0094435028043671383 0.00049869124587136407 0 -0.0097665713892644973 0.00034599996025971722 0 -0.0099320084879694903 0.00037656670402028922 0 -0.0096326599206496312 0.00053013159610882732 0 -0.0097665713892644973 0.00034599996025971722 0 -0.0094435028043671383 0.00049869124587136407 0 -0.0096326599206496312 0.00053013159610882732 0 -0.0099320084879694903 0.00037656670402028922 0 -0.0098626414338430154 0.00055253831406962218 0 -0.0096326599206496312 0.00053013159610882732 0 -0.010201498240712377 0.00028543352280903432 0 -0.0099320084879694903 0.00037656670402028922 0 -0.0098626414338430154 0.00055253831406962218 0 -0.0098626414338430154 0.00055253831406962218 0 -0.0096326599206496312 0.00053013159610882732 0 -0.0095170401123473268 0.00071879589428585418 0 -0.0096326599206496312 0.00053013159610882732 0 -0.0095170401123473268 0.00071879589428585418 0 -0.0092602883921195939 0.0007125086312237582 0 -0.0095170401123473268 0.00071879589428585418 0 -0.0092885270073231729 0.00092269941461745031 0 -0.0092602883921195939 0.0007125086312237582 0 -0.0097491395968977591 0.00080036271114914271 0 -0.0095170401123473268 0.00071879589428585418 0 -0.0092885270073231729 0.00092269941461745031 0 -0.0097491395968977591 0.00080036271114914271 0 -0.0098626414338430154 0.00055253831406962218 0 -0.0095170401123473268 0.00071879589428585418 0 -0.0092885270073231729 0.00092269941461745031 0 -0.0092602883921195939 0.0007125086312237582 0 -0.0088910054931646675 0.00090996302028099559 0 -0.0091933646419204689 0.00060828105246071742 0 -0.0092602883921195939 0.0007125086312237582 0 -0.0090052920266983933 0.00074520031109147269 0 -0.0089996134596184389 0.00060678741664468307 0 -0.0091933646419204689 0.00060828105246071742 0 -0.0090052920266983933 0.00074520031109147269 0 -0.0092602883921195939 0.0007125086312237582 0 -0.0090052920266983933 0.00074520031109147269 0 -0.0088910054931646675 0.00090996302028099559 0 -0.0087471640130609186 0.00084051412845637921 0 -0.0090052920266983933 0.00074520031109147269 0 -0.0088910054931646675 0.00090996302028099559 0 -0.0086066131936344738 0.00099119684977288808 0 -0.0087471640130609186 0.00084051412845637921 0 -0.0088910054931646675 0.00090996302028099559 0 -0.0088910054931646675 0.00090996302028099559 0 -0.0086347902502631833 0.0010520823237778196 0 -0.0089165298406537787 0.0010602245541360088 0 -0.0086066131936344738 0.00099119684977288808 0 -0.0088910054931646675 0.00090996302028099559 0 -0.0086347902502631833 0.0010520823237778196 0 -0.0086066131936344738 0.00099119684977288808 0 -0.0083243513230722398 0.0010985924265592255 0 -0.0086347902502631833 0.0010520823237778196 0 -0.0086347902502631833 0.0010520823237778196 0 -0.0084170975556316658 0.0011100934083555626 0 -0.0089165298406537787 0.0010602245541360088 0 -0.0083243513230722398 0.0010985924265592255 0 -0.0086347902502631833 0.0010520823237778196 0 -0.0084170975556316658 0.0011100934083555626 0 -0.0083243513230722398 0.0010985924265592255 0 -0.0084170975556316658 0.0011100934083555626 0 -0.0080286606109048302 0.0011450891026681094 0 -0.0084170975556316658 0.0011100934083555626 0 -0.0087209019883699897 0.0011274426185798345 0 -0.0081858939007612153 0.0011272254155900694 0 -0.0084170975556316658 0.0011100934083555626 0 -0.0087209019883699897 0.0011274426185798345 0 -0.0089165298406537787 0.0010602245541360088 0 -0.0087209019883699897 0.0011274426185798345 0 -0.0089165298406537787 0.0010602245541360088 0 -0.0092119896111212424 0.0011072317077360535 0 -0.0092885270073231729 0.00092269941461745031 0 -0.0088910054931646675 0.00090996302028099559 0 -0.0089165298406537787 0.0010602245541360088 0 -0.0092885270073231729 0.00092269941461745031 0 -0.0089165298406537787 0.0010602245541360088 0 -0.0092119896111212424 0.0011072317077360535 0 -0.0092885270073231729 0.00092269941461745031 0 -0.0096499355764799108 0.0010195109567216693 0 -0.0092119896111212424 0.0011072317077360535 0 -0.0096499355764799108 0.0010195109567216693 0 -0.0095538144617013186 0.0011079360508998246 0 -0.0092119896111212424 0.0011072317077360535 0 -0.0096499355764799108 0.0010195109567216693 0 -0.010006625729424857 0.0010857854684737107 0 -0.0095538144617013186 0.0011079360508998246 0 -0.010006625729424857 0.0010857854684737107 0 -0.0095538144617013186 0.0011079360508998246 0 -0.0097960748382875246 0.0010907394351668482 0 -0.011530747321913075 0.0018756793810098512 0 -0.008812757491776636 0.0015877854595774009 0 -0.0095538144617013186 0.0011079360508998246 0 -0.0097960748382875246 0.0010907394351668482 0 -0.0090663008244017129 0.0012063234748607757 0 -0.0095538144617013186 0.0011079360508998246 0 -0.0092119896111212424 0.0011072317077360535 0 -0.0090663008244017129 0.0012063234748607757 0 -0.010865081199540855 0.0010812437707399638 0 -0.010006625729424857 0.0010857854684737107 0 -0.0097960748382875246 0.0010907394351668482 0 -0.0087591055057490552 0.0010684197696340702 0 -0.008715392716933652 0.0010779245392758135 0 -0.0087511107407380554 0.0010417014487399572 0 -0.0087823578959120869 0.0014006482827045835 0 -0.008715392716933652 0.0010779245392758135 0 -0.0090663008244017129 0.0012063234748607757 0 -0.011530747321913075 0.0018756793810098512 0 -0.0085315275346817907 0.00095686581719920229 0 -0.0087209019883699897 0.0011274426185798345 0 -0.0092119896111212424 0.0011072317077360535 0 -0.0090663008244017129 0.0012063234748607757 0 -0.008715392716933652 0.0010779245392758135 0 -0.0090663008244017129 0.0012063234748607757 0 -0.0087358893055415644 0.0011039375136369751 0 -0.0087209019883699897 0.0011274426185798345 0 -0.0090663008244017129 0.0012063234748607757 0 -0.0087358893055415644 0.0011039375136369751 0 -0.0084294258867234229 0.0011146187140627158 0 -0.0086590919270552961 0.0011657578363011185 0 -0.0083367173271080442 0.0014541157515941068 0 -0.0087209019883699897 0.0011274426185798345 0 -0.0087358893055415644 0.0011039375136369751 0 -0.0084294258867234229 0.0011146187140627158 0 -0.008715392716933652 0.0010779245392758135 0 -0.0087358893055415644 0.0011039375136369751 0 -0.0086590919270552961 0.0011657578363011185 0 -0.0087358893055415644 0.0011039375136369751 0 -0.0084294258867234229 0.0011146187140627158 0 -0.0086590919270552961 0.0011657578363011185 0 -0.0036441379621934529 5.8629275849770879e-05 0 -0.0013762738039214278 -0.00031062903337877889 0 0.0010823371817848897 -0.00057295185593969405 0 0.00037286473480040942 -0.0022391021366507183 0 0.0012972726496869389 -0.0015083501723733015 0 -0.0087511107407380554 0.0010417014487399572 0 -0.0086590919270552961 0.0011657578363011185 0 -0.008681486376866247 0.0013530143168843122 0 -0.008715392716933652 0.0010779245392758135 0 -0.0087511107407380554 0.0010417014487399572 0 -0.0086590919270552961 0.0011657578363011185 0 -0.0013762738039214278 -0.00031062903337877889 0 0.0048895619687775067 -0.0021301554273453582 0 0.0063902233167008231 -0.0014785013520292986 0 0.0065365588203935834 -0.0018676675275697133 0 0.0061681017444029677 -0.0019690476993808829 0 -0.0084294258867234229 0.0011146187140627158 0 -0.0083367173271080442 0.0014541157515941068 0 -0.0078901865393866486 0.0011645968790718094 0 -0.0051065294019527301 0.00012162748523769109 0 -0.0045208236839276812 0.0015530029671234856 0 -0.0055836185499022872 0.0014621569353750826 0 -0.0086590919270552961 0.0011657578363011185 0 -0.008681486376866247 0.0013530143168843122 0 -0.0083367173271080442 0.0014541157515941068 0 -0.0013762738039214278 -0.00031062903337877889 0 -0.0077393708893360351 0.0012663238046167248 0 -0.0077393708893360351 0.0012663238046167248 0 -0.006912654221445714 0.0013411324631353264 0 -0.0060645720707866281 0.00055290783326511625 0 -0.0055836185499022872 0.0014621569353750826 0 -0.007145763912990542 0.0012580258053616917 0 -0.0083367173271080442 0.0014541157515941068 0 -0.0078901865393866486 0.0011645968790718094 0 -0.007145763912990542 0.0012580258053616917 0 -0.0078901865393866486 0.0011645968790718094 0 -0.007145763912990542 0.0012580258053616917 0 -0.0076099200920116614 0.0011761033172077951 0 -0.007145763912990542 0.0012580258053616917 0 -0.0071628102135328723 0.00087111360658271219 0 -0.0076099200920116614 0.0011761033172077951 0 -0.0077112648095055639 0.0011043328573835472 0 -0.0071628102135328723 0.00087111360658271219 0 -0.0076099200920116614 0.0011761033172077951 0 -0.0076099200920116614 0.0011761033172077951 0 -0.0080286606109048302 0.0011450891026681094 0 -0.0081858939007612153 0.0011272254155900694 0 -0.0077112648095055639 0.0011043328573835472 0 -0.0076099200920116614 0.0011761033172077951 0 -0.0080286606109048302 0.0011450891026681094 0 -0.0084170975556316658 0.0011100934083555626 0 -0.0080286606109048302 0.0011450891026681094 0 -0.0081858939007612153 0.0011272254155900694 0 -0.0087209019883699897 0.0011274426185798345 0 -0.0084294258867234229 0.0011146187140627158 0 -0.0081858939007612153 0.0011272254155900694 0 -0.0084294258867234229 0.0011146187140627158 0 -0.0078901865393866486 0.0011645968790718094 0 -0.0081858939007612153 0.0011272254155900694 0 -0.0078901865393866486 0.0011645968790718094 0 -0.0076099200920116614 0.0011761033172077951 0 -0.0081858939007612153 0.0011272254155900694 0 0.0038657270588106202 -0.0012478390224214082 0 0.0048014766100221117 -0.00182353901449463 0 0.0031186136543482467 -0.0020903786133591494 0 0.0038657270588106202 -0.0012478390224214082 0 0.0031186136543482467 -0.0020903786133591494 0 0.0029411417213015072 -0.00037969156879947045 0 0.0056303974784386555 -0.0015417448079587559 0 0.0042021087446207422 -0.00058428990716044094 0 0.0054725773290455592 -0.0012937203102396527 0 0.005339582058932691 -0.00081368903629057247 0 0.0056712756674794041 -0.00098920007019906247 0 0.0048014766100221117 -0.00182353901449463 0 0.0050373375708172496 -0.0021298211453789698 0 0.0045182355056736425 -0.00065657231967795936 0 0.0038657270588106202 -0.0012478390224214082 0 0.0048014766100221117 -0.00182353901449463 0 0.0045182355056736425 -0.00065657231967795936 0 0.0048014766100221117 -0.00182353901449463 0 0.0050373375708172496 -0.0021298211453789698 0 0.0050793860833239068 -0.001916517909751796 0 0.0056736556646907205 -0.0011122550077459622 0 0.005691528585328111 -0.0011110090067653637 0 0.0058045989937270306 -0.0011215165835571661 0 0.0050373375708172496 -0.0021298211453789698 0 0.0050793860833239068 -0.001916517909751796 0 0.0052976347326492883 -0.0017991562900781669 0 0.0050793860833239068 -0.001916517909751796 0 0.0052976347326492883 -0.0017991562900781669 0 0.005609977722325213 -0.0021070978442519549 0 0.0048014766100221117 -0.00182353901449463 0 0.0050793860833239068 -0.001916517909751796 0 0.005609977722325213 -0.0021070978442519549 0 0.0048642694865132395 -0.0018813729564734869 0 0.0041778294954043947 -0.0020635388441617207 0 0.0059071220290762526 -0.0016604332666884138 0 0.0052976347326492883 -0.0017991562900781669 0 0.005609977722325213 -0.0021070978442519549 0 0.0041778294954043947 -0.0020635388441617207 0 0.0048895619687775067 -0.0021301554273453582 0 0.0059071220290762526 -0.0016604332666884138 0 0.005609977722325213 -0.0021070978442519549 0 0.0061681017444029677 -0.0019690476993808829 0 0.00037286473480040942 -0.0022391021366507183 0 0.0017179286574748754 -0.0021541696506427919 0 0.0012972726496869389 -0.0015083501723733015 0 0.0010823371817848897 -0.00057295185593969405 0 0.0012972726496869389 -0.0015083501723733015 0 0.0020130693118077872 -0.0010863566518211445 0 0.0017179286574748754 -0.0021541696506427919 0 0.0012972726496869389 -0.0015083501723733015 0 0.0020130693118077872 -0.0010863566518211445 0 0.0031186136543482467 -0.0020903786133591494 0 0.0017179286574748754 -0.0021541696506427919 0 0.0020130693118077872 -0.0010863566518211445 0 0.0031186136543482467 -0.0020903786133591494 0 0.0020130693118077872 -0.0010863566518211445 0 0.0029411417213015072 -0.00037969156879947045 0 0.0020130693118077872 -0.0010863566518211445 0 0.0020956229075067144 -0.00011584469107210554 0 0.0029411417213015072 -0.00037969156879947045 0 0.0010823371817848897 -0.00057295185593969405 0 0.0020130693118077872 -0.0010863566518211445 0 0.0020956229075067144 -0.00011584469107210554 0 -0.0036441379621934529 5.8629275849770879e-05 0 -0.0076708864480391952 0.0018142553441053643 0 -0.015243107683462539 0.0034167332728173463 0 -0.015035153515762659 0.0036844574688001479 0 -0.015408229652204153 0.003492683307815457 0 -0.011530747321913075 0.0018756793810098512 0 -0.0076708864480391952 0.0018142553441053643 0 -0.0087591055057490552 0.0010684197696340702 0 -0.0087511107407380554 0.0010417014487399572 0 -0.0086848945942967649 0.0011100152786151507 0 0.0010823371817848897 -0.00057295185593969405 0 0.0020956229075067144 -0.00011584469107210554 0 0.0017379123029616578 0.00077681425439484321 0 0.0020956229075067144 -0.00011584469107210554 0 0.0026297378363858964 0.00047137639726671418 0 0.0017379123029616578 0.00077681425439484321 0 0.0020956229075067144 -0.00011584469107210554 0 0.0026297378363858964 0.00047137639726671418 0 0.0029411417213015072 -0.00037969156879947045 0 0.0026297378363858964 0.00047137639726671418 0 0.0033106551485419032 0.00022096248227778295 0 0.003271190160640963 0.00091762153629316025 0 0.0026297378363858964 0.00047137639726671418 0 0.0033106551485419032 0.00022096248227778295 0 0.0029411417213015072 -0.00037969156879947045 0 0.0033106551485419032 0.00022096248227778295 0 0.0029411417213015072 -0.00037969156879947045 0 0.003529860512084352 -0.00042370784959789182 0 0.0038657270588106202 -0.0012478390224214082 0 0.0029411417213015072 -0.00037969156879947045 0 0.0045182355056736425 -0.00065657231967795936 0 0.0029703088106043957 -0.0003790781632395957 0 0.0042021087446207422 -0.00058428990716044094 0 0.0033106551485419032 0.00022096248227778295 0 0.0034510694649731717 -0.00034918239336410937 0 0.0038910766392476611 0.00012417359098503071 0 0.0032838748685243046 0.00027518178856185535 0 0.0042021087446207422 -0.00058428990716044094 0 0.0042021087446207422 -0.00058428990716044094 0 0.0049901646418418497 -0.0007055304206701799 0 0.0034510694649731717 -0.00034918239336410937 0 0.003947621997289724 -0.00020278905721273922 0 0.0038910766392476611 0.00012417359098503071 0 0.0033106551485419032 0.00022096248227778295 0 0.003617307535366225 0.00055714341788593838 0 0.003271190160640963 0.00091762153629316025 0 0.0033106551485419032 0.00022096248227778295 0 0.003617307535366225 0.00055714341788593838 0 0.0038910766392476611 0.00012417359098503071 0 0.003617307535366225 0.00055714341788593838 0 0.003271190160640963 0.00091762153629316025 0 0.0039851495049333325 0.00098657851229367764 0 0.003271190160640963 0.00091762153629316025 0 0.0033116880223555802 0.0015639302306966151 0 0.0039851495049333325 0.00098657851229367764 0 0.0026297378363858964 0.00047137639726671418 0 0.003271190160640963 0.00091762153629316025 0 0.0026193199486905117 0.0011714987251436459 0 -0.0039236766380652769 0.00069106418932430268 0 -0.001576289540506165 0.0020094565518299955 0 0.003271190160640963 0.00091762153629316025 0 0.0033116880223555802 0.0015639302306966151 0 0.0026193199486905117 0.0011714987251436459 0 -0.0078724211559380152 0.0024951773446343709 0 -0.0072188426763855193 0.0024408922019406379 0 -0.0076790923598350318 0.0028189755302346067 0 -0.0078724211559380152 0.0024951773446343709 0 -0.0072188426763855193 0.0024408922019406379 0 -0.0079221377178446684 0.002036612864060156 0 -0.0099915764992945712 -0.00034020745829105417 0 -0.0096291073688989353 9.9903751971777363e-05 0 -0.011202651550044461 0.00070534923968987989 0 -0.0039236766380652769 0.00069106418932430268 0 -0.012643985090537626 0.0017744598787561396 0 -0.0039236766380652769 0.00069106418932430268 0 -0.0001412937129908143 -0.00035279240569708334 0 -0.0099915764992945712 -0.00034020745829105417 0 -0.0096291073688989353 9.9903751971777363e-05 0 -0.0091336519479466253 0.00018920873605254591 0 -0.0039236766380652769 0.00069106418932430268 0 -0.010266997666245616 -0.0012254810131488607 0 -0.0055335811031776627 -0.00098911877058475766 0 -0.0054060056902565613 -0.00091013853419606152 0 -0.0052266787812704964 -0.0012411769316071411 0 -0.013250085047135356 -0.0002463960866252749 0 -0.013516541191589236 -0.00050394165201057481 0 -0.0096291073688989353 9.9903751971777363e-05 0 -0.0091336519479466253 0.00018920873605254591 0 -0.0095502319483848925 0.00028655534058356474 0 -0.015364569766497775 0.0032619466764093144 0 -0.015408229652204153 0.003492683307815457 0 -0.015584072970970806 0.0031675244269644509 0 -0.0076708864480391952 0.0018142553441053643 0 -0.012063134311638473 0.0027729688142643922 0 -0.015243107683462539 0.0034167332728173463 0 -0.015364569766497775 0.0032619466764093144 0 -0.015408229652204153 0.003492683307815457 0 -0.0085847297966805663 0.0016414291281949811 0 -0.0079221377178446684 0.002036612864060156 0 -0.0083637879534023563 0.0022637107661126294 0 -0.0076708864480391952 0.0018142553441053643 0 -0.001576289540506165 0.0020094565518299955 0 0.0026297378363858964 0.00047137639726671418 0 0.0017379123029616578 0.00077681425439484321 0 0.0026193199486905117 0.0011714987251436459 0 -0.0078724211559380152 0.0024951773446343709 0 -0.0083637879534023563 0.0022637107661126294 0 -0.0081547901559871957 0.0029208015686239775 0 -0.015584072970970806 0.0031675244269644509 0 -0.015423350264075751 0.0030274583413496285 0 -0.015711787655325261 0.0028753261981295459 0 -0.012063134311638473 0.0027729688142643922 0 -0.014187577368871475 0.0027367441247766336 0 -0.0078724211559380152 0.0024951773446343709 0 -0.0079221377178446684 0.002036612864060156 0 -0.0083637879534023563 0.0022637107661126294 0 -0.015364569766497775 0.0032619466764093144 0 -0.015584072970970806 0.0031675244269644509 0 -0.015423350264075751 0.0030274583413496285 0 -0.015170397623767016 0.0032202155153606372 0 -0.015364569766497775 0.0032619466764093144 0 -0.015423350264075751 0.0030274583413496285 0 -0.015423350264075751 0.0030274583413496285 0 -0.015447635522621139 0.0027577990167937591 0 -0.015711787655325261 0.0028753261981295459 0 -0.016475198186735537 0.0029785913796160505 0 -0.014187577368871475 0.0027367441247766336 0 -0.015289858088445407 0.0026514197905201683 0 -0.015423350264075751 0.0030274583413496285 0 -0.015447635522621139 0.0027577990167937591 0 -0.015447635522621139 0.0027577990167937591 0 -0.017436640948170368 0.0033205467548200205 0 -0.016788147426201019 0.0022819921912872608 0 -0.015647618489496685 0.0013864059040362413 0 -0.016422639770743985 0.0014128385440361601 0 -0.016369618188023738 -0.00036104161715947624 0 -0.014187577368871475 0.0027367441247766336 0 -0.012643985090537626 0.0017744598787561396 0 -0.016788147426201019 0.0022819921912872608 0 -0.018194701319785934 0.0014735508039136782 0 -0.016733973720389348 0.0013578829973029671 0 -0.014187577368871475 0.0027367441247766336 0 -0.017098355311737593 0.0004800416335002926 0 -0.017436640948170368 0.0033205467548200205 0 -0.016788147426201019 0.0022819921912872608 0 -0.018194701319785934 0.0014735508039136782 0 -0.015289858088445407 0.0026514197905201683 0 -0.015974082114136996 0.0019187210663738335 0 -0.015570228059917415 0.00027308413130412251 0 -0.015447635522621139 0.0027577990167937591 0 -0.016788147426201019 0.0022819921912872608 0 -0.015974082114136996 0.0019187210663738335 0 -0.016788147426201019 0.0022819921912872608 0 -0.015974082114136996 0.0019187210663738335 0 -0.016733973720389348 0.0013578829973029671 0 -0.015289858088445407 0.0026514197905201683 0 -0.015447635522621139 0.0027577990167937591 0 -0.015974082114136996 0.0019187210663738335 0 -0.0096291073688989353 9.9903751971777363e-05 0 -0.0095484978915074351 0.00029561609202752239 0 -0.011202651550044461 0.00070534923968987989 0 -0.017473124135804596 0.0011381520014102863 0 -0.017934652278839544 0.0018921346551167434 0 -0.018641454927623761 0.00034200393716304276 0 -0.01368769382765327 -0.0019682686215358653 0 -0.013579603454876183 -0.0019492635180787569 0 -0.013627027088546571 -0.0017175058931526883 0 -0.013516541191589236 -0.00050394165201057481 0 -0.015843084865483262 -0.00021678793564728103 0 -0.013636169585085709 -0.001980890190183359 0 -0.01368769382765327 -0.0019682686215358653 0 -0.013579603454876183 -0.0019492635180787569 0 -0.010266997666245616 -0.0012254810131488607 0 -0.012405652275473252 -0.0021763372653544541 0 -0.010266997666245616 -0.0012254810131488607 0 -0.013516541191589236 -0.00050394165201057481 0 -0.013516541191589236 -0.00050394165201057481 0 -0.012643985090537626 0.0017744598787561396 0 -0.017473124135804596 0.0011381520014102863 0 -0.017934652278839544 0.0018921346551167434 0 -0.016654631958860834 0.0016080573154146477 0 -0.0078724211559380152 0.0024951773446343709 0 -0.0081547901559871957 0.0029208015686239775 0 -0.0076790923598350318 0.0028189755302346067 0 -0.015647618489496685 0.0013864059040362413 0 -0.016651512930431905 0.0016110620466225363 0 -0.016422639770743985 0.0014128385440361601 0 -0.012643985090537626 0.0017744598787561396 0 -0.013789941855388923 0.002258437048467724 0 -0.016654631958860834 0.0016080573154146477 0 -0.016422639770743985 0.0014128385440361601 0 -0.016859152804631072 0.00083133793425961078 0 -0.017473124135804596 0.0011381520014102863 0 -0.016859152804631072 0.00083133793425961078 0 -0.017374270142650118 0.00035570464486896723 0 -0.017473124135804596 0.0011381520014102863 0 -0.016654631958860834 0.0016080573154146477 0 -0.016859152804631072 0.00083133793425961078 0 -0.016859152804631072 0.00083133793425961078 0 -0.017374270142650118 0.00035570464486896723 0 -0.016369618188023738 -0.00036104161715947624 0 -0.016422639770743985 0.0014128385440361601 0 -0.016859152804631072 0.00083133793425961078 0 -0.016369618188023738 -0.00036104161715947624 0 -0.017374270142650118 0.00035570464486896723 0 -0.016369618188023738 -0.00036104161715947624 0 -0.017553347989518745 -0.00064064657697582056 0 -0.017473124135804596 0.0011381520014102863 0 -0.017374270142650118 0.00035570464486896723 0 -0.018641454927623761 0.00034200393716304276 0 -0.017374270142650118 0.00035570464486896723 0 -0.017553347989518745 -0.00064064657697582056 0 -0.018641454927623761 0.00034200393716304276 0 -0.01843957706737414 -0.00079543684967176085 0 -0.017553347989518745 -0.00064064657697582056 0 -0.018641454927623761 0.00034200393716304276 0 -0.017553347989518745 -0.00064064657697582056 0 -0.018219182579873636 -0.0016538939803332309 0 -0.017101378460420244 -0.0020893328281586295 0 -0.01843957706737414 -0.00079543684967176085 0 -0.017553347989518745 -0.00064064657697582056 0 -0.018219182579873636 -0.0016538939803332309 0 -0.01843957706737414 -0.00079543684967176085 0 -0.018219182579873636 -0.0016538939803332309 0 -0.019346780085683406 -0.0012246357648154369 0 -0.016369618188023738 -0.00036104161715947624 0 -0.017553347989518745 -0.00064064657697582056 0 -0.017101378460420244 -0.0020893328281586295 0 -0.017098355311737593 0.0004800416335002926 0 -0.022365611662181456 -0.00077330923673818897 0 -0.018194701319785934 0.0014735508039136782 0 -0.018935037300150708 -0.00030048743389539856 0 -0.017354511671245278 0.00036018774970585614 0 -0.022365611662181456 -0.00077330923673818897 0 -0.029009645277922144 -0.0034811662087277438 0 -0.026990028042348894 0.0027834573532368651 0 -0.025102466886428906 -0.0011401961237607265 0 -0.022040098406080795 0.00095675141055426836 0 -0.028082886410401214 -0.0035607398199954798 0 -0.029084772446664603 -0.0041458214030425629 0 -0.028806190456951986 -0.0052256959086674623 0 -0.024259076554037237 -0.002087568178699443 0 -0.022365611662181456 -0.00077330923673818897 0 -0.029371012389825594 -0.0030787840102310393 0 -0.028082886410401214 -0.0035607398199954798 0 -0.029084772446664603 -0.0041458214030425629 0 -0.029371012389825594 -0.0030787840102310393 0 -0.029084772446664603 -0.0041458214030425629 0 -0.030102225779499042 -0.0044004503751082823 0 -0.028806190456951986 -0.0052256959086674623 0 -0.030102225779499042 -0.0044004503751082823 0 -0.030396295493921695 -0.0059433477820456026 0 -0.029084772446664603 -0.0041458214030425629 0 -0.028806190456951986 -0.0052256959086674623 0 -0.030102225779499042 -0.0044004503751082823 0 -0.026990028042348894 0.0027834573532368651 0 -0.028570522567478124 -0.0013883482714688142 0 -0.025102466886428906 -0.0011401961237607265 0 -0.028570522567478124 -0.0013883482714688142 0 -0.025102466886428906 -0.0011401961237607265 0 -0.026097924041528584 -0.0048354559291919758 0 -0.029009645277922144 -0.0034811662087277438 0 -0.029737129161028674 -0.0060495017140366975 0 -0.026097924041528584 -0.0048354559291919758 0 -0.030026538752701191 -0.0053895857421874431 0 -0.028727916898802903 -0.0074499736020303157 0 -0.028806190456951986 -0.0052256959086674623 0 -0.029578473849547413 -0.0068464198945028462 0 -0.030396295493921695 -0.0059433477820456026 0 -0.028570522567478124 -0.0013883482714688142 0 -0.026097924041528584 -0.0048354559291919758 0 -0.030026538752701191 -0.0053895857421874431 0 -0.018093749101625558 -0.0054756164307858983 0 -0.021564168614454871 -0.0031192840832017349 0 -0.01639804376256097 -0.0016847758421292772 0 -0.018093749101625558 -0.0054756164307858983 0 -0.021564168614454871 -0.0031192840832017349 0 -0.021424293404809919 -0.006778055303053216 0 -0.025102466886428906 -0.0011401961237607265 0 -0.026097924041528584 -0.0048354559291919758 0 -0.021564168614454871 -0.0031192840832017349 0 -0.026097924041528584 -0.0048354559291919758 0 -0.021564168614454871 -0.0031192840832017349 0 -0.021424293404809919 -0.006778055303053216 0 -0.025102466886428906 -0.0011401961237607265 0 -0.021564168614454871 -0.0031192840832017349 0 -0.022040098406080795 0.00095675141055426836 0 -0.019818312073150393 0.00016241088088282527 0 -0.016509098073871482 -0.0015740891942949637 0 -0.021564168614454871 -0.0031192840832017349 0 -0.022040098406080795 0.00095675141055426836 0 -0.01639804376256097 -0.0016847758421292772 0 -0.017245788726405704 -0.00098012282184522181 0 -0.015570228059917415 0.00027308413130412251 0 -0.01639804376256097 -0.0016847758421292772 0 -0.017245788726405704 -0.00098012282184522181 0 -0.017354511671245278 0.00036018774970585614 0 -0.015570228059917415 0.00027308413130412251 0 -0.022365611662181456 -0.00077330923673818897 0 -0.019818312073150393 0.00016241088088282527 0 -0.018935037300150708 -0.00030048743389539856 0 -0.017245788726405704 -0.00098012282184522181 0 -0.017354511671245278 0.00036018774970585614 0 -0.018194701319785934 0.0014735508039136782 0 -0.017354511671245278 0.00036018774970585614 0 -0.016733973720389348 0.0013578829973029671 0 -0.017354511671245278 0.00036018774970585614 0 -0.016733973720389348 0.0013578829973029671 0 -0.015570228059917415 0.00027308413130412251 0 -0.015974082114136996 0.0019187210663738335 0 -0.016733973720389348 0.0013578829973029671 0 -0.015570228059917415 0.00027308413130412251 0 -0.015570228059917415 0.00027308413130412251 0 -0.013699715041905654 0.0011919620024237847 0 -0.014561302316150247 -0.00040215947745368664 0 -0.013785156055261085 0.0016940950598184588 0 -0.015570228059917415 0.00027308413130412251 0 -0.013699715041905654 0.0011919620024237847 0 -0.011023268599526251 7.3913781297889526e-05 0 -0.011664209903608313 -0.00078490640048054698 0 -0.01071936504266263 -0.00030102978316525045 0 -0.010659847778113794 -2.270347945846365e-05 0 -0.011023268599526251 7.3913781297889526e-05 0 -0.01071936504266263 -0.00030102978316525045 0 -0.011023268599526251 7.3913781297889526e-05 0 -0.011664209903608313 -0.00078490640048054698 0 -0.01252175167230303 -0.0016832176963455269 0 -0.013699715041905654 0.0011919620024237847 0 -0.014561302316150247 -0.00040215947745368664 0 -0.01252175167230303 -0.0016832176963455269 0 -0.012358034367010086 0.00049347042841436733 0 -0.01243211022167974 -0.0016613544179612384 0 -0.015570228059917415 0.00027308413130412251 0 -0.014561302316150247 -0.00040215947745368664 0 -0.01639804376256097 -0.0016847758421292772 0 -0.014561302316150247 -0.00040215947745368664 0 -0.01639804376256097 -0.0016847758421292772 0 -0.01252175167230303 -0.0016832176963455269 0 -0.010056342051376775 -0.00068669394873531442 0 -0.0099087519997314889 -0.00031603722839830111 0 -0.010228620081580209 -0.0003711783281102884 0 -0.010056342051376775 -0.00068669394873531442 0 -0.010228620081580209 -0.0003711783281102884 0 -0.01042190446720603 -0.0007205240690996616 0 -0.010228620081580209 -0.0003711783281102884 0 -0.01071936504266263 -0.00030102978316525045 0 -0.01042190446720603 -0.0007205240690996616 0 -0.010328309279136206 -2.830104394780052e-05 0 -0.010228620081580209 -0.0003711783281102884 0 -0.01071936504266263 -0.00030102978316525045 0 -0.011664209903608313 -0.00078490640048054698 0 -0.01071936504266263 -0.00030102978316525045 0 -0.010816280100241812 -0.00081920471813331965 0 -0.011664209903608313 -0.00078490640048054698 0 -0.010816280100241812 -0.00081920471813331965 0 -0.010822302523327491 -0.0010725451478067957 0 -0.010816280100241812 -0.00081920471813331965 0 -0.010565949968011072 -0.001030503959175323 0 -0.010822302523327491 -0.0010725451478067957 0 -0.01071936504266263 -0.00030102978316525045 0 -0.010816280100241812 -0.00081920471813331965 0 -0.01042190446720603 -0.0007205240690996616 0 -0.010816280100241812 -0.00081920471813331965 0 -0.010565949968011072 -0.001030503959175323 0 -0.01042190446720603 -0.0007205240690996616 0 -0.010565949968011072 -0.001030503959175323 0 -0.01042190446720603 -0.0007205240690996616 0 -0.010315769562067419 -0.00096049607715543409 0 -0.010315769562067419 -0.00096049607715543409 0 -0.010446037373837133 -0.0011044399458084791 0 -0.010145356398409602 -0.0010841111622890893 0 -0.010056342051376775 -0.00068669394873531442 0 -0.01042190446720603 -0.0007205240690996616 0 -0.010315769562067419 -0.00096049607715543409 0 -0.010565949968011072 -0.001030503959175323 0 -0.010315769562067419 -0.00096049607715543409 0 -0.010446037373837133 -0.0011044399458084791 0 -0.010565949968011072 -0.001030503959175323 0 -0.010446037373837133 -0.0011044399458084791 0 -0.010644385521230601 -0.0011702695112388785 0 -0.010446037373837133 -0.0011044399458084791 0 -0.010644385521230601 -0.0011702695112388785 0 -0.010665287347390327 -0.0010836610365704551 0 -0.010565949968011072 -0.001030503959175323 0 -0.010644385521230601 -0.0011702695112388785 0 -0.010822302523327491 -0.0010725451478067957 0 -0.010644385521230601 -0.0011702695112388785 0 -0.010822302523327491 -0.0010725451478067957 0 -0.010691937440995869 -0.0012595095719831965 0 -0.010629548557167369 -0.001076223045619371 0 -0.010691937440995869 -0.0012595095719831965 0 -0.010429732416128011 -0.00082816693100024388 0 -0.010980719953626723 -0.0016149368951004297 0 -0.015710317877865667 -0.0073460749011648929 0 -0.010644385521230601 -0.0011702695112388785 0 -0.010629548557167369 -0.001076223045619371 0 -0.010691937440995869 -0.0012595095719831965 0 -0.010644385521230601 -0.0011702695112388785 0 -0.010629548557167369 -0.001076223045619371 0 -0.010665287347390327 -0.0010836610365704551 0 -0.010629548557167369 -0.001076223045619371 0 -0.010665287347390327 -0.0010836610365704551 0 -0.010744610544792026 -0.00084397659398495863 0 -0.010665287347390327 -0.0010836610365704551 0 -0.01084627077041049 -0.0009174186043917281 0 -0.010744610544792026 -0.00084397659398495863 0 -0.01639804376256097 -0.0016847758421292772 0 -0.01252175167230303 -0.0016832176963455269 0 -0.014108841978193497 -0.0026597946935440057 0 -0.01639804376256097 -0.0016847758421292772 0 -0.014108841978193497 -0.0026597946935440057 0 -0.015318604790766382 -0.0040881627250872327 0 -0.011664209903608313 -0.00078490640048054698 0 -0.010822302523327491 -0.0010725451478067957 0 -0.010691937440995869 -0.0012595095719831965 0 -0.011664209903608313 -0.00078490640048054698 0 -0.01252175167230303 -0.0016832176963455269 0 -0.012550351121865783 -0.0031123125232942828 0 -0.014108841978193497 -0.0026597946935440057 0 -0.012550351121865783 -0.0031123125232942828 0 -0.015318604790766382 -0.0040881627250872327 0 -0.011863050659073076 -0.00094529528154801696 0 -0.010980719953626723 -0.0016149368951004297 0 -0.01252175167230303 -0.0016832176963455269 0 -0.014108841978193497 -0.0026597946935440057 0 -0.012550351121865783 -0.0031123125232942828 0 -0.012550351121865783 -0.0031123125232942828 0 -0.015318604790766382 -0.0040881627250872327 0 -0.015998343162603016 -0.0077556864906906837 0 -0.018093749101625558 -0.0054756164307858983 0 -0.015318604790766382 -0.0040881627250872327 0 -0.015998343162603016 -0.0077556864906906837 0 -0.018093749101625558 -0.0054756164307858983 0 -0.01639804376256097 -0.0016847758421292772 0 -0.015318604790766382 -0.0040881627250872327 0 -0.018093749101625558 -0.0054756164307858983 0 -0.015998343162603016 -0.0077556864906906837 0 -0.018259673295695191 -0.0090051876982201046 0 -0.015998343162603016 -0.0077556864906906837 0 -0.016261279755574218 -0.0096876058628633643 0 -0.018259673295695191 -0.0090051876982201046 0 -0.012550351121865783 -0.0031123125232942828 0 -0.015998343162603016 -0.0077556864906906837 0 -0.011643556708627968 -0.0087518113550645923 0 -0.015998343162603016 -0.0077556864906906837 0 -0.016261279755574218 -0.0096876058628633643 0 -0.014253658501335753 -0.0089304411720616088 0 -0.014718829025898279 -0.0082741347869403035 0 -0.015710317877865667 -0.0073460749011648929 0 -0.014253658501335753 -0.0089304411720616088 0 -0.014537690478507054 -0.011829092771126381 0 -0.016159294065078204 -0.011529795817912592 0 -0.016261279755574218 -0.0096876058628633643 0 -0.014253658501335753 -0.0089304411720616088 0 -0.016159294065078204 -0.011529795817912592 0 -0.017624393088057189 -0.011110470722260537 0 -0.016261279755574218 -0.0096876058628633643 0 -0.016159294065078204 -0.011529795817912592 0 -0.017624393088057189 -0.011110470722260537 0 -0.016261279755574218 -0.0096876058628633643 0 -0.018259673295695191 -0.0090051876982201046 0 -0.010744610544792026 -0.00084397659398495863 0 -0.010429732416128011 -0.00082816693100024388 0 -0.011059829529759745 -0.00024096704788281005 0 -0.010744610544792026 -0.00084397659398495863 0 -0.011222984476409384 -0.0006179127358435961 0 -0.011059829529759745 -0.00024096704788281005 0 -0.01084627077041049 -0.0009174186043917281 0 -0.010744610544792026 -0.00084397659398495863 0 -0.011222984476409384 -0.0006179127358435961 0 -0.010629548557167369 -0.001076223045619371 0 -0.010744610544792026 -0.00084397659398495863 0 -0.010429732416128011 -0.00082816693100024388 0 -0.023436740362527755 -0.0097640108246730035 0 -0.023909268799861352 -0.0075508247176194901 0 -0.025952357181483771 -0.0091538686044474547 0 -0.015710317877865667 -0.0073460749011648929 0 -0.019745479684528132 -0.010033761801612234 0 -0.015710317877865667 -0.0073460749011648929 0 -0.018854588643228941 -0.0043574576223408259 0 -0.023909268799861352 -0.0075508247176194901 0 -0.026143880604190657 -0.007562937180661671 0 -0.026039146813821891 -0.005886442171653127 0 -0.023909268799861352 -0.0075508247176194901 0 -0.025952357181483771 -0.0091538686044474547 0 -0.026143880604190657 -0.007562937180661671 0 -0.014537690478507054 -0.011829092771126381 0 -0.015431687933664508 -0.012694991252948321 0 -0.015397198175216087 -0.013026355120411875 0 -0.019745479684528132 -0.010033761801612234 0 -0.018836034560472125 -0.0089326044628047739 0 -0.015431687933664508 -0.012694991252948321 0 -0.01552092297191645 -0.012915110753603583 0 -0.015397198175216087 -0.013026355120411875 0 -0.023909268799861352 -0.0075508247176194901 0 -0.026039146813821891 -0.005886442171653127 0 -0.024321282345559078 -0.0053251413257146291 0 -0.017097564554032062 -0.012493078813965268 0 -0.016159294065078204 -0.011529795817912592 0 -0.016319987692350983 -0.012584863592061183 0 -0.017097564554032062 -0.012493078813965268 0 -0.017657705049794664 -0.012035978938416816 0 -0.016159294065078204 -0.011529795817912592 0 -0.017097564554032062 -0.012493078813965268 0 -0.017657705049794664 -0.012035978938416816 0 -0.018664609523293053 -0.012659145961474732 0 -0.017624393088057189 -0.011110470722260537 0 -0.017657705049794664 -0.012035978938416816 0 -0.018495549321848711 -0.011899194064251158 0 -0.017624393088057189 -0.011110470722260537 0 -0.017657705049794664 -0.012035978938416816 0 -0.016159294065078204 -0.011529795817912592 0 -0.014537690478507054 -0.011829092771126381 0 -0.016159294065078204 -0.011529795817912592 0 -0.015697334425283947 -0.012356512261118887 0 -0.016159294065078204 -0.011529795817912592 0 -0.016319987692350983 -0.012584863592061183 0 -0.015697334425283947 -0.012356512261118887 0 -0.016319987692350983 -0.012584863592061183 0 -0.016008891485345005 -0.012833526633002612 0 -0.015697334425283947 -0.012356512261118887 0 -0.016319987692350983 -0.012584863592061183 0 -0.016008891485345005 -0.012833526633002612 0 -0.016320799614295483 -0.013132742134531182 0 -0.014537690478507054 -0.011829092771126381 0 -0.015697334425283947 -0.012356512261118887 0 -0.015431687933664508 -0.012694991252948321 0 -0.016008891485345005 -0.012833526633002612 0 -0.015697334425283947 -0.012356512261118887 0 -0.015431687933664508 -0.012694991252948321 0 -0.016008891485345005 -0.012833526633002612 0 -0.015431687933664508 -0.012694991252948321 0 -0.01567729193106613 -0.012855081612647519 0 -0.01567729193106613 -0.012855081612647519 0 -0.015785125338759726 -0.012958702932397904 0 -0.01552092297191645 -0.012915110753603583 0 -0.015431687933664508 -0.012694991252948321 0 -0.01567729193106613 -0.012855081612647519 0 -0.01552092297191645 -0.012915110753603583 0 -0.016008891485345005 -0.012833526633002612 0 -0.015785125338759726 -0.012958702932397904 0 -0.016320799614295483 -0.013132742134531182 0 -0.016008891485345005 -0.012833526633002612 0 -0.01567729193106613 -0.012855081612647519 0 -0.015785125338759726 -0.012958702932397904 0 -0.017097564554032062 -0.012493078813965268 0 -0.016320799614295483 -0.013132742134531182 0 -0.018664609523293053 -0.012659145961474732 0 -0.016813984056452028 -0.012152463706957604 0 -0.016845455798288826 -0.012334569850524935 0 -0.018892410087988191 -0.010893288978020053 0 -0.022341110268848125 -0.011950543736869681 0 -0.021186646428709391 -0.01166461101575646 0 -0.026776834983560458 -0.012386220473069127 0 -0.02674172583234188 -0.012130781656724616 0 -0.02659839940525446 -0.011563987810850659 0 -0.016231975789003036 -0.012784599812166784 0 -0.021186646428709391 -0.01166461101575646 0 -0.026776834983560458 -0.012386220473069127 0 -0.026794762397840462 -0.012329352404155582 0 -0.026772639215764657 -0.012268238552949923 0 -0.026794762397840462 -0.012329352404155582 0 -0.026772639215764657 -0.012268238552949923 0 -0.026802751020673234 -0.012300197616079259 0 -0.026776834983560458 -0.012386220473069127 0 -0.026794762397840462 -0.012329352404155582 0 -0.026841898688677521 -0.012329636720013871 0 -0.017097564554032062 -0.012493078813965268 0 -0.016319987692350983 -0.012584863592061183 0 -0.016320799614295483 -0.013132742134531182 0 -0.026776834983560458 -0.012386220473069127 0 -0.02674172583234188 -0.012130781656724616 0 -0.026772639215764657 -0.012268238552949923 0 -0.026772639215764657 -0.012268238552949923 0 -0.026792259389571756 -0.012265063860485394 0 -0.026802751020673234 -0.012300197616079259 0 -0.02674172583234188 -0.012130781656724616 0 -0.026772639215764657 -0.012268238552949923 0 -0.026792259389571756 -0.012265063860485394 0 -0.02674172583234188 -0.012130781656724616 0 -0.026832297371667948 -0.012208420458760125 0 -0.026792259389571756 -0.012265063860485394 0 -0.02674172583234188 -0.012130781656724616 0 -0.026832297371667948 -0.012208420458760125 0 -0.026789726414647136 -0.011938403209897289 0 -0.026832297371667948 -0.012208420458760125 0 -0.026952832327754875 -0.012038092084477673 0 -0.026789726414647136 -0.011938403209897289 0 -0.026952832327754875 -0.012038092084477673 0 -0.027253616218135455 -0.011877426085608156 0 -0.027067713618011927 -0.012394650725196773 0 -0.026832297371667948 -0.012208420458760125 0 -0.026952832327754875 -0.012038092084477673 0 -0.027067713618011927 -0.012394650725196773 0 -0.026952832327754875 -0.012038092084477673 0 -0.026907666424630876 -0.011724968563988124 0 -0.027253616218135455 -0.011877426085608156 0 -0.026952832327754875 -0.012038092084477673 0 -0.026907666424630876 -0.011724968563988124 0 -0.026789726414647136 -0.011938403209897289 0 -0.026907666424630876 -0.011724968563988124 0 -0.026789726414647136 -0.011938403209897289 0 -0.02659839940525446 -0.011563987810850659 0 -0.02674172583234188 -0.012130781656724616 0 -0.026789726414647136 -0.011938403209897289 0 -0.02659839940525446 -0.011563987810850659 0 -0.017657705049794664 -0.012035978938416816 0 -0.018664609523293053 -0.012659145961474732 0 -0.018495549321848711 -0.011899194064251158 0 -0.019324208653142796 -0.012539790164177129 0 -0.018664609523293053 -0.012659145961474732 0 -0.018495549321848711 -0.011899194064251158 0 -0.022566485258536349 -0.011486710826321347 0 -0.021186646428709391 -0.01166461101575646 0 -0.02669206844481636 -0.011312341795823404 0 -0.02659839940525446 -0.011563987810850659 0 -0.027046096627124108 -0.011296823423431334 0 -0.026907666424630876 -0.011724968563988124 0 -0.02659839940525446 -0.011563987810850659 0 -0.027046096627124108 -0.011296823423431334 0 -0.019324208653142796 -0.012539790164177129 0 -0.019345003407100651 -0.011037319074861307 0 -0.02218714555948733 -0.011595498935218766 0 -0.02669206844481636 -0.011312341795823404 0 -0.027046096627124108 -0.011296823423431334 0 -0.027124281476859122 -0.010394353091276381 0 -0.022566485258536349 -0.011486710826321347 0 -0.024777871563860788 -0.010781591304655449 0 -0.017624393088057189 -0.011110470722260537 0 -0.018495549321848711 -0.011899194064251158 0 -0.019345003407100651 -0.011037319074861307 0 -0.019324208653142796 -0.012539790164177129 0 -0.018495549321848711 -0.011899194064251158 0 -0.019345003407100651 -0.011037319074861307 0 -0.027606620849809683 -0.01101967548809569 0 -0.027660573887166365 -0.010291510040340342 0 -0.027124281476859122 -0.010394353091276381 0 -0.027046096627124108 -0.011296823423431334 0 -0.027606620849809683 -0.01101967548809569 0 -0.027124281476859122 -0.010394353091276381 0 -0.027046096627124108 -0.011296823423431334 0 -0.027606620849809683 -0.01101967548809569 0 -0.027253616218135455 -0.011877426085608156 0 -0.027253616218135455 -0.011877426085608156 0 -0.028415848404527169 -0.011676340753128943 0 -0.027762450011531815 -0.012860410383650487 0 -0.027606620849809683 -0.01101967548809569 0 -0.027253616218135455 -0.011877426085608156 0 -0.028415848404527169 -0.011676340753128943 0 -0.026907666424630876 -0.011724968563988124 0 -0.027046096627124108 -0.011296823423431334 0 -0.027253616218135455 -0.011877426085608156 0 -0.027253616218135455 -0.011877426085608156 0 -0.027762450011531815 -0.012860410383650487 0 -0.027067713618011927 -0.012394650725196773 0 -0.031072938136997557 -0.012331116719249649 0 -0.03238091615835316 -0.012316153393318399 0 -0.028415848404527169 -0.011676340753128943 0 -0.030867636495834124 -0.012251939248494877 0 -0.029668875782641654 -0.011281272168582402 0 -0.028415848404527169 -0.011676340753128943 0 -0.030867636495834124 -0.012251939248494877 0 -0.027762450011531815 -0.012860410383650487 0 -0.030867636495834124 -0.012251939248494877 0 -0.032385863822307494 -0.011295954925118803 0 -0.036441204106120458 -0.012207638073675003 0 -0.031201320337423708 -0.011810441364157528 0 -0.032385863822307494 -0.011295954925118803 0 -0.030916306334031592 -0.011336902134643084 0 -0.031201320337423708 -0.011810441364157528 0 -0.030867636495834124 -0.012251939248494877 0 -0.031041142192211463 -0.011836943704572946 0 -0.031201320337423708 -0.011810441364157528 0 -0.030916306334031592 -0.011336902134643084 0 -0.031041142192211463 -0.011836943704572946 0 -0.031201320337423708 -0.011810441364157528 0 -0.030867636495834124 -0.012251939248494877 0 -0.032385863822307494 -0.011295954925118803 0 -0.030867636495834124 -0.012251939248494877 0 -0.030748848395705422 -0.011358174770815431 0 -0.031041142192211463 -0.011836943704572946 0 -0.030748848395705422 -0.011358174770815431 0 -0.029668875782641654 -0.011281272168582402 0 -0.030083264772950809 -0.010450983508461116 0 -0.030867636495834124 -0.012251939248494877 0 -0.030748848395705422 -0.011358174770815431 0 -0.029668875782641654 -0.011281272168582402 0 -0.029668875782641654 -0.011281272168582402 0 -0.030083264772950809 -0.010450983508461116 0 -0.028858106298650155 -0.010142631564794181 0 -0.030748848395705422 -0.011358174770815431 0 -0.030083264772950809 -0.010450983508461116 0 -0.031085225584730831 -0.010626178185206381 0 -0.027606620849809683 -0.01101967548809569 0 -0.028415848404527169 -0.011676340753128943 0 -0.028394417641629206 -0.010934246520187197 0 -0.028415848404527169 -0.011676340753128943 0 -0.029668875782641654 -0.011281272168582402 0 -0.028394417641629206 -0.010934246520187197 0 -0.028394417641629206 -0.010934246520187197 0 -0.027660573887166365 -0.010291510040340342 0 -0.028858106298650155 -0.010142631564794181 0 -0.029668875782641654 -0.011281272168582402 0 -0.028394417641629206 -0.010934246520187197 0 -0.028858106298650155 -0.010142631564794181 0 -0.027606620849809683 -0.01101967548809569 0 -0.028394417641629206 -0.010934246520187197 0 -0.027660573887166365 -0.010291510040340342 0 -0.028858106298650155 -0.010142631564794181 0 -0.029588545052403263 -0.0091600108499540062 0 -0.026849489339825155 -0.0089487319488162388 0 -0.027660573887166365 -0.010291510040340342 0 -0.028858106298650155 -0.010142631564794181 0 -0.026849489339825155 -0.0089487319488162388 0 -0.030083264772950809 -0.010450983508461116 0 -0.029588545052403263 -0.0091600108499540062 0 -0.030682180130986506 -0.0095787741494547749 0 -0.030083264772950809 -0.010450983508461116 0 -0.030682180130986506 -0.0095787741494547749 0 -0.031085225584730831 -0.010626178185206381 0 -0.030083264772950809 -0.010450983508461116 0 -0.028858106298650155 -0.010142631564794181 0 -0.029588545052403263 -0.0091600108499540062 0 -0.029588545052403263 -0.0091600108499540062 0 -0.030197455864573172 -0.0081250992398716922 0 -0.030682180130986506 -0.0095787741494547749 0 -0.029737129161028674 -0.0060495017140366975 0 -0.030445467504277596 -0.0080653152955744191 0 -0.030026538752701191 -0.0053895857421874431 0 -0.030197455864573172 -0.0081250992398716922 0 -0.030492976631735717 -0.0083062413080965802 0 -0.030026538752701191 -0.0053895857421874431 0 -0.030197455864573172 -0.0081250992398716922 0 -0.028727916898802903 -0.0074499736020303157 0 -0.029588545052403263 -0.0091600108499540062 0 -0.030197455864573172 -0.0081250992398716922 0 -0.028727916898802903 -0.0074499736020303157 0 -0.029588545052403263 -0.0091600108499540062 0 -0.028727916898802903 -0.0074499736020303157 0 -0.026849489339825155 -0.0089487319488162388 0 -0.026097924041528584 -0.0048354559291919758 0 -0.028727916898802903 -0.0074499736020303157 0 -0.026849489339825155 -0.0089487319488162388 0 -0.026849489339825155 -0.0089487319488162388 0 -0.021424293404809919 -0.006778055303053216 0 -0.021379348590542586 -0.0093024152470609616 0 -0.026097924041528584 -0.0048354559291919758 0 -0.026849489339825155 -0.0089487319488162388 0 -0.021424293404809919 -0.006778055303053216 0 -0.018093749101625558 -0.0054756164307858983 0 -0.021424293404809919 -0.006778055303053216 0 -0.018259673295695191 -0.0090051876982201046 0 -0.021424293404809919 -0.006778055303053216 0 -0.018259673295695191 -0.0090051876982201046 0 -0.021379348590542586 -0.0093024152470609616 0 -0.018259673295695191 -0.0090051876982201046 0 -0.019345003407100651 -0.011037319074861307 0 -0.021379348590542586 -0.0093024152470609616 0 -0.017624393088057189 -0.011110470722260537 0 -0.018259673295695191 -0.0090051876982201046 0 -0.019345003407100651 -0.011037319074861307 0 -0.019345003407100651 -0.011037319074861307 0 -0.02218714555948733 -0.011595498935218766 0 -0.021379348590542586 -0.0093024152470609616 0 -0.027660573887166365 -0.010291510040340342 0 -0.026849489339825155 -0.0089487319488162388 0 -0.027124281476859122 -0.010394353091276381 0 -0.026849489339825155 -0.0089487319488162388 0 -0.02218714555948733 -0.011595498935218766 0 -0.021379348590542586 -0.0093024152470609616 0 -0.026780091033705707 -0.0090756417092545498 0 -0.024777871563860788 -0.010781591304655449 0 -0.019053754803332958 -0.0012279286333492312 0 -0.018272618757082582 -0.00095457921645621222 0 -0.018492249955497978 -0.0015558609918585908 0 -0.01980784846326358 -0.00064071593726629543 0 -0.019053754803332958 -0.0012279286333492312 0 -0.019035999392671584 -0.00053917822548003392 0 -0.019053754803332958 -0.0012279286333492312 0 -0.018272618757082582 -0.00095457921645621222 0 -0.019035999392671584 -0.00053917822548003392 0 -0.018272618757082582 -0.00095457921645621222 0 -0.017936288142171963 -0.0019067812450938432 0 -0.017558243776731163 -0.00090696818228826225 0 -0.018272618757082582 -0.00095457921645621222 0 -0.017558243776731163 -0.00090696818228826225 0 -0.017896504170993668 -0.00035047246258862751 0 -0.018492249955497978 -0.0015558609918585908 0 -0.017936288142171963 -0.0019067812450938432 0 -0.018795964196813276 -0.0020298178780546348 0 -0.018272618757082582 -0.00095457921645621222 0 -0.018492249955497978 -0.0015558609918585908 0 -0.017936288142171963 -0.0019067812450938432 0 -0.019053754803332958 -0.0012279286333492312 0 -0.018492249955497978 -0.0015558609918585908 0 -0.018795964196813276 -0.0020298178780546348 0 -0.019470823701045258 -0.0025137372241302485 0 -0.019811470914824488 -0.0015429061734304305 0 -0.018795964196813276 -0.0020298178780546348 0 -0.019811470914824488 -0.0015429061734304305 0 -0.019053754803332958 -0.0012279286333492312 0 -0.018795964196813276 -0.0020298178780546348 0 -0.01915718676225012 -0.0023856524120567557 0 -0.016894776722192945 -0.0027496484935684495 0 -0.018525606281796683 -0.002290651913792849 0 -0.018122926862677649 -0.0032091677059485494 0 -0.01717398867716767 -0.0027774826704006512 0 -0.019470823701045258 -0.0025137372241302485 0 -0.018795964196813276 -0.0020298178780546348 0 -0.018296820006465275 -0.0029564046842407376 0 -0.01757666829120803 -0.0039790780848163836 0 -0.018122926862677649 -0.0032091677059485494 0 -0.01717398867716767 -0.0027774826704006512 0 -0.01673801694663794 -0.0031770410303476639 0 -0.015766233749585742 -0.002764738596257782 0 -0.01610752808955369 -0.0020793771124286205 0 -0.017141869736177585 -0.0035606017472397033 0 -0.016894776722192945 -0.0027496484935684495 0 -0.016894776722192945 -0.0027496484935684495 0 -0.015072611228669493 -0.0028101960422603684 0 -0.015766233749585742 -0.002764738596257782 0 -0.01610752808955369 -0.0020793771124286205 0 -0.015291930057962292 -0.0024708269721466507 0 -0.016587446042256374 -0.0021431597085418289 0 -0.016894776722192945 -0.0027496484935684495 0 -0.017936288142171963 -0.0019067812450938432 0 -0.018795964196813276 -0.0020298178780546348 0 -0.018296820006465275 -0.0029564046842407376 0 -0.015273951710013445 -0.0023022895665248031 0 -0.015451527728477644 -0.0028467910120761769 0 -0.014941722937698283 -0.0025880696419536679 0 -0.015451527728477644 -0.0028467910120761769 0 -0.014941722937698283 -0.0025880696419536679 0 -0.015067188049506025 -0.0029768249658245209 0 -0.014941722937698283 -0.0025880696419536679 0 -0.015067188049506025 -0.0029768249658245209 0 -0.014765954653412735 -0.0028643546032633433 0 -0.015067188049506025 -0.0029768249658245209 0 -0.01468209413233601 -0.0030415050431091876 0 -0.014765954653412735 -0.0028643546032633433 0 -0.015291930057962292 -0.0024708269721466507 0 -0.015079624491454235 -0.0030465512861122192 0 -0.01468209413233601 -0.0030415050431091876 0 -0.015072611228669493 -0.0028101960422603684 0 -0.014816573536131571 -0.0029433655219903206 0 -0.015766233749585742 -0.002764738596257782 0 -0.015291930057962292 -0.0024708269721466507 0 -0.015079624491454235 -0.0030465512861122192 0 -0.014473490600673 -0.0031379010853204849 0 -0.014765954653412735 -0.0028643546032633433 0 -0.01446471939178498 -0.0026712115578724905 0 -0.01464350064860484 -0.0032237155852982338 0 -0.015079624491454235 -0.0030465512861122192 0 -0.01468209413233601 -0.0030415050431091876 0 -0.01464350064860484 -0.0032237155852982338 0 -0.014473490600673 -0.0031379010853204849 0 -0.01468209413233601 -0.0030415050431091876 0 -0.014473490600673 -0.0031379010853204849 0 -0.01468209413233601 -0.0030415050431091876 0 -0.014765954653412735 -0.0028643546032633433 0 -0.014941722937698283 -0.0025880696419536679 0 -0.014765954653412735 -0.0028643546032633433 0 -0.01446471939178498 -0.0026712115578724905 0 -0.014941722937698283 -0.0025880696419536679 0 -0.01446471939178498 -0.0026712115578724905 0 -0.014767984155987072 -0.0021993435626284879 0 -0.014767010349371733 -0.002789501568719439 0 -0.015273988148663979 -0.0022914358084808991 0 -0.015941543223352211 -0.0022483448228937659 0 -0.015869977214763326 -0.0015013935921883187 0 -0.014924725339179483 -0.0022282884257654183 0 -0.015008781062565564 -0.0029989361605469423 0 -0.015941543223352211 -0.0022483448228937659 0 -0.014924725339179483 -0.0022282884257654183 0 -0.015273951710013445 -0.0023022895665248031 0 -0.014767984155987072 -0.0021993435626284879 0 -0.015096520418980675 -0.0017342152625433437 0 -0.015273951710013445 -0.0023022895665248031 0 -0.014941722937698283 -0.0025880696419536679 0 -0.014767984155987072 -0.0021993435626284879 0 -0.016587446042256374 -0.0021431597085418289 0 -0.016590966193213128 -0.0012001943338407397 0 -0.015941543223352211 -0.0022483448228937659 0 -0.016835572037087267 -0.0012861493450308631 0 -0.015869977214763326 -0.0015013935921883187 0 -0.015273988148663979 -0.0022914358084808991 0 -0.016590966193213128 -0.0012001943338407397 0 -0.016835572037087267 -0.0012861493450308631 0 -0.015869977214763326 -0.0015013935921883187 0 -0.015651669280587543 -0.00067525451306070506 0 -0.015869977214763326 -0.0015013935921883187 0 -0.014659520608018027 -0.0014138025344054531 0 -0.015651669280587543 -0.00067525451306070506 0 -0.015869977214763326 -0.0015013935921883187 0 -0.014659520608018027 -0.0014138025344054531 0 -0.014924725339179483 -0.0022282884257654183 0 -0.014659520608018027 -0.0014138025344054531 0 -0.013410535917196145 -0.0015121864402541053 0 -0.014027990099351503 -0.0021619709940050363 0 -0.014659520608018027 -0.0014138025344054531 0 -0.013410535917196145 -0.0015121864402541053 0 -0.014378918925060878 -0.00031428420836467015 0 -0.014027990099351503 -0.0021619709940050363 0 -0.014154284276680867 -0.002809186758974549 0 -0.013281885319161899 -0.0027147019865989917 0 -0.013410535917196145 -0.0015121864402541053 0 -0.014027990099351503 -0.0021619709940050363 0 -0.013281885319161899 -0.0027147019865989917 0 -0.014027990099351503 -0.0021619709940050363 0 -0.014924725339179483 -0.0022282884257654183 0 -0.014154284276680867 -0.002809186758974549 0 -0.014659520608018027 -0.0014138025344054531 0 -0.014027990099351503 -0.0021619709940050363 0 -0.014924725339179483 -0.0022282884257654183 0 -0.015008781062565564 -0.0029989361605469423 0 -0.014234320073249667 -0.0031192066215520124 0 -0.014154284276680867 -0.002809186758974549 0 -0.015008781062565564 -0.0029989361605469423 0 -0.014924725339179483 -0.0022282884257654183 0 -0.014154284276680867 -0.002809186758974549 0 -0.014437144754138752 -0.0033157053573862122 0 -0.014255210566817772 -0.003245630237436339 0 -0.013972398292003167 -0.0033162127204795448 0 -0.015008781062565564 -0.0029989361605469423 0 -0.014234320073249667 -0.0031192066215520124 0 -0.014255210566817772 -0.003245630237436339 0 -0.014767010349371733 -0.002789501568719439 0 -0.014334574816894827 -0.0032038409932415141 0 -0.012438886103137236 -0.0017803504275765954 0 -0.010243995852041912 -0.0011150904947462483 0 -0.014473490600673 -0.0031379010853204849 0 -0.01446471939178498 -0.0026712115578724905 0 -0.014255210566817772 -0.003245630237436339 0 -0.014437144754138752 -0.0033157053573862122 0 -0.014473490600673 -0.0031379010853204849 0 -0.014255210566817772 -0.003245630237436339 0 -0.0076497146175268345 0.00064128363123106425 0 -0.010243995852041912 -0.0011150904947462483 0 -0.0087054428851318175 -0.00040041185797954373 0 -0.0086669853880597964 -0.00066622546556431789 0 -0.009139936210939472 -0.00050918187730523143 0 -0.014234320073249667 -0.0031192066215520124 0 -0.014255210566817772 -0.003245630237436339 0 -0.013972398292003167 -0.0033162127204795448 0 -0.014234320073249667 -0.0031192066215520124 0 -0.013972398292003167 -0.0033162127204795448 0 -0.014154284276680867 -0.002809186758974549 0 -0.010243995852041912 -0.0011150904947462483 0 -0.012157720120015763 -0.0022115118560405399 0 -0.013972398292003167 -0.0033162127204795448 0 -0.014154284276680867 -0.002809186758974549 0 -0.013281885319161899 -0.0027147019865989917 0 -0.010541214061561801 -0.0013504285348231065 0 -0.010404515065031083 -0.0010915163749725732 0 -0.010354686212389013 -0.0012411549587972523 0 -0.010404515065031083 -0.0010915163749725732 0 -0.010354686212389013 -0.0012411549587972523 0 -0.010145356398409602 -0.0010841111622890893 0 -0.0096938576730969134 -0.00099944333840262822 0 -0.010095109882872913 -0.0011211904059209381 0 -0.009283309524560435 -0.00019518639196877203 0 -0.009139936210939472 -0.00050918187730523143 0 -0.0096573497056779856 -0.00042629516698575924 0 -0.0086669853880597964 -0.00066622546556431789 0 -0.0091999069334470773 -0.00090677757190037406 0 -0.009139936210939472 -0.00050918187730523143 0 -0.010243995852041912 -0.0011150904947462483 0 -0.0096938576730969134 -0.00099944333840262822 0 -0.0091999069334470773 -0.00090677757190037406 0 -0.009139936210939472 -0.00050918187730523143 0 -0.009660809998947386 -0.00070443343715557744 0 -0.009139936210939472 -0.00050918187730523143 0 -0.0096573497056779856 -0.00042629516698575924 0 -0.009660809998947386 -0.00070443343715557744 0 -0.010056342051376775 -0.00068669394873531442 0 -0.0099087519997314889 -0.00031603722839830111 0 -0.0096573497056779856 -0.00042629516698575924 0 -0.010056342051376775 -0.00068669394873531442 0 -0.0096573497056779856 -0.00042629516698575924 0 -0.009660809998947386 -0.00070443343715557744 0 -0.010056342051376775 -0.00068669394873531442 0 -0.010315769562067419 -0.00096049607715543409 0 -0.010145356398409602 -0.0010841111622890893 0 -0.010056342051376775 -0.00068669394873531442 0 -0.009660809998947386 -0.00070443343715557744 0 -0.010145356398409602 -0.0010841111622890893 0 -0.0091999069334470773 -0.00090677757190037406 0 -0.009660809998947386 -0.00070443343715557744 0 -0.010145356398409602 -0.0010841111622890893 0 -0.010446037373837133 -0.0011044399458084791 0 -0.010145356398409602 -0.0010841111622890893 0 -0.010604169672144437 -0.0010514613124855676 0 -0.013410535917196145 -0.0015121864402541053 0 -0.013281885319161899 -0.0027147019865989917 0 -0.012376942040440439 -0.0017304896498125521 0 -0.012157720120015763 -0.0022115118560405399 0 -0.011422393215322756 -0.0012453931129886289 0 -0.010404515065031083 -0.0010915163749725732 0 -0.010145356398409602 -0.0010841111622890893 0 -0.010604169672144437 -0.0010514613124855676 0 -0.013410535917196145 -0.0015121864402541053 0 -0.012376942040440439 -0.0017304896498125521 0 -0.012711220015770476 -0.0006998026638849453 0 -0.010665287347390327 -0.0010836610365704551 0 -0.01084627077041049 -0.0009174186043917281 0 -0.010604169672144437 -0.0010514613124855676 0 -0.010446037373837133 -0.0011044399458084791 0 -0.010665287347390327 -0.0010836610365704551 0 -0.010604169672144437 -0.0010514613124855676 0 -0.011422393215322756 -0.0012453931129886289 0 -0.011210544868667132 -0.00065221829762389686 0 -0.012376942040440439 -0.0017304896498125521 0 -0.011222984476409384 -0.0006179127358435961 0 -0.012711220015770476 -0.0006998026638849453 0 -0.01084627077041049 -0.0009174186043917281 0 -0.010604169672144437 -0.0010514613124855676 0 -0.011222984476409384 -0.0006179127358435961 0 -0.011222984476409384 -0.0006179127358435961 0 -0.012711220015770476 -0.0006998026638849453 0 -0.013210564699132545 0.00056880499003834982 0 -0.020629473209953113 -0.0039954554115457412 0 -0.018854588643228941 -0.0043574576223408259 0 -0.011222984476409384 -0.0006179127358435961 0 -0.013210564699132545 0.00056880499003834982 0 -0.011059829529759745 -0.00024096704788281005 0 -0.028235334216115508 -0.0084247261779022749 0 -0.025952357181483771 -0.0091538686044474547 0 -0.026143880604190657 -0.007562937180661671 0 -0.026039146813821891 -0.005886442171653127 0 -0.027575602470333999 -0.0067849476394046225 0 -0.028329097680018209 -0.0047426409503410136 0 -0.026143880604190657 -0.007562937180661671 0 -0.026039146813821891 -0.005886442171653127 0 -0.027575602470333999 -0.0067849476394046225 0 -0.027724940801995016 -0.0067763403263930832 0 -0.029488816006918654 -0.0066319872242137116 0 -0.027575602470333999 -0.0067849476394046225 0 -0.030040335928455585 -0.0066582005685590856 0 -0.028329097680018209 -0.0047426409503410136 0 -0.028235334216115508 -0.0084247261779022749 0 -0.027575602470333999 -0.0067849476394046225 0 -0.02900175498187298 -0.0066450688601595127 0 -0.028235334216115508 -0.0084247261779022749 0 -0.026143880604190657 -0.007562937180661671 0 -0.027575602470333999 -0.0067849476394046225 0 -0.028235334216115508 -0.0084247261779022749 0 -0.02900175498187298 -0.0066450688601595127 0 -0.030163563034011683 -0.0078548553763796262 0 -0.029488816006918654 -0.0066319872242137116 0 -0.031358983286782834 -0.0063288550595090613 0 -0.030040335928455585 -0.0066582005685590856 0 -0.032120374669990487 -0.0063000091490969948 0 -0.031362740917800648 -0.0047173891992963136 0 -0.02900175498187298 -0.0066450688601595127 0 -0.030163563034011683 -0.0078548553763796262 0 -0.030605205142037146 -0.00636119562051163 0 -0.015152723669823925 0.0011258190084903459 0 -0.014378918925060878 -0.00031428420836467015 0 -0.015424239777217477 0.00015138229278025019 0 -0.013210564699132545 0.00056880499003834982 0 -0.015152723669823925 0.0011258190084903459 0 -0.014378918925060878 -0.00031428420836467015 0 -0.020629473209953113 -0.0039954554115457412 0 -0.022709291344989661 -0.0033607793415134312 0 -0.012711220015770476 -0.0006998026638849453 0 -0.013210564699132545 0.00056880499003834982 0 -0.014378918925060878 -0.00031428420836467015 0 -0.013410535917196145 -0.0015121864402541053 0 -0.012711220015770476 -0.0006998026638849453 0 -0.014378918925060878 -0.00031428420836467015 0 -0.014378918925060878 -0.00031428420836467015 0 -0.015651669280587543 -0.00067525451306070506 0 -0.015424239777217477 0.00015138229278025019 0 -0.014659520608018027 -0.0014138025344054531 0 -0.014378918925060878 -0.00031428420836467015 0 -0.015651669280587543 -0.00067525451306070506 0 -0.017343222791973638 -0.0011477455102694724 0 -0.01656544494416963 0.00050860745081597527 0 -0.017896504170993668 -0.00035047246258862751 0 -0.016835572037087267 -0.0012861493450308631 0 -0.015651669280587543 -0.00067525451306070506 0 -0.01656544494416963 0.00050860745081597527 0 -0.016590966193213128 -0.0012001943338407397 0 -0.016717567526496002 0.00043296771593064287 0 -0.016590966193213128 -0.0012001943338407397 0 -0.017887127841050923 -0.00026425004482396686 0 -0.01656544494416963 0.00050860745081597527 0 -0.017748217065799165 0.00049801160713452541 0 -0.017896504170993668 -0.00035047246258862751 0 -0.01656544494416963 0.00050860745081597527 0 -0.017259200680508676 0.0016325378770724462 0 -0.017748217065799165 0.00049801160713452541 0 -0.015152723669823925 0.0011258190084903459 0 -0.01656544494416963 0.00050860745081597527 0 -0.015424239777217477 0.00015138229278025019 0 -0.015651669280587543 -0.00067525451306070506 0 -0.01656544494416963 0.00050860745081597527 0 -0.015424239777217477 0.00015138229278025019 0 -0.030163563034011683 -0.0078548553763796262 0 -0.031600016951545185 -0.0068056196594026052 0 -0.032643640415475079 -0.0073155791467866644 0 -0.015152723669823925 0.0011258190084903459 0 -0.01656544494416963 0.00050860745081597527 0 -0.017259200680508676 0.0016325378770724462 0 -0.022709291344989661 -0.0033607793415134312 0 -0.024857015274276261 -0.0028230619082019936 0 -0.030163563034011683 -0.0078548553763796262 0 -0.031600016951545185 -0.0068056196594026052 0 -0.030605205142037146 -0.00636119562051163 0 -0.031600016951545185 -0.0068056196594026052 0 -0.030605205142037146 -0.00636119562051163 0 -0.032559629681673086 -0.006014508929971219 0 -0.031358983286782834 -0.0063288550595090613 0 -0.033148421550291574 -0.0060026173833218881 0 -0.032120374669990487 -0.0063000091490969948 0 -0.033685148727145835 -0.0059672614243308992 0 -0.032869413268963199 -0.0049669933324194351 0 -0.033685148727145835 -0.0059672614243308992 0 -0.034321250762756259 -0.0052886212522409845 0 -0.033695151380685393 -0.0051904381478539994 0 -0.031600016951545185 -0.0068056196594026052 0 -0.032559629681673086 -0.006014508929971219 0 -0.032643640415475079 -0.0073155791467866644 0 -0.024857015274276261 -0.0028230619082019936 0 -0.027647748362457581 -0.002395738113770913 0 -0.017259200680508676 0.0016325378770724462 0 -0.019100451654290151 0.0019599205749865054 0 -0.018579643044484548 0.00085720457813582987 0 -0.033148421550291574 -0.0060026173833218881 0 -0.034751046924560429 -0.0058114037670332222 0 -0.032643640415475079 -0.0073155791467866644 0 -0.034880377813032437 -0.0057834712354816646 0 -0.035467450736875086 -0.0064377862781079776 0 -0.033685148727145835 -0.0059672614243308992 0 -0.034880377813032437 -0.0057834712354816646 0 -0.034321250762756259 -0.0052886212522409845 0 -0.032559629681673086 -0.006014508929971219 0 -0.032643640415475079 -0.0073155791467866644 0 -0.034880377813032437 -0.0057834712354816646 0 -0.036028796834823532 -0.0053412480318383686 0 -0.034880377813032437 -0.0057834712354816646 0 -0.035467450736875086 -0.0064377862781079776 0 -0.020033533593487775 0.0017972303565654054 0 -0.019449021185644733 0.0010931095879828945 0 -0.019100451654290151 0.0019599205749865054 0 -0.019449021185644733 0.0010931095879828945 0 -0.019100451654290151 0.0019599205749865054 0 -0.018579643044484548 0.00085720457813582987 0 -0.019449021185644733 0.0010931095879828945 0 -0.019483833556449146 0.00021917591929293526 0 -0.018579643044484548 0.00085720457813582987 0 -0.019483833556449146 0.00021917591929293526 0 -0.018579643044484548 0.00085720457813582987 0 -0.018571907774715572 -4.5611999994958775e-05 0 -0.017259200680508676 0.0016325378770724462 0 -0.018579643044484548 0.00085720457813582987 0 -0.017748217065799165 0.00049801160713452541 0 -0.018579643044484548 0.00085720457813582987 0 -0.017748217065799165 0.00049801160713452541 0 -0.018571907774715572 -4.5611999994958775e-05 0 -0.018272618757082582 -0.00095457921645621222 0 -0.018571907774715572 -4.5611999994958775e-05 0 -0.017896504170993668 -0.00035047246258862751 0 -0.017748217065799165 0.00049801160713452541 0 -0.018571907774715572 -4.5611999994958775e-05 0 -0.017896504170993668 -0.00035047246258862751 0 -0.019483833556449146 0.00021917591929293526 0 -0.018571907774715572 -4.5611999994958775e-05 0 -0.019035999392671584 -0.00053917822548003392 0 -0.01980784846326358 -0.00064071593726629543 0 -0.019483833556449146 0.00021917591929293526 0 -0.019035999392671584 -0.00053917822548003392 0 -0.018272618757082582 -0.00095457921645621222 0 -0.018571907774715572 -4.5611999994958775e-05 0 -0.019035999392671584 -0.00053917822548003392 0 -0.034658363886794274 -0.0023834027114857052 0 -0.035650523083593622 -0.0027990198439725457 0 -0.035048348100096605 -0.0013151774788930383 0 -0.036555538572909968 -0.0023557386187945438 0 -0.036100909054174901 -0.0032120283187046005 0 -0.035770692885988845 -0.0020982756472423883 0 -0.035788347605139478 -0.0031183959758870343 0 -0.036261876063810344 -0.0011378104555492396 0 -0.034658363886794274 -0.0023834027114857052 0 -0.033735503454872667 -0.0026643189617646642 0 -0.034122330718516655 -0.0015365509684769341 0 -0.034658363886794274 -0.0023834027114857052 0 -0.034122330718516655 -0.0015365509684769341 0 -0.035048348100096605 -0.0013151774788930383 0 -0.034658363886794274 -0.0023834027114857052 0 -0.034736194222912291 -0.0036088165492742918 0 -0.033735503454872667 -0.0026643189617646642 0 -0.034658363886794274 -0.0023834027114857052 0 -0.035650523083593622 -0.0027990198439725457 0 -0.034736194222912291 -0.0036088165492742918 0 -0.036286031718911642 -0.0043169117163719519 0 -0.035650523083593622 -0.0027990198439725457 0 -0.034736194222912291 -0.0036088165492742918 0 -0.03630169424538271 -0.0042184182670173915 0 -0.035788347605139478 -0.0031183959758870343 0 -0.036286031718911642 -0.0043169117163719519 0 -0.035106042626869297 -0.0048675053361418186 0 -0.034736194222912291 -0.0036088165492742918 0 -0.036028796834823532 -0.0053412480318383686 0 -0.034880377813032437 -0.0057834712354816646 0 -0.035106042626869297 -0.0048675053361418186 0 -0.036286031718911642 -0.0043169117163719519 0 -0.036028796834823532 -0.0053412480318383686 0 -0.035106042626869297 -0.0048675053361418186 0 -0.034880377813032437 -0.0057834712354816646 0 -0.035106042626869297 -0.0048675053361418186 0 -0.034321250762756259 -0.0052886212522409845 0 -0.035106042626869297 -0.0048675053361418186 0 -0.034321250762756259 -0.0052886212522409845 0 -0.034239817614924672 -0.00457382937518105 0 -0.034239817614924672 -0.00457382937518105 0 -0.034736194222912291 -0.0036088165492742918 0 -0.0333795491974192 -0.0037519502617437786 0 -0.035106042626869297 -0.0048675053361418186 0 -0.034239817614924672 -0.00457382937518105 0 -0.034736194222912291 -0.0036088165492742918 0 -0.0333795491974192 -0.0037519502617437786 0 -0.033695151380685393 -0.0051904381478539994 0 -0.032869413268963199 -0.0049669933324194351 0 -0.034239817614924672 -0.00457382937518105 0 -0.0333795491974192 -0.0037519502617437786 0 -0.033695151380685393 -0.0051904381478539994 0 -0.033685148727145835 -0.0059672614243308992 0 -0.033695151380685393 -0.0051904381478539994 0 -0.032869413268963199 -0.0049669933324194351 0 -0.034321250762756259 -0.0052886212522409845 0 -0.034239817614924672 -0.00457382937518105 0 -0.033695151380685393 -0.0051904381478539994 0 -0.032869413268963199 -0.0049669933324194351 0 -0.031958768822616425 -0.0033344117381387257 0 -0.031362740917800648 -0.0047173891992963136 0 -0.032120374669990487 -0.0063000091490969948 0 -0.032869413268963199 -0.0049669933324194351 0 -0.031362740917800648 -0.0047173891992963136 0 -0.0333795491974192 -0.0037519502617437786 0 -0.032869413268963199 -0.0049669933324194351 0 -0.031958768822616425 -0.0033344117381387257 0 -0.032977135437648998 -0.0028096925436150075 0 -0.03389379403709538 -0.0024981866903588312 0 -0.032700805301269814 -0.0016573279749811523 0 -0.0333795491974192 -0.0037519502617437786 0 -0.032977135437648998 -0.0028096925436150075 0 -0.031958768822616425 -0.0033344117381387257 0 -0.032977135437648998 -0.0028096925436150075 0 -0.032700805301269814 -0.0016573279749811523 0 -0.031958768822616425 -0.0033344117381387257 0 -0.034736194222912291 -0.0036088165492742918 0 -0.0333795491974192 -0.0037519502617437786 0 -0.033735503454872667 -0.0026643189617646642 0 -0.033501229160298608 -0.0034542598383238711 0 -0.033507223733449408 -0.0030494195034179972 0 -0.0333795491974192 -0.0037519502617437786 0 -0.032977135437648998 -0.0028096925436150075 0 -0.03389379403709538 -0.0024981866903588312 0 -0.049527580844717166 -0.00010870220280336764 0 -0.049661681706851535 -0.00016982491218256118 0 -0.049652801026163873 -0.00016858964684261457 0 -0.033507223733449408 -0.0030494195034179972 0 -0.040152930695810607 -0.00039090777415148187 0 -0.03389379403709538 -0.0024981866903588312 0 -0.034381194129663194 -0.0012150149983543833 0 -0.032700805301269814 -0.0016573279749811523 0 -0.040152930695810607 -0.00039090777415148187 0 -0.04151091006745046 -0.00090096351084248221 0 -0.049661681706851535 -0.00016982491218256118 0 -0.049648478087694674 -0.00027914256959517335 0 -0.049717756397967917 -0.00021268278195364166 0 -0.04151091006745046 -0.00090096351084248221 0 -0.040519175757669487 -0.0011934750141799663 0 -0.049648478087694674 -0.00027914256959517335 0 -0.049666422425661057 -0.00026943789722621854 0 -0.049717756397967917 -0.00021268278195364166 0 -0.049648478087694674 -0.00027914256959517335 0 -0.049557008742242871 -0.00035977777389558746 0 -0.049666422425661057 -0.00026943789722621854 0 -0.040519175757669487 -0.0011934750141799663 0 -0.038906909148808046 -0.0012180099636467825 0 -0.031204847906641228 -0.0020996492396275429 0 -0.030655217192007471 -0.0035228385068334827 0 -0.029902847868334078 -0.0024631663743777429 0 -0.032700805301269814 -0.0016573279749811523 0 -0.031204847906641228 -0.0020996492396275429 0 -0.031958768822616425 -0.0033344117381387257 0 -0.031204847906641228 -0.0020996492396275429 0 -0.031958768822616425 -0.0033344117381387257 0 -0.030655217192007471 -0.0035228385068334827 0 -0.031958768822616425 -0.0033344117381387257 0 -0.031362740917800648 -0.0047173891992963136 0 -0.030655217192007471 -0.0035228385068334827 0 -0.031362740917800648 -0.0047173891992963136 0 -0.029778734239359728 -0.0030698306953680587 0 -0.028329097680018209 -0.0047426409503410136 0 -0.030040335928455585 -0.0066582005685590856 0 -0.031362740917800648 -0.0047173891992963136 0 -0.028329097680018209 -0.0047426409503410136 0 -0.031729985312436343 -0.0049318302100654736 0 -0.028886669893809537 -0.0028244969778583018 0 -0.029778734239359728 -0.0030698306953680587 0 -0.027898301363390637 -0.0031242146743171643 0 -0.028329097680018209 -0.0047426409503410136 0 -0.027898301363390637 -0.0031242146743171643 0 -0.028329097680018209 -0.0047426409503410136 0 -0.026508007549098132 -0.0040651927740815823 0 -0.026039146813821891 -0.005886442171653127 0 -0.028329097680018209 -0.0047426409503410136 0 -0.026508007549098132 -0.0040651927740815823 0 -0.027898301363390637 -0.0031242146743171643 0 -0.026508007549098132 -0.0040651927740815823 0 -0.026842866747104805 -0.0019290253122912142 0 -0.026508007549098132 -0.0040651927740815823 0 -0.026842866747104805 -0.0019290253122912142 0 -0.025708658750491407 -0.0033039053211808608 0 -0.038277588435731077 -0.0013708859737564616 0 -0.038906909148808046 -0.0012180099636467825 0 -0.028886669893809537 -0.0028244969778583018 0 -0.038906909148808046 -0.0012180099636467825 0 -0.029778734239359728 -0.0030698306953680587 0 -0.027898301363390637 -0.0031242146743171643 0 -0.028401594932942736 -0.0015246543952253542 0 -0.027898301363390637 -0.0031242146743171643 0 -0.026842866747104805 -0.0019290253122912142 0 -0.028401594932942736 -0.0015246543952253542 0 -0.049557008742242871 -0.00035977777389558746 0 -0.049562766098384711 -0.00035807945984038059 0 -0.049666422425661057 -0.00026943789722621854 0 -0.038906909148808046 -0.0012180099636467825 0 -0.050262274253636025 -0.0013219582362934607 0 -0.049173349155137942 -0.0009229417344956694 0 -0.049298200658884184 -0.00084392401771773084 0 -0.04930903976590368 -0.00067382284375512569 0 -0.049173349155137942 -0.0009229417344956694 0 -0.04930903976590368 -0.00067382284375512569 0 -0.04905831387186764 -0.00083642393976760844 0 -0.04930903976590368 -0.00067382284375512569 0 -0.04921809126176397 -0.0006173368778402816 0 -0.04905831387186764 -0.00083642393976760844 0 -0.049562766098384711 -0.00035807945984038059 0 -0.049628227173190251 -0.00025503233070909334 0 -0.049385561071122533 -0.00035932775068070173 0 -0.049628227173190251 -0.00025503233070909334 0 -0.049549573591415909 -0.00018256699365944956 0 -0.049385561071122533 -0.00035932775068070173 0 -0.050262274253636025 -0.0013219582362934607 0 -0.049094352230842485 -6.12196847916039e-05 0 -0.04930903976590368 -0.00067382284375512569 0 -0.04921809126176397 -0.0006173368778402816 0 -0.049385561071122533 -0.00035932775068070173 0 -0.049628227173190251 -0.00025503233070909334 0 -0.049750996464503108 -0.00016569714491217611 0 -0.049666422425661057 -0.00026943789722621854 0 -0.049562766098384711 -0.00035807945984038059 0 -0.049628227173190251 -0.00025503233070909334 0 -0.049666422425661057 -0.00026943789722621854 0 -0.049628227173190251 -0.00025503233070909334 0 -0.049750996464503108 -0.00016569714491217611 0 -0.049690431864868913 -0.0001391347324168641 0 -0.049750996464503108 -0.00016569714491217611 0 -0.049690431864868913 -0.0001391347324168641 0 -0.049836902578767675 -5.843603416614571e-05 0 -0.049690431864868913 -0.0001391347324168641 0 -0.049549573591415909 -0.00018256699365944956 0 -0.049698405486625713 -5.5801951950193555e-05 0 -0.049628227173190251 -0.00025503233070909334 0 -0.049690431864868913 -0.0001391347324168641 0 -0.049549573591415909 -0.00018256699365944956 0 -0.049690431864868913 -0.0001391347324168641 0 -0.049836902578767675 -5.843603416614571e-05 0 -0.049698405486625713 -5.5801951950193555e-05 0 -0.049999505118493631 4.088069059584452e-08 0 -0.049836902578767675 -5.843603416614571e-05 0 -0.049698405486625713 -5.5801951950193555e-05 0 -0.049999505118493631 4.088069059584452e-08 0 -0.049999857957962142 -3.8263103310548622e-08 0 -0.049836902578767675 -5.843603416614571e-05 0 -0.049750996464503108 -0.00016569714491217611 0 -0.049836902578767675 -5.843603416614571e-05 0 -0.049866485333618447 -0.00010086507655795789 0 -0.049999857957962142 -3.8263103310548622e-08 0 -0.049836902578767675 -5.843603416614571e-05 0 -0.049866485333618447 -0.00010086507655795789 0 -0.049999857957962142 -3.8263103310548622e-08 0 -0.049999832729054804 -5.3139430284079943e-08 0 -0.049866485333618447 -0.00010086507655795789 0 -0.049999832729054804 -5.3139430284079943e-08 0 -0.049866485333618447 -0.00010086507655795789 0 -0.049886453648425762 -0.00010882537481838828 0 -0.049866485333618447 -0.00010086507655795789 0 -0.049807899526020105 -0.00016452103001463912 0 -0.049886453648425762 -0.00010882537481838828 0 -0.049866485333618447 -0.00010086507655795789 0 -0.049783931799125936 -0.00017350480488635296 0 -0.049747072120299635 -0.00019606825149657341 0 -0.049866485333618447 -0.00010086507655795789 0 -0.049783931799125936 -0.00017350480488635296 0 -0.049807899526020105 -0.00016452103001463912 0 -0.049750996464503108 -0.00016569714491217611 0 -0.049866485333618447 -0.00010086507655795789 0 -0.049747072120299635 -0.00019606825149657341 0 -0.049747072120299635 -0.00019606825149657341 0 -0.049666422425661057 -0.00026943789722621854 0 -0.049717756397967917 -0.00021268278195364166 0 -0.049750996464503108 -0.00016569714491217611 0 -0.049747072120299635 -0.00019606825149657341 0 -0.049666422425661057 -0.00026943789722621854 0 -0.049783931799125936 -0.00017350480488635296 0 -0.049717756397967917 -0.00021268278195364166 0 -0.049737326720262612 -0.00018108986482824052 0 -0.049783931799125936 -0.00017350480488635296 0 -0.049747072120299635 -0.00019606825149657341 0 -0.049717756397967917 -0.00021268278195364166 0 -0.049661681706851535 -0.00016982491218256118 0 -0.049717756397967917 -0.00021268278195364166 0 -0.049737326720262612 -0.00018108986482824052 0 -0.049661681706851535 -0.00016982491218256118 0 -0.049737326720262612 -0.00018108986482824052 0 -0.049652801026163873 -0.00016858964684261457 0 -0.049737326720262612 -0.00018108986482824052 0 -0.049652801026163873 -0.00016858964684261457 0 -0.04971594861768517 -0.00019597675782637836 0 -0.049527580844717166 -0.00010870220280336764 0 -0.049576341244639069 -0.00019770232377343405 0 -0.049652801026163873 -0.00016858964684261457 0 -0.049576341244639069 -0.00019770232377343405 0 -0.049652801026163873 -0.00016858964684261457 0 -0.04971594861768517 -0.00019597675782637836 0 -0.04971594861768517 -0.00019597675782637836 0 -0.049668798352889322 -0.00019527873430728266 0 -0.049606272878510986 -0.00017123202061011017 0 -0.049576341244639069 -0.00019770232377343405 0 -0.04971594861768517 -0.00019597675782637836 0 -0.049470471375062802 -0.0002537174984570046 0 -0.051317575646075302 -0.00019393508319994106 0 -0.045367516046653088 -0.00071090181751903316 0 -0.049966938434636753 -7.6055857492698717e-05 0 -0.049972742316054759 -5.8454089656172819e-05 0 -0.049970094368197826 -5.8993762456376229e-05 0 -0.049668798352889322 -0.00019527873430728266 0 -0.049727615462816503 -0.00020716312209713894 0 -0.049619119807094277 -0.00020417003208702476 0 -0.050001926287940368 -0.00021567943011868232 0 -0.048379072406948991 -0.00068368635974415273 0 -0.04971594861768517 -0.00019597675782637836 0 -0.049668798352889322 -0.00019527873430728266 0 -0.049727615462816503 -0.00020716312209713894 0 -0.04971594861768517 -0.00019597675782637836 0 -0.049807899526020105 -0.00016452103001463912 0 -0.049727615462816503 -0.00020716312209713894 0 -0.049737326720262612 -0.00018108986482824052 0 -0.04971594861768517 -0.00019597675782637836 0 -0.049807899526020105 -0.00016452103001463912 0 -0.049783931799125936 -0.00017350480488635296 0 -0.049737326720262612 -0.00018108986482824052 0 -0.049807899526020105 -0.00016452103001463912 0 -0.049807899526020105 -0.00016452103001463912 0 -0.049886453648425762 -0.00010882537481838828 0 -0.049727615462816503 -0.00020716312209713894 0 -0.049807228929549439 -9.1368878036864241e-05 0 -0.050001926287940368 -0.00021567943011868232 0 -0.049886453648425762 -0.00010882537481838828 0 -0.049962133504776199 -4.3464143029952691e-05 0 -0.049966938434636753 -7.6055857492698717e-05 0 -0.049999832729054804 -5.3139430284079943e-08 0 -0.049962133504776199 -4.3464143029952691e-05 0 -0.049999979334166611 -2.112926777107847e-08 0 -0.049999832729054804 -5.3139430284079943e-08 0 -0.049886453648425762 -0.00010882537481838828 0 -0.049962133504776199 -4.3464143029952691e-05 0 -0.049962133504776199 -4.3464143029952691e-05 0 -0.049999979334166611 -2.112926777107847e-08 0 -0.049984029977551359 -3.0102366852619115e-05 0 -0.049999979334166611 -2.112926777107847e-08 0 -0.049984029977551359 -3.0102366852619115e-05 0 -0.049993636404088743 -1.2429955462702169e-05 0 -0.049984029977551359 -3.0102366852619115e-05 0 -0.049975815053418908 -5.1482691525619922e-05 0 -0.049982643257169161 -3.1303400460705173e-05 0 -0.049962133504776199 -4.3464143029952691e-05 0 -0.049984029977551359 -3.0102366852619115e-05 0 -0.049975815053418908 -5.1482691525619922e-05 0 -0.049962133504776199 -4.3464143029952691e-05 0 -0.049975815053418908 -5.1482691525619922e-05 0 -0.049966938434636753 -7.6055857492698717e-05 0 -0.049975815053418908 -5.1482691525619922e-05 0 -0.049966938434636753 -7.6055857492698717e-05 0 -0.049972742316054759 -5.8454089656172819e-05 0 -0.049987746402864894 -7.7841771260227794e-06 0 -0.049953287041610388 1.0568902374759108e-05 0 -0.049933472439123043 1.0419299901244812e-05 0 -0.049972742316054759 -5.8454089656172819e-05 0 -0.049982643257169161 -3.1303400460705173e-05 0 -0.04998019415841657 -7.5530965053025994e-05 0 -0.050390657289793368 0.00025229895564284896 0 -0.047731031829291823 -0.00032332777480731324 0 -0.049975815053418908 -5.1482691525619922e-05 0 -0.049972742316054759 -5.8454089656172819e-05 0 -0.049982643257169161 -3.1303400460705173e-05 0 -0.049987746402864894 -7.7841771260227794e-06 0 -0.049982643257169161 -3.1303400460705173e-05 0 -0.04998019415841657 -7.5530965053025994e-05 0 -0.049987746402864894 -7.7841771260227794e-06 0 -0.049982643257169161 -3.1303400460705173e-05 0 -0.049993636404088743 -1.2429955462702169e-05 0 -0.049987746402864894 -7.7841771260227794e-06 0 -0.049993636404088743 -1.2429955462702169e-05 0 -0.049999990161487047 -9.0990378516124933e-09 0 -0.049984029977551359 -3.0102366852619115e-05 0 -0.049982643257169161 -3.1303400460705173e-05 0 -0.049993636404088743 -1.2429955462702169e-05 0 -0.049999979334166611 -2.112926777107847e-08 0 -0.049993636404088743 -1.2429955462702169e-05 0 -0.049999990161487047 -9.0990378516124933e-09 0 -0.049999952594629055 6.5696455595789986e-09 0 -0.049999990161487047 -9.0990378516124933e-09 0 -0.049989001046444229 2.4054150065664079e-06 0 -0.049987746402864894 -7.7841771260227794e-06 0 -0.049999990161487047 -9.0990378516124933e-09 0 -0.049989001046444229 2.4054150065664079e-06 0 -0.049987746402864894 -7.7841771260227794e-06 0 -0.049967287711615994 1.4035725655539154e-05 0 -0.049953287041610388 1.0568902374759108e-05 0 -0.049987746402864894 -7.7841771260227794e-06 0 -0.049989001046444229 2.4054150065664079e-06 0 -0.049967287711615994 1.4035725655539154e-05 0 -0.049959009225524931 2.7180320507046922e-05 0 -0.049952240656424438 1.7201666854387337e-05 0 -0.049929458255473964 9.6248406819808568e-06 0 -0.049967287711615994 1.4035725655539154e-05 0 -0.049952240656424438 1.7201666854387337e-05 0 -0.049953287041610388 1.0568902374759108e-05 0 -0.048201039788003434 0.00028234344872377358 0 -0.043298460351908805 0.00011186898891503021 0 -0.049952240656424438 1.7201666854387337e-05 0 -0.049929458255473964 9.6248406819808568e-06 0 -0.049953287041610388 1.0568902374759108e-05 0 -0.049929458255473964 9.6248406819808568e-06 0 -0.049953287041610388 1.0568902374759108e-05 0 -0.049933472439123043 1.0419299901244812e-05 0 -0.049668798352889322 -0.00019527873430728266 0 -0.049619119807094277 -0.00020417003208702476 0 -0.049606272878510986 -0.00017123202061011017 0 -0.04891796979423868 -0.00049882884753986825 0 -0.048379072406948991 -0.00068368635974415273 0 -0.049972742316054759 -5.8454089656172819e-05 0 -0.04998019415841657 -7.5530965053025994e-05 0 -0.049973334419058532 -7.2116196352409835e-05 0 -0.046526534967052273 -0.00070279712298015515 0 -0.047000289183582955 -0.00091102095347088646 0 -0.046669861570690543 -0.00025024351703497032 0 -0.048379072406948991 -0.00068368635974415273 0 -0.045367516046653088 -0.00071090181751903316 0 -0.047731031829291823 -0.00032332777480731324 0 -0.048379072406948991 -0.00068368635974415273 0 -0.047731031829291823 -0.00032332777480731324 0 -0.045367516046653088 -0.00071090181751903316 0 -0.035999252857584117 -0.0012165285589521505 0 -0.035598961111272566 -0.0012023837282464243 0 -0.036019514867954266 -0.0016449726204475655 0 -0.043298460351908805 0.00011186898891503021 0 -0.047731031829291823 -0.00032332777480731324 0 -0.04390011996122524 0.0003330751717066456 0 -0.046357458490405935 -0.00075055950901122318 0 -0.04664920362183636 0.00015649359778517076 0 -0.043298460351908805 0.00011186898891503021 0 -0.045367516046653088 -0.00071090181751903316 0 -0.035598961111272566 -0.0012023837282464243 0 -0.035857195920836311 -0.0020163762609887404 0 -0.036019514867954266 -0.0016449726204475655 0 -0.045367516046653088 -0.00071090181751903316 0 -0.036261876063810344 -0.0011378104555492396 0 -0.049527580844717166 -0.00010870220280336764 0 -0.049576341244639069 -0.00019770232377343405 0 -0.049470471375062802 -0.0002537174984570046 0 -0.040152930695810607 -0.00039090777415148187 0 -0.045367516046653088 -0.00071090181751903316 0 -0.040979524780694894 -0.00058466867241648598 0 -0.04082313824946885 -0.0011645838997051069 0 -0.040587005396941031 -0.00067821338919944838 0 -0.040152930695810607 -0.00039090777415148187 0 -0.036261876063810344 -0.0011378104555492396 0 -0.035857195920836311 -0.0020163762609887404 0 -0.036230662989255216 -0.001966788921758222 0 -0.036019514867954266 -0.0016449726204475655 0 -0.037289074017719533 -0.0016099381625010213 0 -0.035999252857584117 -0.0012165285589521505 0 -0.036526630928626964 -0.0018202251351348323 0 -0.040455054182573967 -0.00077696575842462216 0 -0.043298460351908805 0.00011186898891503021 0 -0.036261876063810344 -0.0011378104555492396 0 -0.03599686928487135 -0.0016672629553570644 0 -0.036555538572909968 -0.0023557386187945438 0 -0.035770692885988845 -0.0020982756472423883 0 -0.036230662989255216 -0.001966788921758222 0 -0.036555538572909968 -0.0023557386187945438 0 -0.036526630928626964 -0.0018202251351348323 0 -0.036230662989255216 -0.001966788921758222 0 -0.036526630928626964 -0.0018202251351348323 0 -0.036230662989255216 -0.001966788921758222 0 -0.036019514867954266 -0.0016449726204475655 0 -0.035999252857584117 -0.0012165285589521505 0 -0.036526630928626964 -0.0018202251351348323 0 -0.036019514867954266 -0.0016449726204475655 0 -0.043890689982252463 -0.0078691485107778517 0 -0.042430075105127231 -0.0059779452725063761 0 -0.040628881780512827 -0.0077212579975740846 0 -0.043890689982252463 -0.0078691485107778517 0 -0.044272457645121291 -0.0055491336602050308 0 -0.042430075105127231 -0.0059779452725063761 0 -0.040763112096865464 -0.0068783881530134058 0 -0.037338358425681277 -0.0075504911954255129 0 -0.043890689982252463 -0.0078691485107778517 0 -0.044272457645121291 -0.0055491336602050308 0 -0.045898193063273772 -0.0051623069212646307 0 -0.043723624803071709 -0.0065089804471162895 0 -0.045842075392119271 -0.0063294479610958385 0 -0.045898193063273772 -0.0051623069212646307 0 -0.040763112096865464 -0.0068783881530134058 0 -0.046346857112909944 -0.0051432674279554384 0 -0.040763112096865464 -0.0068783881530134058 0 -0.043047089192817793 -0.0066171293170617157 0 -0.042303909972581565 -0.0060849136135746737 0 -0.043723624803071709 -0.0065089804471162895 0 -0.045898193063273772 -0.0051623069212646307 0 -0.045145180494006371 -0.0040137967858573809 0 -0.044272457645121291 -0.0055491336602050308 0 -0.045898193063273772 -0.0051623069212646307 0 -0.045145180494006371 -0.0040137967858573809 0 -0.044272457645121291 -0.0055491336602050308 0 -0.043311753754310976 -0.0040887708049181975 0 -0.044272457645121291 -0.0055491336602050308 0 -0.042430075105127231 -0.0059779452725063761 0 -0.043311753754310976 -0.0040887708049181975 0 -0.042430075105127231 -0.0059779452725063761 0 -0.043311753754310976 -0.0040887708049181975 0 -0.039561581090594697 -0.0044344862211316179 0 -0.042430075105127231 -0.0059779452725063761 0 -0.039561581090594697 -0.0044344862211316179 0 -0.040628881780512827 -0.0077212579975740846 0 -0.039561581090594697 -0.0044344862211316179 0 -0.036514834192288181 -0.0073323882290138422 0 -0.040628881780512827 -0.0077212579975740846 0 -0.039561581090594697 -0.0044344862211316179 0 -0.034396595561225499 -0.002518533818532179 0 -0.035551670363902027 -0.0050695670942529948 0 -0.039561581090594697 -0.0044344862211316179 0 -0.036514834192288181 -0.0073323882290138422 0 -0.035551670363902027 -0.0050695670942529948 0 -0.032247552277704303 -0.0068366438047513887 0 -0.033077664091829218 -0.0080322824652391978 0 -0.034286656948976424 -0.0072696713551876884 0 -0.032247552277704303 -0.0068366438047513887 0 -0.033077664091829218 -0.0080322824652391978 0 -0.031815775956484979 -0.0085794857899035726 0 -0.034320215470012863 -0.006998236206221595 0 -0.037338358425681277 -0.0075504911954255129 0 -0.036529961122502334 -0.0078689050393128904 0 -0.034286656948976424 -0.0072696713551876884 0 -0.034035499263204858 -0.0095709449481922414 0 -0.033077664091829218 -0.0080322824652391978 0 -0.034286656948976424 -0.0072696713551876884 0 -0.034035499263204858 -0.0095709449481922414 0 -0.034035499263204858 -0.0095709449481922414 0 -0.0312370354009395 -0.010051284756999051 0 -0.031815775956484979 -0.0085794857899035726 0 -0.033077664091829218 -0.0080322824652391978 0 -0.034035499263204858 -0.0095709449481922414 0 -0.031815775956484979 -0.0085794857899035726 0 -0.033451077889618402 -0.0091946971536442709 0 -0.032385863822307494 -0.011295954925118803 0 -0.030916306334031592 -0.011336902134643084 0 -0.034035499263204858 -0.0095709449481922414 0 -0.030916306334031592 -0.011336902134643084 0 -0.0312370354009395 -0.010051284756999051 0 -0.033276951234410421 -0.009439385644087174 0 -0.031257964926006694 -0.011174897005831226 0 -0.033451077889618402 -0.0091946971536442709 0 -0.032385863822307494 -0.011295954925118803 0 -0.036441204106120458 -0.012207638073675003 0 -0.033451077889618402 -0.0091946971536442709 0 -0.036441204106120458 -0.012207638073675003 0 -0.03877525193385388 -0.009069575866066229 0 -0.027762450011531815 -0.012860410383650487 0 -0.026805377113511469 -0.012409149114075519 0 -0.027067713618011927 -0.012394650725196773 0 -0.03238091615835316 -0.012316153393318399 0 -0.034481194796491872 -0.011309403822899135 0 -0.036441204106120458 -0.012207638073675003 0 -0.03877525193385388 -0.009069575866066229 0 -0.043360888298621177 -0.0099031927254017039 0 -0.040763112096865464 -0.0068783881530134058 0 -0.033276951234410421 -0.009439385644087174 0 -0.040081180948322782 -0.0050731098226779597 0 -0.033451077889618402 -0.0091946971536442709 0 -0.03877525193385388 -0.009069575866066229 0 -0.040081180948322782 -0.0050731098226779597 0 -0.03877525193385388 -0.009069575866066229 0 -0.041413498582653654 -0.0076923721109885736 0 -0.03877525193385388 -0.009069575866066229 0 -0.041413498582653654 -0.0076923721109885736 0 -0.043360888298621177 -0.0099031927254017039 0 -0.043723624803071709 -0.0065089804471162895 0 -0.043360888298621177 -0.0099031927254017039 0 -0.045897649423457969 -0.007755800889964708 0 -0.040081180948322782 -0.0050731098226779597 0 -0.043723624803071709 -0.0065089804471162895 0 -0.041413498582653654 -0.0076923721109885736 0 -0.043723624803071709 -0.0065089804471162895 0 -0.041413498582653654 -0.0076923721109885736 0 -0.043360888298621177 -0.0099031927254017039 0 -0.026805377113511469 -0.012409149114075519 0 -0.026843463026449976 -0.012321658421896911 0 -0.026915877623208795 -0.012204803729658346 0 -0.026805377113511469 -0.012409149114075519 0 -0.026843463026449976 -0.012321658421896911 0 -0.02684007767857172 -0.012346089972069693 0 -0.026805377113511469 -0.012409149114075519 0 -0.027067713618011927 -0.012394650725196773 0 -0.02684007767857172 -0.012346089972069693 0 -0.026832297371667948 -0.012208420458760125 0 -0.02684007767857172 -0.012346089972069693 0 -0.026792259389571756 -0.012265063860485394 0 -0.026832297371667948 -0.012208420458760125 0 -0.027067713618011927 -0.012394650725196773 0 -0.02684007767857172 -0.012346089972069693 0 -0.02684007767857172 -0.012346089972069693 0 -0.026792259389571756 -0.012265063860485394 0 -0.026836832731364318 -0.012305333918996218 0 -0.026792259389571756 -0.012265063860485394 0 -0.026802751020673234 -0.012300197616079259 0 -0.026836832731364318 -0.012305333918996218 0 -0.026802751020673234 -0.012300197616079259 0 -0.026836832731364318 -0.012305333918996218 0 -0.026853507419551115 -0.012303842410280985 0 -0.026836832731364318 -0.012305333918996218 0 -0.026897636747707628 -0.012279745838161662 0 -0.026853507419551115 -0.012303842410280985 0 -0.026843463026449976 -0.012321658421896911 0 -0.026836832731364318 -0.012305333918996218 0 -0.026915877623208795 -0.012204803729658346 0 -0.026843463026449976 -0.012321658421896911 0 -0.02684007767857172 -0.012346089972069693 0 -0.026836832731364318 -0.012305333918996218 0 -0.026836832731364318 -0.012305333918996218 0 -0.026915877623208795 -0.012204803729658346 0 -0.02694329640268377 -0.012227809980873893 0 -0.027075966795958202 -0.012163890394246774 0 -0.027009463612865561 -0.012140607260953817 0 -0.02712978286597878 -0.012082071563519231 0 -0.027075966795958202 -0.012163890394246774 0 -0.027009463612865561 -0.012140607260953817 0 -0.02700765903449073 -0.012218646317667666 0 -0.026915877623208795 -0.012204803729658346 0 -0.027009463612865561 -0.012140607260953817 0 -0.02694329640268377 -0.012227809980873893 0 -0.027009463612865561 -0.012140607260953817 0 -0.02694329640268377 -0.012227809980873893 0 -0.02700765903449073 -0.012218646317667666 0 -0.026836832731364318 -0.012305333918996218 0 -0.02694329640268377 -0.012227809980873893 0 -0.026897636747707628 -0.012279745838161662 0 -0.02694329640268377 -0.012227809980873893 0 -0.026957782827647742 -0.012260868596760073 0 -0.02700765903449073 -0.012218646317667666 0 -0.02694329640268377 -0.012227809980873893 0 -0.026957782827647742 -0.012260868596760073 0 -0.026897636747707628 -0.012279745838161662 0 -0.026957782827647742 -0.012260868596760073 0 -0.02700765903449073 -0.012218646317667666 0 -0.027017554681404918 -0.012263329814112886 0 -0.027075966795958202 -0.012163890394246774 0 -0.02700765903449073 -0.012218646317667666 0 -0.027094471566197136 -0.012218607987753566 0 -0.02700765903449073 -0.012218646317667666 0 -0.027017554681404918 -0.012263329814112886 0 -0.027094471566197136 -0.012218607987753566 0 -0.027017554681404918 -0.012263329814112886 0 -0.02692174818952929 -0.012297044908814248 0 -0.026998969421342327 -0.012293212333878286 0 -0.026957782827647742 -0.012260868596760073 0 -0.027017554681404918 -0.012263329814112886 0 -0.02692174818952929 -0.012297044908814248 0 -0.026998969421342327 -0.012293212333878286 0 -0.02692768256545329 -0.012319473755683834 0 -0.027042153875913463 -0.012305552607893512 0 -0.02692174818952929 -0.012297044908814248 0 -0.026998969421342327 -0.012293212333878286 0 -0.02692768256545329 -0.012319473755683834 0 -0.026957782827647742 -0.012260868596760073 0 -0.02692174818952929 -0.012297044908814248 0 -0.026897636747707628 -0.012279745838161662 0 -0.02692174818952929 -0.012297044908814248 0 -0.026897636747707628 -0.012279745838161662 0 -0.026853507419551115 -0.012303842410280985 0 -0.02692174818952929 -0.012297044908814248 0 -0.026853507419551115 -0.012303842410280985 0 -0.026841898688677521 -0.012329636720013871 0 -0.026794762397840462 -0.012329352404155582 0 -0.026802751020673234 -0.012300197616079259 0 -0.026841898688677521 -0.012329636720013871 0 -0.026802751020673234 -0.012300197616079259 0 -0.026853507419551115 -0.012303842410280985 0 -0.026841898688677521 -0.012329636720013871 0 -0.026776834983560458 -0.012386220473069127 0 -0.026841898688677521 -0.012329636720013871 0 -0.026922262833327021 -0.012337895417506343 0 -0.02692174818952929 -0.012297044908814248 0 -0.026841898688677521 -0.012329636720013871 0 -0.02692768256545329 -0.012319473755683834 0 -0.02692768256545329 -0.012319473755683834 0 -0.026922262833327021 -0.012337895417506343 0 -0.027042153875913463 -0.012305552607893512 0 -0.026841898688677521 -0.012329636720013871 0 -0.02692768256545329 -0.012319473755683834 0 -0.026922262833327021 -0.012337895417506343 0 -0.026776834983560458 -0.012386220473069127 0 -0.027714737386625242 -0.012247300041939777 0 -0.027285842462227278 -0.01227602442113512 0 -0.016231975789003036 -0.012784599812166784 0 -0.015726594245973217 -0.012878969636833193 0 -0.026776834983560458 -0.012386220473069127 0 -0.026922262833327021 -0.012337895417506343 0 -0.027285842462227278 -0.01227602442113512 0 -0.022341110268848125 -0.011950543736869681 0 -0.020554623128012071 -0.013421424583726404 0 -0.016845455798288826 -0.012334569850524935 0 -0.015462249412908892 -0.012938734533125312 0 -0.015444165871185193 -0.013023574040563684 0 -0.015785125338759726 -0.012958702932397904 0 -0.016320799614295483 -0.013132742134531182 0 -0.015462249412908892 -0.012938734533125312 0 -0.016813984056452028 -0.012152463706957604 0 -0.016845455798288826 -0.012334569850524935 0 -0.015462249412908892 -0.012938734533125312 0 -0.027113954817306385 -0.012274960190923608 0 -0.027042153875913463 -0.012305552607893512 0 -0.027285842462227278 -0.01227602442113512 0 -0.026922262833327021 -0.012337895417506343 0 -0.027042153875913463 -0.012305552607893512 0 -0.027285842462227278 -0.01227602442113512 0 -0.027017554681404918 -0.012263329814112886 0 -0.026998969421342327 -0.012293212333878286 0 -0.027113954817306385 -0.012274960190923608 0 -0.026998969421342327 -0.012293212333878286 0 -0.027113954817306385 -0.012274960190923608 0 -0.027042153875913463 -0.012305552607893512 0 -0.015785125338759726 -0.012958702932397904 0 -0.01552092297191645 -0.012915110753603583 0 -0.015462249412908892 -0.012938734533125312 0 -0.027437807888774316 -0.012192268607546415 0 -0.027714737386625242 -0.012247300041939777 0 -0.027285842462227278 -0.01227602442113512 0 -0.027437807888774316 -0.012192268607546415 0 -0.027714737386625242 -0.012247300041939777 0 -0.027513373401562621 -0.012087528379978115 0 -0.027437807888774316 -0.012192268607546415 0 -0.0273518763807265 -0.012122078197765833 0 -0.027513373401562621 -0.012087528379978115 0 -0.02720777349735411 -0.012219252282269574 0 -0.027094471566197136 -0.012218607987753566 0 -0.027168100248149481 -0.012158259046768946 0 -0.027017554681404918 -0.012263329814112886 0 -0.027113954817306385 -0.012274960190923608 0 -0.027094471566197136 -0.012218607987753566 0 -0.027113954817306385 -0.012274960190923608 0 -0.02720777349735411 -0.012219252282269574 0 -0.027094471566197136 -0.012218607987753566 0 -0.027437807888774316 -0.012192268607546415 0 -0.027285842462227278 -0.01227602442113512 0 -0.027325964011811629 -0.012204591220212137 0 -0.027113954817306385 -0.012274960190923608 0 -0.02720777349735411 -0.012219252282269574 0 -0.027285842462227278 -0.01227602442113512 0 -0.02720777349735411 -0.012219252282269574 0 -0.027285842462227278 -0.01227602442113512 0 -0.027325964011811629 -0.012204591220212137 0 -0.02720777349735411 -0.012219252282269574 0 -0.02725729989228988 -0.012158792633444198 0 -0.027325964011811629 -0.012204591220212137 0 -0.02725729989228988 -0.012158792633444198 0 -0.027325964011811629 -0.012204591220212137 0 -0.0273518763807265 -0.012122078197765833 0 -0.027437807888774316 -0.012192268607546415 0 -0.027325964011811629 -0.012204591220212137 0 -0.0273518763807265 -0.012122078197765833 0 -0.02725729989228988 -0.012158792633444198 0 -0.0273518763807265 -0.012122078197765833 0 -0.027238213646083437 -0.012079429728020744 0 -0.02725729989228988 -0.012158792633444198 0 -0.027168100248149481 -0.012158259046768946 0 -0.027238213646083437 -0.012079429728020744 0 -0.027168100248149481 -0.012158259046768946 0 -0.02712978286597878 -0.012082071563519231 0 -0.027238213646083437 -0.012079429728020744 0 -0.02720777349735411 -0.012219252282269574 0 -0.02725729989228988 -0.012158792633444198 0 -0.027168100248149481 -0.012158259046768946 0 -0.027075966795958202 -0.012163890394246774 0 -0.027094471566197136 -0.012218607987753566 0 -0.027168100248149481 -0.012158259046768946 0 -0.027075966795958202 -0.012163890394246774 0 -0.027168100248149481 -0.012158259046768946 0 -0.02712978286597878 -0.012082071563519231 0 -0.040812082036640912 -0.0088571906591248754 0 -0.038026939072557227 -0.0089739075808010632 0 -0.02712978286597878 -0.012082071563519231 0 -0.027206402780400082 -0.011987258393480684 0 -0.027108102166430708 -0.011958682952372008 0 -0.047723384277786926 -0.0069498238151670319 0 -0.047378302283802062 -0.007173283251954014 0 -0.049006504419213968 -0.0066034842191317715 0 -0.027538389937859967 -0.011619429348325987 0 -0.027115460107187784 -0.011648855768470353 0 -0.027944139004955744 -0.011210751395675792 0 -0.02712978286597878 -0.012082071563519231 0 -0.027206402780400082 -0.011987258393480684 0 -0.027238213646083437 -0.012079429728020744 0 -0.0273518763807265 -0.012122078197765833 0 -0.027238213646083437 -0.012079429728020744 0 -0.027346658045405391 -0.011968186886579617 0 -0.0273518763807265 -0.012122078197765833 0 -0.027346658045405391 -0.011968186886579617 0 -0.027513373401562621 -0.012087528379978115 0 -0.027206402780400082 -0.011987258393480684 0 -0.027238213646083437 -0.012079429728020744 0 -0.027346658045405391 -0.011968186886579617 0 -0.027346658045405391 -0.011968186886579617 0 -0.027362305374278421 -0.011787848912480589 0 -0.027550468922086509 -0.011873549975286009 0 -0.027346658045405391 -0.011968186886579617 0 -0.027362305374278421 -0.011787848912480589 0 -0.027228909546463665 -0.011866524800623387 0 -0.027228909546463665 -0.011866524800623387 0 -0.027115460107187784 -0.011648855768470353 0 -0.027108102166430708 -0.011958682952372008 0 -0.027206402780400082 -0.011987258393480684 0 -0.027228909546463665 -0.011866524800623387 0 -0.027108102166430708 -0.011958682952372008 0 -0.027206402780400082 -0.011987258393480684 0 -0.027346658045405391 -0.011968186886579617 0 -0.027228909546463665 -0.011866524800623387 0 -0.027714737386625242 -0.012247300041939777 0 -0.027645193634005149 -0.011987863484081825 0 -0.027826660183480539 -0.01173903536206263 0 -0.027714737386625242 -0.012247300041939777 0 -0.027645193634005149 -0.011987863484081825 0 -0.027513373401562621 -0.012087528379978115 0 -0.027346658045405391 -0.011968186886579617 0 -0.027513373401562621 -0.012087528379978115 0 -0.027550468922086509 -0.011873549975286009 0 -0.027645193634005149 -0.011987863484081825 0 -0.027513373401562621 -0.012087528379978115 0 -0.027550468922086509 -0.011873549975286009 0 -0.027550468922086509 -0.011873549975286009 0 -0.027826660183480539 -0.01173903536206263 0 -0.027538389937859967 -0.011619429348325987 0 -0.027362305374278421 -0.011787848912480589 0 -0.027550468922086509 -0.011873549975286009 0 -0.027538389937859967 -0.011619429348325987 0 -0.027645193634005149 -0.011987863484081825 0 -0.027550468922086509 -0.011873549975286009 0 -0.027826660183480539 -0.01173903536206263 0 -0.027826660183480539 -0.01173903536206263 0 -0.027538389937859967 -0.011619429348325987 0 -0.027944139004955744 -0.011210751395675792 0 -0.027362305374278421 -0.011787848912480589 0 -0.027538389937859967 -0.011619429348325987 0 -0.027115460107187784 -0.011648855768470353 0 -0.027362305374278421 -0.011787848912480589 0 -0.027228909546463665 -0.011866524800623387 0 -0.027115460107187784 -0.011648855768470353 0 -0.047723384277786926 -0.0069498238151670319 0 -0.047378638568247616 -0.0072101364561644983 0 -0.047291209301860711 -0.0065901382568503888 0 -0.043434565090938473 -0.0077027486260109971 0 -0.040812082036640912 -0.0088571906591248754 0 -0.034481194796491872 -0.011309403822899135 0 -0.040812082036640912 -0.0088571906591248754 0 -0.047378638568247616 -0.0072101364561644983 0 -0.045897649423457969 -0.007755800889964708 0 -0.046708265404462698 -0.0067206250419841306 0 -0.026805377113511469 -0.012409149114075519 0 -0.027115460107187784 -0.011648855768470353 0 -0.026979433934767042 -0.012069372533099894 0 -0.040812082036640912 -0.0088571906591248754 0 -0.047595905421304291 -0.0072876680905453852 0 -0.043360888298621177 -0.0099031927254017039 0 -0.048440732128801102 -0.0070983042822898397 0 -0.045897649423457969 -0.007755800889964708 0 -0.047378638568247616 -0.0072101364561644983 0 -0.046708265404462698 -0.0067206250419841306 0 -0.047291209301860711 -0.0065901382568503888 0 -0.043723624803071709 -0.0065089804471162895 0 -0.045897649423457969 -0.007755800889964708 0 -0.045842075392119271 -0.0063294479610958385 0 -0.045897649423457969 -0.007755800889964708 0 -0.045842075392119271 -0.0063294479610958385 0 -0.046708265404462698 -0.0067206250419841306 0 -0.026805377113511469 -0.012409149114075519 0 -0.026915877623208795 -0.012204803729658346 0 -0.026979433934767042 -0.012069372533099894 0 -0.027009463612865561 -0.012140607260953817 0 -0.026979433934767042 -0.012069372533099894 0 -0.027108102166430708 -0.011958682952372008 0 -0.027115460107187784 -0.011648855768470353 0 -0.026979433934767042 -0.012069372533099894 0 -0.027108102166430708 -0.011958682952372008 0 -0.026915877623208795 -0.012204803729658346 0 -0.027009463612865561 -0.012140607260953817 0 -0.026979433934767042 -0.012069372533099894 0 -0.027009463612865561 -0.012140607260953817 0 -0.02712978286597878 -0.012082071563519231 0 -0.027108102166430708 -0.011958682952372008 0 -0.026039146813821891 -0.005886442171653127 0 -0.026508007549098132 -0.0040651927740815823 0 -0.024321282345559078 -0.0053251413257146291 0 -0.01552092297191645 -0.012915110753603583 0 -0.015462249412908892 -0.012938734533125312 0 -0.015397198175216087 -0.013026355120411875 0 -0.015462249412908892 -0.012938734533125312 0 -0.015444165871185193 -0.013023574040563684 0 -0.015397198175216087 -0.013026355120411875 0 -0.020554623128012071 -0.013421424583726404 0 -0.027823533124497417 -0.0086824123976036449 0 -0.018836034560472125 -0.0089326044628047739 0 -0.027823533124497417 -0.0086824123976036449 0 -0.015444165871185193 -0.013023574040563684 0 -0.015397198175216087 -0.013026355120411875 0 -0.015870596882118691 -0.012461465251704953 0 -0.027826660183480539 -0.01173903536206263 0 -0.029001690142598239 -0.011184725731894397 0 -0.027944139004955744 -0.011210751395675792 0 -0.027714737386625242 -0.012247300041939777 0 -0.027826660183480539 -0.01173903536206263 0 -0.029001690142598239 -0.011184725731894397 0 -0.024321282345559078 -0.0053251413257146291 0 -0.025708658750491407 -0.0033039053211808608 0 -0.024790445429065191 -0.0028619653441019606 0 -0.026508007549098132 -0.0040651927740815823 0 -0.024321282345559078 -0.0053251413257146291 0 -0.025708658750491407 -0.0033039053211808608 0 -0.038277588435731077 -0.0013708859737564616 0 -0.03578029080777901 -0.0039635436872289863 0 -0.048750024098154501 -0.0010998140234283137 0 -0.048992566671692515 -0.00064003758019766236 0 -0.04905831387186764 -0.00083642393976760844 0 -0.038099175561942727 -0.0046730802190604621 0 -0.050904493323459261 -0.0018542624440741312 0 -0.049173349155137942 -0.0009229417344956694 0 -0.048858768447823483 -0.001075942694259217 0 -0.04905831387186764 -0.00083642393976760844 0 -0.026842866747104805 -0.0019290253122912142 0 -0.025708658750491407 -0.0033039053211808608 0 -0.025264048859844027 -0.0023724833297848794 0 -0.025708658750491407 -0.0033039053211808608 0 -0.025264048859844027 -0.0023724833297848794 0 -0.024790445429065191 -0.0028619653441019606 0 -0.03578029080777901 -0.0039635436872289863 0 -0.027823533124497417 -0.0086824123976036449 0 -0.034963529401237162 -0.0030738824334147203 0 -0.03193924892415511 -0.0060641859836153391 0 -0.03233856384147505 -0.003696967774221242 0 -0.027823533124497417 -0.0086824123976036449 0 -0.038099175561942727 -0.0046730802190604621 0 -0.03578029080777901 -0.0039635436872289863 0 -0.038099175561942727 -0.0046730802190604621 0 -0.048858768447823483 -0.001075942694259217 0 -0.048750024098154501 -0.0010998140234283137 0 -0.04905831387186764 -0.00083642393976760844 0 -0.038099175561942727 -0.0046730802190604621 0 -0.038026939072557227 -0.0089739075808010632 0 -0.029001690142598239 -0.011184725731894397 0 -0.029060527933445282 -0.010908603100861796 0 -0.027944139004955744 -0.011210751395675792 0 -0.050509232993955523 -0.0061387553052096901 0 -0.049006504419213968 -0.0066034842191317715 0 -0.049394397799479552 -0.0050478792164909119 0 -0.050509232993955523 -0.0061387553052096901 0 -0.049394397799479552 -0.0050478792164909119 0 -0.050825443400388234 -0.0039237619818025997 0 -0.049394397799479552 -0.0050478792164909119 0 -0.050825443400388234 -0.0039237619818025997 0 -0.049250042590785234 -0.0031371516893042573 0 -0.048992566671692515 -0.00064003758019766236 0 -0.04921809126176397 -0.0006173368778402816 0 -0.04905831387186764 -0.00083642393976760844 0 -0.047014447906966336 -0.0058685143821034487 0 -0.047955344953695765 -0.0047084207247862853 0 -0.045898193063273772 -0.0051623069212646307 0 -0.047014447906966336 -0.0058685143821034487 0 -0.045842075392119271 -0.0063294479610958385 0 -0.045898193063273772 -0.0051623069212646307 0 -0.047014447906966336 -0.0058685143821034487 0 -0.045842075392119271 -0.0063294479610958385 0 -0.046708265404462698 -0.0067206250419841306 0 -0.047014447906966336 -0.0058685143821034487 0 -0.046708265404462698 -0.0067206250419841306 0 -0.047291209301860711 -0.0065901382568503888 0 -0.047014447906966336 -0.0058685143821034487 0 -0.047861018492237312 -0.0063026293443981902 0 -0.048275300857361064 -0.0057002032517345629 0 -0.047723384277786926 -0.0069498238151670319 0 -0.047291209301860711 -0.0065901382568503888 0 -0.047861018492237312 -0.0063026293443981902 0 -0.047014447906966336 -0.0058685143821034487 0 -0.047291209301860711 -0.0065901382568503888 0 -0.047861018492237312 -0.0063026293443981902 0 -0.049006504419213968 -0.0066034842191317715 0 -0.047861018492237312 -0.0063026293443981902 0 -0.048275300857361064 -0.0057002032517345629 0 -0.047723384277786926 -0.0069498238151670319 0 -0.049006504419213968 -0.0066034842191317715 0 -0.047861018492237312 -0.0063026293443981902 0 -0.049006504419213968 -0.0066034842191317715 0 -0.049394397799479552 -0.0050478792164909119 0 -0.048275300857361064 -0.0057002032517345629 0 -0.049394397799479552 -0.0050478792164909119 0 -0.048275300857361064 -0.0057002032517345629 0 -0.047955344953695765 -0.0047084207247862853 0 -0.047014447906966336 -0.0058685143821034487 0 -0.048275300857361064 -0.0057002032517345629 0 -0.047955344953695765 -0.0047084207247862853 0 -0.049394397799479552 -0.0050478792164909119 0 -0.047955344953695765 -0.0047084207247862853 0 -0.049250042590785234 -0.0031371516893042573 0 -0.047955344953695765 -0.0047084207247862853 0 -0.047185396718183871 -0.003559275249073535 0 -0.049250042590785234 -0.0031371516893042573 0 -0.047955344953695765 -0.0047084207247862853 0 -0.045898193063273772 -0.0051623069212646307 0 -0.047185396718183871 -0.003559275249073535 0 -0.045145180494006371 -0.0040137967858573809 0 -0.045898193063273772 -0.0051623069212646307 0 -0.047185396718183871 -0.003559275249073535 0 -0.047185396718183871 -0.003559275249073535 0 -0.048148780682073657 -0.0018598219275968678 0 -0.046302345579573009 -0.0026993746226641256 0 -0.047185396718183871 -0.003559275249073535 0 -0.048148780682073657 -0.0018598219275968678 0 -0.049250042590785234 -0.0031371516893042573 0 -0.048148780682073657 -0.0018598219275968678 0 -0.047766367114436173 -0.0007398541290773679 0 -0.049438464062780019 -0.00051893772875546593 0 -0.048148780682073657 -0.0018598219275968678 0 -0.049250042590785234 -0.0031371516893042573 0 -0.049775603866987657 -0.0013934374034954369 0 -0.048148780682073657 -0.0018598219275968678 0 -0.049775603866987657 -0.0013934374034954369 0 -0.049438464062780019 -0.00051893772875546593 0 -0.048148780682073657 -0.0018598219275968678 0 -0.046599412911618308 -0.0013532523142811359 0 -0.046302345579573009 -0.0026993746226641256 0 -0.048148780682073657 -0.0018598219275968678 0 -0.047766367114436173 -0.0007398541290773679 0 -0.046599412911618308 -0.0013532523142811359 0 -0.050904493323459261 -0.0018542624440741312 0 -0.050013267847671475 -0.0012327466754351163 0 -0.048992566671692515 -0.00064003758019766236 0 -0.049385561071122533 -0.00035932775068070173 0 -0.049364347663377439 -0.00021393878528901047 0 -0.048992566671692515 -0.00064003758019766236 0 -0.04921809126176397 -0.0006173368778402816 0 -0.049385561071122533 -0.00035932775068070173 0 -0.050825443400388234 -0.0039237619818025997 0 -0.049250042590785234 -0.0031371516893042573 0 -0.050894824215344234 -0.0019337184729220885 0 -0.049250042590785234 -0.0031371516893042573 0 -0.049775603866987657 -0.0013934374034954369 0 -0.050894824215344234 -0.0019337184729220885 0 -0.049775603866987657 -0.0013934374034954369 0 -0.050894824215344234 -0.0019337184729220885 0 -0.050588788689922247 -0.00055588403262925041 0 -0.050013267847671475 -0.0012327466754351163 0 -0.050133613623928923 -0.00035499688554739209 0 -0.049549573591415909 -0.00018256699365944956 0 -0.049364347663377439 -0.00021393878528901047 0 -0.049698405486625713 -5.5801951950193555e-05 0 -0.049549573591415909 -0.00018256699365944956 0 -0.049385561071122533 -0.00035932775068070173 0 -0.049364347663377439 -0.00021393878528901047 0 -0.049775603866987657 -0.0013934374034954369 0 -0.050588788689922247 -0.00055588403262925041 0 -0.050021948927001271 -0.00029809369941386421 0 -0.049775603866987657 -0.0013934374034954369 0 -0.050021948927001271 -0.00029809369941386421 0 -0.049438464062780019 -0.00051893772875546593 0 -0.050021948927001271 -0.00029809369941386421 0 -0.050000786104521321 -4.4415936834483893e-07 0 -0.049438464062780019 -0.00051893772875546593 0 -0.050000552849406882 1.6175373303617759e-07 0 -0.050588788689922247 -0.00055588403262925041 0 -0.050021948927001271 -0.00029809369941386421 0 -0.050000044990635185 -2.4635888729553538e-07 0 -0.050133613623928923 -0.00035499688554739209 0 -0.050000552849406882 1.6175373303617759e-07 0 -0.050021948927001271 -0.00029809369941386421 0 -0.050000786104521321 -4.4415936834483893e-07 0 -0.049004175013208542 -0.00015900157553502334 0 -0.047766367114436173 -0.0007398541290773679 0 -0.047063965576383537 0.00047278586826831259 0 -0.049004175013208542 -0.00015900157553502334 0 -0.047766367114436173 -0.0007398541290773679 0 -0.049438464062780019 -0.00051893772875546593 0 -0.050000786104521321 -4.4415936834483893e-07 0 -0.049004175013208542 -0.00015900157553502334 0 -0.049438464062780019 -0.00051893772875546593 0 -0.050000786104521321 -4.4415936834483893e-07 0 -0.049004175013208542 -0.00015900157553502334 0 -0.049994887810452561 1.8174212001238063e-06 0 -0.049004175013208542 -0.00015900157553502334 0 -0.049994887810452561 1.8174212001238063e-06 0 -0.047063965576383537 0.00047278586826831259 0 -0.049999155867060989 3.2557356542462934e-08 0 -0.048528698124945528 0.00010579886494285283 0 -0.050000000757320258 3.6631747344494683e-10 0 -0.049999971696989734 -2.370706044576369e-09 0 -0.04999279450329689 -1.8102519834183784e-06 0 -0.049999971696989734 -2.370706044576369e-09 0 -0.04999279450329689 -1.8102519834183784e-06 0 -0.049990246958046568 -1.1815469299761995e-06 0 -0.049999971696989734 -2.370706044576369e-09 0 -0.049990246958046568 -1.1815469299761995e-06 0 -0.049992938969294819 -1.5295118093266954e-06 0 -0.049999971696989734 -2.370706044576369e-09 0 -0.049992938969294819 -1.5295118093266954e-06 0 -0.049999998253774332 -9.5648458013608602e-10 0 -0.04506173568414177 -3.6636412245169411e-05 0 -0.046350982431603932 -0.00033969666736814757 0 -0.045273758796140234 -0.00049988709316300842 0 -0.04999279450329689 -1.8102519834183784e-06 0 -0.049990246958046568 -1.1815469299761995e-06 0 -0.049978120914754648 -2.1007260001177964e-06 0 -0.047156086254842272 0.00020419448609770174 0 -0.050068534884779005 -0.00025019651118681147 0 -0.049990246958046568 -1.1815469299761995e-06 0 -0.049978120914754648 -2.1007260001177964e-06 0 -0.049992938969294819 -1.5295118093266954e-06 0 -0.047156086254842272 0.00020419448609770174 0 -0.045142950802411493 0.00035921025508859727 0 -0.047063965576383537 0.00047278586826831259 0 -0.04506173568414177 -3.6636412245169411e-05 0 -0.046350982431603932 -0.00033969666736814757 0 -0.048528698124945528 0.00010579886494285283 0 -0.047156086254842272 0.00020419448609770174 0 -0.047766367114436173 -0.0007398541290773679 0 -0.047063965576383537 0.00047278586826831259 0 -0.046350982431603932 -0.00033969666736814757 0 -0.047766367114436173 -0.0007398541290773679 0 -0.046350982431603932 -0.00033969666736814757 0 -0.046599412911618308 -0.0013532523142811359 0 -0.046599412911618308 -0.0013532523142811359 0 -0.045273758796140234 -0.00049988709316300842 0 -0.044965282438103639 -0.002360613192739191 0 -0.046350982431603932 -0.00033969666736814757 0 -0.046599412911618308 -0.0013532523142811359 0 -0.045273758796140234 -0.00049988709316300842 0 -0.043775140033491935 0.0015479289806160472 0 -0.045273758796140234 -0.00049988709316300842 0 -0.042574422328473666 -0.0015664537337306986 0 -0.045273758796140234 -0.00049988709316300842 0 -0.042574422328473666 -0.0015664537337306986 0 -0.044965282438103639 -0.002360613192739191 0 -0.043311753754310976 -0.0040887708049181975 0 -0.042574422328473666 -0.0015664537337306986 0 -0.044965282438103639 -0.002360613192739191 0 -0.045145180494006371 -0.0040137967858573809 0 -0.043311753754310976 -0.0040887708049181975 0 -0.044965282438103639 -0.002360613192739191 0 -0.045145180494006371 -0.0040137967858573809 0 -0.047185396718183871 -0.003559275249073535 0 -0.046302345579573009 -0.0026993746226641256 0 -0.045145180494006371 -0.0040137967858573809 0 -0.046302345579573009 -0.0026993746226641256 0 -0.044965282438103639 -0.002360613192739191 0 -0.046599412911618308 -0.0013532523142811359 0 -0.046302345579573009 -0.0026993746226641256 0 -0.044965282438103639 -0.002360613192739191 0 -0.039561581090594697 -0.0044344862211316179 0 -0.039522311913708918 -0.00029954992351567743 0 -0.034396595561225499 -0.002518533818532179 0 -0.04459544439690017 -6.7616292118396446e-05 0 -0.042084307455145187 -0.0012978194373108494 0 -0.043311753754310976 -0.0040887708049181975 0 -0.039561581090594697 -0.0044344862211316179 0 -0.042574422328473666 -0.0015664537337306986 0 -0.039561581090594697 -0.0044344862211316179 0 -0.042574422328473666 -0.0015664537337306986 0 -0.039522311913708918 -0.00029954992351567743 0 -0.043775140033491935 0.0015479289806160472 0 -0.042574422328473666 -0.0015664537337306986 0 -0.039522311913708918 -0.00029954992351567743 0 -0.047156086254842272 0.00020419448609770174 0 -0.04459544439690017 -6.7616292118396446e-05 0 -0.049867294669778746 5.250699979275341e-05 0 -0.049934448320372665 3.267518468540199e-05 0 -0.049899056707320429 6.6431591544975318e-05 0 -0.049862237739279079 3.6758254679685289e-05 0 -0.049867294669778746 5.250699979275341e-05 0 -0.04990789441373427 2.2675302401900106e-05 0 -0.049867294669778746 5.250699979275341e-05 0 -0.049934448320372665 3.267518468540199e-05 0 -0.04990789441373427 2.2675302401900106e-05 0 -0.049934448320372665 3.267518468540199e-05 0 -0.04990789441373427 2.2675302401900106e-05 0 -0.049999698127626273 -1.2006724563794218e-08 0 -0.050068534884779005 -0.00025019651118681147 0 -0.049999836984387924 1.5905335153187069e-07 0 -0.049934448320372665 3.267518468540199e-05 0 -0.049999698127626273 -1.2006724563794218e-08 0 -0.050000030960184502 4.2077063128464475e-08 0 -0.049999959442976569 3.0155080898029724e-08 0 -0.049857499537572285 5.2929846359336864e-05 0 -0.049999856056878296 -1.4046818351961284e-09 0 -0.049900237401219912 1.2748713165926027e-05 0 -0.049999882421412546 3.0311273689727613e-09 0 -0.049900237401219912 1.2748713165926027e-05 0 -0.049827615226356883 4.0804139140863664e-05 0 -0.049735322863499951 5.1868032425804729e-05 0 -0.049999856056878296 -1.4046818351961284e-09 0 -0.049900237401219912 1.2748713165926027e-05 0 -0.049827615226356883 4.0804139140863664e-05 0 -0.049934448320372665 3.267518468540199e-05 0 -0.050000030960184502 4.2077063128464475e-08 0 -0.049899056707320429 6.6431591544975318e-05 0 -0.049999935858325795 -1.1296921285640007e-08 0 -0.049945962932466566 2.77177670574677e-06 0 -0.049967708502377285 1.321796582318072e-05 0 -0.049999935858325795 -1.1296921285640007e-08 0 -0.049999882421412546 3.0311273689727613e-09 0 -0.049945962932466566 2.77177670574677e-06 0 -0.049900237401219912 1.2748713165926027e-05 0 -0.049999882421412546 3.0311273689727613e-09 0 -0.049945962932466566 2.77177670574677e-06 0 -0.049900237401219912 1.2748713165926027e-05 0 -0.049945962932466566 2.77177670574677e-06 0 -0.049871169589373945 2.1040720368075949e-05 0 -0.049945962932466566 2.77177670574677e-06 0 -0.049871169589373945 2.1040720368075949e-05 0 -0.049967708502377285 1.321796582318072e-05 0 -0.049893799466469539 5.7435954303214198e-05 0 -0.049871169589373945 2.1040720368075949e-05 0 -0.049967708502377285 1.321796582318072e-05 0 -0.049871169589373945 2.1040720368075949e-05 0 -0.049754504885904619 5.2316194006011497e-05 0 -0.049735322863499951 5.1868032425804729e-05 0 -0.049900237401219912 1.2748713165926027e-05 0 -0.049871169589373945 2.1040720368075949e-05 0 -0.049735322863499951 5.1868032425804729e-05 0 -0.049893799466469539 5.7435954303214198e-05 0 -0.049871169589373945 2.1040720368075949e-05 0 -0.049754504885904619 5.2316194006011497e-05 0 -0.049754504885904619 5.2316194006011497e-05 0 -0.049903355530787508 0.0001528254681391955 0 -0.049559227240411688 0.00011646184003298016 0 -0.049107226205698649 0.00022564078084182451 0 -0.049537865456935261 0.00012999332735812576 0 -0.049893799466469539 5.7435954303214198e-05 0 -0.049754504885904619 5.2316194006011497e-05 0 -0.049903355530787508 0.0001528254681391955 0 -0.049893799466469539 5.7435954303214198e-05 0 -0.049903355530787508 0.0001528254681391955 0 -0.049960386043751345 7.3139879535746947e-05 0 -0.049857499537572285 5.2929846359336864e-05 0 -0.04971600690510098 2.3561040783521641e-05 0 -0.049867294669778746 5.250699979275341e-05 0 -0.049899056707320429 6.6431591544975318e-05 0 -0.049797326633422831 5.8961030884172363e-05 0 -0.049827615226356883 4.0804139140863664e-05 0 -0.049735322863499951 5.1868032425804729e-05 0 -0.049690415943665918 2.7904830751037114e-05 0 -0.049754504885904619 5.2316194006011497e-05 0 -0.049735322863499951 5.1868032425804729e-05 0 -0.04965497234802721 7.1296251982269296e-05 0 -0.049735322863499951 5.1868032425804729e-05 0 -0.04965497234802721 7.1296251982269296e-05 0 -0.049690415943665918 2.7904830751037114e-05 0 -0.049754504885904619 5.2316194006011497e-05 0 -0.04965497234802721 7.1296251982269296e-05 0 -0.049559227240411688 0.00011646184003298016 0 -0.04965497234802721 7.1296251982269296e-05 0 -0.049559227240411688 0.00011646184003298016 0 -0.049690415943665918 2.7904830751037114e-05 0 -0.049899056707320429 6.6431591544975318e-05 0 -0.049797326633422831 5.8961030884172363e-05 0 -0.049690415943665918 2.7904830751037114e-05 0 -0.036514834192288181 -0.0073323882290138422 0 -0.035551670363902027 -0.0050695670942529948 0 -0.031254837378163119 -0.0061527604476128974 0 -0.034320215470012863 -0.006998236206221595 0 -0.031460585312999965 -0.0062318244324925309 0 -0.034396595561225499 -0.002518533818532179 0 -0.035551670363902027 -0.0050695670942529948 0 -0.031254837378163119 -0.0061527604476128974 0 -0.032247552277704303 -0.0068366438047513887 0 -0.031175788857012738 -0.0077614029465983116 0 -0.031815775956484979 -0.0085794857899035726 0 -0.032247552277704303 -0.0068366438047513887 0 -0.030845742254845959 -0.0071561645253925745 0 -0.031254837378163119 -0.0061527604476128974 0 -0.032247552277704303 -0.0068366438047513887 0 -0.031175788857012738 -0.0077614029465983116 0 -0.030845742254845959 -0.0071561645253925745 0 -0.030845742254845959 -0.0071561645253925745 0 -0.02921506272815513 -0.0058610145159513852 0 -0.029014221300105135 -0.0075547156938906871 0 -0.030845742254845959 -0.0071561645253925745 0 -0.029014221300105135 -0.0075547156938906871 0 -0.029902858421692248 -0.0083240273794671013 0 -0.031175788857012738 -0.0077614029465983116 0 -0.030845742254845959 -0.0071561645253925745 0 -0.029902858421692248 -0.0083240273794671013 0 -0.049559227240411688 0.00011646184003298016 0 -0.049690415943665918 2.7904830751037114e-05 0 -0.049412602522239564 -0.00013728135891090686 0 -0.042084307455145187 -0.0012978194373108494 0 -0.039353982069838041 -0.0029711660785277823 0 -0.034396595561225499 -0.002518533818532179 0 -0.02921506272815513 -0.0058610145159513852 0 -0.031254837378163119 -0.0061527604476128974 0 -0.049797326633422831 5.8961030884172363e-05 0 -0.049690415943665918 2.7904830751037114e-05 0 -0.049412602522239564 -0.00013728135891090686 0 -0.030845742254845959 -0.0071561645253925745 0 -0.02921506272815513 -0.0058610145159513852 0 -0.031254837378163119 -0.0061527604476128974 0 -0.048356783631355087 0.00027597678591764839 0 -0.049559227240411688 0.00011646184003298016 0 -0.049412602522239564 -0.00013728135891090686 0 -0.048356783631355087 0.00027597678591764839 0 -0.049412602522239564 -0.00013728135891090686 0 -0.048387192114890246 -0.00052173359487125287 0 -0.048356783631355087 0.00027597678591764839 0 -0.048387192114890246 -0.00052173359487125287 0 -0.04797443629807762 -6.8799809891454577e-05 0 -0.039353982069838041 -0.0029711660785277823 0 -0.037799388663666757 -0.0040510587932111953 0 -0.027138950557347011 -0.0075801654060595955 0 -0.029014221300105135 -0.0075547156938906871 0 -0.028679544542447619 -0.008673320339386054 0 -0.02921506272815513 -0.0058610145159513852 0 -0.027138950557347011 -0.0075801654060595955 0 -0.029014221300105135 -0.0075547156938906871 0 -0.027138950557347011 -0.0075801654060595955 0 -0.028679544542447619 -0.008673320339386054 0 -0.027644571016195978 -0.0090213319931550622 0 -0.028679544542447619 -0.008673320339386054 0 -0.027644571016195978 -0.0090213319931550622 0 -0.028261485195910565 -0.0097220364925120744 0 -0.028679544542447619 -0.008673320339386054 0 -0.028261485195910565 -0.0097220364925120744 0 -0.029050502400211353 -0.0097240395719816984 0 -0.027138950557347011 -0.0075801654060595955 0 -0.027644571016195978 -0.0090213319931550622 0 -0.026740961704487642 -0.0090650579452715551 0 -0.027138950557347011 -0.0075801654060595955 0 -0.026740961704487642 -0.0090650579452715551 0 -0.025597373580453206 -0.0089969134146076213 0 -0.026740961704487642 -0.0090650579452715551 0 -0.027261965977138158 -0.0098697572088730316 0 -0.02618075164946175 -0.0097269698569126817 0 -0.027644571016195978 -0.0090213319931550622 0 -0.026740961704487642 -0.0090650579452715551 0 -0.027261965977138158 -0.0098697572088730316 0 -0.027261965977138158 -0.0098697572088730316 0 -0.027591081613043675 -0.010759755804305065 0 -0.026470448095092691 -0.010350332268066337 0 -0.027261965977138158 -0.0098697572088730316 0 -0.02618075164946175 -0.0097269698569126817 0 -0.026470448095092691 -0.010350332268066337 0 -0.028261485195910565 -0.0097220364925120744 0 -0.02886568703469005 -0.010384517748705961 0 -0.029050502400211353 -0.0097240395719816984 0 -0.027644571016195978 -0.0090213319931550622 0 -0.027261965977138158 -0.0098697572088730316 0 -0.028261485195910565 -0.0097220364925120744 0 -0.027261965977138158 -0.0098697572088730316 0 -0.028261485195910565 -0.0097220364925120744 0 -0.028170980306480225 -0.010457446671358141 0 -0.027261965977138158 -0.0098697572088730316 0 -0.028170980306480225 -0.010457446671358141 0 -0.027591081613043675 -0.010759755804305065 0 -0.028261485195910565 -0.0097220364925120744 0 -0.028170980306480225 -0.010457446671358141 0 -0.02886568703469005 -0.010384517748705961 0 -0.028170980306480225 -0.010457446671358141 0 -0.02886568703469005 -0.010384517748705961 0 -0.028784623245836326 -0.010961708611640589 0 -0.02886568703469005 -0.010384517748705961 0 -0.029473791528338306 -0.010409854865578553 0 -0.029317589652603324 -0.010912798276413824 0 -0.02886568703469005 -0.010384517748705961 0 -0.029473791528338306 -0.010409854865578553 0 -0.029050502400211353 -0.0097240395719816984 0 -0.02886568703469005 -0.010384517748705961 0 -0.029317589652603324 -0.010912798276413824 0 -0.028784623245836326 -0.010961708611640589 0 -0.029473791528338306 -0.010409854865578553 0 -0.02983620698964343 -0.01093050956910329 0 -0.029317589652603324 -0.010912798276413824 0 -0.029473791528338306 -0.010409854865578553 0 -0.029050502400211353 -0.0097240395719816984 0 -0.029781291359806658 -0.0097192832334446078 0 -0.029781291359806658 -0.0097192832334446078 0 -0.030200645968422042 -0.010385493059230599 0 -0.030631168656921177 -0.0094766446501161148 0 -0.029473791528338306 -0.010409854865578553 0 -0.029781291359806658 -0.0097192832334446078 0 -0.030200645968422042 -0.010385493059230599 0 -0.029473791528338306 -0.010409854865578553 0 -0.030200645968422042 -0.010385493059230599 0 -0.02983620698964343 -0.01093050956910329 0 -0.030200645968422042 -0.010385493059230599 0 -0.02983620698964343 -0.01093050956910329 0 -0.030280799352125021 -0.010978284405400782 0 -0.030280799352125021 -0.010978284405400782 0 -0.030648737250278456 -0.010867969684902393 0 -0.030601035490654162 -0.011356169574957256 0 -0.030200645968422042 -0.010385493059230599 0 -0.030280799352125021 -0.010978284405400782 0 -0.030648737250278456 -0.010867969684902393 0 -0.030648737250278456 -0.010867969684902393 0 -0.030916306334031592 -0.011336902134643084 0 -0.0312370354009395 -0.010051284756999051 0 -0.030648737250278456 -0.010867969684902393 0 -0.030916306334031592 -0.011336902134643084 0 -0.030601035490654162 -0.011356169574957256 0 -0.030200645968422042 -0.010385493059230599 0 -0.030648737250278456 -0.010867969684902393 0 -0.0312370354009395 -0.010051284756999051 0 -0.030200645968422042 -0.010385493059230599 0 -0.0312370354009395 -0.010051284756999051 0 -0.030631168656921177 -0.0094766446501161148 0 -0.030631168656921177 -0.0094766446501161148 0 -0.030676776205490756 -0.0086456253108346121 0 -0.030046576667247037 -0.009039310635996162 0 -0.030631168656921177 -0.0094766446501161148 0 -0.031815775956484979 -0.0085794857899035726 0 -0.030676776205490756 -0.0086456253108346121 0 -0.0312370354009395 -0.010051284756999051 0 -0.030631168656921177 -0.0094766446501161148 0 -0.031815775956484979 -0.0085794857899035726 0 -0.031175788857012738 -0.0077614029465983116 0 -0.031815775956484979 -0.0085794857899035726 0 -0.030676776205490756 -0.0086456253108346121 0 -0.031175788857012738 -0.0077614029465983116 0 -0.030676776205490756 -0.0086456253108346121 0 -0.029902858421692248 -0.0083240273794671013 0 -0.030676776205490756 -0.0086456253108346121 0 -0.029902858421692248 -0.0083240273794671013 0 -0.030046576667247037 -0.009039310635996162 0 -0.029902858421692248 -0.0083240273794671013 0 -0.029446816229078458 -0.0091088862277884583 0 -0.030046576667247037 -0.009039310635996162 0 -0.029014221300105135 -0.0075547156938906871 0 -0.028679544542447619 -0.008673320339386054 0 -0.029902858421692248 -0.0083240273794671013 0 -0.028679544542447619 -0.008673320339386054 0 -0.029902858421692248 -0.0083240273794671013 0 -0.029446816229078458 -0.0091088862277884583 0 -0.029050502400211353 -0.0097240395719816984 0 -0.029781291359806658 -0.0097192832334446078 0 -0.029446816229078458 -0.0091088862277884583 0 -0.028679544542447619 -0.008673320339386054 0 -0.029050502400211353 -0.0097240395719816984 0 -0.029446816229078458 -0.0091088862277884583 0 -0.029781291359806658 -0.0097192832334446078 0 -0.029446816229078458 -0.0091088862277884583 0 -0.030046576667247037 -0.009039310635996162 0 -0.029781291359806658 -0.0097192832334446078 0 -0.030631168656921177 -0.0094766446501161148 0 -0.030046576667247037 -0.009039310635996162 0 -0.04810217150070166 0.00031447038782893256 0 -0.048298673139328417 0.00044279695070997111 0 -0.047724614129440963 0.00039499850572144928 0 -0.04810217150070166 0.00031447038782893256 0 -0.047946325104152129 0.00020990481364042848 0 -0.047724614129440963 0.00039499850572144928 0 -0.045899454168725519 -0.00041243934442739769 0 -0.043105333594117036 -0.0011964313772541838 0 -0.047946325104152129 0.00020990481364042848 0 -0.04784644442707104 7.7626713493232668e-05 0 -0.048069787606370533 0.00010449915566096845 0 -0.04810217150070166 0.00031447038782893256 0 -0.047946325104152129 0.00020990481364042848 0 -0.048069787606370533 0.00010449915566096845 0 -0.04810217150070166 0.00031447038782893256 0 -0.048299688929527421 0.00023857365158854726 0 -0.048069787606370533 0.00010449915566096845 0 -0.048299688929527421 0.00023857365158854726 0 -0.048298673139328417 0.00044279695070997111 0 -0.048514303387164608 0.00031465772296596106 0 -0.048299688929527421 0.00023857365158854726 0 -0.048459109472454978 0.00016142594524584745 0 -0.048514303387164608 0.00031465772296596106 0 -0.04810217150070166 0.00031447038782893256 0 -0.048299688929527421 0.00023857365158854726 0 -0.048298673139328417 0.00044279695070997111 0 -0.043132462267676454 -0.001384605687863217 0 -0.045772342667516334 -0.00067475514822549457 0 -0.043119775817799584 0.00059128379282529734 0 -0.043132462267676454 -0.001384605687863217 0 -0.040583745977581388 -0.0010707050633544195 0 -0.043119775817799584 0.00059128379282529734 0 -0.043132462267676454 -0.001384605687863217 0 -0.040583745977581388 -0.0010707050633544195 0 -0.040298195676349229 -0.0019993615675787777 0 -0.032062327320400298 -0.0057429557208169219 0 -0.035898818337446146 -0.0014983104662398689 0 -0.02519893392280468 -0.0097622854628507359 0 -0.025528549080207165 -0.0097832936016550506 0 -0.025597373580453206 -0.0089969134146076213 0 -0.02519893392280468 -0.0097622854628507359 0 -0.025528549080207165 -0.0097832936016550506 0 -0.025261286162708559 -0.0098199037589404986 0 -0.032062327320400298 -0.0057429557208169219 0 -0.043105333594117036 -0.0011964313772541838 0 -0.02618075164946175 -0.0097269698569126817 0 -0.025528549080207165 -0.0097832936016550506 0 -0.025597373580453206 -0.0089969134146076213 0 -0.02618075164946175 -0.0097269698569126817 0 -0.025528549080207165 -0.0097832936016550506 0 -0.025696140334353999 -0.010118608231052569 0 -0.026740961704487642 -0.0090650579452715551 0 -0.02618075164946175 -0.0097269698569126817 0 -0.025597373580453206 -0.0089969134146076213 0 -0.037799388663666757 -0.0040510587932111953 0 -0.036601024617120288 -0.0048126087194736 0 -0.047736569806626265 -0.0007670603775376116 0 -0.047272263781589843 -0.00086746193885526722 0 -0.047625070913361781 -0.00020060007706023924 0 -0.043105333594117036 -0.0011964313772541838 0 -0.048037153339609742 0.00049327848682627394 0 -0.032062327320400298 -0.0057429557208169219 0 -0.036601024617120288 -0.0048126087194736 0 -0.036511620782921028 -0.0041098968530479353 0 -0.037575316307794121 -0.0033686281962115381 0 -0.036691845344607635 -0.0035515785604313386 0 -0.047724614129440963 0.00039499850572144928 0 -0.04784644442707104 7.7626713493232668e-05 0 -0.047625070913361781 -0.00020060007706023924 0 -0.036601024617120288 -0.0048126087194736 0 -0.043105333594117036 -0.0011964313772541838 0 -0.047946325104152129 0.00020990481364042848 0 -0.047724614129440963 0.00039499850572144928 0 -0.04784644442707104 7.7626713493232668e-05 0 -0.04784644442707104 7.7626713493232668e-05 0 -0.047625070913361781 -0.00020060007706023924 0 -0.047830827206994747 -0.0001076672786479084 0 -0.047625070913361781 -0.00020060007706023924 0 -0.047830827206994747 -0.0001076672786479084 0 -0.047674078510071459 -0.00014991516188173588 0 -0.047625070913361781 -0.00020060007706023924 0 -0.047895823168968794 -0.00031776826575843887 0 -0.047674078510071459 -0.00014991516188173588 0 -0.047830827206994747 -0.0001076672786479084 0 -0.047805624320599226 -0.00018659187856850292 0 -0.047674078510071459 -0.00014991516188173588 0 -0.047736569806626265 -0.0007670603775376116 0 -0.047625070913361781 -0.00020060007706023924 0 -0.047895823168968794 -0.00031776826575843887 0 -0.048387192114890246 -0.00052173359487125287 0 -0.047736569806626265 -0.0007670603775376116 0 -0.047895823168968794 -0.00031776826575843887 0 -0.048387192114890246 -0.00052173359487125287 0 -0.047895823168968794 -0.00031776826575843887 0 -0.04797443629807762 -6.8799809891454577e-05 0 -0.047895823168968794 -0.00031776826575843887 0 -0.04797443629807762 -6.8799809891454577e-05 0 -0.047674078510071459 -0.00014991516188173588 0 -0.048356783631355087 0.00027597678591764839 0 -0.04797443629807762 -6.8799809891454577e-05 0 -0.047532093020886929 0.00021453279793474478 0 -0.049107226205698649 0.00022564078084182451 0 -0.048870610999098021 -8.7719003635284397e-06 0 -0.04797443629807762 -6.8799809891454577e-05 0 -0.047674078510071459 -0.00014991516188173588 0 -0.047532093020886929 0.00021453279793474478 0 -0.047805624320599226 -0.00018659187856850292 0 -0.047744606629951551 -0.00036928264536763137 0 -0.047967358009015491 -0.00017221885183986844 0 -0.047779977283378475 -2.114127854117867e-06 0 -0.048870610999098021 -8.7719003635284397e-06 0 -0.047805624320599226 -0.00018659187856850292 0 -0.047674078510071459 -0.00014991516188173588 0 -0.047744606629951551 -0.00036928264536763137 0 -0.047744606629951551 -0.00036928264536763137 0 -0.047967358009015491 -0.00017221885183986844 0 -0.048218829957996819 -0.00028736251616066639 0 -0.047967358009015491 -0.00017221885183986844 0 -0.048224336647163552 1.5745090822721037e-06 0 -0.048218829957996819 -0.00028736251616066639 0 -0.048870610999098021 -8.7719003635284397e-06 0 -0.049080435621444839 -0.00013583791982727311 0 -0.047830827206994747 -0.0001076672786479084 0 -0.047805624320599226 -0.00018659187856850292 0 -0.047967358009015491 -0.00017221885183986844 0 -0.047830827206994747 -0.0001076672786479084 0 -0.047967358009015491 -0.00017221885183986844 0 -0.048028037371888634 -4.1065712417723224e-05 0 -0.048028037371888634 -4.1065712417723224e-05 0 -0.048069787606370533 0.00010449915566096845 0 -0.048224336647163552 1.5745090822721037e-06 0 -0.047967358009015491 -0.00017221885183986844 0 -0.048028037371888634 -4.1065712417723224e-05 0 -0.048224336647163552 1.5745090822721037e-06 0 -0.04784644442707104 7.7626713493232668e-05 0 -0.047830827206994747 -0.0001076672786479084 0 -0.048069787606370533 0.00010449915566096845 0 -0.047830827206994747 -0.0001076672786479084 0 -0.048028037371888634 -4.1065712417723224e-05 0 -0.048069787606370533 0.00010449915566096845 0 -0.048299688929527421 0.00023857365158854726 0 -0.048459109472454978 0.00016142594524584745 0 -0.048224336647163552 1.5745090822721037e-06 0 -0.048299688929527421 0.00023857365158854726 0 -0.048069787606370533 0.00010449915566096845 0 -0.048224336647163552 1.5745090822721037e-06 0 -0.048459109472454978 0.00016142594524584745 0 -0.048224336647163552 1.5745090822721037e-06 0 -0.048508774139275589 2.9819093365812572e-05 0 -0.048224336647163552 1.5745090822721037e-06 0 -0.048508774139275589 2.9819093365812572e-05 0 -0.048218829957996819 -0.00028736251616066639 0 -0.048508774139275589 2.9819093365812572e-05 0 -0.048218829957996819 -0.00028736251616066639 0 -0.048510348667740628 -0.00018472781642103997 0 -0.049080435621444839 -0.00013583791982727311 0 -0.049158265281543531 -0.00011156920750457402 0 -0.049959816136499927 4.9094405306958007e-05 0 -0.049973806813967424 4.8435751997842651e-05 0 -0.049973308984398827 2.9097808614907098e-05 0 -0.049959816136499927 4.9094405306958007e-05 0 -0.049973308984398827 2.9097808614907098e-05 0 -0.049952122480384595 3.4535425173278468e-05 0 -0.049921575929048216 4.9894381006077884e-05 0 -0.049959816136499927 4.9094405306958007e-05 0 -0.049952122480384595 3.4535425173278468e-05 0 -0.049952122480384595 3.4535425173278468e-05 0 -0.049968471114243594 1.7012676334088241e-05 0 -0.04994505093693026 2.259987780443621e-05 0 -0.049973308984398827 2.9097808614907098e-05 0 -0.049952122480384595 3.4535425173278468e-05 0 -0.049968471114243594 1.7012676334088241e-05 0 -0.049968471114243594 1.7012676334088241e-05 0 -0.04994505093693026 2.259987780443621e-05 0 -0.049972403711159664 6.3622111027292179e-06 0 -0.050073715172169055 1.7467522870795134e-05 0 -0.049981321496215279 2.0662742185842806e-05 0 -0.049973308984398827 2.9097808614907098e-05 0 -0.049968471114243594 1.7012676334088241e-05 0 -0.049986535668467495 7.6823080258068809e-06 0 -0.049973308984398827 2.9097808614907098e-05 0 -0.049986535668467495 7.6823080258068809e-06 0 -0.049990781728270248 2.3654131310221347e-05 0 -0.049903355530787508 0.0001528254681391955 0 -0.049994603393602594 0.0001265292760784582 0 -0.049960386043751345 7.3139879535746947e-05 0 -0.049994603393602594 0.0001265292760784582 0 -0.049960386043751345 7.3139879535746947e-05 0 -0.050009788949046473 5.6430444851478611e-05 0 -0.049921575929048216 4.9894381006077884e-05 0 -0.049952122480384595 3.4535425173278468e-05 0 -0.04994505093693026 2.259987780443621e-05 0 -0.048870610999098021 -8.7719003635284397e-06 0 -0.050073715172169055 1.7467522870795134e-05 0 -0.049960386043751345 7.3139879535746947e-05 0 -0.050009788949046473 5.6430444851478611e-05 0 -0.049967708502377285 1.321796582318072e-05 0 -0.049893799466469539 5.7435954303214198e-05 0 -0.049960386043751345 7.3139879535746947e-05 0 -0.049967708502377285 1.321796582318072e-05 0 -0.049967708502377285 1.321796582318072e-05 0 -0.049999989928118382 -4.8735860736446128e-09 0 -0.050011701261364103 1.2945526430075227e-05 0 -0.050009788949046473 5.6430444851478611e-05 0 -0.049967708502377285 1.321796582318072e-05 0 -0.050011701261364103 1.2945526430075227e-05 0 -0.049999935858325795 -1.1296921285640007e-08 0 -0.049967708502377285 1.321796582318072e-05 0 -0.049999989928118382 -4.8735860736446128e-09 0 -0.049968471114243594 1.7012676334088241e-05 0 -0.049986535668467495 7.6823080258068809e-06 0 -0.049972403711159664 6.3622111027292179e-06 0 -0.049981321496215279 2.0662742185842806e-05 0 -0.050000001772872928 -4.9793528380785442e-09 0 -0.049999989928118382 -4.8735860736446128e-09 0 -0.050011701261364103 1.2945526430075227e-05 0 -0.050000029045179563 1.0437749992117308e-08 0 -0.049986535668467495 7.6823080258068809e-06 0 -0.049999951827445155 -6.5000617227007098e-09 0 -0.049999999756024795 2.2814587091196027e-09 0 -0.049986535668467495 7.6823080258068809e-06 0 -0.049972403711159664 6.3622111027292179e-06 0 -0.049999951827445155 -6.5000617227007098e-09 0 -0.049986535668467495 7.6823080258068809e-06 0 -0.049999999756024795 2.2814587091196027e-09 0 -0.049999623097661684 6.4110575893325635e-06 0 -0.049986535668467495 7.6823080258068809e-06 0 -0.049999623097661684 6.4110575893325635e-06 0 -0.049990781728270248 2.3654131310221347e-05 0 -0.049743100893030252 -1.5905412814816728e-05 0 -0.04999986955762066 3.7397062627134738e-08 0 -0.049999999756024795 2.2814587091196027e-09 0 -0.049999623097661684 6.4110575893325635e-06 0 -0.050000003681831239 2.0258530302399515e-09 0 -0.049509738798861343 -9.2464321901025327e-05 0 -0.049999198807981329 -2.7277003339619139e-07 0 -0.049772433863872666 -6.1859688512052227e-05 0 -0.049999198807981329 -2.7277003339619139e-07 0 -0.04999988654082279 -3.8319084682799546e-08 0 -0.049772433863872666 -6.1859688512052227e-05 0 -0.04999988654082279 -3.8319084682799546e-08 0 -0.049772433863872666 -6.1859688512052227e-05 0 -0.049915648999930458 -2.9078355057692535e-05 0 -0.049772433863872666 -6.1859688512052227e-05 0 -0.049698187631361149 2.9253127991592069e-05 0 -0.049915648999930458 -2.9078355057692535e-05 0 -0.049509738798861343 -9.2464321901025327e-05 0 -0.049772433863872666 -6.1859688512052227e-05 0 -0.049493348536698803 -2.4235670746770735e-05 0 -0.049772433863872666 -6.1859688512052227e-05 0 -0.049493348536698803 -2.4235670746770735e-05 0 -0.049698187631361149 2.9253127991592069e-05 0 -0.049493348536698803 -2.4235670746770735e-05 0 -0.049698187631361149 2.9253127991592069e-05 0 -0.049440374853230627 5.1184980523637846e-05 0 -0.049447655188134848 2.9398100030680718e-05 0 -0.049071030436203783 0.00020049847850322293 0 -0.049198067444424107 1.6103033454311636e-05 0 -0.049046669484117643 0.00024166296525156178 0 -0.048822671174311258 0.00024616719686879334 0 -0.049698187631361149 2.9253127991592069e-05 0 -0.049440374853230627 5.1184980523637846e-05 0 -0.049329515748202629 0.00018020708893931692 0 -0.049210614695486751 3.7511873394183081e-05 0 -0.049440374853230627 5.1184980523637846e-05 0 -0.049329515748202629 0.00018020708893931692 0 -0.049493348536698803 -2.4235670746770735e-05 0 -0.049210614695486751 3.7511873394183081e-05 0 -0.049440374853230627 5.1184980523637846e-05 0 -0.049210614695486751 3.7511873394183081e-05 0 -0.049019617628112133 4.3313771162555603e-05 0 -0.048954009921904774 0.00017659471956103234 0 -0.049210614695486751 3.7511873394183081e-05 0 -0.049019617628112133 4.3313771162555603e-05 0 -0.049076244051984554 -9.278341818124051e-06 0 -0.049973806813967424 4.8435751997842651e-05 0 -0.049973308984398827 2.9097808614907098e-05 0 -0.049990781728270248 2.3654131310221347e-05 0 -0.049019617628112133 4.3313771162555603e-05 0 -0.049076244051984554 -9.278341818124051e-06 0 -0.048860140516041761 1.7281444392889843e-05 0 -0.048870942747940134 1.5253131222811391e-05 0 -0.049076244051984554 -9.278341818124051e-06 0 -0.048860140516041761 1.7281444392889843e-05 0 -0.049158265281543531 -0.00011156920750457402 0 -0.049564466810418303 3.6651438023416961e-05 0 -0.049493348536698803 -2.4235670746770735e-05 0 -0.049210614695486751 3.7511873394183081e-05 0 -0.049076244051984554 -9.278341818124051e-06 0 -0.049509738798861343 -9.2464321901025327e-05 0 -0.049493348536698803 -2.4235670746770735e-05 0 -0.049076244051984554 -9.278341818124051e-06 0 -0.049743100893030252 -1.5905412814816728e-05 0 -0.049564466810418303 3.6651438023416961e-05 0 -0.049909627852702441 1.7578817922510713e-05 0 -0.049999948873291941 4.2165247611470037e-08 0 -0.049793459937684158 -7.7874566691234964e-06 0 -0.049999948873291941 4.2165247611470037e-08 0 -0.049793459937684158 -7.7874566691234964e-06 0 -0.050005740280843411 -2.1629823240670106e-07 0 -0.049793459937684158 -7.7874566691234964e-06 0 -0.050005740280843411 -2.1629823240670106e-07 0 -0.049618548279515826 -5.7773314128928406e-05 0 -0.049793459937684158 -7.7874566691234964e-06 0 -0.049618548279515826 -5.7773314128928406e-05 0 -0.049528083565245018 2.1343555551453509e-05 0 -0.050006248322955922 5.6898746491576941e-09 0 -0.049757248462681695 -2.9805512812992669e-05 0 -0.04999988654082279 -3.8319084682799546e-08 0 -0.050006298042260505 3.076770467912839e-09 0 -0.049915648999930458 -2.9078355057692535e-05 0 -0.049198067444424107 1.6103033454311636e-05 0 -0.049618548279515826 -5.7773314128928406e-05 0 -0.049528083565245018 2.1343555551453509e-05 0 -0.049447655188134848 2.9398100030680718e-05 0 -0.049757248462681695 -2.9805512812992669e-05 0 -0.049198067444424107 1.6103033454311636e-05 0 -0.049383888756100988 0.00011243505849642189 0 -0.049528083565245018 2.1343555551453509e-05 0 -0.049198067444424107 1.6103033454311636e-05 0 -0.049383888756100988 0.00011243505849642189 0 -0.049046669484117643 0.00024166296525156178 0 -0.049383888756100988 0.00011243505849642189 0 -0.049528083565245018 2.1343555551453509e-05 0 -0.049613592283147948 0.00012086240650201127 0 -0.049383888756100988 0.00011243505849642189 0 -0.049613592283147948 0.00012086240650201127 0 -0.049458173279257542 0.00024216029649444968 0 -0.049793459937684158 -7.7874566691234964e-06 0 -0.049528083565245018 2.1343555551453509e-05 0 -0.049613592283147948 0.00012086240650201127 0 -0.049793459937684158 -7.7874566691234964e-06 0 -0.049613592283147948 0.00012086240650201127 0 -0.049771926495045173 0.00012188825896952845 0 -0.049613592283147948 0.00012086240650201127 0 -0.049771926495045173 0.00012188825896952845 0 -0.049661409532785486 0.00029035423816674202 0 -0.049909627852702441 1.7578817922510713e-05 0 -0.049793459937684158 -7.7874566691234964e-06 0 -0.049771926495045173 0.00012188825896952845 0 -0.049771926495045173 0.00012188825896952845 0 -0.049661409532785486 0.00029035423816674202 0 -0.049806193678172149 0.00022512201625312929 0 -0.049661409532785486 0.00029035423816674202 0 -0.049605301212529693 0.00044367239325233048 0 -0.049725281328473349 0.00037205147098496542 0 -0.049613592283147948 0.00012086240650201127 0 -0.049661409532785486 0.00029035423816674202 0 -0.049458173279257542 0.00024216029649444968 0 -0.049661409532785486 0.00029035423816674202 0 -0.049468732520066054 0.00041313081274134926 0 -0.049605301212529693 0.00044367239325233048 0 -0.049661409532785486 0.00029035423816674202 0 -0.049468732520066054 0.00041313081274134926 0 -0.049458173279257542 0.00024216029649444968 0 -0.049468732520066054 0.00041313081274134926 0 -0.049458173279257542 0.00024216029649444968 0 -0.049046669484117643 0.00024166296525156178 0 -0.049172799834874555 0.00033250165389350496 0 -0.049065490847140653 0.00023940163569582428 0 -0.049383888756100988 0.00011243505849642189 0 -0.049458173279257542 0.00024216029649444968 0 -0.049046669484117643 0.00024166296525156178 0 -0.04897536666060711 0.00028083574455346066 0 -0.049046669484117643 0.00024166296525156178 0 -0.048758478649079201 0.00032006668815940038 0 -0.04897536666060711 0.00028083574455346066 0 -0.048894769217384067 0.0005938506900936008 0 -0.048758478649079201 0.00032006668815940038 0 -0.048894769217384067 0.0005938506900936008 0 -0.048758478649079201 0.00032006668815940038 0 -0.048437385590037289 0.00045448528722268072 0 -0.048894769217384067 0.0005938506900936008 0 -0.048437385590037289 0.00045448528722268072 0 -0.048254917830249468 0.00079851291778620709 0 -0.048894769217384067 0.0005938506900936008 0 -0.049259706298319592 0.00073389736403742603 0 -0.049239077757304857 0.00099647433575560042 0 -0.048894769217384067 0.0005938506900936008 0 -0.049268902616553589 0.00049397174700765436 0 -0.049259706298319592 0.00073389736403742603 0 -0.04897536666060711 0.00028083574455346066 0 -0.048894769217384067 0.0005938506900936008 0 -0.049268902616553589 0.00049397174700765436 0 -0.049172799834874555 0.00033250165389350496 0 -0.049706340993023318 0.00043102532018565476 0 -0.049268902616553589 0.00049397174700765436 0 -0.049259706298319592 0.00073389736403742603 0 -0.049611650326998338 0.00083474353698210612 0 -0.049259706298319592 0.00073389736403742603 0 -0.049611650326998338 0.00083474353698210612 0 -0.049239077757304857 0.00099647433575560042 0 -0.049706340993023318 0.00043102532018565476 0 -0.047741831242922833 0.0015164035437218448 0 -0.049605301212529693 0.00044367239325233048 0 -0.049664808091068414 0.00049372287656820229 0 -0.049725281328473349 0.00037205147098496542 0 -0.048694229289056944 0.00022128754224831824 0 -0.048676892323303453 0.00034952480837046972 0 -0.048565135669848762 0.00037204058838725084 0 -0.048694229289056944 0.00022128754224831824 0 -0.048954009921904774 0.00017659471956103234 0 -0.048676892323303453 0.00034952480837046972 0 -0.048459109472454978 0.00016142594524584745 0 -0.048508774139275589 2.9819093365812572e-05 0 -0.048694229289056944 0.00022128754224831824 0 -0.048459109472454978 0.00016142594524584745 0 -0.048694229289056944 0.00022128754224831824 0 -0.048514303387164608 0.00031465772296596106 0 -0.048508774139275589 2.9819093365812572e-05 0 -0.048694229289056944 0.00022128754224831824 0 -0.048860140516041761 1.7281444392889843e-05 0 -0.048508774139275589 2.9819093365812572e-05 0 -0.048510348667740628 -0.00018472781642103997 0 -0.048860140516041761 1.7281444392889843e-05 0 -0.049158265281543531 -0.00011156920750457402 0 -0.048705083240895314 -4.5440866812647429e-05 0 -0.048694229289056944 0.00022128754224831824 0 -0.048860140516041761 1.7281444392889843e-05 0 -0.048954009921904774 0.00017659471956103234 0 -0.049019617628112133 4.3313771162555603e-05 0 -0.048860140516041761 1.7281444392889843e-05 0 -0.048954009921904774 0.00017659471956103234 0 -0.048954009921904774 0.00017659471956103234 0 -0.049329515748202629 0.00018020708893931692 0 -0.048676892323303453 0.00034952480837046972 0 -0.049210614695486751 3.7511873394183081e-05 0 -0.048954009921904774 0.00017659471956103234 0 -0.049329515748202629 0.00018020708893931692 0 -0.049046669484117643 0.00024166296525156178 0 -0.048822671174311258 0.00024616719686879334 0 -0.048758478649079201 0.00032006668815940038 0 -0.048822671174311258 0.00024616719686879334 0 -0.048758478649079201 0.00032006668815940038 0 -0.048676892323303453 0.00034952480837046972 0 -0.049071030436203783 0.00020049847850322293 0 -0.048740539340543086 0.0003412160917891733 0 -0.048676892323303453 0.00034952480837046972 0 -0.048437385590037289 0.00045448528722268072 0 -0.048141245354813789 0.00036986638795020386 0 -0.048676892323303453 0.00034952480837046972 0 -0.048141245354813789 0.00036986638795020386 0 -0.048565135669848762 0.00037204058838725084 0 -0.048758478649079201 0.00032006668815940038 0 -0.048676892323303453 0.00034952480837046972 0 -0.048437385590037289 0.00045448528722268072 0 -0.048437385590037289 0.00045448528722268072 0 -0.048254917830249468 0.00079851291778620709 0 -0.048233296640535731 0.00081619872191116265 0 -0.048437385590037289 0.00045448528722268072 0 -0.048141245354813789 0.00036986638795020386 0 -0.048233296640535731 0.00081619872191116265 0 -0.048141245354813789 0.00036986638795020386 0 -0.045772342667516334 -0.00067475514822549457 0 -0.046979540433999961 0.00076598733099743214 0 -0.048141245354813789 0.00036986638795020386 0 -0.048565135669848762 0.00037204058838725084 0 -0.048557088432076186 0.00036006017713457425 0 -0.048090214866612496 0.00028796280666030285 0 -0.047093328553290091 -0.00013661629490147826 0 -0.048565135669848762 0.00037204058838725084 0 -0.048514303387164608 0.00031465772296596106 0 -0.048557088432076186 0.00036006017713457425 0 -0.048298673139328417 0.00044279695070997111 0 -0.048514303387164608 0.00031465772296596106 0 -0.048557088432076186 0.00036006017713457425 0 -0.048694229289056944 0.00022128754224831824 0 -0.048565135669848762 0.00037204058838725084 0 -0.048514303387164608 0.00031465772296596106 0 -0.045899454168725519 -0.00041243934442739769 0 -0.047093328553290091 -0.00013661629490147826 0 -0.045772342667516334 -0.00067475514822549457 0 -0.04546237081240985 0.0020043204610071239 0 -0.043119775817799584 0.00059128379282529734 0 -0.027803193838812062 -0.0045934611820322201 0 -0.027756104880854331 -0.0041035081600765628 0 -0.02750487805376866 -0.0042908038270816065 0 -0.027803193838812062 -0.0045934611820322201 0 -0.027417617549272674 -0.0044852854713476643 0 -0.02750487805376866 -0.0042908038270816065 0 -0.027803193838812062 -0.0045934611820322201 0 -0.028612569949977264 -0.0042348182071618211 0 -0.028106128440415851 -0.0041798838585090058 0 -0.035830776180906077 -0.0015205950114964141 0 -0.041709310531265753 -0.0010075448898849008 0 -0.04546237081240985 0.0020043204610071239 0 -0.047249565327428522 0.0016710239986201018 0 -0.047343160417414668 0.0029739576730098225 0 -0.04546237081240985 0.0020043204610071239 0 -0.047249565327428522 0.0016710239986201018 0 -0.046979540433999961 0.00076598733099743214 0 -0.045772342667516334 -0.00067475514822549457 0 -0.04546237081240985 0.0020043204610071239 0 -0.046979540433999961 0.00076598733099743214 0 -0.048141245354813789 0.00036986638795020386 0 -0.046979540433999961 0.00076598733099743214 0 -0.047834607345763794 0.0010456280080668387 0 -0.048141245354813789 0.00036986638795020386 0 -0.047834607345763794 0.0010456280080668387 0 -0.048233296640535731 0.00081619872191116265 0 -0.047834607345763794 0.0010456280080668387 0 -0.048233296640535731 0.00081619872191116265 0 -0.048316703608000292 0.0015496138939195083 0 -0.047249565327428522 0.0016710239986201018 0 -0.047834607345763794 0.0010456280080668387 0 -0.048316703608000292 0.0015496138939195083 0 -0.047249565327428522 0.0016710239986201018 0 -0.046979540433999961 0.00076598733099743214 0 -0.047834607345763794 0.0010456280080668387 0 -0.048254917830249468 0.00079851291778620709 0 -0.047041219904838574 0.0021054735512465402 0 -0.046692662063061358 0.0020390070449032129 0 -0.048254917830249468 0.00079851291778620709 0 -0.048233296640535731 0.00081619872191116265 0 -0.048316703608000292 0.0015496138939195083 0 -0.048254917830249468 0.00079851291778620709 0 -0.047041219904838574 0.0021054735512465402 0 -0.048859042641726809 0.0012904707059176544 0 -0.048061561597952641 0.00097297969935548185 0 -0.047970641465354666 0.0018910898928673652 0 -0.047041219904838574 0.0021054735512465402 0 -0.046692662063061358 0.0020390070449032129 0 -0.046777045065071778 0.0019565275036039632 0 -0.046568000402020138 0.0018758685212186287 0 -0.046777045065071778 0.0019565275036039632 0 -0.046724175019710608 0.001779873793883581 0 -0.047041219904838574 0.0021054735512465402 0 -0.046568000402020138 0.0018758685212186287 0 -0.046777045065071778 0.0019565275036039632 0 -0.047041219904838574 0.0021054735512465402 0 -0.046568000402020138 0.0018758685212186287 0 -0.04608857008862393 0.0020353204712222047 0 -0.046692662063061358 0.0020390070449032129 0 -0.046777045065071778 0.0019565275036039632 0 -0.047118048308613353 0.0017795371397012511 0 -0.047249565327428522 0.0016710239986201018 0 -0.048316703608000292 0.0015496138939195083 0 -0.047343160417414668 0.0029739576730098225 0 -0.047970641465354666 0.0018910898928673652 0 -0.041709310531265753 -0.0010075448898849008 0 -0.040553382730994299 -0.0025934463550886318 0 -0.040414285698054393 -0.00087635318347834901 0 -0.04165540417396147 -0.0003497832655166191 0 -0.040553382730994299 -0.0025934463550886318 0 -0.043166495783264806 -0.00070217959622800115 0 -0.04165540417396147 -0.0003497832655166191 0 -0.041709310531265753 -0.0010075448898849008 0 -0.045220947630849065 0.00051002831343227844 0 -0.047118048308613353 0.0017795371397012511 0 -0.046724175019710608 0.001779873793883581 0 -0.046431734971010802 0.0012455666371969268 0 -0.046777045065071778 0.0019565275036039632 0 -0.047118048308613353 0.0017795371397012511 0 -0.046724175019710608 0.001779873793883581 0 -0.04627513517038704 0.0016222212566702602 0 -0.046431734971010802 0.0012455666371969268 0 -0.045589115223052083 0.0013715022262899923 0 -0.04627513517038704 0.0016222212566702602 0 -0.046724175019710608 0.001779873793883581 0 -0.046431734971010802 0.0012455666371969268 0 -0.046568000402020138 0.0018758685212186287 0 -0.04627513517038704 0.0016222212566702602 0 -0.045910883731724528 0.0017752725316484564 0 -0.046568000402020138 0.0018758685212186287 0 -0.04627513517038704 0.0016222212566702602 0 -0.046724175019710608 0.001779873793883581 0 -0.043166495783264806 -0.00070217959622800115 0 -0.042738486089927037 0.00034350476440847013 0 -0.043683738899381166 0.0010021100694165559 0 -0.043166495783264806 -0.00070217959622800115 0 -0.042738486089927037 0.00034350476440847013 0 -0.04165540417396147 -0.0003497832655166191 0 -0.042738486089927037 0.00034350476440847013 0 -0.04165540417396147 -0.0003497832655166191 0 -0.042494922322115262 0.0013162304328793051 0 -0.04223943287710915 0.00072632623133232267 0 -0.034609535891011893 0.00040289531106925061 0 -0.04165540417396147 -0.0003497832655166191 0 -0.040643007013006563 0.00039970257430699914 0 -0.042048739103689288 0.0016410558010061748 0 -0.040414285698054393 -0.00087635318347834901 0 -0.04165540417396147 -0.0003497832655166191 0 -0.040643007013006563 0.00039970257430699914 0 -0.023883057601951189 -0.0011563636421719696 0 -0.024501466071100424 -0.00057981440777157129 0 -0.024452520864059041 -0.0013039926949234453 0 -0.040414285698054393 -0.00087635318347834901 0 -0.040643007013006563 0.00039970257430699914 0 -0.039044764891334162 -0.00092210002432150046 0 -0.032428759464279817 -0.00022738044259841 0 -0.028910969853906079 -0.0019910536070301969 0 -0.024501466071100424 -0.00057981440777157129 0 -0.025221836680681203 -0.0013879447768534549 0 -0.024452520864059041 -0.0013039926949234453 0 -0.028910969853906079 -0.0019910536070301969 0 -0.026019884045684543 -0.0023654706123893768 0 -0.027917601642607502 -0.0039634906689548256 0 -0.027573708870175372 -0.0039303888974395844 0 -0.027557543135963012 -0.0035755456774873699 0 -0.027573708870175372 -0.0039303888974395844 0 -0.027557543135963012 -0.0035755456774873699 0 -0.027255346731809058 -0.00387431750952237 0 -0.027573708870175372 -0.0039303888974395844 0 -0.027425375953457506 -0.0040775224819802813 0 -0.027255346731809058 -0.00387431750952237 0 -0.027803193838812062 -0.0045934611820322201 0 -0.027756104880854331 -0.0041035081600765628 0 -0.028106128440415851 -0.0041798838585090058 0 -0.027917601642607502 -0.0039634906689548256 0 -0.027573708870175372 -0.0039303888974395844 0 -0.027756104880854331 -0.0041035081600765628 0 -0.028910969853906079 -0.0019910536070301969 0 -0.027376897465326958 -0.0041948813980833468 0 -0.027756104880854331 -0.0041035081600765628 0 -0.02750487805376866 -0.0042908038270816065 0 -0.027425375953457506 -0.0040775224819802813 0 -0.027573708870175372 -0.0039303888974395844 0 -0.027756104880854331 -0.0041035081600765628 0 -0.027425375953457506 -0.0040775224819802813 0 -0.028612569949977264 -0.0042348182071618211 0 -0.028153332863319582 -0.003718950243053062 0 -0.028106128440415851 -0.0041798838585090058 0 -0.041709310531265753 -0.0010075448898849008 0 -0.028910969853906079 -0.0019910536070301969 0 -0.040553382730994299 -0.0025934463550886318 0 -0.040414285698054393 -0.00087635318347834901 0 -0.039044764891334162 -0.00092210002432150046 0 -0.028153332863319582 -0.003718950243053062 0 -0.027756104880854331 -0.0041035081600765628 0 -0.028106128440415851 -0.0041798838585090058 0 -0.04467972119100834 0.0020579217738812541 0 -0.044487807086677114 0.0023941404861097981 0 -0.044378181452604179 0.0021303478511061984 0 -0.04467972119100834 0.0020579217738812541 0 -0.044487807086677114 0.0023941404861097981 0 -0.044722185111176149 0.0024591906873782628 0 -0.044496889348997877 0.0026257228669893922 0 -0.044487807086677114 0.0023941404861097981 0 -0.04454729006829327 0.0025223580165887648 0 -0.044496889348997877 0.0026257228669893922 0 -0.04454729006829327 0.0025223580165887648 0 -0.044722185111176149 0.0024591906873782628 0 -0.044487807086677114 0.0023941404861097981 0 -0.04454729006829327 0.0025223580165887648 0 -0.044722185111176149 0.0024591906873782628 0 -0.044496889348997877 0.0026257228669893922 0 -0.044722185111176149 0.0024591906873782628 0 -0.045031632935704752 0.0025644595825231502 0 -0.047741831242922833 0.0015164035437218448 0 -0.047000744084037628 0.0018330792685789094 0 -0.04467972119100834 0.0020579217738812541 0 -0.044722185111176149 0.0024591906873782628 0 -0.045031632935704752 0.0025644595825231502 0 -0.04467972119100834 0.0020579217738812541 0 -0.045031632935704752 0.0025644595825231502 0 -0.04498787476583041 0.0018119956377560423 0 -0.045031632935704752 0.0025644595825231502 0 -0.045417136826438102 0.0020465556096115334 0 -0.04498787476583041 0.0018119956377560423 0 -0.048894769217384067 0.0005938506900936008 0 -0.049239077757304857 0.00099647433575560042 0 -0.048859042641726809 0.0012904707059176544 0 -0.045031632935704752 0.0025644595825231502 0 -0.045417136826438102 0.0020465556096115334 0 -0.045701528239467611 0.00252224372267694 0 -0.047000744084037628 0.0018330792685789094 0 -0.047287288168687582 0.0019005031319125681 0 -0.048894769217384067 0.0005938506900936008 0 -0.048254917830249468 0.00079851291778620709 0 -0.048859042641726809 0.0012904707059176544 0 -0.047041219904838574 0.0021054735512465402 0 -0.045701528239467611 0.00252224372267694 0 -0.04608857008862393 0.0020353204712222047 0 -0.045417136826438102 0.0020465556096115334 0 -0.04608857008862393 0.0020353204712222047 0 -0.045910883731724528 0.0017752725316484564 0 -0.045417136826438102 0.0020465556096115334 0 -0.045701528239467611 0.00252224372267694 0 -0.04608857008862393 0.0020353204712222047 0 -0.047031624434971948 0.0020826138258053734 0 -0.047287288168687582 0.0019005031319125681 0 -0.046568000402020138 0.0018758685212186287 0 -0.04608857008862393 0.0020353204712222047 0 -0.045910883731724528 0.0017752725316484564 0 -0.045910883731724528 0.0017752725316484564 0 -0.045589115223052083 0.0013715022262899923 0 -0.045358184144257289 0.0016488087687219751 0 -0.04627513517038704 0.0016222212566702602 0 -0.045910883731724528 0.0017752725316484564 0 -0.045589115223052083 0.0013715022262899923 0 -0.045220947630849065 0.00051002831343227844 0 -0.044901582183397341 0.0007934599444610964 0 -0.046431734971010802 0.0012455666371969268 0 -0.045589115223052083 0.0013715022262899923 0 -0.045045713370734368 0.00097031612714609697 0 -0.043166495783264806 -0.00070217959622800115 0 -0.045045713370734368 0.00097031612714609697 0 -0.043683738899381166 0.0010021100694165559 0 -0.045589115223052083 0.0013715022262899923 0 -0.045021029473605138 0.0013638321839472922 0 -0.045358184144257289 0.0016488087687219751 0 -0.045589115223052083 0.0013715022262899923 0 -0.045021029473605138 0.0013638321839472922 0 -0.045045713370734368 0.00097031612714609697 0 -0.045021029473605138 0.0013638321839472922 0 -0.045358184144257289 0.0016488087687219751 0 -0.04498787476583041 0.0018119956377560423 0 -0.045417136826438102 0.0020465556096115334 0 -0.045910883731724528 0.0017752725316484564 0 -0.045358184144257289 0.0016488087687219751 0 -0.045417136826438102 0.0020465556096115334 0 -0.045358184144257289 0.0016488087687219751 0 -0.04498787476583041 0.0018119956377560423 0 -0.045021029473605138 0.0013638321839472922 0 -0.04498787476583041 0.0018119956377560423 0 -0.044547511011421279 0.0015101135293369324 0 -0.045021029473605138 0.0013638321839472922 0 -0.044547511011421279 0.0015101135293369324 0 -0.044987875906833265 0.0014029996092649439 0 -0.04457695722212883 0.0018146081352781007 0 -0.044952819851459297 0.0014372095782725694 0 -0.04467972119100834 0.0020579217738812541 0 -0.04498787476583041 0.0018119956377560423 0 -0.044547511011421279 0.0015101135293369324 0 -0.04467972119100834 0.0020579217738812541 0 -0.044547511011421279 0.0015101135293369324 0 -0.044378181452604179 0.0021303478511061984 0 -0.044666941485187059 0.0013000299485085537 0 -0.044660065061601584 0.0016105338194216143 0 -0.044987875906833265 0.0014029996092649439 0 -0.044614308175220385 0.0021084412858547803 0 -0.044660065061601584 0.0016105338194216143 0 -0.044987875906833265 0.0014029996092649439 0 -0.045021029473605138 0.0013638321839472922 0 -0.044987875906833265 0.0014029996092649439 0 -0.045026726335460385 0.0012543346388583089 0 -0.044987875906833265 0.0014029996092649439 0 -0.045021433022654829 0.0013754218610800347 0 -0.045026726335460385 0.0012543346388583089 0 -0.03587376225127973 0.0018904570162077102 0 -0.039173315587231111 0.0021421647602873875 0 -0.037799801946944385 8.7908905022206251e-05 0 -0.044987875906833265 0.0014029996092649439 0 -0.045112472562903794 0.0014330212017882066 0 -0.045021433022654829 0.0013754218610800347 0 -0.044666941485187059 0.0013000299485085537 0 -0.044987875906833265 0.0014029996092649439 0 -0.045112472562903794 0.0014330212017882066 0 -0.040341890504855767 0.0016350862964873859 0 -0.042132344427400117 0.0017786220403821979 0 -0.044628225700082041 0.0015678765053141884 0 -0.045112472562903794 0.0014330212017882066 0 -0.044099024220738262 0.0019224602244050386 0 -0.039807317584600668 0.0019389339459941872 0 -0.039173315587231111 0.0021421647602873875 0 -0.044099024220738262 0.0019224602244050386 0 -0.042132344427400117 0.0017786220403821979 0 -0.043947071686217733 0.0019079335344450348 0 -0.039807317584600668 0.0019389339459941872 0 -0.039173315587231111 0.0021421647602873875 0 -0.039225057174550632 0.00092409105670870884 0 -0.044628225700082041 0.0015678765053141884 0 -0.045112472562903794 0.0014330212017882066 0 -0.044804879740223034 0.0014230180673994088 0 -0.045112472562903794 0.0014330212017882066 0 -0.045021433022654829 0.0013754218610800347 0 -0.044804879740223034 0.0014230180673994088 0 -0.045021433022654829 0.0013754218610800347 0 -0.045026726335460385 0.0012543346388583089 0 -0.044804879740223034 0.0014230180673994088 0 -0.045021029473605138 0.0013638321839472922 0 -0.045026726335460385 0.0012543346388583089 0 -0.045045713370734368 0.00097031612714609697 0 -0.045026726335460385 0.0012543346388583089 0 -0.044804879740223034 0.0014230180673994088 0 -0.045045713370734368 0.00097031612714609697 0 -0.044463462432911778 0.0014314844891107328 0 -0.045045713370734368 0.00097031612714609697 0 -0.043683738899381166 0.0010021100694165559 0 -0.044804879740223034 0.0014230180673994088 0 -0.044463462432911778 0.0014314844891107328 0 -0.045045713370734368 0.00097031612714609697 0 -0.044628225700082041 0.0015678765053141884 0 -0.044804879740223034 0.0014230180673994088 0 -0.044463462432911778 0.0014314844891107328 0 -0.044463462432911778 0.0014314844891107328 0 -0.044099024220738262 0.0019224602244050386 0 -0.043683738899381166 0.0010021100694165559 0 -0.039807317584600668 0.0019389339459941872 0 -0.044099024220738262 0.0019224602244050386 0 -0.042205434029786319 0.0010948821873955701 0 -0.044628225700082041 0.0015678765053141884 0 -0.044463462432911778 0.0014314844891107328 0 -0.044099024220738262 0.0019224602244050386 0 -0.044099024220738262 0.0019224602244050386 0 -0.042205434029786319 0.0010948821873955701 0 -0.044122505242961345 0.0018492860169628642 0 -0.042205434029786319 0.0010948821873955701 0 -0.044122505242961345 0.0018492860169628642 0 -0.040653196750620041 -0.0015328161313322396 0 -0.02969243391365765 1.6753628158710628e-05 0 -0.028490952640136652 -0.00017385993827681343 0 -0.030022492112197555 -0.00083496505268080006 0 -0.029661519631489313 0.00082224422127153936 0 -0.02969243391365765 1.6753628158710628e-05 0 -0.028490952640136652 -0.00017385993827681343 0 -0.037605535397999559 0.0015264503253594039 0 -0.031914951837853547 0.00011558449951916949 0 -0.028490952640136652 -0.00017385993827681343 0 -0.030022492112197555 -0.00083496505268080006 0 -0.028800909827933128 -0.001771635156051799 0 -0.021175388942498669 0.00071841218224036199 0 -0.019690113771210833 -0.00058287648579457207 0 -0.021302178772426048 -0.00096224584151716533 0 -0.031914951837853547 0.00011558449951916949 0 -0.024333520160408621 -0.0014730166925816979 0 -0.021175388942498669 0.00071841218224036199 0 -0.021626564631725752 -0.0014510550012796916 0 -0.021302178772426048 -0.00096224584151716533 0 -0.039807317584600668 0.0019389339459941872 0 -0.042205434029786319 0.0010948821873955701 0 -0.040653196750620041 -0.0015328161313322396 0 -0.039807317584600668 0.0019389339459941872 0 -0.040107939828428037 -0.00037606756603033789 0 -0.039225057174550632 0.00092409105670870884 0 -0.040599975040362481 0.00074286259716769675 0 -0.031914951837853547 0.00011558449951916949 0 -0.039173315587231111 0.0021421647602873875 0 -0.039225057174550632 0.00092409105670870884 0 -0.037799801946944385 8.7908905022206251e-05 0 -0.040107939828428037 -0.00037606756603033789 0 -0.037799801946944385 8.7908905022206251e-05 0 -0.037851679586647091 -0.0022254078558868137 0 -0.040107939828428037 -0.00037606756603033789 0 -0.039225057174550632 0.00092409105670870884 0 -0.037799801946944385 8.7908905022206251e-05 0 -0.031914951837853547 0.00011558449951916949 0 -0.028635645295966933 -0.0015229434078479276 0 -0.037799801946944385 8.7908905022206251e-05 0 -0.037851679586647091 -0.0022254078558868137 0 -0.036158785573843291 -0.0016691846405082473 0 -0.036158785573843291 -0.0016691846405082473 0 -0.034209816080970269 -0.0011264822712056686 0 -0.035658670494182455 -0.0040382822920004063 0 -0.037851679586647091 -0.0022254078558868137 0 -0.036158785573843291 -0.0016691846405082473 0 -0.035658670494182455 -0.0040382822920004063 0 -0.03587376225127973 0.0018904570162077102 0 -0.037799801946944385 8.7908905022206251e-05 0 -0.035338971867814026 0.00019067535091147177 0 -0.037799801946944385 8.7908905022206251e-05 0 -0.036158785573843291 -0.0016691846405082473 0 -0.035338971867814026 0.00019067535091147177 0 -0.024674548791392699 -0.0020328911648492625 0 -0.024034931785154416 -0.0015764489876971515 0 -0.024357246160177121 -0.0029387403359592934 0 -0.024026521208578178 -0.0015988304242919432 0 -0.024023617488154951 -0.002503701464494198 0 -0.024886053050950707 -0.0025880368135833497 0 -0.024674548791392699 -0.0020328911648492625 0 -0.024357246160177121 -0.0029387403359592934 0 -0.024034931785154416 -0.0015764489876971515 0 -0.023558613389153299 -0.0019628182555702098 0 -0.023695308576712936 -0.0021563865512172599 0 -0.024886053050950707 -0.0025880368135833497 0 -0.025323862738601179 -0.0027472868580753146 0 -0.025233419823817046 -0.0023518152319628354 0 -0.024886053050950707 -0.0025880368135833497 0 -0.025233419823817046 -0.0023518152319628354 0 -0.024674548791392699 -0.0020328911648492625 0 -0.025233419823817046 -0.0023518152319628354 0 -0.025221836680681203 -0.0013879447768534549 0 -0.026162550923553195 -0.0026487520479757344 0 -0.025233419823817046 -0.0023518152319628354 0 -0.025221836680681203 -0.0013879447768534549 0 -0.024674548791392699 -0.0020328911648492625 0 -0.025221836680681203 -0.0013879447768534549 0 -0.024452520864059041 -0.0013039926949234453 0 -0.024674548791392699 -0.0020328911648492625 0 -0.024452520864059041 -0.0013039926949234453 0 -0.024674548791392699 -0.0020328911648492625 0 -0.024034931785154416 -0.0015764489876971515 0 -0.023883057601951189 -0.0011563636421719696 0 -0.024452520864059041 -0.0013039926949234453 0 -0.024034931785154416 -0.0015764489876971515 0 -0.023883057601951189 -0.0011563636421719696 0 -0.024034931785154416 -0.0015764489876971515 0 -0.023476282950905512 -0.0015587016122959154 0 -0.024034931785154416 -0.0015764489876971515 0 -0.023476282950905512 -0.0015587016122959154 0 -0.023558613389153299 -0.0019628182555702098 0 -0.032428759464279817 -0.00022738044259841 0 -0.034609535891011893 0.00040289531106925061 0 -0.044099024220738262 0.0019224602244050386 0 -0.042494922322115262 0.0013162304328793051 0 -0.043683738899381166 0.0010021100694165559 0 -0.042738486089927037 0.00034350476440847013 0 -0.042494922322115262 0.0013162304328793051 0 -0.043683738899381166 0.0010021100694165559 0 -0.037605535397999559 0.0015264503253594039 0 -0.034609535891011893 0.00040289531106925061 0 -0.034609535891011893 0.00040289531106925061 0 -0.026088542792385722 -0.0010608962908689216 0 -0.029661519631489313 0.00082224422127153936 0 -0.030861787297113807 0.0018187054081951904 0 -0.030444739497326467 0.00048060009448718942 0 -0.044099024220738262 0.0019224602244050386 0 -0.044122505242961345 0.0018492860169628642 0 -0.042494922322115262 0.0013162304328793051 0 -0.023476282950905512 -0.0015587016122959154 0 -0.023558613389153299 -0.0019628182555702098 0 -0.023245300439424705 -0.0020539193159075609 0 -0.023558613389153299 -0.0019628182555702098 0 -0.023245300439424705 -0.0020539193159075609 0 -0.02335784957732007 -0.0023352309153515743 0 -0.023558613389153299 -0.0019628182555702098 0 -0.02335784957732007 -0.0023352309153515743 0 -0.023695308576712936 -0.0021563865512172599 0 -0.02969243391365765 1.6753628158710628e-05 0 -0.030444739497326467 0.00048060009448718942 0 -0.030022492112197555 -0.00083496505268080006 0 -0.026088542792385722 -0.0010608962908689216 0 -0.026589016604466199 -0.0015769532158879426 0 -0.023245300439424705 -0.0020539193159075609 0 -0.022996005184801566 -0.0024574335282923723 0 -0.02335784957732007 -0.0023352309153515743 0 -0.029661519631489313 0.00082224422127153936 0 -0.02969243391365765 1.6753628158710628e-05 0 -0.030444739497326467 0.00048060009448718942 0 -0.022996005184801566 -0.0024574335282923723 0 -0.02335784957732007 -0.0023352309153515743 0 -0.023156454462140558 -0.0026876267032715701 0 -0.02335784957732007 -0.0023352309153515743 0 -0.023508098584511864 -0.0026126964377528876 0 -0.023156454462140558 -0.0026876267032715701 0 -0.02335784957732007 -0.0023352309153515743 0 -0.023695308576712936 -0.0021563865512172599 0 -0.023508098584511864 -0.0026126964377528876 0 -0.024357246160177121 -0.0029387403359592934 0 -0.024630016541766837 -0.0031963349449010765 0 -0.024338218770652471 -0.0033399980754039928 0 -0.024023617488154951 -0.002503701464494198 0 -0.023901664594541475 -0.0029955571408174413 0 -0.024357246160177121 -0.0029387403359592934 0 -0.024826663377355767 -0.0029267247498618106 0 -0.024630016541766837 -0.0031963349449010765 0 -0.024886053050950707 -0.0025880368135833497 0 -0.024357246160177121 -0.0029387403359592934 0 -0.024826663377355767 -0.0029267247498618106 0 -0.025323862738601179 -0.0027472868580753146 0 -0.024826663377355767 -0.0029267247498618106 0 -0.02517661105085026 -0.0029801027184736067 0 -0.024886053050950707 -0.0025880368135833497 0 -0.025323862738601179 -0.0027472868580753146 0 -0.024826663377355767 -0.0029267247498618106 0 -0.024826663377355767 -0.0029267247498618106 0 -0.024630016541766837 -0.0031963349449010765 0 -0.02517661105085026 -0.0029801027184736067 0 -0.024630016541766837 -0.0031963349449010765 0 -0.024513416669657909 -0.0033327895515574656 0 -0.024338218770652471 -0.0033399980754039928 0 -0.024630016541766837 -0.0031963349449010765 0 -0.024863354576837499 -0.0032042514952475201 0 -0.02517661105085026 -0.0029801027184736067 0 -0.024630016541766837 -0.0031963349449010765 0 -0.024863354576837499 -0.0032042514952475201 0 -0.024513416669657909 -0.0033327895515574656 0 -0.024863354576837499 -0.0032042514952475201 0 -0.024864940392292825 -0.0033623542282660989 0 -0.024513416669657909 -0.0033327895515574656 0 -0.024864940392292825 -0.0033623542282660989 0 -0.025200678543563216 -0.0031267238360965853 0 -0.025079885928824795 -0.0034912257318905743 0 -0.024863354576837499 -0.0032042514952475201 0 -0.024864940392292825 -0.0033623542282660989 0 -0.025200678543563216 -0.0031267238360965853 0 -0.022075807362526588 -0.0046985983698807875 0 -0.022057773890667084 -0.0047224944461824042 0 -0.022150970158461073 -0.0046461177144624475 0 -0.025200678543563216 -0.0031267238360965853 0 -0.025592905764417292 -0.0031339795629186464 0 -0.025079885928824795 -0.0034912257318905743 0 -0.023461171853853924 -0.0038508336126396184 0 -0.024306453478509096 -0.0039080340910548177 0 -0.022075807362526588 -0.0046985983698807875 0 -0.022081899135746107 -0.0046664620782276324 0 -0.022150970158461073 -0.0046461177144624475 0 -0.025200678543563216 -0.0031267238360965853 0 -0.025592905764417292 -0.0031339795629186464 0 -0.025632461373414153 -0.002848123628325649 0 -0.024863354576837499 -0.0032042514952475201 0 -0.025200678543563216 -0.0031267238360965853 0 -0.02517661105085026 -0.0029801027184736067 0 -0.022002827901078065 -0.0046784964459993614 0 -0.022055700988654382 -0.00472060535431937 0 -0.021993475275251445 -0.0047286759257976225 0 -0.022002827901078065 -0.0046784964459993614 0 -0.021993475275251445 -0.0047286759257976225 0 -0.021948926970490661 -0.004703594710203215 0 -0.022002827901078065 -0.0046784964459993614 0 -0.022050164690367902 -0.0046795790421978317 0 -0.022055700988654382 -0.00472060535431937 0 -0.022050164690367902 -0.0046795790421978317 0 -0.022075807362526588 -0.0046985983698807875 0 -0.022081899135746107 -0.0046664620782276324 0 -0.022050164690367902 -0.0046795790421978317 0 -0.022075807362526588 -0.0046985983698807875 0 -0.022055700988654382 -0.00472060535431937 0 -0.022996389038199651 -0.0043717496122504407 0 -0.023461171853853924 -0.0038508336126396184 0 -0.023461171853853924 -0.0038508336126396184 0 -0.022370387767529067 -0.0044213400287624414 0 -0.022055700988654382 -0.00472060535431937 0 -0.021993475275251445 -0.0047286759257976225 0 -0.02197198100605981 -0.0047949889630093294 0 -0.025592905764417292 -0.0031339795629186464 0 -0.025632461373414153 -0.002848123628325649 0 -0.02565625212400878 -0.0027124872687709022 0 -0.025632461373414153 -0.002848123628325649 0 -0.025792922070561095 -0.0027334849087092658 0 -0.02565625212400878 -0.0027124872687709022 0 -0.023489326922131196 -0.0034118018817107017 0 -0.023006745855303622 -0.0041334147451774555 0 -0.022974340635412194 -0.0038956352208738085 0 -0.023461171853853924 -0.0038508336126396184 0 -0.02448677940849233 -0.0033141626139949233 0 -0.025632461373414153 -0.002848123628325649 0 -0.02517661105085026 -0.0029801027184736067 0 -0.025668615355436908 -0.0027712363179995727 0 -0.025200678543563216 -0.0031267238360965853 0 -0.025632461373414153 -0.002848123628325649 0 -0.02517661105085026 -0.0029801027184736067 0 -0.025632461373414153 -0.002848123628325649 0 -0.025668615355436908 -0.0027712363179995727 0 -0.025792922070561095 -0.0027334849087092658 0 -0.025323862738601179 -0.0027472868580753146 0 -0.02517661105085026 -0.0029801027184736067 0 -0.025668615355436908 -0.0027712363179995727 0 -0.025323862738601179 -0.0027472868580753146 0 -0.025668615355436908 -0.0027712363179995727 0 -0.026162550923553195 -0.0026487520479757344 0 -0.025323862738601179 -0.0027472868580753146 0 -0.025233419823817046 -0.0023518152319628354 0 -0.026162550923553195 -0.0026487520479757344 0 -0.025668615355436908 -0.0027712363179995727 0 -0.026162550923553195 -0.0026487520479757344 0 -0.025792922070561095 -0.0027334849087092658 0 -0.025792922070561095 -0.0027334849087092658 0 -0.025750844999228535 -0.0030212812424906758 0 -0.02565625212400878 -0.0027124872687709022 0 -0.026162550923553195 -0.0026487520479757344 0 -0.025792922070561095 -0.0027334849087092658 0 -0.025750844999228535 -0.0030212812424906758 0 -0.025750844999228535 -0.0030212812424906758 0 -0.024287862903016055 -0.0042774822666064201 0 -0.025771169656448194 -0.004664030265557533 0 -0.025750844999228535 -0.0030212812424906758 0 -0.026713484261725325 -0.0034310973784982841 0 -0.025771169656448194 -0.004664030265557533 0 -0.027557543135963012 -0.0035755456774873699 0 -0.026162550923553195 -0.0026487520479757344 0 -0.026713484261725325 -0.0034310973784982841 0 -0.026019884045684543 -0.0023654706123893768 0 -0.026339007675397832 -0.0027070683608042996 0 -0.027557543135963012 -0.0035755456774873699 0 -0.026713484261725325 -0.0034310973784982841 0 -0.027255346731809058 -0.00387431750952237 0 -0.026162550923553195 -0.0026487520479757344 0 -0.025750844999228535 -0.0030212812424906758 0 -0.026713484261725325 -0.0034310973784982841 0 -0.025222188272155298 -0.0031348866459342453 0 -0.025347644509620196 -0.0034096977145325175 0 -0.024713134204047471 -0.0038222079296978684 0 -0.022501890376077839 -0.0048719007298556856 0 -0.021950171393123309 -0.0048995027424180411 0 -0.022049919693199502 -0.0055065229682996139 0 -0.023887180161705924 -0.0038769195167616894 0 -0.023288422455162935 -0.0055336188844005742 0 -0.025750844999228535 -0.0030212812424906758 0 -0.025222188272155298 -0.0031348866459342453 0 -0.025347644509620196 -0.0034096977145325175 0 -0.025655902614655935 -0.0031384864470782826 0 -0.024928123202008254 -0.0037012961087167827 0 -0.023887180161705924 -0.0038769195167616894 0 -0.02448677940849233 -0.0033141626139949233 0 -0.022501890376077839 -0.0048719007298556856 0 -0.022442661826361399 -0.0043937131057377905 0 -0.023006745855303622 -0.0041334147451774555 0 -0.025750844999228535 -0.0030212812424906758 0 -0.025222188272155298 -0.0031348866459342453 0 -0.02565625212400878 -0.0027124872687709022 0 -0.022501890376077839 -0.0048719007298556856 0 -0.022442661826361399 -0.0043937131057377905 0 -0.021950171393123309 -0.0048995027424180411 0 -0.021925570323274728 -0.0048545334753675477 0 -0.021910262073901267 -0.0048689097176573106 0 -0.021950171393123309 -0.0048995027424180411 0 -0.022202535821316049 -0.0046147514472284334 0 -0.021957162281164708 -0.0048794901538485643 0 -0.021925570323274728 -0.0048545334753675477 0 -0.021910262073901267 -0.0048689097176573106 0 -0.021896264126367169 -0.004830592633997253 0 -0.021925570323274728 -0.0048545334753675477 0 -0.021896264126367169 -0.004830592633997253 0 -0.021925637581871046 -0.0048046220535589036 0 -0.02189676390121886 -0.0047717610331777004 0 -0.021925637581871046 -0.0048046220535589036 0 -0.021933890599893459 -0.0047588198513470901 0 -0.021896264126367169 -0.004830592633997253 0 -0.02189676390121886 -0.0047717610331777004 0 -0.021925637581871046 -0.0048046220535589036 0 -0.021896264126367169 -0.004830592633997253 0 -0.02189676390121886 -0.0047717610331777004 0 -0.021834816783832905 -0.0047480279970140054 0 -0.022442661826361399 -0.0043937131057377905 0 -0.023006745855303622 -0.0041334147451774555 0 -0.022974340635412194 -0.0038956352208738085 0 -0.022202535821316049 -0.0046147514472284334 0 -0.022370387767529067 -0.0044213400287624414 0 -0.021925570323274728 -0.0048545334753675477 0 -0.021925637581871046 -0.0048046220535589036 0 -0.02197198100605981 -0.0047949889630093294 0 -0.021925637581871046 -0.0048046220535589036 0 -0.02197198100605981 -0.0047949889630093294 0 -0.021933890599893459 -0.0047588198513470901 0 -0.02197198100605981 -0.0047949889630093294 0 -0.021964406468034485 -0.0047467165563583576 0 -0.021933890599893459 -0.0047588198513470901 0 -0.021993475275251445 -0.0047286759257976225 0 -0.02197198100605981 -0.0047949889630093294 0 -0.021964406468034485 -0.0047467165563583576 0 -0.021993475275251445 -0.0047286759257976225 0 -0.021964406468034485 -0.0047467165563583576 0 -0.021948926970490661 -0.004703594710203215 0 -0.021964406468034485 -0.0047467165563583576 0 -0.021933890599893459 -0.0047588198513470901 0 -0.021948926970490661 -0.004703594710203215 0 -0.021933890599893459 -0.0047588198513470901 0 -0.021948926970490661 -0.004703594710203215 0 -0.021885061858826077 -0.0046957513322484325 0 -0.022002827901078065 -0.0046784964459993614 0 -0.021948926970490661 -0.004703594710203215 0 -0.021951536523160901 -0.0046421752729050841 0 -0.02189676390121886 -0.0047717610331777004 0 -0.021885061858826077 -0.0046957513322484325 0 -0.021834816783832905 -0.0047480279970140054 0 -0.021885061858826077 -0.0046957513322484325 0 -0.021834816783832905 -0.0047480279970140054 0 -0.021805599064813427 -0.0046133019577730902 0 -0.02189676390121886 -0.0047717610331777004 0 -0.021933890599893459 -0.0047588198513470901 0 -0.021885061858826077 -0.0046957513322484325 0 -0.021834816783832905 -0.0047480279970140054 0 -0.021697010509762443 -0.0048046029355438237 0 -0.021671257617671118 -0.0046441094657338105 0 -0.021834816783832905 -0.0047480279970140054 0 -0.021671257617671118 -0.0046441094657338105 0 -0.02173261791182628 -0.0046341448555839446 0 -0.021896264126367169 -0.004830592633997253 0 -0.021834816783832905 -0.0047480279970140054 0 -0.02187350639617916 -0.0048847086637894797 0 -0.021834816783832905 -0.0047480279970140054 0 -0.021697010509762443 -0.0048046029355438237 0 -0.02187350639617916 -0.0048847086637894797 0 -0.01843957706737414 -0.00079543684967176085 0 -0.019346780085683406 -0.0012246357648154369 0 -0.018641454927623761 0.00034200393716304276 0 -0.024259076554037237 -0.002087568178699443 0 -0.02098364186142852 -0.0029764771066692701 0 -0.02098364186142852 -0.0029764771066692701 0 -0.016470316002769922 -0.0031821764708525645 0 -0.021697010509762443 -0.0048046029355438237 0 -0.02145558152844991 -0.0046952476480477514 0 -0.021671257617671118 -0.0046441094657338105 0 -0.013571985336041875 -0.0014483527154419233 0 -0.013442455224716644 -0.001645082007169673 0 -0.013136069687081179 -0.001586194202671297 0 -0.021697010509762443 -0.0048046029355438237 0 -0.02145558152844991 -0.0046952476480477514 0 -0.021562828088809591 -0.0049769535804638516 0 -0.02098364186142852 -0.0029764771066692701 0 -0.027368939804910678 -0.0052675116579609356 0 -0.030609874997609074 -0.0025885362989169856 0 -0.030102225779499042 -0.0044004503751082823 0 -0.031673498500061584 -0.0049425415899953607 0 -0.029371012389825594 -0.0030787840102310393 0 -0.030609874997609074 -0.0025885362989169856 0 -0.030102225779499042 -0.0044004503751082823 0 -0.031673498500061584 -0.0049425415899953607 0 -0.031372685754909188 -0.0066430222284648418 0 -0.030396295493921695 -0.0059433477820456026 0 -0.030102225779499042 -0.0044004503751082823 0 -0.031673498500061584 -0.0049425415899953607 0 -0.030396295493921695 -0.0059433477820456026 0 -0.031673498500061584 -0.0049425415899953607 0 -0.031372685754909188 -0.0066430222284648418 0 -0.032544301029507262 -0.0071911800903066772 0 -0.027368939804910678 -0.0052675116579609356 0 -0.027214350044066294 -0.0061929061501503607 0 -0.021562828088809591 -0.0049769535804638516 0 -0.021812954381416672 -0.0051164327643183098 0 -0.021700628098300843 -0.0054025040439596647 0 -0.031372685754909188 -0.0066430222284648418 0 -0.030396295493921695 -0.0059433477820456026 0 -0.030683422927284959 -0.0073627227837238553 0 -0.029578473849547413 -0.0068464198945028462 0 -0.030396295493921695 -0.0059433477820456026 0 -0.030683422927284959 -0.0073627227837238553 0 -0.02187350639617916 -0.0048847086637894797 0 -0.021812954381416672 -0.0051164327643183098 0 -0.022129100943479935 -0.0052186201122863618 0 -0.021910262073901267 -0.0048689097176573106 0 -0.021896264126367169 -0.004830592633997253 0 -0.02187350639617916 -0.0048847086637894797 0 -0.021910262073901267 -0.0048689097176573106 0 -0.02187350639617916 -0.0048847086637894797 0 -0.021869185348936861 -0.0049048497977625654 0 -0.021914181877273928 -0.0049229449778543681 0 -0.021901668433683814 -0.0050325142503027821 0 -0.021697010509762443 -0.0048046029355438237 0 -0.02187350639617916 -0.0048847086637894797 0 -0.021812954381416672 -0.0051164327643183098 0 -0.021697010509762443 -0.0048046029355438237 0 -0.021562828088809591 -0.0049769535804638516 0 -0.021812954381416672 -0.0051164327643183098 0 -0.021812954381416672 -0.0051164327643183098 0 -0.022067770401417264 -0.005467818322241887 0 -0.021700628098300843 -0.0054025040439596647 0 -0.021869185348936861 -0.0049048497977625654 0 -0.021950171393123309 -0.0048995027424180411 0 -0.022049919693199502 -0.0055065229682996139 0 -0.021901668433683814 -0.0050325142503027821 0 -0.023288422455162935 -0.0055336188844005742 0 -0.021812954381416672 -0.0051164327643183098 0 -0.022129100943479935 -0.0052186201122863618 0 -0.022067770401417264 -0.005467818322241887 0 -0.021910262073901267 -0.0048689097176573106 0 -0.021869185348936861 -0.0049048497977625654 0 -0.021950171393123309 -0.0048995027424180411 0 -0.022067770401417264 -0.005467818322241887 0 -0.021930686490020192 -0.0059212270552142345 0 -0.022292732671547067 -0.0056354522302044163 0 -0.022129100943479935 -0.0052186201122863618 0 -0.022067770401417264 -0.005467818322241887 0 -0.022314836339048346 -0.0055984787807019177 0 -0.022067770401417264 -0.005467818322241887 0 -0.022314836339048346 -0.0055984787807019177 0 -0.022292732671547067 -0.0056354522302044163 0 -0.022067770401417264 -0.005467818322241887 0 -0.021930686490020192 -0.0059212270552142345 0 -0.021700628098300843 -0.0054025040439596647 0 -0.033239629168484337 -0.0091094462398624843 0 -0.032544301029507262 -0.0071911800903066772 0 -0.032053252874071007 -0.008614947374193882 0 -0.026080488900285328 -0.0077879754704059112 0 -0.027214350044066294 -0.0061929061501503607 0 -0.033239629168484337 -0.0091094462398624843 0 -0.032053252874071007 -0.008614947374193882 0 -0.032254645294834086 -0.0097914187746049527 0 -0.026177125233175412 -0.0085523703726660648 0 -0.026107536771014024 -0.0083799625070225259 0 -0.0254400335057226 -0.0085196777824588371 0 -0.026186970789163617 -0.0085654034167948461 0 -0.026107536771014024 -0.0083799625070225259 0 -0.026491352842217847 -0.0080436992142560344 0 -0.026080488900285328 -0.0077879754704059112 0 -0.026135790508870757 -0.0079639751263502843 0 -0.026080488900285328 -0.0077879754704059112 0 -0.023128175119970881 -0.0069535481145553968 0 -0.022261301261992533 -0.0077132787108631197 0 -0.022552607141074432 -0.0085452330559176153 0 -0.02380754815860215 -0.0078339698278403185 0 -0.026177125233175412 -0.0085523703726660648 0 -0.0254400335057226 -0.0085196777824588371 0 -0.024811037317977985 -0.009409983395885323 0 -0.023796720565096668 -0.0081846899070725839 0 -0.023128175119970881 -0.0069535481145553968 0 -0.029578473849547413 -0.0068464198945028462 0 -0.030492976631735717 -0.0083062413080965802 0 -0.030683422927284959 -0.0073627227837238553 0 -0.030492976631735717 -0.0083062413080965802 0 -0.030683422927284959 -0.0073627227837238553 0 -0.031140705390151641 -0.0082922517482403972 0 -0.030683422927284959 -0.0073627227837238553 0 -0.031140705390151641 -0.0082922517482403972 0 -0.031554231482211773 -0.007682140039490349 0 -0.031372685754909188 -0.0066430222284648418 0 -0.030683422927284959 -0.0073627227837238553 0 -0.031554231482211773 -0.007682140039490349 0 -0.031554231482211773 -0.007682140039490349 0 -0.032544301029507262 -0.0071911800903066772 0 -0.032053252874071007 -0.008614947374193882 0 -0.031140705390151641 -0.0082922517482403972 0 -0.031554231482211773 -0.007682140039490349 0 -0.032053252874071007 -0.008614947374193882 0 -0.031372685754909188 -0.0066430222284648418 0 -0.031554231482211773 -0.007682140039490349 0 -0.032544301029507262 -0.0071911800903066772 0 -0.032053252874071007 -0.008614947374193882 0 -0.031235653177199327 -0.0090183867274465264 0 -0.032254645294834086 -0.0097914187746049527 0 -0.031905053312549399 -0.0094704954906210861 0 -0.031192324795991024 -0.010067092402442182 0 -0.031140705390151641 -0.0082922517482403972 0 -0.032053252874071007 -0.008614947374193882 0 -0.031235653177199327 -0.0090183867274465264 0 -0.030492976631735717 -0.0083062413080965802 0 -0.031140705390151641 -0.0082922517482403972 0 -0.031235653177199327 -0.0090183867274465264 0 -0.032098563095350183 -0.0096579764494151808 0 -0.030682180130986506 -0.0095787741494547749 0 -0.031085225584730831 -0.010626178185206381 0 -0.030245127876547585 -0.0081887330970252317 0 -0.031905053312549399 -0.0094704954906210861 0 -0.030197455864573172 -0.0081250992398716922 0 -0.030492976631735717 -0.0083062413080965802 0 -0.031235653177199327 -0.0090183867274465264 0 -0.030197455864573172 -0.0081250992398716922 0 -0.032098563095350183 -0.0096579764494151808 0 -0.030682180130986506 -0.0095787741494547749 0 -0.032098563095350183 -0.0096579764494151808 0 -0.031085225584730831 -0.010626178185206381 0 -0.033507595447237644 -0.011107246598712386 0 -0.03189495574754319 -0.010786017392968715 0 -0.031174571241395908 -0.010797845476035026 0 -0.031312333553429446 -0.011211308357230798 0 -0.031085225584730831 -0.010626178185206381 0 -0.032360980916340751 -0.010996234404435553 0 -0.031312333553429446 -0.011211308357230798 0 -0.032360980916340751 -0.010996234404435553 0 -0.031041142192211463 -0.011836943704572946 0 -0.031174571241395908 -0.010797845476035026 0 -0.030853435705609257 -0.012176035558514825 0 -0.030748848395705422 -0.011358174770815431 0 -0.031312333553429446 -0.011211308357230798 0 -0.031041142192211463 -0.011836943704572946 0 -0.030748848395705422 -0.011358174770815431 0 -0.031312333553429446 -0.011211308357230798 0 -0.031085225584730831 -0.010626178185206381 0 -0.029422320924172466 -0.012693645916423048 0 -0.029472273830549272 -0.012240387040982913 0 -0.030002148301873269 -0.012032516531386594 0 -0.032098563095350183 -0.0096579764494151808 0 -0.033507595447237644 -0.011107246598712386 0 -0.033739747482247007 -0.010945650901971452 0 -0.031174571241395908 -0.010797845476035026 0 -0.031192324795991024 -0.010067092402442182 0 -0.031120329438749747 -0.010596691111602529 0 -0.030607001028184675 -0.010947679326708341 0 -0.029787675114369673 -0.01031734184915703 0 -0.031174571241395908 -0.010797845476035026 0 -0.029007473132012424 -0.010030398021083851 0 -0.031192324795991024 -0.010067092402442182 0 -0.029007473132012424 -0.010030398021083851 0 -0.029258592381729256 -0.01246198345814294 0 -0.029130374828405102 -0.012250833577342763 0 -0.028988173901292429 -0.012665132369941047 0 -0.029422320924172466 -0.012693645916423048 0 -0.029258592381729256 -0.01246198345814294 0 -0.028988173901292429 -0.012665132369941047 0 -0.029422320924172466 -0.012693645916423048 0 -0.029258592381729256 -0.01246198345814294 0 -0.029472273830549272 -0.012240387040982913 0 -0.029258592381729256 -0.01246198345814294 0 -0.029472273830549272 -0.012240387040982913 0 -0.029130374828405102 -0.012250833577342763 0 -0.029130374828405102 -0.012250833577342763 0 -0.029104141476054082 -0.011864197545044674 0 -0.028730435441504661 -0.01219765913390756 0 -0.029472273830549272 -0.012240387040982913 0 -0.029130374828405102 -0.012250833577342763 0 -0.029104141476054082 -0.011864197545044674 0 -0.029472273830549272 -0.012240387040982913 0 -0.029104141476054082 -0.011864197545044674 0 -0.029625589902348946 -0.011856051942303663 0 -0.029104141476054082 -0.011864197545044674 0 -0.02920711715906318 -0.011367487966474908 0 -0.029625589902348946 -0.011856051942303663 0 -0.02920711715906318 -0.011367487966474908 0 -0.029689759704742826 -0.011396175008496958 0 -0.029625589902348946 -0.011856051942303663 0 -0.029104141476054082 -0.011864197545044674 0 -0.02920711715906318 -0.011367487966474908 0 -0.028769967006133421 -0.011419440981119506 0 -0.02920711715906318 -0.011367487966474908 0 -0.029317589652603324 -0.010912798276413824 0 -0.028784623245836326 -0.010961708611640589 0 -0.02920711715906318 -0.011367487966474908 0 -0.029317589652603324 -0.010912798276413824 0 -0.029689759704742826 -0.011396175008496958 0 -0.02983620698964343 -0.01093050956910329 0 -0.029317589652603324 -0.010912798276413824 0 -0.029689759704742826 -0.011396175008496958 0 -0.02983620698964343 -0.01093050956910329 0 -0.029689759704742826 -0.011396175008496958 0 -0.030129382839309733 -0.011342493299809532 0 -0.02983620698964343 -0.01093050956910329 0 -0.030280799352125021 -0.010978284405400782 0 -0.030129382839309733 -0.011342493299809532 0 -0.029689759704742826 -0.011396175008496958 0 -0.030129382839309733 -0.011342493299809532 0 -0.02995805890051334 -0.011685846362391743 0 -0.02995805890051334 -0.011685846362391743 0 -0.030002148301873269 -0.012032516531386594 0 -0.030362972738492436 -0.011694100950211082 0 -0.02995805890051334 -0.011685846362391743 0 -0.029625589902348946 -0.011856051942303663 0 -0.030002148301873269 -0.012032516531386594 0 -0.029689759704742826 -0.011396175008496958 0 -0.02995805890051334 -0.011685846362391743 0 -0.029625589902348946 -0.011856051942303663 0 -0.029472273830549272 -0.012240387040982913 0 -0.029625589902348946 -0.011856051942303663 0 -0.030002148301873269 -0.012032516531386594 0 -0.029422320924172466 -0.012693645916423048 0 -0.030002148301873269 -0.012032516531386594 0 -0.031041142192211463 -0.011836943704572946 0 -0.030002148301873269 -0.012032516531386594 0 -0.030362972738492436 -0.011694100950211082 0 -0.031041142192211463 -0.011836943704572946 0 -0.030362972738492436 -0.011694100950211082 0 -0.030601035490654162 -0.011356169574957256 0 -0.031041142192211463 -0.011836943704572946 0 -0.030129382839309733 -0.011342493299809532 0 -0.02995805890051334 -0.011685846362391743 0 -0.030362972738492436 -0.011694100950211082 0 -0.030129382839309733 -0.011342493299809532 0 -0.030362972738492436 -0.011694100950211082 0 -0.030601035490654162 -0.011356169574957256 0 -0.030280799352125021 -0.010978284405400782 0 -0.030129382839309733 -0.011342493299809532 0 -0.030601035490654162 -0.011356169574957256 0 -0.030916306334031592 -0.011336902134643084 0 -0.030601035490654162 -0.011356169574957256 0 -0.031041142192211463 -0.011836943704572946 0 -0.025520222611849483 -0.009232018120376639 0 -0.024392067681330371 -0.0099856529061499132 0 -0.026789296103454187 -0.010840687899483269 0 -0.026562218337543648 -0.010621783169554581 0 -0.026167305768856359 -0.010722109465885973 0 -0.022552607141074432 -0.0085452330559176153 0 -0.021469750111042279 -0.0089987468762045882 0 -0.023047047279267926 -0.0093666419565476295 0 -0.026107536771014024 -0.0083799625070225259 0 -0.0254400335057226 -0.0085196777824588371 0 -0.026065504843812218 -0.0075840738526455013 0 -0.023796720565096668 -0.0081846899070725839 0 -0.025520222611849483 -0.009232018120376639 0 -0.022261301261992533 -0.0077132787108631197 0 -0.022552607141074432 -0.0085452330559176153 0 -0.021469750111042279 -0.0089987468762045882 0 -0.026107536771014024 -0.0083799625070225259 0 -0.026491352842217847 -0.0080436992142560344 0 -0.026065504843812218 -0.0075840738526455013 0 -0.026491352842217847 -0.0080436992142560344 0 -0.026934290067656675 -0.0077567005883429499 0 -0.026065504843812218 -0.0075840738526455013 0 -0.027168921257453571 -0.0079372651680627623 0 -0.026491352842217847 -0.0080436992142560344 0 -0.026934290067656675 -0.0077567005883429499 0 -0.026186970789163617 -0.0085654034167948461 0 -0.027168921257453571 -0.0079372651680627623 0 -0.026491352842217847 -0.0080436992142560344 0 -0.026080488900285328 -0.0077879754704059112 0 -0.031192324795991024 -0.010067092402442182 0 -0.029007473132012424 -0.010030398021083851 0 -0.027221473076830722 -0.010771093766890918 0 -0.028434032954365515 -0.010227218013443475 0 -0.026550993265242184 -0.0098385883792251206 0 -0.02700732519679656 -0.0091366584038318471 0 -0.029007473132012424 -0.010030398021083851 0 -0.025520222611849483 -0.009232018120376639 0 -0.028988173901292429 -0.012665132369941047 0 -0.028730435441504661 -0.01219765913390756 0 -0.028127759388680253 -0.012085380783139057 0 -0.029130374828405102 -0.012250833577342763 0 -0.028988173901292429 -0.012665132369941047 0 -0.028730435441504661 -0.01219765913390756 0 -0.026789296103454187 -0.010840687899483269 0 -0.026849394666853779 -0.010703698376839176 0 -0.026562218337543648 -0.010621783169554581 0 -0.025520222611849483 -0.009232018120376639 0 -0.027221473076830722 -0.010771093766890918 0 -0.028069625736861031 -0.012144709026007025 0 -0.028137053963079139 -0.011484484686272054 0 -0.027591081613043675 -0.010759755804305065 0 -0.028127759388680253 -0.012085380783139057 0 -0.028254162697685249 -0.011868589328877055 0 -0.028478456096757254 -0.011935444647284263 0 -0.028069625736861031 -0.012144709026007025 0 -0.028254162697685249 -0.011868589328877055 0 -0.028137053963079139 -0.011484484686272054 0 -0.027221473076830722 -0.010771093766890918 0 -0.027255249414193515 -0.010950681489442886 0 -0.028254162697685249 -0.011868589328877055 0 -0.028137053963079139 -0.011484484686272054 0 -0.028436470841095674 -0.011598755601245144 0 -0.028730435441504661 -0.01219765913390756 0 -0.028719999348539013 -0.011801995207102461 0 -0.028478456096757254 -0.011935444647284263 0 -0.029104141476054082 -0.011864197545044674 0 -0.028730435441504661 -0.01219765913390756 0 -0.028719999348539013 -0.011801995207102461 0 -0.028730435441504661 -0.01219765913390756 0 -0.028127759388680253 -0.012085380783139057 0 -0.028478456096757254 -0.011935444647284263 0 -0.028719999348539013 -0.011801995207102461 0 -0.028478456096757254 -0.011935444647284263 0 -0.028436470841095674 -0.011598755601245144 0 -0.028254162697685249 -0.011868589328877055 0 -0.028478456096757254 -0.011935444647284263 0 -0.028436470841095674 -0.011598755601245144 0 -0.028137053963079139 -0.011484484686272054 0 -0.028436470841095674 -0.011598755601245144 0 -0.028296369245718871 -0.011086860760911329 0 -0.028719999348539013 -0.011801995207102461 0 -0.028436470841095674 -0.011598755601245144 0 -0.028769967006133421 -0.011419440981119506 0 -0.029104141476054082 -0.011864197545044674 0 -0.028719999348539013 -0.011801995207102461 0 -0.028769967006133421 -0.011419440981119506 0 -0.02920711715906318 -0.011367487966474908 0 -0.028769967006133421 -0.011419440981119506 0 -0.028784623245836326 -0.010961708611640589 0 -0.028436470841095674 -0.011598755601245144 0 -0.028769967006133421 -0.011419440981119506 0 -0.028296369245718871 -0.011086860760911329 0 -0.028769967006133421 -0.011419440981119506 0 -0.028296369245718871 -0.011086860760911329 0 -0.028784623245836326 -0.010961708611640589 0 -0.028170980306480225 -0.010457446671358141 0 -0.028296369245718871 -0.011086860760911329 0 -0.028784623245836326 -0.010961708611640589 0 -0.028137053963079139 -0.011484484686272054 0 -0.028296369245718871 -0.011086860760911329 0 -0.027591081613043675 -0.010759755804305065 0 -0.028170980306480225 -0.010457446671358141 0 -0.028296369245718871 -0.011086860760911329 0 -0.027591081613043675 -0.010759755804305065 0 -0.028069625736861031 -0.012144709026007025 0 -0.027591081613043675 -0.010759755804305065 0 -0.026470448095092691 -0.010350332268066337 0 -0.026849394666853779 -0.010703698376839176 0 -0.026562218337543648 -0.010621783169554581 0 -0.026470448095092691 -0.010350332268066337 0 -0.027221473076830722 -0.010771093766890918 0 -0.026692816348079712 -0.0106619461955913 0 -0.026562218337543648 -0.010621783169554581 0 -0.026470448095092691 -0.010350332268066337 0 -0.026167305768856359 -0.010722109465885973 0 -0.024392067681330371 -0.0099856529061499132 0 -0.025069500371922033 -0.0099011953980423471 0 -0.02618075164946175 -0.0097269698569126817 0 -0.026470448095092691 -0.010350332268066337 0 -0.025696140334353999 -0.010118608231052569 0 -0.025696140334353999 -0.010118608231052569 0 -0.026167305768856359 -0.010722109465885973 0 -0.024976002195655159 -0.0097876025427025663 0 -0.023047047279267926 -0.0093666419565476295 0 -0.02445625893551041 -0.0094189660830549474 0 -0.024976002195655159 -0.0097876025427025663 0 -0.025528549080207165 -0.0097832936016550506 0 -0.025696140334353999 -0.010118608231052569 0 -0.025341181442129553 -0.0098911932120962342 0 -0.025696140334353999 -0.010118608231052569 0 -0.024976002195655159 -0.0097876025427025663 0 -0.025341181442129553 -0.0098911932120962342 0 -0.026470448095092691 -0.010350332268066337 0 -0.025696140334353999 -0.010118608231052569 0 -0.026167305768856359 -0.010722109465885973 0 -0.023047047279267926 -0.0093666419565476295 0 -0.02445625893551041 -0.0094189660830549474 0 -0.02380754815860215 -0.0078339698278403185 0 -0.022552607141074432 -0.0085452330559176153 0 -0.023047047279267926 -0.0093666419565476295 0 -0.02380754815860215 -0.0078339698278403185 0 -0.024301950611018013 -0.0092173898487346011 0 -0.023565155216035399 -0.0077128809070477668 0 -0.024848382060374832 -0.0086666037037652147 0 -0.02445625893551041 -0.0094189660830549474 0 -0.023262936831031495 -0.0074868463267210731 0 -0.024848382060374832 -0.0086666037037652147 0 -0.024976002195655159 -0.0097876025427025663 0 -0.025943560462470459 -0.0094357632868008762 0 -0.024848382060374832 -0.0086666037037652147 0 -0.025943560462470459 -0.0094357632868008762 0 -0.02539050254851 -0.0069247640629693293 0 -0.024848382060374832 -0.0086666037037652147 0 -0.02445625893551041 -0.0094189660830549474 0 -0.024976002195655159 -0.0097876025427025663 0 -0.024976002195655159 -0.0097876025427025663 0 -0.025261286162708559 -0.0098199037589404986 0 -0.025943560462470459 -0.0094357632868008762 0 -0.02519893392280468 -0.0097622854628507359 0 -0.025261286162708559 -0.0098199037589404986 0 -0.025943560462470459 -0.0094357632868008762 0 -0.024976002195655159 -0.0097876025427025663 0 -0.025341181442129553 -0.0098911932120962342 0 -0.025261286162708559 -0.0098199037589404986 0 -0.025528549080207165 -0.0097832936016550506 0 -0.025341181442129553 -0.0098911932120962342 0 -0.025261286162708559 -0.0098199037589404986 0 -0.027316590704969564 -0.0048057279539682352 0 -0.027430477716187014 -0.0046992733127870214 0 -0.0272595682016777 -0.0045957305073394137 0 -0.032062327320400298 -0.0057429557208169219 0 -0.025731750388376724 -0.0074479832700734697 0 -0.035830776180906077 -0.0015205950114964141 0 -0.035898818337446146 -0.0014983104662398689 0 -0.027430477716187014 -0.0046992733127870214 0 -0.027417617549272674 -0.0044852854713476643 0 -0.0272595682016777 -0.0045957305073394137 0 -0.027803193838812062 -0.0045934611820322201 0 -0.027430477716187014 -0.0046992733127870214 0 -0.027417617549272674 -0.0044852854713476643 0 -0.027417617549272674 -0.0044852854713476643 0 -0.0272595682016777 -0.0045957305073394137 0 -0.027150035742939789 -0.0041623805903730051 0 -0.025731750388376724 -0.0074479832700734697 0 -0.02702983785176372 -0.0051233657157206359 0 -0.025943560462470459 -0.0094357632868008762 0 -0.02539050254851 -0.0069247640629693293 0 -0.026750020784982839 -0.0064002066984866594 0 -0.027150035742939789 -0.0041623805903730051 0 -0.02750487805376866 -0.0042908038270816065 0 -0.027425375953457506 -0.0040775224819802813 0 -0.027417617549272674 -0.0044852854713476643 0 -0.027150035742939789 -0.0041623805903730051 0 -0.02750487805376866 -0.0042908038270816065 0 -0.026713484261725325 -0.0034310973784982841 0 -0.027150035742939789 -0.0041623805903730051 0 -0.027255346731809058 -0.00387431750952237 0 -0.026773846474031884 -0.0036287118963656793 0 -0.02702983785176372 -0.0051233657157206359 0 -0.027150035742939789 -0.0041623805903730051 0 -0.027425375953457506 -0.0040775224819802813 0 -0.027255346731809058 -0.00387431750952237 0 -0.02539050254851 -0.0069247640629693293 0 -0.025771169656448194 -0.004664030265557533 0 -0.024884748317455036 -0.0054409882105189589 0 -0.02539050254851 -0.0069247640629693293 0 -0.026750020784982839 -0.0064002066984866594 0 -0.025771169656448194 -0.004664030265557533 0 -0.026713484261725325 -0.0034310973784982841 0 -0.026750020784982839 -0.0064002066984866594 0 -0.025771169656448194 -0.004664030265557533 0 -0.024287862903016055 -0.0042774822666064201 0 -0.024884748317455036 -0.0054409882105189589 0 -0.024127347198954006 -0.0059950048611149631 0 -0.024287862903016055 -0.0042774822666064201 0 -0.025771169656448194 -0.004664030265557533 0 -0.024884748317455036 -0.0054409882105189589 0 -0.024287862903016055 -0.0042774822666064201 0 -0.024127347198954006 -0.0059950048611149631 0 -0.022454558789706234 -0.0055130728972193656 0 -0.024928123202008254 -0.0037012961087167827 0 -0.023288422455162935 -0.0055336188844005742 0 -0.023288422455162935 -0.0055336188844005742 0 -0.023128175119970881 -0.0069535481145553968 0 -0.024127347198954006 -0.0059950048611149631 0 -0.022454558789706234 -0.0055130728972193656 0 -0.023262936831031495 -0.0074868463267210731 0 -0.023208835463061135 -0.0062400247531913923 0 -0.023104967959811193 -0.0064016805460833902 0 -0.02380754815860215 -0.0078339698278403185 0 -0.022261301261992533 -0.0077132787108631197 0 -0.023104967959811193 -0.0064016805460833902 0 -0.02380754815860215 -0.0078339698278403185 0 -0.023288422455162935 -0.0055336188844005742 0 -0.023565155216035399 -0.0077128809070477668 0 -0.024848382060374832 -0.0086666037037652147 0 -0.02539050254851 -0.0069247640629693293 0 -0.023262936831031495 -0.0074868463267210731 0 -0.02539050254851 -0.0069247640629693293 0 -0.024127347198954006 -0.0059950048611149631 0 -0.023262936831031495 -0.0074868463267210731 0 -0.02539050254851 -0.0069247640629693293 0 -0.024884748317455036 -0.0054409882105189589 0 -0.024127347198954006 -0.0059950048611149631 0 -0.04072194677207399 0.00034697243031167233 0 -0.037719151577910844 1.5903380355763757e-06 0 -0.042977204152122979 8.6869918354824582e-07 0 -0.04072194677207399 0.00034697243031167233 0 -0.037719151577910844 1.5903380355763757e-06 0 -0.038638033430584043 0.00012496073344352463 0 -0.04072194677207399 0.00034697243031167233 0 -0.040386645738542261 0.00030213653647831028 0 -0.038638033430584043 0.00012496073344352463 0 -0.040386645738542261 0.00030213653647831028 0 -0.040414384534565417 0.00015746069604292092 0 -0.040511139462802395 0.00038276939974561013 0 -0.040492212383709848 0.00055538698706963582 0 -0.040511139462802395 0.00038276939974561013 0 -0.040852062100621027 0.00053973847535942045 0 -0.040386645738542261 0.00030213653647831028 0 -0.040492212383709848 0.00055538698706963582 0 -0.040511139462802395 0.00038276939974561013 0 -0.040414384534565417 0.00015746069604292092 0 -0.040511139462802395 0.00038276939974561013 0 -0.040852062100621027 0.00053973847535942045 0 -0.04070557083067864 0.00044927287877892584 0 -0.040891809684082153 0.00030896080326407114 0 -0.04072194677207399 0.00034697243031167233 0 -0.040386645738542261 0.00030213653647831028 0 -0.041995011119131051 0.00041630355252910225 0 -0.04072194677207399 0.00034697243031167233 0 -0.041995011119131051 0.00041630355252910225 0 -0.042924746257391962 0.0004704112674325975 0 -0.041995011119131051 0.00041630355252910225 0 -0.042924746257391962 0.0004704112674325975 0 -0.042689240574763296 0.00044484070012304445 0 -0.040891809684082153 0.00030896080326407114 0 -0.045821574144715778 0.00036610807165108445 0 -0.042924746257391962 0.0004704112674325975 0 -0.043780127001187323 0.00034331266837473384 0 -0.042689240574763296 0.00044484070012304445 0 -0.046936477567762737 0.00024569196601558277 0 -0.045821574144715778 0.00036610807165108445 0 -0.04072194677207399 0.00034697243031167233 0 -0.042924746257391962 0.0004704112674325975 0 -0.042977204152122979 8.6869918354824582e-07 0 -0.042924746257391962 0.0004704112674325975 0 -0.042977204152122979 8.6869918354824582e-07 0 -0.044889842575775288 0.00026085360066970784 0 -0.042977204152122979 8.6869918354824582e-07 0 -0.044889842575775288 0.00026085360066970784 0 -0.046910878095292756 4.5721166962211219e-05 0 -0.042977204152122979 8.6869918354824582e-07 0 -0.049999052350958015 -1.6306708017365404e-08 0 -0.046910878095292756 4.5721166962211219e-05 0 -0.049999052350958015 -1.6306708017365404e-08 0 -0.046910878095292756 4.5721166962211219e-05 0 -0.049992831593915869 -7.8129747055762188e-07 0 -0.049999954558545376 -1.554429656631686e-08 0 -0.049976246005319372 1.2867352291463014e-05 0 -0.049973023170490335 -2.7613088023529007e-06 0 -0.049999954558545376 -1.554429656631686e-08 0 -0.050000011232338111 1.3602561066419223e-08 0 -0.049976246005319372 1.2867352291463014e-05 0 -0.049999122300024124 4.188224639693439e-07 0 -0.048051613161765518 0.00017506792239366202 0 -0.046910878095292756 4.5721166962211219e-05 0 -0.049992831593915869 -7.8129747055762188e-07 0 -0.046172041768093454 -2.2689059858277551e-05 0 -0.049976246005319372 1.2867352291463014e-05 0 -0.049935535546721393 7.5417043610452385e-06 0 -0.049973023170490335 -2.7613088023529007e-06 0 -0.049976246005319372 1.2867352291463014e-05 0 -0.049907375045933081 4.7381123650763401e-05 0 -0.049935535546721393 7.5417043610452385e-06 0 -0.049976246005319372 1.2867352291463014e-05 0 -0.049926174036475521 8.1162018971410875e-05 0 -0.049907375045933081 4.7381123650763401e-05 0 -0.048051613161765518 0.00017506792239366202 0 -0.046936477567762737 0.00024569196601558277 0 -0.044889842575775288 0.00026085360066970784 0 -0.046172041768093454 -2.2689059858277551e-05 0 -0.043780127001187323 0.00034331266837473384 0 -0.044889842575775288 0.00026085360066970784 0 -0.046910878095292756 4.5721166962211219e-05 0 -0.046172041768093454 -2.2689059858277551e-05 0 -0.042924746257391962 0.0004704112674325975 0 -0.044889842575775288 0.00026085360066970784 0 -0.043780127001187323 0.00034331266837473384 0 -0.049838351681526075 5.0758980795866457e-05 0 -0.049907375045933081 4.7381123650763401e-05 0 -0.049861661401156339 0.00011340811122483981 0 -0.049926174036475521 8.1162018971410875e-05 0 -0.049907375045933081 4.7381123650763401e-05 0 -0.049861661401156339 0.00011340811122483981 0 -0.049838351681526075 5.0758980795866457e-05 0 -0.049679863353601701 0.00016994536993722645 0 -0.049937665623843532 0.00020752666749714594 0 -0.049755288677191263 -6.0942760352076874e-05 0 -0.050225627608911014 0.00044757120586620935 0 -0.049838351681526075 5.0758980795866457e-05 0 -0.049907375045933081 4.7381123650763401e-05 0 -0.049891638019500306 8.9518742920100129e-06 0 -0.049838351681526075 5.0758980795866457e-05 0 -0.049891638019500306 8.9518742920100129e-06 0 -0.04981320802538907 -3.4137734817279387e-05 0 -0.049907375045933081 4.7381123650763401e-05 0 -0.049935535546721393 7.5417043610452385e-06 0 -0.049891638019500306 8.9518742920100129e-06 0 -0.049935535546721393 7.5417043610452385e-06 0 -0.049937043623392262 -1.6020170634047408e-05 0 -0.049973023170490335 -2.7613088023529007e-06 0 -0.049891638019500306 8.9518742920100129e-06 0 -0.049937043623392262 -1.6020170634047408e-05 0 -0.04981320802538907 -3.4137734817279387e-05 0 -0.049935535546721393 7.5417043610452385e-06 0 -0.049891638019500306 8.9518742920100129e-06 0 -0.049937043623392262 -1.6020170634047408e-05 0 -0.049937043623392262 -1.6020170634047408e-05 0 -0.04999995411955066 3.2816291633106692e-09 0 -0.049999815182794151 -7.2681397193405599e-08 0 -0.049937043623392262 -1.6020170634047408e-05 0 -0.049999815182794151 -7.2681397193405599e-08 0 -0.04981320802538907 -3.4137734817279387e-05 0 -0.049937043623392262 -1.6020170634047408e-05 0 -0.04999995411955066 3.2816291633106692e-09 0 -0.049973023170490335 -2.7613088023529007e-06 0 -0.049999954558545376 -1.554429656631686e-08 0 -0.04999995411955066 3.2816291633106692e-09 0 -0.049973023170490335 -2.7613088023529007e-06 0 -0.049999693953261745 -4.9176086114353594e-08 0 -0.049999990970710215 3.4272928234634475e-08 0 -0.049855423042106176 1.670843154745966e-05 0 -0.049999934606194417 -1.0208196880308751e-09 0 -0.0498309388214992 -7.8211516006208696e-06 0 -0.049999693953261745 -4.9176086114353594e-08 0 -0.049855423042106176 1.670843154745966e-05 0 -0.049696559613457356 3.3779293445548605e-05 0 -0.049602295359251092 6.2451007966234391e-05 0 -0.0493672375652549 6.7926519021553776e-05 0 -0.049696559613457356 3.3779293445548605e-05 0 -0.049855423042106176 1.670843154745966e-05 0 -0.049602295359251092 6.2451007966234391e-05 0 -0.049696559613457356 3.3779293445548605e-05 0 -0.049838351681526075 5.0758980795866457e-05 0 -0.04981320802538907 -3.4137734817279387e-05 0 -0.049600717455071386 3.6434566463954957e-05 0 -0.0498309388214992 -7.8211516006208696e-06 0 -0.049590500735211152 4.9594670377726617e-05 0 -0.049838351681526075 5.0758980795866457e-05 0 -0.049600717455071386 3.6434566463954957e-05 0 -0.049679863353601701 0.00016994536993722645 0 -0.049600717455071386 3.6434566463954957e-05 0 -0.049283092329573633 0.00018848565815238191 0 -0.049679863353601701 0.00016994536993722645 0 -0.049590500735211152 4.9594670377726617e-05 0 -0.049336498981895585 0.00019061244799478398 0 -0.049602295359251092 6.2451007966234391e-05 0 -0.049283092329573633 0.00018848565815238191 0 -0.0493672375652549 6.7926519021553776e-05 0 -0.049510632214873923 0.00036664928294896616 0 -0.049232124299682919 0.00076968963764295715 0 -0.048899789594060217 0.00038084029510758346 0 -0.049283092329573633 0.00018848565815238191 0 -0.049510632214873923 0.00036664928294896616 0 -0.048899789594060217 0.00038084029510758346 0 -0.049510632214873923 0.00036664928294896616 0 -0.049232124299682919 0.00076968963764295715 0 -0.04974228172937973 0.00067485514584658755 0 -0.049510632214873923 0.00036664928294896616 0 -0.0497800140182501 0.00038951039186809231 0 -0.04974228172937973 0.00067485514584658755 0 -0.049283092329573633 0.00018848565815238191 0 -0.049510632214873923 0.00036664928294896616 0 -0.049679863353601701 0.00016994536993722645 0 -0.049510632214873923 0.00036664928294896616 0 -0.049679863353601701 0.00016994536993722645 0 -0.0497800140182501 0.00038951039186809231 0 -0.049937665623843532 0.00020752666749714594 0 -0.04991385250954164 0.00045052930893064059 0 -0.0497800140182501 0.00038951039186809231 0 -0.049679863353601701 0.00016994536993722645 0 -0.049937665623843532 0.00020752666749714594 0 -0.0497800140182501 0.00038951039186809231 0 -0.049937665623843532 0.00020752666749714594 0 -0.050046863819609301 0.00042985923238657449 0 -0.04991385250954164 0.00045052930893064059 0 -0.050225627608911014 0.00044757120586620935 0 -0.045821574144715778 0.00036610807165108445 0 -0.049926174036475521 8.1162018971410875e-05 0 -0.049861661401156339 0.00011340811122483981 0 -0.049857605984164305 0.00016284346846764887 0 -0.050046863819609301 0.00042985923238657449 0 -0.049911815877408422 0.00061402560648451694 0 -0.049934915056888761 0.00067013901525235888 0 -0.040492212383709848 0.00055538698706963582 0 -0.040747131755247794 0.00089666839303550116 0 -0.040852062100621027 0.00053973847535942045 0 -0.045821574144715778 0.00036610807165108445 0 -0.04379382889341793 0.0015075962375517237 0 -0.050046863819609301 0.00042985923238657449 0 -0.04991385250954164 0.00045052930893064059 0 -0.049911815877408422 0.00061402560648451694 0 -0.04991385250954164 0.00045052930893064059 0 -0.049911815877408422 0.00061402560648451694 0 -0.049838205937877994 0.00056704423191420415 0 -0.0497800140182501 0.00038951039186809231 0 -0.049838205937877994 0.00056704423191420415 0 -0.04974228172937973 0.00067485514584658755 0 -0.04991385250954164 0.00045052930893064059 0 -0.0497800140182501 0.00038951039186809231 0 -0.049838205937877994 0.00056704423191420415 0 -0.044823998850185703 0.0025611126687282606 0 -0.051455760105220925 0.00070591899612894554 0 -0.049838205937877994 0.00056704423191420415 0 -0.049831275327515363 0.00085124772560061525 0 -0.04974228172937973 0.00067485514584658755 0 -0.049911815877408422 0.00061402560648451694 0 -0.049838205937877994 0.00056704423191420415 0 -0.049831275327515363 0.00085124772560061525 0 -0.04379382889341793 0.0015075962375517237 0 -0.044823998850185703 0.0025611126687282606 0 -0.049911815877408422 0.00061402560648451694 0 -0.049927017724324473 0.0006589916620143672 0 -0.049831275327515363 0.00085124772560061525 0 -0.038479209263384974 0.0017577319306701638 0 -0.04379382889341793 0.0015075962375517237 0 -0.045695236032063602 0.0021784368655301091 0 -0.04379382889341793 0.0015075962375517237 0 -0.037772215040188052 0.0031138629025715585 0 -0.039599687235686694 0.003496080515696207 0 -0.038078301055119314 0.0019313682451956693 0 -0.037772215040188052 0.0031138629025715585 0 -0.039077013138621011 0.0048663200406418401 0 -0.039599687235686694 0.003496080515696207 0 -0.050636445253272856 0.0016290424413847046 0 -0.049574092019864076 0.0017312570686991112 0 -0.04974228172937973 0.00067485514584658755 0 -0.050636445253272856 0.0016290424413847046 0 -0.049574092019864076 0.0017312570686991112 0 -0.050250810190616016 0.0027614830002023164 0 -0.049574092019864076 0.0017312570686991112 0 -0.048729272259632847 0.0012798325874614381 0 -0.048670240834484998 0.0021872185221234086 0 -0.048729272259632847 0.0012798325874614381 0 -0.049232124299682919 0.00076968963764295715 0 -0.048899789594060217 0.00038084029510758346 0 -0.049574092019864076 0.0017312570686991112 0 -0.048729272259632847 0.0012798325874614381 0 -0.049232124299682919 0.00076968963764295715 0 -0.049574092019864076 0.0017312570686991112 0 -0.049232124299682919 0.00076968963764295715 0 -0.04974228172937973 0.00067485514584658755 0 -0.048206409285394845 0.0009451010880380681 0 -0.046598161608189137 0.0016417754745618916 0 -0.048237185227623082 7.66249584073294e-05 0 -0.048206409285394845 0.0009451010880380681 0 -0.048237185227623082 7.66249584073294e-05 0 -0.048899789594060217 0.00038084029510758346 0 -0.048729272259632847 0.0012798325874614381 0 -0.048206409285394845 0.0009451010880380681 0 -0.048899789594060217 0.00038084029510758346 0 -0.048729272259632847 0.0012798325874614381 0 -0.048206409285394845 0.0009451010880380681 0 -0.047924510033126463 0.0018129705486947037 0 -0.048729272259632847 0.0012798325874614381 0 -0.047924510033126463 0.0018129705486947037 0 -0.048670240834484998 0.0021872185221234086 0 -0.047924510033126463 0.0018129705486947037 0 -0.046598161608189137 0.0016417754745618916 0 -0.04701496228661662 0.0025333984150330948 0 -0.048206409285394845 0.0009451010880380681 0 -0.047924510033126463 0.0018129705486947037 0 -0.046598161608189137 0.0016417754745618916 0 -0.046598161608189137 0.0016417754745618916 0 -0.044912708764052678 0.0018405343581384443 0 -0.045007739885201396 0.0025406139948312189 0 -0.046598161608189137 0.0016417754745618916 0 -0.045007739885201396 0.0025406139948312189 0 -0.045899233399073265 0.002663322637995868 0 -0.044912708764052678 0.0018405343581384443 0 -0.044327096627585681 0.0024042631252445238 0 -0.045007739885201396 0.0025406139948312189 0 -0.04766881874644003 0.00040264094648320258 0 -0.047013158696697428 0.0011270809662047025 0 -0.044912708764052678 0.0018405343581384443 0 -0.045350078278536134 0.00083178178003331677 0 -0.044063784408376827 0.0018721775453561255 0 -0.046068194573818902 0.001449667692268826 0 -0.04766881874644003 0.00040264094648320258 0 -0.046598161608189137 0.0016417754745618916 0 -0.044912708764052678 0.0018405343581384443 0 -0.045350078278536134 0.00083178178003331677 0 -0.046598161608189137 0.0016417754745618916 0 -0.045912117441940618 0.0004541439035370792 0 -0.048237185227623082 7.66249584073294e-05 0 -0.04766881874644003 0.00040264094648320258 0 -0.048137157105046159 -1.7304971429875111e-05 0 -0.049147002831346397 -0.00034250401765513857 0 -0.049122699367686436 0.00012659848455220523 0 -0.048237185227623082 7.66249584073294e-05 0 -0.04766881874644003 0.00040264094648320258 0 -0.050081262155786302 0.00013073891702980057 0 -0.049147002831346397 -0.00034250401765513857 0 -0.049122699367686436 0.00012659848455220523 0 -0.049603719481041399 1.8207232625421541e-06 0 -0.049122699367686436 0.00012659848455220523 0 -0.049537470242623005 0.00013459210531416294 0 -0.049603719481041399 1.8207232625421541e-06 0 -0.049122699367686436 0.00012659848455220523 0 -0.048938742533488601 0.00010560108374457419 0 -0.048237185227623082 7.66249584073294e-05 0 -0.048938742533488601 0.00010560108374457419 0 -0.048237185227623082 7.66249584073294e-05 0 -0.048899789594060217 0.00038084029510758346 0 -0.049283092329573633 0.00018848565815238191 0 -0.048938742533488601 0.00010560108374457419 0 -0.048899789594060217 0.00038084029510758346 0 -0.049283092329573633 0.00018848565815238191 0 -0.048938742533488601 0.00010560108374457419 0 -0.0493672375652549 6.7926519021553776e-05 0 -0.049122699367686436 0.00012659848455220523 0 -0.048938742533488601 0.00010560108374457419 0 -0.04944818811354048 0.00011689671018718662 0 -0.048938742533488601 0.00010560108374457419 0 -0.0493672375652549 6.7926519021553776e-05 0 -0.04944818811354048 0.00011689671018718662 0 -0.0493672375652549 6.7926519021553776e-05 0 -0.04944818811354048 0.00011689671018718662 0 -0.049696559613457356 3.3779293445548605e-05 0 -0.04944818811354048 0.00011689671018718662 0 -0.049696559613457356 3.3779293445548605e-05 0 -0.049768273123020963 6.8095983295972455e-05 0 -0.049696559613457356 3.3779293445548605e-05 0 -0.049999706584222106 5.2911247839064345e-08 0 -0.049768273123020963 6.8095983295972455e-05 0 -0.049999693953261745 -4.9176086114353594e-08 0 -0.049696559613457356 3.3779293445548605e-05 0 -0.049999706584222106 5.2911247839064345e-08 0 -0.049999706584222106 5.2911247839064345e-08 0 -0.049999733161388393 6.521183061286208e-08 0 -0.049768273123020963 6.8095983295972455e-05 0 -0.049999733161388393 6.521183061286208e-08 0 -0.049768273123020963 6.8095983295972455e-05 0 -0.049776008108428589 0.00011414673053040535 0 -0.04944818811354048 0.00011689671018718662 0 -0.049776008108428589 0.00011414673053040535 0 -0.049537470242623005 0.00013459210531416294 0 -0.04944818811354048 0.00011689671018718662 0 -0.049768273123020963 6.8095983295972455e-05 0 -0.049776008108428589 0.00011414673053040535 0 -0.049122699367686436 0.00012659848455220523 0 -0.04944818811354048 0.00011689671018718662 0 -0.049537470242623005 0.00013459210531416294 0 -0.049537470242623005 0.00013459210531416294 0 -0.049853649772933994 0.0001250987414706196 0 -0.049603719481041399 1.8207232625421541e-06 0 -0.049853649772933994 0.0001250987414706196 0 -0.049902384212663707 7.6216342333746884e-05 0 -0.049896643935877956 6.7055352897774589e-05 0 -0.049776008108428589 0.00011414673053040535 0 -0.049853649772933994 0.0001250987414706196 0 -0.049902384212663707 7.6216342333746884e-05 0 -0.049776008108428589 0.00011414673053040535 0 -0.049537470242623005 0.00013459210531416294 0 -0.049853649772933994 0.0001250987414706196 0 -0.049776008108428589 0.00011414673053040535 0 -0.049902384212663707 7.6216342333746884e-05 0 -0.049999894338937832 8.6101380554316784e-08 0 -0.049902384212663707 7.6216342333746884e-05 0 -0.049999894338937832 8.6101380554316784e-08 0 -0.049999869185380318 2.5301488361759116e-09 0 -0.049999733161388393 6.521183061286208e-08 0 -0.049776008108428589 0.00011414673053040535 0 -0.049999894338937832 8.6101380554316784e-08 0 -0.049909627852702441 1.7578817922510713e-05 0 -0.049999948873291941 4.2165247611470037e-08 0 -0.049999869185380318 2.5301488361759116e-09 0 -0.049902384212663707 7.6216342333746884e-05 0 -0.049999869185380318 2.5301488361759116e-09 0 -0.049896643935877956 6.7055352897774589e-05 0 -0.049909627852702441 1.7578817922510713e-05 0 -0.049999869185380318 2.5301488361759116e-09 0 -0.049896643935877956 6.7055352897774589e-05 0 -0.049771926495045173 0.00012188825896952845 0 -0.049896643935877956 6.7055352897774589e-05 0 -0.0498399294576682 0.00013330910068534753 0 -0.049909627852702441 1.7578817922510713e-05 0 -0.049771926495045173 0.00012188825896952845 0 -0.049896643935877956 6.7055352897774589e-05 0 -0.049853649772933994 0.0001250987414706196 0 -0.049896643935877956 6.7055352897774589e-05 0 -0.0498399294576682 0.00013330910068534753 0 -0.049853649772933994 0.0001250987414706196 0 -0.0498399294576682 0.00013330910068534753 0 -0.049806193678172149 0.00022512201625312929 0 -0.049771926495045173 0.00012188825896952845 0 -0.0498399294576682 0.00013330910068534753 0 -0.049806193678172149 0.00022512201625312929 0 -0.049661409532785486 0.00029035423816674202 0 -0.049806193678172149 0.00022512201625312929 0 -0.049725281328473349 0.00037205147098496542 0 -0.049853649772933994 0.0001250987414706196 0 -0.049806193678172149 0.00022512201625312929 0 -0.049823540404754882 0.00029673615336084212 0 -0.049806193678172149 0.00022512201625312929 0 -0.049823540404754882 0.00029673615336084212 0 -0.049725281328473349 0.00037205147098496542 0 -0.049853649772933994 0.0001250987414706196 0 -0.049896074358209065 0.00025602537370071865 0 -0.049823540404754882 0.00029673615336084212 0 -0.049900745188825542 0.00032977965788210094 0 -0.049896074358209065 0.00025602537370071865 0 -0.049848572640811654 0.00036632746613562609 0 -0.049896074358209065 0.00025602537370071865 0 -0.049823540404754882 0.00029673615336084212 0 -0.049848572640811654 0.00036632746613562609 0 -0.049729436725166311 0.00010772128224460255 0 -0.050081262155786302 0.00013073891702980057 0 -0.049823540404754882 0.00029673615336084212 0 -0.049848572640811654 0.00036632746613562609 0 -0.049764345140994065 0.00043151876280470209 0 -0.044063784408376827 0.0018721775453561255 0 -0.044327096627585681 0.0024042631252445238 0 -0.043924445136331335 0.002656110333641605 0 -0.044912708764052678 0.0018405343581384443 0 -0.044063784408376827 0.0018721775453561255 0 -0.044327096627585681 0.0024042631252445238 0 -0.047013158696697428 0.0011270809662047025 0 -0.046734896484470705 0.0014568552270866845 0 -0.044063784408376827 0.0018721775453561255 0 -0.043954787818504308 0.0024754022073056057 0 -0.043924445136331335 0.002656110333641605 0 -0.049664808091068414 0.00049372287656820229 0 -0.049764345140994065 0.00043151876280470209 0 -0.049725281328473349 0.00037205147098496542 0 -0.044496889348997877 0.0026257228669893922 0 -0.043954787818504308 0.0024754022073056057 0 -0.044152421016690695 0.0024714242824130988 0 -0.047741831242922833 0.0015164035437218448 0 -0.046734896484470705 0.0014568552270866845 0 -0.049823540404754882 0.00029673615336084212 0 -0.049764345140994065 0.00043151876280470209 0 -0.049725281328473349 0.00037205147098496542 0 -0.04413510078837047 0.0023052639317787814 0 -0.043935357364552077 0.0026200004306593189 0 -0.044076858898656972 0.0020703646353331302 0 -0.044378181452604179 0.0021303478511061984 0 -0.044152421016690695 0.0024714242824130988 0 -0.044487807086677114 0.0023941404861097981 0 -0.044378181452604179 0.0021303478511061984 0 -0.044152421016690695 0.0024714242824130988 0 -0.044496889348997877 0.0026257228669893922 0 -0.044487807086677114 0.0023941404861097981 0 -0.044152421016690695 0.0024714242824130988 0 -0.043954787818504308 0.0024754022073056057 0 -0.044152421016690695 0.0024714242824130988 0 -0.043924445136331335 0.002656110333641605 0 -0.044076858898656972 0.0020703646353331302 0 -0.044152421016690695 0.0024714242824130988 0 -0.043924445136331335 0.002656110333641605 0 -0.044327096627585681 0.0024042631252445238 0 -0.043924445136331335 0.002656110333641605 0 -0.044109007451632959 0.0030699464909614668 0 -0.044109007451632959 0.0030699464909614668 0 -0.044552084213719943 0.0038628078032369039 0 -0.044161200096022243 0.0039206974735161619 0 -0.04421419118434497 0.0029872678006044842 0 -0.044052987633116762 0.0032485780423221447 0 -0.043924445136331335 0.002656110333641605 0 -0.044109007451632959 0.0030699464909614668 0 -0.043856654593823291 0.0025564012102303078 0 -0.044161294108546717 0.002548924749614261 0 -0.043924445136331335 0.002656110333641605 0 -0.043856654593823291 0.0025564012102303078 0 -0.044552084213719943 0.0038628078032369039 0 -0.043803905463606137 0.0034008958722478826 0 -0.044161200096022243 0.0039206974735161619 0 -0.044552084213719943 0.0038628078032369039 0 -0.045553694502509921 0.0024085214338221924 0 -0.044275586307427298 0.0022406377182360997 0 -0.044552084213719943 0.0038628078032369039 0 -0.044275586307427298 0.0022406377182360997 0 -0.043803905463606137 0.0034008958722478826 0 -0.043856654593823291 0.0025564012102303078 0 -0.044181603029630166 0.0021665235053832119 0 -0.043887148092884576 0.0019122042878811209 0 -0.044052987633116762 0.0032485780423221447 0 -0.045754681580421876 0.0018295094224003365 0 -0.044181603029630166 0.0021665235053832119 0 -0.044361152352172022 0.0016993036026356433 0 -0.043887148092884576 0.0019122042878811209 0 -0.044161294108546717 0.002548924749614261 0 -0.043856654593823291 0.0025564012102303078 0 -0.044181603029630166 0.0021665235053832119 0 -0.044614308175220385 0.0021084412858547803 0 -0.044161294108546717 0.002548924749614261 0 -0.044181603029630166 0.0021665235053832119 0 -0.04457695722212883 0.0018146081352781007 0 -0.04413510078837047 0.0023052639317787814 0 -0.044547511011421279 0.0015101135293369324 0 -0.044076858898656972 0.0020703646353331302 0 -0.044378181452604179 0.0021303478511061984 0 -0.044614308175220385 0.0021084412858547803 0 -0.044181603029630166 0.0021665235053832119 0 -0.044361152352172022 0.0016993036026356433 0 -0.044614308175220385 0.0021084412858547803 0 -0.044660065061601584 0.0016105338194216143 0 -0.044361152352172022 0.0016993036026356433 0 -0.044666941485187059 0.0013000299485085537 0 -0.044660065061601584 0.0016105338194216143 0 -0.044361152352172022 0.0016993036026356433 0 -0.038110126601834958 0.0013110120319776344 0 -0.045754681580421876 0.0018295094224003365 0 -0.044361152352172022 0.0016993036026356433 0 -0.044063058818274062 0.0013254573716147489 0 -0.043887148092884576 0.0019122042878811209 0 -0.044666941485187059 0.0013000299485085537 0 -0.044361152352172022 0.0016993036026356433 0 -0.044063058818274062 0.0013254573716147489 0 -0.03587376225127973 0.0018904570162077102 0 -0.035338971867814026 0.00019067535091147177 0 -0.032765531953080483 0.0017356507562500815 0 -0.040341890504855767 0.0016350862964873859 0 -0.038110126601834958 0.0013110120319776344 0 -0.035338971867814026 0.00019067535091147177 0 -0.032765531953080483 0.0017356507562500815 0 -0.034209816080970269 -0.0011264822712056686 0 -0.038110126601834958 0.0013110120319776344 0 -0.031991756949946978 -0.00084478023973376794 0 -0.029814672998147482 9.9112480086223077e-05 0 -0.029968650137390383 -0.00039297834300021009 0 -0.029485260014288021 -0.00034937180151809399 0 -0.029968650137390383 -0.00039297834300021009 0 -0.029485260014288021 -0.00034937180151809399 0 -0.029667049956879708 -0.00071049161423961636 0 -0.029968650137390383 -0.00039297834300021009 0 -0.029900104783490002 -0.00076931656094980714 0 -0.029667049956879708 -0.00071049161423961636 0 -0.031991756949946978 -0.00084478023973376794 0 -0.026865007074155588 -0.0022553550767207614 0 -0.036158785573843291 -0.0016691846405082473 0 -0.035338971867814026 0.00019067535091147177 0 -0.034209816080970269 -0.0011264822712056686 0 -0.029080595579814204 -0.00022803226139401706 0 -0.028793825271453591 -0.00033536420083590189 0 -0.029093598261691167 -0.00062763897776058899 0 -0.029485260014288021 -0.00034937180151809399 0 -0.029080595579814204 -0.00022803226139401706 0 -0.029093598261691167 -0.00062763897776058899 0 -0.029485260014288021 -0.00034937180151809399 0 -0.029376918556838025 -0.00077692413545222628 0 -0.029093598261691167 -0.00062763897776058899 0 -0.029485260014288021 -0.00034937180151809399 0 -0.029376918556838025 -0.00077692413545222628 0 -0.029667049956879708 -0.00071049161423961636 0 -0.029814672998147482 9.9112480086223077e-05 0 -0.029485260014288021 -0.00034937180151809399 0 -0.029296530033212542 0.00010450620702549118 0 -0.029485260014288021 -0.00034937180151809399 0 -0.029080595579814204 -0.00022803226139401706 0 -0.029296530033212542 0.00010450620702549118 0 -0.029080595579814204 -0.00022803226139401706 0 -0.029296530033212542 0.00010450620702549118 0 -0.028728550431887181 7.0154958293088348e-05 0 -0.037017221800535946 0.00035036918412843007 0 -0.035923288438617439 0.00012097020336309439 0 -0.044812918015840614 0.00080741251475480245 0 -0.044275586307427298 0.0022406377182360997 0 -0.043172738604269296 0.00026905160998522961 0 -0.046233026731930311 0.00094128816088015596 0 -0.044812918015840614 0.00080741251475480245 0 -0.045553694502509921 0.0024085214338221924 0 -0.038110126601834958 0.0013110120319776344 0 -0.037017221800535946 0.00035036918412843007 0 -0.044812918015840614 0.00080741251475480245 0 -0.045553694502509921 0.0024085214338221924 0 -0.044275586307427298 0.0022406377182360997 0 -0.044275586307427298 0.0022406377182360997 0 -0.04309268850223763 0.0020510685109912949 0 -0.043172738604269296 0.00026905160998522961 0 -0.044275586307427298 0.0022406377182360997 0 -0.04309268850223763 0.0020510685109912949 0 -0.043803905463606137 0.0034008958722478826 0 -0.04309268850223763 0.0020510685109912949 0 -0.041612143084160606 0.0012852411789220659 0 -0.042347707590783393 0.0027930829471606963 0 -0.041612143084160606 0.0012852411789220659 0 -0.040798460461219793 0.0021048570304224839 0 -0.042347707590783393 0.0027930829471606963 0 -0.040798460461219793 0.0021048570304224839 0 -0.040663140679900345 0.0028062886059565997 0 -0.042347707590783393 0.0027930829471606963 0 -0.035923288438617439 0.00012097020336309439 0 -0.033900793127518473 -0.00045559858348262879 0 -0.041612143084160606 0.0012852411789220659 0 -0.043172738604269296 0.00026905160998522961 0 -0.039885779376171382 -0.0010447875598868371 0 -0.028728550431887181 7.0154958293088348e-05 0 -0.028362865007811568 -0.00016318918659606049 0 -0.02823466236264623 -0.00016727863695257524 0 -0.04309268850223763 0.0020510685109912949 0 -0.041612143084160606 0.0012852411789220659 0 -0.043172738604269296 0.00026905160998522961 0 -0.028728550431887181 7.0154958293088348e-05 0 -0.028562844756454379 -0.00020413950394901004 0 -0.028793825271453591 -0.00033536420083590189 0 -0.029080595579814204 -0.00022803226139401706 0 -0.028728550431887181 7.0154958293088348e-05 0 -0.028793825271453591 -0.00033536420083590189 0 -0.028728550431887181 7.0154958293088348e-05 0 -0.028362865007811568 -0.00016318918659606049 0 -0.028562844756454379 -0.00020413950394901004 0 -0.028362865007811568 -0.00016318918659606049 0 -0.028562844756454379 -0.00020413950394901004 0 -0.028339243399042834 -0.00027259441538310923 0 -0.028562844756454379 -0.00020413950394901004 0 -0.028536918599630635 -0.00037998700952346452 0 -0.028339243399042834 -0.00027259441538310923 0 -0.028536918599630635 -0.00037998700952346452 0 -0.028339243399042834 -0.00027259441538310923 0 -0.028348227562671666 -0.00044194376541124934 0 -0.028536918599630635 -0.00037998700952346452 0 -0.028348227562671666 -0.00044194376541124934 0 -0.02847175723067661 -0.0006139711657085254 0 -0.028536918599630635 -0.00037998700952346452 0 -0.028726321847170121 -0.00059534710568082702 0 -0.02847175723067661 -0.0006139711657085254 0 -0.028793825271453591 -0.00033536420083590189 0 -0.028726321847170121 -0.00059534710568082702 0 -0.029093598261691167 -0.00062763897776058899 0 -0.028536918599630635 -0.00037998700952346452 0 -0.028793825271453591 -0.00033536420083590189 0 -0.028726321847170121 -0.00059534710568082702 0 -0.028562844756454379 -0.00020413950394901004 0 -0.028536918599630635 -0.00037998700952346452 0 -0.028793825271453591 -0.00033536420083590189 0 -0.02799442928912468 -0.00036094678399932397 0 -0.028163840216914468 -0.00026483467918543237 0 -0.028058725727218025 -0.00033255005804499755 0 -0.02799442928912468 -0.00036094678399932397 0 -0.028073017635116021 -0.00034573776990790196 0 -0.028163840216914468 -0.00026483467918543237 0 -0.028058725727218025 -0.00033255005804499755 0 -0.02782339292771966 -0.0004188079202284466 0 -0.027825719916536599 -0.00044799296626325791 0 -0.02799442928912468 -0.00036094678399932397 0 -0.028058725727218025 -0.00033255005804499755 0 -0.02782339292771966 -0.0004188079202284466 0 -0.02782339292771966 -0.0004188079202284466 0 -0.027865436298246768 -0.00045757307575147418 0 -0.027575621924777676 -0.00047593589325236365 0 -0.02799442928912468 -0.00036094678399932397 0 -0.02782339292771966 -0.0004188079202284466 0 -0.027865436298246768 -0.00045757307575147418 0 -0.02799442928912468 -0.00036094678399932397 0 -0.028073017635116021 -0.00034573776990790196 0 -0.027865436298246768 -0.00045757307575147418 0 -0.028073017635116021 -0.00034573776990790196 0 -0.027865436298246768 -0.00045757307575147418 0 -0.028145235272034518 -0.0004212797491905258 0 -0.028339243399042834 -0.00027259441538310923 0 -0.028348227562671666 -0.00044194376541124934 0 -0.028145235272034518 -0.0004212797491905258 0 -0.028348227562671666 -0.00044194376541124934 0 -0.028145235272034518 -0.0004212797491905258 0 -0.028214474324765142 -0.00061886258090350442 0 -0.028339243399042834 -0.00027259441538310923 0 -0.028145235272034518 -0.0004212797491905258 0 -0.028208038642094011 -0.00026670472097093957 0 -0.028073017635116021 -0.00034573776990790196 0 -0.028145235272034518 -0.0004212797491905258 0 -0.028208038642094011 -0.00026670472097093957 0 -0.028073017635116021 -0.00034573776990790196 0 -0.028163840216914468 -0.00026483467918543237 0 -0.028208038642094011 -0.00026670472097093957 0 -0.028163840216914468 -0.00026483467918543237 0 -0.028208038642094011 -0.00026670472097093957 0 -0.028290218018898958 -0.00016660621253016626 0 -0.028208038642094011 -0.00026670472097093957 0 -0.028290218018898958 -0.00016660621253016626 0 -0.028285391030409154 -0.00018429540034174411 0 -0.028290218018898958 -0.00016660621253016626 0 -0.028285391030409154 -0.00018429540034174411 0 -0.028289030857947838 -0.00013674582550349934 0 -0.028362865007811568 -0.00016318918659606049 0 -0.028339243399042834 -0.00027259441538310923 0 -0.028285391030409154 -0.00018429540034174411 0 -0.028339243399042834 -0.00027259441538310923 0 -0.028208038642094011 -0.00026670472097093957 0 -0.028285391030409154 -0.00018429540034174411 0 -0.028362865007811568 -0.00016318918659606049 0 -0.028285391030409154 -0.00018429540034174411 0 -0.028289030857947838 -0.00013674582550349934 0 -0.028362865007811568 -0.00016318918659606049 0 -0.028289030857947838 -0.00013674582550349934 0 -0.02823466236264623 -0.00016727863695257524 0 -0.028290218018898958 -0.00016660621253016626 0 -0.028289030857947838 -0.00013674582550349934 0 -0.028476766421233028 -9.2456517382652546e-05 0 -0.028289030857947838 -0.00013674582550349934 0 -0.028476766421233028 -9.2456517382652546e-05 0 -0.02823466236264623 -0.00016727863695257524 0 -0.028290218018898958 -0.00016660621253016626 0 -0.028476766421233028 -9.2456517382652546e-05 0 -0.028329351881037485 -0.00017609249792317752 0 -0.028163840216914468 -0.00026483467918543237 0 -0.028290218018898958 -0.00016660621253016626 0 -0.028329351881037485 -0.00017609249792317752 0 -0.028163840216914468 -0.00026483467918543237 0 -0.028058725727218025 -0.00033255005804499755 0 -0.028329351881037485 -0.00017609249792317752 0 -0.028058725727218025 -0.00033255005804499755 0 -0.028263183704605691 -0.00026156329875725865 0 -0.028037571833371484 -0.00037139682446207995 0 -0.028058725727218025 -0.00033255005804499755 0 -0.028329351881037485 -0.00017609249792317752 0 -0.028263183704605691 -0.00026156329875725865 0 -0.028329351881037485 -0.00017609249792317752 0 -0.028263183704605691 -0.00026156329875725865 0 -0.028527440238052624 -0.00012353244691102824 0 -0.028476766421233028 -9.2456517382652546e-05 0 -0.028527440238052624 -0.00012353244691102824 0 -0.028963320231803185 -4.4603633736894932e-05 0 -0.028476766421233028 -9.2456517382652546e-05 0 -0.028329351881037485 -0.00017609249792317752 0 -0.028527440238052624 -0.00012353244691102824 0 -0.033900793127518473 -0.00045559858348262879 0 -0.029387362556882499 -0.00019947404163893849 0 -0.039885779376171382 -0.0010447875598868371 0 -0.03662646771944085 0.00035500225132315027 0 -0.028963320231803185 -4.4603633736894932e-05 0 -0.033469837667352335 0.0019844363010740529 0 -0.03662646771944085 0.00035500225132315027 0 -0.028963320231803185 -4.4603633736894932e-05 0 -0.033469837667352335 0.0019844363010740529 0 -0.03662646771944085 0.00035500225132315027 0 -0.036876760268601254 0.0067843316342353311 0 -0.033469837667352335 0.0019844363010740529 0 -0.030804288138110932 0.0017001146479409053 0 -0.028963320231803185 -4.4603633736894932e-05 0 -0.028476766421233028 -9.2456517382652546e-05 0 -0.02823466236264623 -0.00016727863695257524 0 -0.028963320231803185 -4.4603633736894932e-05 0 -0.033469837667352335 0.0019844363010740529 0 -0.030804288138110932 0.0017001146479409053 0 -0.032401972204093028 0.0041281225198112137 0 -0.030804288138110932 0.0017001146479409053 0 -0.032401972204093028 0.0041281225198112137 0 -0.028347874367916991 0.0013530060828150687 0 -0.037038530724599256 0.00077314223568681424 0 -0.038026803867339115 0.0039375088207893377 0 -0.039885779376171382 -0.0010447875598868371 0 -0.03662646771944085 0.00035500225132315027 0 -0.039801173911695735 0.0011127245079171155 0 -0.03662646771944085 0.00035500225132315027 0 -0.039801173911695735 0.0011127245079171155 0 -0.039436194124604085 0.0021883307481521562 0 -0.041612143084160606 0.0012852411789220659 0 -0.039885779376171382 -0.0010447875598868371 0 -0.039801173911695735 0.0011127245079171155 0 -0.03662646771944085 0.00035500225132315027 0 -0.039436194124604085 0.0021883307481521562 0 -0.03925562222032801 0.0023931109596168234 0 -0.039801173911695735 0.0011127245079171155 0 -0.040798460461219793 0.0021048570304224839 0 -0.039436194124604085 0.0021883307481521562 0 -0.041612143084160606 0.0012852411789220659 0 -0.039801173911695735 0.0011127245079171155 0 -0.040798460461219793 0.0021048570304224839 0 -0.038396841676445512 0.0036232080633359755 0 -0.038026803867339115 0.0039375088207893377 0 -0.039436194124604085 0.0021883307481521562 0 -0.039431907153535208 0.0022409682853351712 0 -0.040663140679900345 0.0028062886059565997 0 -0.040798460461219793 0.0021048570304224839 0 -0.039436194124604085 0.0021883307481521562 0 -0.040663140679900345 0.0028062886059565997 0 -0.036876760268601254 0.0067843316342353311 0 -0.032401972204093028 0.0041281225198112137 0 -0.031088058492376749 0.010882969000082158 0 -0.032401972204093028 0.0041281225198112137 0 -0.031088058492376749 0.010882969000082158 0 -0.028347874367916991 0.0013530060828150687 0 -0.033469837667352335 0.0019844363010740529 0 -0.036876760268601254 0.0067843316342353311 0 -0.032401972204093028 0.0041281225198112137 0 -0.038026803867339115 0.0039375088207893377 0 -0.034302784978204506 0.0053621799922986555 0 -0.038328727823718663 0.003684219152169879 0 -0.038360944450201183 0.0037716925467497536 0 -0.038199687361361971 0.00406852682499505 0 -0.038331065281512575 0.0036889891282799472 0 -0.038360944450201183 0.0037716925467497536 0 -0.038616464375236914 0.0037974104686047915 0 -0.034302784978204506 0.0053621799922986555 0 -0.034551645180126468 0.0052123613195329864 0 -0.038854440999908632 0.0033175237824285366 0 -0.038331065281512575 0.0036889891282799472 0 -0.038616464375236914 0.0037974104686047915 0 -0.038616464375236914 0.0037974104686047915 0 -0.038599086955405808 0.0042266683130665226 0 -0.038936579904990935 0.0039895334081850786 0 -0.038360944450201183 0.0037716925467497536 0 -0.038616464375236914 0.0037974104686047915 0 -0.038599086955405808 0.0042266683130665226 0 -0.038360944450201183 0.0037716925467497536 0 -0.038599086955405808 0.0042266683130665226 0 -0.038199687361361971 0.00406852682499505 0 -0.038599086955405808 0.0042266683130665226 0 -0.038238012675504536 0.004445585595267876 0 -0.038199687361361971 0.00406852682499505 0 -0.038599086955405808 0.0042266683130665226 0 -0.038799270541057453 0.0047589048191594794 0 -0.039039083451815372 0.0046892091128891856 0 -0.043525375614922764 0.0029336195790451514 0 -0.040247559934120249 0.0026140186428329818 0 -0.038599086955405808 0.0042266683130665226 0 -0.038799270541057453 0.0047589048191594794 0 -0.038238012675504536 0.004445585595267876 0 -0.041716166490515835 0.0039965546237871203 0 -0.040349844537930911 0.0035539945275110231 0 -0.040523252835056527 0.0057751169021174678 0 -0.038599086955405808 0.0042266683130665226 0 -0.038936579904990935 0.0039895334081850786 0 -0.039039083451815372 0.0046892091128891856 0 -0.039502265039219588 0.0036904412528229397 0 -0.042816189553646175 0.004352213673396426 0 -0.039431907153535208 0.0022409682853351712 0 -0.040349844537930911 0.0035539945275110231 0 -0.040663140679900345 0.0028062886059565997 0 -0.041716166490515835 0.0039965546237871203 0 -0.040349844537930911 0.0035539945275110231 0 -0.040663140679900345 0.0028062886059565997 0 -0.038854440999908632 0.0033175237824285366 0 -0.038616464375236914 0.0037974104686047915 0 -0.038936579904990935 0.0039895334081850786 0 -0.038026803867339115 0.0039375088207893377 0 -0.039502265039219588 0.0036904412528229397 0 -0.041716166490515835 0.0039965546237871203 0 -0.042347707590783393 0.0027930829471606963 0 -0.043878205591942165 0.0043884622656857114 0 -0.042347707590783393 0.0027930829471606963 0 -0.043803905463606137 0.0034008958722478826 0 -0.043878205591942165 0.0043884622656857114 0 -0.041716166490515835 0.0039965546237871203 0 -0.040663140679900345 0.0028062886059565997 0 -0.042347707590783393 0.0027930829471606963 0 -0.04309268850223763 0.0020510685109912949 0 -0.042347707590783393 0.0027930829471606963 0 -0.043803905463606137 0.0034008958722478826 0 -0.043803905463606137 0.0034008958722478826 0 -0.044161200096022243 0.0039206974735161619 0 -0.043878205591942165 0.0043884622656857114 0 -0.041716166490515835 0.0039965546237871203 0 -0.043878205591942165 0.0043884622656857114 0 -0.040523252835056527 0.0057751169021174678 0 -0.044138782270116181 0.0045992808805156325 0 -0.042816189553646175 0.004352213673396426 0 -0.043878205591942165 0.0043884622656857114 0 -0.045784013350020691 0.003361596311359202 0 -0.044673348055895477 0.0034008233154534757 0 -0.043878205591942165 0.0043884622656857114 0 -0.045784013350020691 0.003361596311359202 0 -0.046531785000094236 0.0042724174998670858 0 -0.044161200096022243 0.0039206974735161619 0 -0.043878205591942165 0.0043884622656857114 0 -0.044673348055895477 0.0034008233154534757 0 -0.044109007451632959 0.0030699464909614668 0 -0.044161200096022243 0.0039206974735161619 0 -0.044673348055895477 0.0034008233154534757 0 -0.044109007451632959 0.0030699464909614668 0 -0.044673348055895477 0.0034008233154534757 0 -0.045007739885201396 0.0025406139948312189 0 -0.044327096627585681 0.0024042631252445238 0 -0.044109007451632959 0.0030699464909614668 0 -0.045007739885201396 0.0025406139948312189 0 -0.044673348055895477 0.0034008233154534757 0 -0.045007739885201396 0.0025406139948312189 0 -0.045899233399073265 0.002663322637995868 0 -0.045784013350020691 0.003361596311359202 0 -0.044673348055895477 0.0034008233154534757 0 -0.045899233399073265 0.002663322637995868 0 -0.046598161608189137 0.0016417754745618916 0 -0.045899233399073265 0.002663322637995868 0 -0.04701496228661662 0.0025333984150330948 0 -0.04701496228661662 0.0025333984150330948 0 -0.047892924263061333 0.0029575323762009399 0 -0.047216453755176142 0.0035687811885256977 0 -0.045784013350020691 0.003361596311359202 0 -0.045899233399073265 0.002663322637995868 0 -0.04701496228661662 0.0025333984150330948 0 -0.047924510033126463 0.0018129705486947037 0 -0.04701496228661662 0.0025333984150330948 0 -0.047892924263061333 0.0029575323762009399 0 -0.047924510033126463 0.0018129705486947037 0 -0.047892924263061333 0.0029575323762009399 0 -0.048670240834484998 0.0021872185221234086 0 -0.047892924263061333 0.0029575323762009399 0 -0.047644909615117033 0.0037879979556884567 0 -0.049080961386851439 0.0032224922481019908 0 -0.042952416512486054 0.0011958918389442593 0 -0.041668534347241951 0.0015311144420776725 0 -0.042196247228379488 0.00074190209970397144 0 -0.043525375614922764 0.0029336195790451514 0 -0.046075186218710568 0.0023159727979767709 0 -0.047892924263061333 0.0029575323762009399 0 -0.047644909615117033 0.0037879979556884567 0 -0.047216453755176142 0.0035687811885256977 0 -0.043525375614922764 0.0029336195790451514 0 -0.042816189553646175 0.004352213673396426 0 -0.045784013350020691 0.003361596311359202 0 -0.04701496228661662 0.0025333984150330948 0 -0.046831343115824611 0.0039893130825956191 0 -0.047072156507648719 0.0026029457352599208 0 -0.045511244827151236 0.0039278124086054821 0 -0.043744342245866319 0.0033094172426933214 0 -0.044303572579534593 0.0036398515640828142 0 -0.044259797832713887 0.0031642375939846369 0 -0.043525375614922764 0.0029336195790451514 0 -0.045511244827151236 0.0039278124086054821 0 -0.045511244827151236 0.0039278124086054821 0 -0.042816189553646175 0.004352213673396426 0 -0.045784013350020691 0.003361596311359202 0 -0.046508847670204606 0.003843621404109928 0 -0.046531785000094236 0.0042724174998670858 0 -0.046067570210557671 0.0036891004551148263 0 -0.045511244827151236 0.0039278124086054821 0 -0.041668534347241951 0.0015311144420776725 0 -0.040413934171711526 0.0018718279487454075 0 -0.040704787521455808 0.0010435413828026479 0 -0.041668534347241951 0.0015311144420776725 0 -0.041299931633910006 0.00089156999313755184 0 -0.040704787521455808 0.0010435413828026479 0 -0.046075186218710568 0.0023159727979767709 0 -0.043626681921706427 0.0017115297171928499 0 -0.049574092019864076 0.0017312570686991112 0 -0.049080961386851439 0.0032224922481019908 0 -0.048670240834484998 0.0021872185221234086 0 -0.047892924263061333 0.0029575323762009399 0 -0.049080961386851439 0.0032224922481019908 0 -0.048670240834484998 0.0021872185221234086 0 -0.049574092019864076 0.0017312570686991112 0 -0.049080961386851439 0.0032224922481019908 0 -0.050250810190616016 0.0027614830002023164 0 -0.039698797039871635 0.0039314254850051607 0 -0.040223747484677261 0.0020430285893748858 0 -0.039490728184346922 0.0022234920297867248 0 -0.044823998850185703 0.0025611126687282606 0 -0.043626681921706427 0.0017115297171928499 0 -0.039698797039871635 0.0039314254850051607 0 -0.040223747484677261 0.0020430285893748858 0 -0.040392680176273753 0.0019931235860132573 0 -0.039831926466340234 0.0019487749227969982 0 -0.040223747484677261 0.0020430285893748858 0 -0.039490728184346922 0.0022234920297867248 0 -0.043089222532381309 0.0018364991845206591 0 -0.043626681921706427 0.0017115297171928499 0 -0.044823998850185703 0.0025611126687282606 0 -0.037163615497502377 0.0020108082736824732 0 -0.039490728184346922 0.0022234920297867248 0 -0.03900626523986437 0.0016743710853309372 0 -0.038056517455553496 0.002191209384532938 0 -0.039698797039871635 0.0039314254850051607 0 -0.039490728184346922 0.0022234920297867248 0 -0.038056517455553496 0.002191209384532938 0 -0.039831926466340234 0.0019487749227969982 0 -0.039490728184346922 0.0022234920297867248 0 -0.03900626523986437 0.0016743710853309372 0 -0.03900626523986437 0.0016743710853309372 0 -0.038113391055445166 0.00077610756170127344 0 -0.038056517455553496 0.002191209384532938 0 -0.03900626523986437 0.0016743710853309372 0 -0.03964406597460602 0.001196826408355961 0 -0.038113391055445166 0.00077610756170127344 0 -0.039831926466340234 0.0019487749227969982 0 -0.03900626523986437 0.0016743710853309372 0 -0.039970451942100381 0.0016391114385942746 0 -0.03900626523986437 0.0016743710853309372 0 -0.039970451942100381 0.0016391114385942746 0 -0.039660679224170652 0.0012564484174286388 0 -0.039051086573520848 0.0011339521213959858 0 -0.037375910506309611 0.0016743578524734746 0 -0.039768858131223821 0.0014031793496720815 0 -0.040704787521455808 0.0010435413828026479 0 -0.040680461834268024 0.00083249487513809028 0 -0.043626681921706427 0.0017115297171928499 0 -0.040424497070585493 0.0015538667882826966 0 -0.039970451942100381 0.0016391114385942746 0 -0.039768858131223821 0.0014031793496720815 0 -0.040704787521455808 0.0010435413828026479 0 -0.040345450606564144 0.0019896082406529237 0 -0.039970451942100381 0.0016391114385942746 0 -0.040704787521455808 0.0010435413828026479 0 -0.040223747484677261 0.0020430285893748858 0 -0.040345450606564144 0.0019896082406529237 0 -0.039970451942100381 0.0016391114385942746 0 -0.039831926466340234 0.0019487749227969982 0 -0.040223747484677261 0.0020430285893748858 0 -0.039970451942100381 0.0016391114385942746 0 -0.03843611951387519 0.0021263233369785963 0 -0.037375910506309611 0.0016743578524734746 0 -0.037375910506309611 0.0016743578524734746 0 -0.037897542962245033 0.0014168036672503007 0 -0.033667643141618221 0.0030583738562427886 0 -0.033542167458211702 0.0014275248458140383 0 -0.034646332102741102 0.0023476530815976036 0 -0.033667643141618221 0.0030583738562427886 0 -0.032663453066165971 0.0019113360567607853 0 -0.033542167458211702 0.0014275248458140383 0 -0.037375910506309611 0.0016743578524734746 0 -0.035356325172657528 0.00078248952536114633 0 -0.03964406597460602 0.001196826408355961 0 -0.038336107653214949 -0.00032379257326942389 0 -0.038113391055445166 0.00077610756170127344 0 -0.033542167458211702 0.0014275248458140383 0 -0.033041875336959237 0.0010950881391711077 0 -0.033289115256591631 0.00037024379944279628 0 -0.032663453066165971 0.0019113360567607853 0 -0.033041875336959237 0.0010950881391711077 0 -0.032677228240393714 0.00066563529619587981 0 -0.032663453066165971 0.0019113360567607853 0 -0.033542167458211702 0.0014275248458140383 0 -0.033041875336959237 0.0010950881391711077 0 -0.033041875336959237 0.0010950881391711077 0 -0.032677228240393714 0.00066563529619587981 0 -0.033289115256591631 0.00037024379944279628 0 -0.033542167458211702 0.0014275248458140383 0 -0.034454428587778627 0.00094981566491717699 0 -0.034646332102741102 0.0023476530815976036 0 -0.033542167458211702 0.0014275248458140383 0 -0.034454428587778627 0.00094981566491717699 0 -0.033289115256591631 0.00037024379944279628 0 -0.030273692540734212 0.0033749258680361538 0 -0.03134411498698067 0.0039965212345178377 0 -0.031273305507382512 0.0028753179415936672 0 -0.031792039456149397 0.0020258695736787217 0 -0.036524202601479226 0.002480194702735901 0 -0.034454428587778627 0.00094981566491717699 0 -0.034646332102741102 0.0023476530815976036 0 -0.035638215455458852 0.0016355637802578603 0 -0.037897542962245033 0.0014168036672503007 0 -0.036524202601479226 0.002480194702735901 0 -0.041299931633910006 0.00089156999313755184 0 -0.040680461834268024 0.00083249487513809028 0 -0.041435387670866616 0.00030762393275745518 0 -0.041299931633910006 0.00089156999313755184 0 -0.040704787521455808 0.0010435413828026479 0 -0.040680461834268024 0.00083249487513809028 0 -0.041668534347241951 0.0015311144420776725 0 -0.041299931633910006 0.00089156999313755184 0 -0.042196247228379488 0.00074190209970397144 0 -0.041299931633910006 0.00089156999313755184 0 -0.042196247228379488 0.00074190209970397144 0 -0.041435387670866616 0.00030762393275745518 0 -0.040247559934120249 0.0026140186428329818 0 -0.036524202601479226 0.002480194702735901 0 -0.038238012675504536 0.004445585595267876 0 -0.037688767148875681 0.004125052356169198 0 -0.038199687361361971 0.00406852682499505 0 -0.032353915034248178 0.003266062415404647 0 -0.03134411498698067 0.0039965212345178377 0 -0.031273305507382512 0.0028753179415936672 0 -0.038328727823718663 0.003684219152169879 0 -0.037688767148875681 0.004125052356169198 0 -0.038199687361361971 0.00406852682499505 0 -0.034302784978204506 0.0053621799922986555 0 -0.036524202601479226 0.002480194702735901 0 -0.034302784978204506 0.0053621799922986555 0 -0.029968475389297033 0.0018242502395298653 0 -0.032353915034248178 0.003266062415404647 0 -0.031273305507382512 0.0028753179415936672 0 -0.031865228266088189 0.0018758275396139571 0 -0.031273305507382512 0.0028753179415936672 0 -0.030385759996043076 0.0024613613485361613 0 -0.030956974112117223 0.0017112724084632782 0 -0.030273692540734212 0.0033749258680361538 0 -0.031273305507382512 0.0028753179415936672 0 -0.030385759996043076 0.0024613613485361613 0 -0.030385759996043076 0.0024613613485361613 0 -0.030956974112117223 0.0017112724084632782 0 -0.030144566932784885 0.0016715490805740169 0 -0.030956974112117223 0.0017112724084632782 0 -0.030401509052733405 0.00093863687578587857 0 -0.030144566932784885 0.0016715490805740169 0 -0.031273305507382512 0.0028753179415936672 0 -0.030956974112117223 0.0017112724084632782 0 -0.031865228266088189 0.0018758275396139571 0 -0.030956974112117223 0.0017112724084632782 0 -0.031865228266088189 0.0018758275396139571 0 -0.031410103752397771 0.00046349484864316562 0 -0.028347874367916991 0.0013530060828150687 0 -0.028963320231803185 -4.4603633736894932e-05 0 -0.028367057539425693 -0.00017093003815945367 0 -0.030804288138110932 0.0017001146479409053 0 -0.028347874367916991 0.0013530060828150687 0 -0.028963320231803185 -4.4603633736894932e-05 0 -0.028347874367916991 0.0013530060828150687 0 -0.028367057539425693 -0.00017093003815945367 0 -0.027661455885676384 -0.00066439905680048324 0 -0.028263183704605691 -0.00026156329875725865 0 -0.028527440238052624 -0.00012353244691102824 0 -0.028367057539425693 -0.00017093003815945367 0 -0.028527440238052624 -0.00012353244691102824 0 -0.028963320231803185 -4.4603633736894932e-05 0 -0.028367057539425693 -0.00017093003815945367 0 -0.029968475389297033 0.0018242502395298653 0 -0.028483115187205685 0.00092450694627335044 0 -0.028263183704605691 -0.00026156329875725865 0 -0.028367057539425693 -0.00017093003815945367 0 -0.028009627664231772 -0.00042184878856401823 0 -0.028263183704605691 -0.00026156329875725865 0 -0.028009627664231772 -0.00042184878856401823 0 -0.028037571833371484 -0.00037139682446207995 0 -0.028367057539425693 -0.00017093003815945367 0 -0.028009627664231772 -0.00042184878856401823 0 -0.027661455885676384 -0.00066439905680048324 0 -0.028009627664231772 -0.00042184878856401823 0 -0.027661455885676384 -0.00066439905680048324 0 -0.027790999164601426 -0.00051091380222078404 0 -0.026297065612930402 0.0023903248681652997 0 -0.025639773945954267 0.0023548197994633035 0 -0.02479973272843624 0.0027723355861528597 0 -0.030956974112117223 0.0017112724084632782 0 -0.031410103752397771 0.00046349484864316562 0 -0.030401509052733405 0.00093863687578587857 0 -0.028483115187205685 0.00092450694627335044 0 -0.027583938785694859 0.0019405659760726745 0 -0.031410103752397771 0.00046349484864316562 0 -0.030401509052733405 0.00093863687578587857 0 -0.029967702737977144 0.00080991582228616562 0 -0.026297065612930402 0.0023903248681652997 0 -0.025639773945954267 0.0023548197994633035 0 -0.025562784951549008 0.0016338557719922256 0 -0.025639773945954267 0.0023548197994633035 0 -0.025562784951549008 0.0016338557719922256 0 -0.024674239468274555 0.0011461729160546622 0 -0.026297065612930402 0.0023903248681652997 0 -0.025562784951549008 0.0016338557719922256 0 -0.025920406696699736 0.0012181732540319861 0 -0.028483115187205685 0.00092450694627335044 0 -0.026428802372516338 0.00022658088917711379 0 -0.027661455885676384 -0.00066439905680048324 0 -0.027438343495053953 -0.00048277172924349567 0 -0.027153055274469838 -0.0003987971149753888 0 -0.027438343495053953 -0.00048277172924349567 0 -0.027654975126517808 -0.00047063859973422377 0 -0.027626026322361504 -0.00053442480625502079 0 -0.027438343495053953 -0.00048277172924349567 0 -0.027575621924777676 -0.00047593589325236365 0 -0.027654975126517808 -0.00047063859973422377 0 -0.02782339292771966 -0.0004188079202284466 0 -0.027575621924777676 -0.00047593589325236365 0 -0.027654975126517808 -0.00047063859973422377 0 -0.027654975126517808 -0.00047063859973422377 0 -0.027825719916536599 -0.00044799296626325791 0 -0.027626026322361504 -0.00053442480625502079 0 -0.02782339292771966 -0.0004188079202284466 0 -0.027654975126517808 -0.00047063859973422377 0 -0.027825719916536599 -0.00044799296626325791 0 -0.028058725727218025 -0.00033255005804499755 0 -0.028037571833371484 -0.00037139682446207995 0 -0.027825719916536599 -0.00044799296626325791 0 -0.028009627664231772 -0.00042184878856401823 0 -0.028037571833371484 -0.00037139682446207995 0 -0.027825719916536599 -0.00044799296626325791 0 -0.027825719916536599 -0.00044799296626325791 0 -0.027790999164601426 -0.00051091380222078404 0 -0.027626026322361504 -0.00053442480625502079 0 -0.028009627664231772 -0.00042184878856401823 0 -0.027825719916536599 -0.00044799296626325791 0 -0.027790999164601426 -0.00051091380222078404 0 -0.027661455885676384 -0.00066439905680048324 0 -0.027790999164601426 -0.00051091380222078404 0 -0.027626026322361504 -0.00053442480625502079 0 -0.027661455885676384 -0.00066439905680048324 0 -0.027438343495053953 -0.00048277172924349567 0 -0.027626026322361504 -0.00053442480625502079 0 -0.023897512063988966 0.0021671724585530087 0 -0.023083830684831486 0.0015992726141464849 0 -0.02359018172849681 0.0010864321923456934 0 -0.023897512063988966 0.0021671724585530087 0 -0.024472678509508631 0.0012590916940393557 0 -0.02359018172849681 0.0010864321923456934 0 -0.023897512063988966 0.0021671724585530087 0 -0.023447364947372755 0.0030632901856340136 0 -0.023083830684831486 0.0015992726141464849 0 -0.023897512063988966 0.0021671724585530087 0 -0.024691730301702085 0.0021357241465561681 0 -0.024472678509508631 0.0012590916940393557 0 -0.02557963271813514 0.0022952458200835237 0 -0.024583017195152036 0.0012406563892024404 0 -0.025639773945954267 0.0023548197994633035 0 -0.024691730301702085 0.0021357241465561681 0 -0.024472678509508631 0.0012590916940393557 0 -0.030401356660725541 0.0010878018364456703 0 -0.028440761947299196 0.0011106578468478897 0 -0.023897512063988966 0.0021671724585530087 0 -0.024691730301702085 0.0021357241465561681 0 -0.02479973272843624 0.0027723355861528597 0 -0.030401509052733405 0.00093863687578587857 0 -0.029967702737977144 0.00080991582228616562 0 -0.028416408642238631 0.0016357906039135462 0 -0.025639773945954267 0.0023548197994633035 0 -0.024691730301702085 0.0021357241465561681 0 -0.02479973272843624 0.0027723355861528597 0 -0.029967702737977144 0.00080991582228616562 0 -0.02830500300633294 0.0012280470250496747 0 -0.028416408642238631 0.0016357906039135462 0 -0.024943570596812729 0.00070955820802991643 0 -0.022818819560555943 0.0010735607805506639 0 -0.027583938785694859 0.0019405659760726745 0 -0.024943570596812729 0.00070955820802991643 0 -0.023897512063988966 0.0021671724585530087 0 -0.02479973272843624 0.0027723355861528597 0 -0.023447364947372755 0.0030632901856340136 0 -0.028440761947299196 0.0011106578468478897 0 -0.032232481675543524 0.00083930657836743853 0 -0.032669640448950439 -0.00090426581187630784 0 -0.032943228397025563 0.00018557286140228371 0 -0.032226004705029884 -0.00025304014478652929 0 -0.028911917859476534 0.0014922472270860641 0 -0.029735405147872904 0.0020721200661583433 0 -0.029234887531316429 0.002747314279308858 0 -0.024943570596812729 0.00070955820802991643 0 -0.028440761947299196 0.0011106578468478897 0 -0.028911917859476534 0.0014922472270860641 0 -0.030144566932784885 0.0016715490805740169 0 -0.029735405147872904 0.0020721200661583433 0 -0.030401509052733405 0.00093863687578587857 0 -0.028911917859476534 0.0014922472270860641 0 -0.030144566932784885 0.0016715490805740169 0 -0.030385759996043076 0.0024613613485361613 0 -0.030144566932784885 0.0016715490805740169 0 -0.029735405147872904 0.0020721200661583433 0 -0.031792039456149397 0.0020258695736787217 0 -0.032232481675543524 0.00083930657836743853 0 -0.030385759996043076 0.0024613613485361613 0 -0.029735405147872904 0.0020721200661583433 0 -0.029234887531316429 0.002747314279308858 0 -0.034454428587778627 0.00094981566491717699 0 -0.033262550127293962 0.00027245788083826581 0 -0.033289115256591631 0.00037024379944279628 0 -0.030273692540734212 0.0033749258680361538 0 -0.030385759996043076 0.0024613613485361613 0 -0.029234887531316429 0.002747314279308858 0 -0.032232481675543524 0.00083930657836743853 0 -0.032466383940706396 -0.0001408702136925595 0 -0.032677228240393714 0.00066563529619587981 0 -0.033260931254927219 0.00027447868570725187 0 -0.033289115256591631 0.00037024379944279628 0 -0.032232481675543524 0.00083930657836743853 0 -0.032253999919831827 0.00081241958095255146 0 -0.032677228240393714 0.00066563529619587981 0 -0.033260931254927219 0.00027447868570725187 0 -0.032226004705029884 -0.00025304014478652929 0 -0.032226004705029884 -0.00025304014478652929 0 -0.031784817028192115 -0.0006650536433367184 0 -0.031676222352572177 0.00075402478194969678 0 -0.032677228240393714 0.00066563529619587981 0 -0.032226004705029884 -0.00025304014478652929 0 -0.031676222352572177 0.00075402478194969678 0 -0.03574818402773438 -0.0032619214131171803 0 -0.035193602384782613 -0.0019377991050838267 0 -0.03703957790893294 -0.0017906391414430557 0 -0.030758607676691946 -0.00031896084059909822 0 -0.031784817028192115 -0.0006650536433367184 0 -0.031676222352572177 0.00075402478194969678 0 -0.029711196415399699 -0.0011922516349067382 0 -0.034832065304806217 -0.00040351680151718019 0 -0.024184740747389601 -0.00021808725047762221 0 -0.024637255407216386 -0.00053740331343373555 0 -0.026387557472370964 -0.00018150746646659332 0 -0.029711196415399699 -0.0011922516349067382 0 -0.027421202566139925 -0.00066769913703537513 0 -0.024893120978634792 -0.0014641629735028289 0 -0.024637255407216386 -0.00053740331343373555 0 -0.023667831234513548 -0.00079018800245051542 0 -0.024540712077246656 -0.0005308043290883351 0 -0.023290684627480782 -0.00018762815538996168 0 -0.024184740747389601 -0.00021808725047762221 0 -0.024637255407216386 -0.00053740331343373555 0 -0.02326385887885787 -0.00020895019485582682 0 -0.024637255407216386 -0.00053740331343373555 0 -0.023667831234513548 -0.00079018800245051542 0 -0.023652710574443559 -0.00037147129553856281 0 -0.023000389928818057 -0.00019429339137500224 0 -0.022935787816420229 -0.00043860002299991202 0 -0.023652710574443559 -0.00037147129553856281 0 -0.028440761947299196 0.0011106578468478897 0 -0.027421202566139925 -0.00066769913703537513 0 -0.022935787816420229 -0.00043860002299991202 0 -0.023667831234513548 -0.00079018800245051542 0 -0.023652710574443559 -0.00037147129553856281 0 -0.032669640448950439 -0.00090426581187630784 0 -0.032226004705029884 -0.00025304014478652929 0 -0.031784817028192115 -0.0006650536433367184 0 -0.024943570596812729 0.00070955820802991643 0 -0.023290684627480782 -0.00018762815538996168 0 -0.022979044948486415 -0.00010508565716856292 0 -0.02326385887885787 -0.00020895019485582682 0 -0.023188354164182367 3.723530204418684e-05 0 -0.022979044948486415 -0.00010508565716856292 0 -0.023188354164182367 3.723530204418684e-05 0 -0.022969357650504521 0.00028601056304208849 0 -0.02326385887885787 -0.00020895019485582682 0 -0.023188354164182367 3.723530204418684e-05 0 -0.023605623671960476 2.5121529971681834e-05 0 -0.024184740747389601 -0.00021808725047762221 0 -0.02326385887885787 -0.00020895019485582682 0 -0.023605623671960476 2.5121529971681834e-05 0 -0.024184740747389601 -0.00021808725047762221 0 -0.023605623671960476 2.5121529971681834e-05 0 -0.023077082404004086 -1.6786100413445694e-07 0 -0.023605623671960476 2.5121529971681834e-05 0 -0.023300727197409606 0.00013881040176036825 0 -0.023077082404004086 -1.6786100413445694e-07 0 -0.023188354164182367 3.723530204418684e-05 0 -0.023605623671960476 2.5121529971681834e-05 0 -0.023300727197409606 0.00013881040176036825 0 -0.023300727197409606 0.00013881040176036825 0 -0.023008069759732769 0.00015588391168064712 0 -0.023077082404004086 -1.6786100413445694e-07 0 -0.023300727197409606 0.00013881040176036825 0 -0.023008069759732769 0.00015588391168064712 0 -0.023040578942892215 0.00024040244667562151 0 -0.023300727197409606 0.00013881040176036825 0 -0.023040578942892215 0.00024040244667562151 0 -0.022969357650504521 0.00028601056304208849 0 -0.023188354164182367 3.723530204418684e-05 0 -0.023300727197409606 0.00013881040176036825 0 -0.022969357650504521 0.00028601056304208849 0 -0.024814487607789936 0.00029659301695515191 0 -0.023906063811299512 4.0429471797503777e-07 0 -0.026654471786645751 0.00053273520664261003 0 -0.02674135987113898 2.6070572790911828e-06 0 -0.023908667713160262 -1.4459930954720737e-06 0 -0.023008069759732769 0.00015588391168064712 0 -0.023077082404004086 -1.6786100413445694e-07 0 -0.022735667333584071 0.00029836142497532557 0 -0.026654471786645751 0.00053273520664261003 0 -0.027354078896339302 0.00011694168782908573 0 -0.026387557472370964 -0.00018150746646659332 0 -0.024184740747389601 -0.00021808725047762221 0 -0.026654471786645751 0.00053273520664261003 0 -0.026387557472370964 -0.00018150746646659332 0 -0.024149786522575156 -0.00032315763667260051 0 -0.024814487607789936 0.00029659301695515191 0 -0.027354078896339302 0.00011694168782908573 0 -0.02674135987113898 2.6070572790911828e-06 0 -0.029574217209537377 -3.8363262194657541e-06 0 -0.026654471786645751 0.00053273520664261003 0 -0.027354078896339302 0.00011694168782908573 0 -0.02674135987113898 2.6070572790911828e-06 0 -0.027354078896339302 0.00011694168782908573 0 -0.027352136506544025 -0.00047745647246327723 0 -0.026387557472370964 -0.00018150746646659332 0 -0.027354078896339302 0.00011694168782908573 0 -0.027352136506544025 -0.00047745647246327723 0 -0.029574217209537377 -3.8363262194657541e-06 0 -0.02552750512958284 -0.00098745891690508254 0 -0.027352136506544025 -0.00047745647246327723 0 -0.026387557472370964 -0.00018150746646659332 0 -0.024893120978634792 -0.0014641629735028289 0 -0.024637255407216386 -0.00053740331343373555 0 -0.026387557472370964 -0.00018150746646659332 0 -0.029711196415399699 -0.0011922516349067382 0 -0.0256019567598854 -0.00099511975917551329 0 -0.029711196415399699 -0.0011922516349067382 0 -0.031314264450601106 -0.001314977674984746 0 -0.03574818402773438 -0.0032619214131171803 0 -0.033558520163887169 -0.0024959256367986758 0 -0.035193602384782613 -0.0019377991050838267 0 -0.02552750512958284 -0.00098745891690508254 0 -0.027352136506544025 -0.00047745647246327723 0 -0.028292048877643111 -0.0017949086884272198 0 -0.027352136506544025 -0.00047745647246327723 0 -0.029574217209537377 -3.8363262194657541e-06 0 -0.028292048877643111 -0.0017949086884272198 0 -0.029578640364069601 -9.0169202104746894e-07 0 -0.031314264450601106 -0.001314977674984746 0 -0.029580014595714563 -2.4832611582167088e-09 0 -0.030598112035062387 -3.0352266263857333e-06 0 -0.030832234885264206 -6.3864458410193157e-09 0 -0.031314264450601106 -0.001314977674984746 0 -0.03083422478466925 -1.3376061828533354e-06 0 -0.031314264450601106 -0.001314977674984746 0 -0.035471526318983239 -0.00032732829217141715 0 -0.037719151577910844 1.5903380355763757e-06 0 -0.030841242316016357 -4.0728572097373164e-06 0 -0.036283753965858027 -7.9046320410898255e-05 0 -0.030841242316016357 -4.0728572097373164e-06 0 -0.035451272838200598 -0.00042527338107940836 0 -0.036283753965858027 -7.9046320410898255e-05 0 -0.031742151693527933 -0.00049416677346220377 0 -0.030841242316016357 -4.0728572097373164e-06 0 -0.035451272838200598 -0.00042527338107940836 0 -0.035471526318983239 -0.00032732829217141715 0 -0.037506339365745434 0.000615229804795854 0 -0.034957199640242284 -0.00051470081762000218 0 -0.035193602384782613 -0.0019377991050838267 0 -0.036172956135404964 -0.00085594325703284278 0 -0.033558520163887169 -0.0024959256367986758 0 -0.034957199640242284 -0.00051470081762000218 0 -0.035193602384782613 -0.0019377991050838267 0 -0.035193602384782613 -0.0019377991050838267 0 -0.036172956135404964 -0.00085594325703284278 0 -0.03703957790893294 -0.0017906391414430557 0 -0.036172956135404964 -0.00085594325703284278 0 -0.03703957790893294 -0.0017906391414430557 0 -0.037211996460256483 -0.00041419629958859886 0 -0.038336107653214949 -0.00032379257326942389 0 -0.03703957790893294 -0.0017906391414430557 0 -0.037211996460256483 -0.00041419629958859886 0 -0.035356325172657528 0.00078248952536114633 0 -0.034832065304806217 -0.00040351680151718019 0 -0.032663453066165971 0.0019113360567607853 0 -0.032677228240393714 0.00066563529619587981 0 -0.031676222352572177 0.00075402478194969678 0 -0.037211996460256483 -0.00041419629958859886 0 -0.036456755322962831 0.00035747508982331936 0 -0.038113391055445166 0.00077610756170127344 0 -0.038336107653214949 -0.00032379257326942389 0 -0.037211996460256483 -0.00041419629958859886 0 -0.038113391055445166 0.00077610756170127344 0 -0.034957199640242284 -0.00051470081762000218 0 -0.036456755322962831 0.00035747508982331936 0 -0.036375677759912642 0.0013486749427432372 0 -0.034957199640242284 -0.00051470081762000218 0 -0.036172956135404964 -0.00085594325703284278 0 -0.036456755322962831 0.00035747508982331936 0 -0.036172956135404964 -0.00085594325703284278 0 -0.037211996460256483 -0.00041419629958859886 0 -0.036456755322962831 0.00035747508982331936 0 -0.040386645738542261 0.00030213653647831028 0 -0.040414384534565417 0.00015746069604292092 0 -0.038496555498494303 -0.00025456442877427551 0 -0.036456755322962831 0.00035747508982331936 0 -0.036375677759912642 0.0013486749427432372 0 -0.038078301055119314 0.0019313682451956693 0 -0.040386645738542261 0.00030213653647831028 0 -0.038496555498494303 -0.00025456442877427551 0 -0.038638033430584043 0.00012496073344352463 0 -0.036853636800828947 0.00052872928888459401 0 -0.037163615497502377 0.0020108082736824732 0 -0.036456755322962831 0.00035747508982331936 0 -0.038113391055445166 0.00077610756170127344 0 -0.038056517455553496 0.002191209384532938 0 -0.037772215040188052 0.0031138629025715585 0 -0.036375677759912642 0.0013486749427432372 0 -0.038078301055119314 0.0019313682451956693 0 -0.038479209263384974 0.0017577319306701638 0 -0.037506339365745434 0.000615229804795854 0 -0.037719151577910844 1.5903380355763757e-06 0 -0.038638033430584043 0.00012496073344352463 0 -0.036283753965858027 -7.9046320410898255e-05 0 -0.035451272838200598 -0.00042527338107940836 0 -0.038496555498494303 -0.00025456442877427551 0 -0.036283753965858027 -7.9046320410898255e-05 0 -0.038496555498494303 -0.00025456442877427551 0 -0.038638033430584043 0.00012496073344352463 0 -0.036283753965858027 -7.9046320410898255e-05 0 -0.015371534591056441 9.8953453032007673e-05 0 -0.015128818089443268 -7.9623366731820171e-05 0 -0.015127680280784806 -0.0003404463650520699 0 -0.015371534591056441 9.8953453032007673e-05 0 -0.01523957895721113 1.9817518155341855e-05 0 -0.015128818089443268 -7.9623366731820171e-05 0 -0.015371534591056441 9.8953453032007673e-05 0 -0.014704789775261171 1.1550692999448427e-07 0 -0.015208824319101789 -0.00015258895235814319 0 -0.015371534591056441 9.8953453032007673e-05 0 -0.014704789775261171 1.1550692999448427e-07 0 -0.016657419185329144 -2.957424013944175e-07 0 -0.013314362874365382 -0.0012869526513227423 0 -0.013062239646543702 -0.00059278859153998542 0 -0.014695000536441963 6.5005222339884954e-09 0 -0.013293717034515306 2.908078751856428e-07 0 -0.013649247871244894 8.9422856187553796e-05 0 -0.014695000536441963 6.5005222339884954e-09 0 -0.01346847376956853 -1.7554779219814072e-08 0 -0.013649247871244894 8.9422856187553796e-05 0 -0.014697862720409214 3.9094023319275127e-07 0 -0.013314362874365382 -0.0012869526513227423 0 -0.013464971553060697 -6.6656430524783804e-07 0 -0.013062239646543702 -0.00059278859153998542 0 -0.013463071361021713 -5.2246584770166642e-09 0 -0.013209572619548617 3.5192953187216787e-09 0 -0.013277926814375941 -3.2606143290899532e-06 0 -0.013204472884630515 -3.6307982281032167e-07 0 -0.012499782429936388 7.8735771022383184e-05 0 -0.011879923718908654 3.3191627347997154e-07 0 -0.012447108108213407 -8.8577630288544707e-05 0 -0.012499782429936388 7.8735771022383184e-05 0 -0.012380032358277513 7.0076765906701205e-05 0 -0.013207268588483752 -6.5966422411987183e-07 0 -0.013062239646543702 -0.00059278859153998542 0 -0.013204472884630515 -3.6307982281032167e-07 0 -0.012447108108213407 -8.8577630288544707e-05 0 -0.012499782429936388 7.8735771022383184e-05 0 -0.013062239646543702 -0.00059278859153998542 0 -0.012235258256521261 -0.0020113708414502786 0 -0.012843378781260587 -0.0013861329054837496 0 -0.013005869966005447 -0.0013674330305323303 0 -0.012762698077018877 -0.0013107335535037564 0 -0.012447108108213407 -8.8577630288544707e-05 0 -0.012415949419623602 2.0204912615848392e-05 0 -0.012380032358277513 7.0076765906701205e-05 0 -0.012235258256521261 -0.0020113708414502786 0 -0.0050804654493330917 -0.0049131321375339874 0 -0.015371534591056441 9.8953453032007673e-05 0 -0.015208824319101789 -0.00015258895235814319 0 -0.01523957895721113 1.9817518155341855e-05 0 -0.012132000505161208 -0.0028310575516267422 0 -0.010491097931341779 -0.0034830887865251623 0 -0.0087740614547424864 -0.002014318055817478 0 -0.013314362874365382 -0.0012869526513227423 0 -0.012235258256521261 -0.0020113708414502786 0 -0.013314362874365382 -0.0012869526513227423 0 -0.013189251324541662 -0.0017425966299709306 0 -0.012586427323530568 -0.0032632732333499489 0 -0.012132000505161208 -0.0028310575516267422 0 -0.010491097931341779 -0.0034830887865251623 0 -0.010491097931341779 -0.0034830887865251623 0 -0.0084019747101490763 -0.0036962936474319967 0 -0.0087740614547424864 -0.002014318055817478 0 -0.0022350121684124821 -0.0084809025575008721 0 -0.0013641118838768542 -0.0071940424585787465 0 -0.0026429886049586827 -0.0066378375987094168 0 -0.010024712433473342 -0.0031999004346834259 0 -0.0050804654493330917 -0.0049131321375339874 0 -0.01523957895721113 1.9817518155341855e-05 0 -0.015000820711761856 3.5876907262804618e-05 0 -0.015128818089443268 -7.9623366731820171e-05 0 -0.013189251324541662 -0.0017425966299709306 0 -0.010024712433473342 -0.0031999004346834259 0 -0.0022350121684124821 -0.0084809025575008721 0 -0.00050026912495227912 -0.0076223147970128843 0 0.00087903337667552355 -0.00868545400061526 0 -0.010024712433473342 -0.0031999004346834259 0 -0.0056263886982360831 -0.0049232130762133898 0 -0.00050026912495227912 -0.0076223147970128843 0 0.00065931050776310617 -0.0074508237378223124 0 -9.5018652700267305e-05 -0.0060641963752459133 0 -0.00050026912495227912 -0.0076223147970128843 0 -0.0013641118838768542 -0.0071940424585787465 0 -9.5018652700267305e-05 -0.0060641963752459133 0 -0.00050026912495227912 -0.0076223147970128843 0 0.00087903337667552355 -0.00868545400061526 0 0.00065931050776310617 -0.0074508237378223124 0 -0.0022350121684124821 -0.0084809025575008721 0 -0.00050026912495227912 -0.0076223147970128843 0 -0.0013641118838768542 -0.0071940424585787465 0 -0.014753343175752701 -0.00060572413674375367 0 -0.015029121305822159 -0.00036604237993160486 0 -0.015055245361570218 -0.00059128069044794515 0 -0.014753343175752701 -0.00060572413674375367 0 -0.014949040836870004 -0.00024702782994076182 0 -0.015029121305822159 -0.00036604237993160486 0 -0.015000820711761856 3.5876907262804618e-05 0 -0.014949040836870004 -0.00024702782994076182 0 -0.015128818089443268 -7.9623366731820171e-05 0 -0.010024712433473342 -0.0031999004346834259 0 -0.015629955609768518 0.0010836823609287388 0 -0.018274523000714148 -0.0012121489587051881 0 -0.018251032845520671 -0.00099001991067061115 0 -0.014949040836870004 -0.00024702782994076182 0 -0.015128818089443268 -7.9623366731820171e-05 0 -0.015127680280784806 -0.0003404463650520699 0 -0.014949040836870004 -0.00024702782994076182 0 -0.014972467276389368 -0.00022668604847252366 0 -0.015127680280784806 -0.0003404463650520699 0 -0.022946013229136999 -0.0019239974393055498 0 -0.022081502986876958 -0.00078029500006293259 0 -0.02101265417351305 -0.0018256143463060428 0 -0.014949040836870004 -0.00024702782994076182 0 -0.015029121305822159 -0.00036604237993160486 0 -0.014972467276389368 -0.00022668604847252366 0 -0.022946013229136999 -0.0019239974393055498 0 -0.023067908827768564 -0.00078599618355355448 0 -0.022081502986876958 -0.00078029500006293259 0 -0.022081502986876958 -0.00078029500006293259 0 -0.02101265417351305 -0.0018256143463060428 0 -0.021110455710837757 -0.00017517723527876009 0 -0.02101265417351305 -0.0018256143463060428 0 -0.019463302733697056 -0.00024811823469851499 0 -0.021110455710837757 -0.00017517723527876009 0 -0.015371534591056441 9.8953453032007673e-05 0 -0.015127680280784806 -0.0003404463650520699 0 -0.016657419185329144 -2.957424013944175e-07 0 -0.018251032845520671 -0.00099001991067061115 0 -0.016664263385024781 -4.2354992024292638e-07 0 -0.02101265417351305 -0.0018256143463060428 0 -0.016669387826369696 -4.2747722475747321e-06 0 -0.019463302733697056 -0.00024811823469851499 0 -0.016669387826369696 -4.2747722475747321e-06 0 -0.019463302733697056 -0.00024811823469851499 0 -0.019077147026527012 1.0985587600343517e-06 0 -0.019077147026527012 1.0985587600343517e-06 0 -0.02083671030480053 0.0001758942264698514 0 -0.021493589983562589 8.1206050882871408e-07 0 -0.019463302733697056 -0.00024811823469851499 0 -0.019077147026527012 1.0985587600343517e-06 0 -0.02083671030480053 0.0001758942264698514 0 -0.019463302733697056 -0.00024811823469851499 0 -0.02083671030480053 0.0001758942264698514 0 -0.021110455710837757 -0.00017517723527876009 0 -0.02083671030480053 0.0001758942264698514 0 -0.021110455710837757 -0.00017517723527876009 0 -0.021845311334746653 0.00014764815806719974 0 -0.02083671030480053 0.0001758942264698514 0 -0.021864024717243954 0.00024932020636269183 0 -0.021845311334746653 0.00014764815806719974 0 -0.02083671030480053 0.0001758942264698514 0 -0.021864024717243954 0.00024932020636269183 0 -0.021493589983562589 8.1206050882871408e-07 0 -0.021493589983562589 8.1206050882871408e-07 0 -0.022735667333584071 0.00029836142497532557 0 -0.023899731750981184 -1.5707349212089988e-07 0 -0.021864024717243954 0.00024932020636269183 0 -0.021493589983562589 8.1206050882871408e-07 0 -0.022735667333584071 0.00029836142497532557 0 -0.021864024717243954 0.00024932020636269183 0 -0.022735667333584071 0.00029836142497532557 0 -0.022468985424897527 0.00038654380292741942 0 -0.023008069759732769 0.00015588391168064712 0 -0.022735667333584071 0.00029836142497532557 0 -0.022815395858211109 0.0002841082999439438 0 -0.023077082404004086 -1.6786100413445694e-07 0 -0.022735667333584071 0.00029836142497532557 0 -0.023899731750981184 -1.5707349212089988e-07 0 -0.022969357650504521 0.00028601056304208849 0 -0.022850211687719162 0.00034638326752625377 0 -0.022795147396334921 0.0003974055501889881 0 -0.023083830684831486 0.0015992726141464849 0 -0.022795147396334921 0.0003974055501889881 0 -0.02359018172849681 0.0010864321923456934 0 -0.022818819560555943 0.0010735607805506639 0 -0.022866991190339608 0.00039123626058436902 0 -0.023040578942892215 0.00024040244667562151 0 -0.022969357650504521 0.00028601056304208849 0 -0.022850211687719162 0.00034638326752625377 0 -0.023040578942892215 0.00024040244667562151 0 -0.022815395858211109 0.0002841082999439438 0 -0.022850211687719162 0.00034638326752625377 0 -0.022735667333584071 0.00029836142497532557 0 -0.022815395858211109 0.0002841082999439438 0 -0.022468985424897527 0.00038654380292741942 0 -0.022815395858211109 0.0002841082999439438 0 -0.022850211687719162 0.00034638326752625377 0 -0.022468985424897527 0.00038654380292741942 0 -0.023008069759732769 0.00015588391168064712 0 -0.023040578942892215 0.00024040244667562151 0 -0.022815395858211109 0.0002841082999439438 0 -0.022850211687719162 0.00034638326752625377 0 -0.022468985424897527 0.00038654380292741942 0 -0.022795147396334921 0.0003974055501889881 0 -0.022468985424897527 0.00038654380292741942 0 -0.022795147396334921 0.0003974055501889881 0 -0.022677151885745466 8.4034673824131626e-05 0 -0.022795147396334921 0.0003974055501889881 0 -0.022677151885745466 8.4034673824131626e-05 0 -0.023417822755604428 0.00038989454645720788 0 -0.022770460435125931 6.1671614639195998e-05 0 -0.023542556739898354 0.00046339083316727421 0 -0.022468985424897527 0.00038654380292741942 0 -0.022677151885745466 8.4034673824131626e-05 0 -0.021845311334746653 0.00014764815806719974 0 -0.021864024717243954 0.00024932020636269183 0 -0.022468985424897527 0.00038654380292741942 0 -0.021845311334746653 0.00014764815806719974 0 -0.022081502986876958 -0.00078029500006293259 0 -0.022677151885745466 8.4034673824131626e-05 0 -0.021845311334746653 0.00014764815806719974 0 -0.022081502986876958 -0.00078029500006293259 0 -0.021110455710837757 -0.00017517723527876009 0 -0.021845311334746653 0.00014764815806719974 0 -0.023067908827768564 -0.00078599618355355448 0 -0.022677151885745466 8.4034673824131626e-05 0 -0.023825334450324785 -0.00015453830513218329 0 -0.023067908827768564 -0.00078599618355355448 0 -0.022081502986876958 -0.00078029500006293259 0 -0.022677151885745466 8.4034673824131626e-05 0 -0.023067908827768564 -0.00078599618355355448 0 -0.023825334450324785 -0.00015453830513218329 0 -0.023812896983219409 -0.0012810145826282844 0 -0.025899199147806209 -0.0011967240304803482 0 -0.025548252908206143 -0.00056420443842246089 0 -0.024481673105849214 -0.0008528205411985634 0 -0.023825334450324785 -0.00015453830513218329 0 -0.02473549481232281 -1.3182670216934981e-06 0 -0.024481673105849214 -0.0008528205411985634 0 -0.023825334450324785 -0.00015453830513218329 0 -0.023812896983219409 -0.0012810145826282844 0 -0.023825334450324785 -0.00015453830513218329 0 -0.024191756988708554 0.00017489675283118665 0 -0.02473549481232281 -1.3182670216934981e-06 0 -0.023825334450324785 -0.00015453830513218329 0 -0.023719574458274505 0.00053099824962348603 0 -0.024191756988708554 0.00017489675283118665 0 -0.022677151885745466 8.4034673824131626e-05 0 -0.023825334450324785 -0.00015453830513218329 0 -0.023719574458274505 0.00053099824962348603 0 -0.023719574458274505 0.00053099824962348603 0 -0.024191756988708554 0.00017489675283118665 0 -0.02456491803021384 0.00036525402355159516 0 -0.022795147396334921 0.0003974055501889881 0 -0.023417822755604428 0.00038989454645720788 0 -0.02359018172849681 0.0010864321923456934 0 -0.023719574458274505 0.00053099824962348603 0 -0.02456491803021384 0.00036525402355159516 0 -0.024826888179486872 0.00068898575499684405 0 -0.02456491803021384 0.00036525402355159516 0 -0.025582564261699164 0.00052600332970124475 0 -0.02473549481232281 -1.3182670216934981e-06 0 -0.024191756988708554 0.00017489675283118665 0 -0.02456491803021384 0.00036525402355159516 0 -0.02473549481232281 -1.3182670216934981e-06 0 -0.023719574458274505 0.00053099824962348603 0 -0.024826888179486872 0.00068898575499684405 0 -0.024674239468274555 0.0011461729160546622 0 -0.02456491803021384 0.00036525402355159516 0 -0.024826888179486872 0.00068898575499684405 0 -0.025582564261699164 0.00052600332970124475 0 -0.025562784951549008 0.0016338557719922256 0 -0.024674239468274555 0.0011461729160546622 0 -0.025322839458470289 0.0010553935548223248 0 -0.024826888179486872 0.00068898575499684405 0 -0.024674239468274555 0.0011461729160546622 0 -0.025322839458470289 0.0010553935548223248 0 -0.023542556739898354 0.00046339083316727421 0 -0.024583017195152036 0.0012406563892024404 0 -0.023417822755604428 0.00038989454645720788 0 -0.024472678509508631 0.0012590916940393557 0 -0.02359018172849681 0.0010864321923456934 0 -0.027241497154334871 -0.00048717654129106809 0 -0.026828091879595093 -0.00048665462117039018 0 -0.027076161879186624 -0.00072938751887887082 0 -0.027241497154334871 -0.00048717654129106809 0 -0.027076161879186624 -0.00072938751887887082 0 -0.027512043659617343 -0.00062554154140260284 0 -0.027575621924777676 -0.00047593589325236365 0 -0.027241497154334871 -0.00048717654129106809 0 -0.027512043659617343 -0.00062554154140260284 0 -0.027438343495053953 -0.00048277172924349567 0 -0.027575621924777676 -0.00047593589325236365 0 -0.027241497154334871 -0.00048717654129106809 0 -0.027438343495053953 -0.00048277172924349567 0 -0.027241497154334871 -0.00048717654129106809 0 -0.027153055274469838 -0.0003987971149753888 0 -0.027241497154334871 -0.00048717654129106809 0 -0.027153055274469838 -0.0003987971149753888 0 -0.026828091879595093 -0.00048665462117039018 0 -0.027153055274469838 -0.0003987971149753888 0 -0.026828091879595093 -0.00048665462117039018 0 -0.026160830104526672 -0.00037605896159280671 0 -0.026428802372516338 0.00022658088917711379 0 -0.02619660863946267 -0.00037944094076129529 0 -0.025920406696699736 0.0012181732540319861 0 -0.025582564261699164 0.00052600332970124475 0 -0.026160830104526672 -0.00037605896159280671 0 -0.025562784951549008 0.0016338557719922256 0 -0.025920406696699736 0.0012181732540319861 0 -0.025322839458470289 0.0010553935548223248 0 -0.025920406696699736 0.0012181732540319861 0 -0.025322839458470289 0.0010553935548223248 0 -0.025582564261699164 0.00052600332970124475 0 -0.024826888179486872 0.00068898575499684405 0 -0.025322839458470289 0.0010553935548223248 0 -0.025582564261699164 0.00052600332970124475 0 -0.02562080774539164 0.00052287943648615263 0 -0.025548252908206143 -0.00056420443842246089 0 -0.026160830104526672 -0.00037605896159280671 0 -0.02676666421439549 -0.0011265388537205724 0 -0.026414653030982015 -0.001421433789166285 0 -0.026828091879595093 -0.00048665462117039018 0 -0.026160830104526672 -0.00037605896159280671 0 -0.02676666421439549 -0.0011265388537205724 0 -0.025582564261699164 0.00052600332970124475 0 -0.026160830104526672 -0.00037605896159280671 0 -0.026414653030982015 -0.001421433789166285 0 -0.026828091879595093 -0.00048665462117039018 0 -0.02676666421439549 -0.0011265388537205724 0 -0.027076161879186624 -0.00072938751887887082 0 -0.027076161879186624 -0.00072938751887887082 0 -0.027117210011304141 -0.0010058985796102024 0 -0.027512043659617343 -0.00062554154140260284 0 -0.02676666421439549 -0.0011265388537205724 0 -0.027076161879186624 -0.00072938751887887082 0 -0.027117210011304141 -0.0010058985796102024 0 -0.026526065429458616 -0.00094589703666920631 0 -0.026225618226379217 -0.00050149188193118418 0 -0.026715622772425819 -0.0016168149507374621 0 -0.02676666421439549 -0.0011265388537205724 0 -0.026614502562630614 -0.0013417586840324385 0 -0.026715622772425819 -0.0016168149507374621 0 -0.02676666421439549 -0.0011265388537205724 0 -0.026715622772425819 -0.0016168149507374621 0 -0.027117210011304141 -0.0010058985796102024 0 -0.02676666421439549 -0.0011265388537205724 0 -0.026414653030982015 -0.001421433789166285 0 -0.026614502562630614 -0.0013417586840324385 0 -0.026758837265824929 -0.0010959091548687001 0 -0.026414653030982015 -0.001421433789166285 0 -0.026614502562630614 -0.0013417586840324385 0 -0.026758837265824929 -0.0010959091548687001 0 -0.026614502562630614 -0.0013417586840324385 0 -0.026526065429458616 -0.00094589703666920631 0 -0.026614502562630614 -0.0013417586840324385 0 -0.026526065429458616 -0.00094589703666920631 0 -0.026715622772425819 -0.0016168149507374621 0 -0.026526065429458616 -0.00094589703666920631 0 -0.026360171359909167 -0.00052218979477209378 0 -0.026225618226379217 -0.00050149188193118418 0 -0.026360171359909167 -0.00052218979477209378 0 -0.026308720238207822 -0.00057217114057740671 0 -0.026225618226379217 -0.00050149188193118418 0 -0.027460303009522107 -0.00055620031754475391 0 -0.022915377475944129 -8.4661478476810454e-05 0 -0.026758837265824929 -0.0010959091548687001 0 -0.026360171359909167 -0.00052218979477209378 0 -0.026755111925076149 -0.00053165902662130062 0 -0.026360171359909167 -0.00052218979477209378 0 -0.025802787793310002 -0.00039629168645146577 0 -0.026031861428327249 -0.00067919669195240821 0 -0.026758837265824929 -0.0010959091548687001 0 -0.026526065429458616 -0.00094589703666920631 0 -0.026360171359909167 -0.00052218979477209378 0 -0.024481673105849214 -0.0008528205411985634 0 -0.023812896983219409 -0.0012810145826282844 0 -0.024326461427598277 -0.0019265668262803816 0 -0.025899199147806209 -0.0011967240304803482 0 -0.022915377475944129 -8.4661478476810454e-05 0 -0.022946013229136999 -0.0019239974393055498 0 -0.023067908827768564 -0.00078599618355355448 0 -0.023812896983219409 -0.0012810145826282844 0 -0.018274523000714148 -0.0012121489587051881 0 -0.022915377475944129 -8.4661478476810454e-05 0 -0.022946013229136999 -0.0019239974393055498 0 -0.023812896983219409 -0.0012810145826282844 0 -0.024326461427598277 -0.0019265668262803816 0 -0.014972467276389368 -0.00022668604847252366 0 -0.015524828927619016 -0.00019685037729435365 0 -0.015191649987082868 -0.00038967185010459719 0 -0.015524828927619016 -0.00019685037729435365 0 -0.015191649987082868 -0.00038967185010459719 0 -0.015416939453051857 -0.00058639425763350834 0 -0.025802787793310002 -0.00039629168645146577 0 -0.025691203578113098 -0.00095567623261030941 0 -0.026031861428327249 -0.00067919669195240821 0 -0.022915377475944129 -8.4661478476810454e-05 0 -0.012496338473705923 -0.0025583449125463312 0 -0.015191649987082868 -0.00038967185010459719 0 -0.015055245361570218 -0.00059128069044794515 0 -0.015416939453051857 -0.00058639425763350834 0 -0.015029121305822159 -0.00036604237993160486 0 -0.014972467276389368 -0.00022668604847252366 0 -0.015191649987082868 -0.00038967185010459719 0 -0.015029121305822159 -0.00036604237993160486 0 -0.015191649987082868 -0.00038967185010459719 0 -0.015055245361570218 -0.00059128069044794515 0 0.00087903337667552355 -0.00868545400061526 0 0.001577203716061563 -0.0080287392665416204 0 0.0028487914339353367 -0.0086716392733358939 0 -0.0056263886982360831 -0.0049232130762133898 0 -0.012496338473705923 -0.0025583449125463312 0 0.00087903337667552355 -0.00868545400061526 0 0.001577203716061563 -0.0080287392665416204 0 0.00065931050776310617 -0.0074508237378223124 0 0.0031711142226683309 -0.0077264411898843293 0 -0.0021357920897640058 -0.0067055621704901931 0 0.001577203716061563 -0.0080287392665416204 0 0.0020810027552725869 -0.0074497288261148901 0 0.0015434306528282007 -0.0066967333954106589 0 0.001577203716061563 -0.0080287392665416204 0 0.0020810027552725869 -0.0074497288261148901 0 0.0037750250185099427 -0.0080244083044802624 0 0.0020810027552725869 -0.0074497288261148901 0 0.0028186642058129147 -0.0072188692565697699 0 0.0023289778069888272 -0.0067136228136435499 0 0.0020810027552725869 -0.0074497288261148901 0 0.0015434306528282007 -0.0066967333954106589 0 0.0023289778069888272 -0.0067136228136435499 0 0.001577203716061563 -0.0080287392665416204 0 0.00065931050776310617 -0.0074508237378223124 0 0.0015434306528282007 -0.0066967333954106589 0 -0.0095647906218959983 -0.0025509104797536123 0 -0.0094120167861978851 -0.0035597465746566967 0 -0.012216763780749389 -0.0036143256078534692 0 -0.0011972591037640898 -0.0053791727395337118 0 -0.0011429707224668072 -0.0057455937231024878 0 -0.0028101999624252963 -0.0056849911458637685 0 0.001577203716061563 -0.0080287392665416204 0 0.0028487914339353367 -0.0086716392733358939 0 0.0027448193892875314 -0.0079652888451984347 0 -0.012496338473705923 -0.0025583449125463312 0 -0.0021357920897640058 -0.0067055621704901931 0 0.0020810027552725869 -0.0074497288261148901 0 0.0037750250185099427 -0.0080244083044802624 0 0.0028186642058129147 -0.0072188692565697699 0 0.0037750250185099427 -0.0080244083044802624 0 0.0028186642058129147 -0.0072188692565697699 0 0.0036702017287153004 -0.0072269592153101333 0 -0.0021357920897640058 -0.0067055621704901931 0 0.0012821230962807464 -0.0068947036780613461 0 0.0024813184605981171 -0.006980227173014145 0 0.0012821230962807464 -0.0068947036780613461 0 0.0028186642058129147 -0.0072188692565697699 0 0.0036080889878299873 -0.0072241093343598682 0 0.0029266739820735586 -0.0064374774457309136 0 0.0035519419097306514 -0.0061750024745009973 0 0.0048294386062373825 -0.0061129900620474076 0 0.0041439905188739249 -0.0057286676174925178 0 -0.0095647906218959983 -0.0025509104797536123 0 -0.012216763780749389 -0.0036143256078534692 0 -0.012306076663303184 -0.0022676748973133082 0 0.0012821230962807464 -0.0068947036780613461 0 0.001313116135250278 -0.0059234092899088419 0 -0.0021357920897640058 -0.0067055621704901931 0 -0.0086699615042913469 -0.0044550744500838476 0 -0.0011972591037640898 -0.0053791727395337118 0 -0.0028412967781756065 -0.0053919007835589424 0 -0.0028101999624252963 -0.0056849911458637685 0 0.001313116135250278 -0.0059234092899088419 0 -0.00058769339090396233 -0.004662073506200559 0 -0.0086699615042913469 -0.0044550744500838476 0 -0.0069964881455419903 -0.0031565651085041775 0 -0.0028412967781756065 -0.0053919007835589424 0 -0.0028101999624252963 -0.0056849911458637685 0 -0.0043605340568004074 -0.0056143810294709507 0 -0.0028412967781756065 -0.0053919007835589424 0 -0.0043674078329247745 -0.005391351739401239 0 -0.0043605340568004074 -0.0056143810294709507 0 -0.012216763780749389 -0.0036143256078534692 0 -0.013634379235016382 -0.0023409357316994256 0 -0.014861900263856347 -0.0036553628127368788 0 0.0048294386062373825 -0.0061129900620474076 0 0.0063156332438936858 -0.0060958113394427998 0 0.0062636446638597793 -0.0059598250924158018 0 -0.014167582360063229 -0.0028164916359442603 0 -0.012823178310652042 -0.0027121901485354706 0 -0.012216763780749389 -0.0036143256078534692 0 -0.013634379235016382 -0.0023409357316994256 0 -0.012306076663303184 -0.0022676748973133082 0 -0.020216611480173587 -0.0014686706294046103 0 -0.020830844188608144 -0.00032129478243349513 0 -0.026308720238207822 -0.00057217114057740671 0 -0.026228636098542906 -0.00075694533752715247 0 -0.026332962775902306 -0.00061041022794116435 0 -0.013634379235016382 -0.0023409357316994256 0 -0.012306076663303184 -0.0022676748973133082 0 -0.014979586354705681 -0.0019972192613455183 0 -0.026360171359909167 -0.00052218979477209378 0 -0.026308720238207822 -0.00057217114057740671 0 -0.026228636098542906 -0.00075694533752715247 0 -0.012496338473705923 -0.0025583449125463312 0 -0.020216611480173587 -0.0014686706294046103 0 -0.026360171359909167 -0.00052218979477209378 0 -0.026031861428327249 -0.00067919669195240821 0 -0.026228636098542906 -0.00075694533752715247 0 -0.025691203578113098 -0.00095567623261030941 0 -0.026031861428327249 -0.00067919669195240821 0 -0.026228636098542906 -0.00075694533752715247 0 -0.019034223824838863 -0.00014480983436035042 0 -0.024256781497704251 0.00017965685007106507 0 -0.025155825159458859 0.0011548661846659315 0 -0.026157294163240002 0.0012743581992531454 0 -0.025305804864242481 0.00030599772336167543 0 -0.010528021702496027 -0.0013042130995951043 0 -0.010196961663858244 -0.00066910686761234583 0 -0.0094921543512119476 -0.0007318327939894114 0 -0.019034223824838863 -0.00014480983436035042 0 -0.020830844188608144 -0.00032129478243349513 0 -0.017770332292866738 -4.4557926896138578e-05 0 -0.01560342015851013 -0.00026786847357378933 0 -0.01629087707558477 -0.0016826345442582185 0 -0.020830844188608144 -0.00032129478243349513 0 -0.012823178310652042 -0.0027121901485354706 0 -0.013634379235016382 -0.0023409357316994256 0 -0.014979586354705681 -0.0019972192613455183 0 -0.014963135185936042 -0.0030339947843811173 0 -0.00058769339090396233 -0.004662073506200559 0 -0.0019522824086582852 -0.0018135649765992257 0 -0.0037320511562969789 -0.0029073365660702223 0 -0.0041346736922167017 -0.0028638139809462723 0 -0.0040077681063085194 -0.0028090201737475829 0 0.006198429268719754 -0.0044722275348227196 0 0.0069263351530635909 -0.0044763694333527634 0 0.0065678437109129226 -0.0041381060193662516 0 -0.01145458256136748 -0.00023266254489185496 0 -0.011042987061847458 -1.3563052089372439e-05 0 -0.010695587314316024 -0.00043819712048356283 0 -0.0089410148756604926 -0.001952672445925845 0 -0.0099224531364919925 -0.0024673723277948006 0 -0.009298990640121442 -0.0015508556010254487 0 -0.013634379235016382 -0.0023409357316994256 0 -0.014871578950645168 -0.0030221850219793078 0 -0.014861900263856347 -0.0036553628127368788 0 -0.01560342015851013 -0.00026786847357378933 0 -0.01629087707558477 -0.0016826345442582185 0 -0.015578186623265777 -0.001306202045063865 0 -0.012823178310652042 -0.0027121901485354706 0 -0.0069964881455419903 -0.0031565651085041775 0 -0.010538450647483405 -0.0014442066115779115 0 -0.012823178310652042 -0.0027121901485354706 0 -0.0099224531364919925 -0.0024673723277948006 0 -0.0099233978987713269 -0.0015733269534606146 0 -0.009298990640121442 -0.0015508556010254487 0 -0.0038651591059821414 -0.001915395844074536 0 -0.0038523112453505031 -0.0026879951519927989 0 -0.0047591955878456063 -0.0019409672395620612 0 -0.0069964881455419903 -0.0031565651085041775 0 -0.00058769339090396233 -0.004662073506200559 0 -0.0069964881455419903 -0.0031565651085041775 0 -0.006831426586118022 -0.0025194743905251633 0 -0.00058769339090396233 -0.004662073506200559 0 -0.006831426586118022 -0.0025194743905251633 0 -0.00058769339090396233 -0.004662073506200559 0 -3.7782916650026546e-05 -0.0052110893643051194 0 -0.0037320511562969789 -0.0029073365660702223 0 -0.0038294893229917602 -0.002820482208039661 0 -0.0040077681063085194 -0.0028090201737475829 0 -0.006831426586118022 -0.0025194743905251633 0 -0.008052224153625831 -0.0015939341854481048 0 -0.010538450647483405 -0.0014442066115779115 0 -0.008052224153625831 -0.0015939341854481048 0 -0.0090275336198264531 -0.0019409905226065608 0 -0.0093091027635263338 -0.0016260733705538545 0 -0.0083624643000631514 -0.0015874599807629173 0 -0.010538450647483405 -0.0014442066115779115 0 -0.006831426586118022 -0.0025194743905251633 0 -0.011042987061847458 -1.3563052089372439e-05 0 -0.010695587314316024 -0.00043819712048356283 0 -0.010341757002182912 1.1672772389679989e-05 0 -0.010575316444175241 0.00020486803706180599 0 -0.010953778588519038 -1.7583809982829527e-05 0 -0.010341757002182912 1.1672772389679989e-05 0 -0.010575316444175241 0.00020486803706180599 0 -0.010341757002182912 1.1672772389679989e-05 0 -0.0084116371749729229 0.00024331093735752526 0 -0.008052224153625831 -0.0015939341854481048 0 -0.010493346306325405 -0.00086123055579195602 0 -0.0019522824086582852 -0.0018135649765992257 0 -0.008052224153625831 -0.0015939341854481048 0 -0.010528021702496027 -0.0013042130995951043 0 -0.01145458256136748 -0.00023266254489185496 0 -0.010695587314316024 -0.00043819712048356283 0 -0.010528021702496027 -0.0013042130995951043 0 -0.010695587314316024 -0.00043819712048356283 0 -0.010196961663858244 -0.00066910686761234583 0 -0.019034223824838863 -0.00014480983436035042 0 -0.010538450647483405 -0.0014442066115779115 0 -0.010196961663858244 -0.00066910686761234583 0 -0.010341757002182912 1.1672772389679989e-05 0 -0.0094921543512119476 -0.0007318327939894114 0 -0.010695587314316024 -0.00043819712048356283 0 -0.010196961663858244 -0.00066910686761234583 0 -0.010341757002182912 1.1672772389679989e-05 0 -0.010341757002182912 1.1672772389679989e-05 0 -0.0094921543512119476 -0.0007318327939894114 0 -0.0084116371749729229 0.00024331093735752526 0 -0.0019522824086582852 -0.0018135649765992257 0 -0.0054635224603420789 -0.00084418058327793478 0 -0.0094921543512119476 -0.0007318327939894114 0 -0.0084116371749729229 0.00024331093735752526 0 -0.0086303425549491605 -0.0015188687721756696 0 -0.0084116371749729229 0.00024331093735752526 0 -0.007440508709029266 -0.00069303181217327718 0 -0.0086303425549491605 -0.0015188687721756696 0 -0.0084116371749729229 0.00024331093735752526 0 -0.007440508709029266 -0.00069303181217327718 0 -0.0060595143654467729 0.00026012712026985297 0 -0.0054635224603420789 -0.00084418058327793478 0 0.0023208196112755159 0.00026463452757087569 0 0.00082569672633923139 -0.0019077261008200422 0 0.0033034217433661316 -0.0019089828133702772 0 0.002086128723363783 -0.0013803418010382928 0 -0.015692213345954973 -0.0011568291628387729 0 -0.011938435887265836 -0.0011598428491808297 0 -0.007440508709029266 -0.00069303181217327718 0 -0.0086303425549491605 -0.0015188687721756696 0 -0.0066367422908356986 -0.0017425105184912398 0 -0.010528021702496027 -0.0013042130995951043 0 -0.0094921543512119476 -0.0007318327939894114 0 -0.0086303425549491605 -0.0015188687721756696 0 -0.019034223824838863 -0.00014480983436035042 0 -0.015692213345954973 -0.0011568291628387729 0 -0.02245192007805354 -0.00068984289712873412 0 -0.022715121124190222 -0.00064664214377282004 0 -0.022703248244169586 -0.00052778193737653789 0 -0.022715121124190222 -0.00064664214377282004 0 -0.022703248244169586 -0.00052778193737653789 0 -0.022831939550262439 -0.00056377574710079982 0 -0.022831939550262439 -0.00056377574710079982 0 -0.022821443580828622 -0.00056465918284783877 0 -0.022720641872089047 -0.00059188232960018304 0 -0.022715121124190222 -0.00064664214377282004 0 -0.022831939550262439 -0.00056377574710079982 0 -0.022720641872089047 -0.00059188232960018304 0 -0.022703248244169586 -0.00052778193737653789 0 -0.022831939550262439 -0.00056377574710079982 0 -0.023077126811757106 -0.00071252381246516422 0 -0.024256781497704251 0.00017965685007106507 0 -0.022801201787907923 -0.00089015329300652928 0 -0.022831939550262439 -0.00056377574710079982 0 -0.023077126811757106 -0.00071252381246516422 0 -0.022821443580828622 -0.00056465918284783877 0 -0.023077126811757106 -0.00071252381246516422 0 -0.02413150883661715 -0.00051939050625701526 0 -0.023798312446562008 -0.00097576881949219601 0 -0.023077126811757106 -0.00071252381246516422 0 -0.022821443580828622 -0.00056465918284783877 0 -0.023249764340224407 -0.0012006192204258314 0 -0.024283547995755252 0.00024651462283929493 0 -0.023077126811757106 -0.00071252381246516422 0 -0.02413150883661715 -0.00051939050625701526 0 -0.02413150883661715 -0.00051939050625701526 0 -0.024913780215266353 -0.0010275788415163235 0 -0.023798312446562008 -0.00097576881949219601 0 -0.02413150883661715 -0.00051939050625701526 0 -0.024983627864286335 -0.00029424943794589332 0 -0.024913780215266353 -0.0010275788415163235 0 -0.024283547995755252 0.00024651462283929493 0 -0.02413150883661715 -0.00051939050625701526 0 -0.024983627864286335 -0.00029424943794589332 0 -0.024983627864286335 -0.00029424943794589332 0 -0.026225618226379217 -0.00050149188193118418 0 -0.024913780215266353 -0.0010275788415163235 0 -0.024283547995755252 0.00024651462283929493 0 -0.024983627864286335 -0.00029424943794589332 0 -0.025305804864242481 0.00030599772336167543 0 -0.025155825159458859 0.0011548661846659315 0 -0.024283547995755252 0.00024651462283929493 0 -0.025305804864242481 0.00030599772336167543 0 -0.024983627864286335 -0.00029424943794589332 0 -0.025305804864242481 0.00030599772336167543 0 -0.026225618226379217 -0.00050149188193118418 0 -0.026157294163240002 0.0012743581992531454 0 -0.025305804864242481 0.00030599772336167543 0 -0.026225618226379217 -0.00050149188193118418 0 -0.026308720238207822 -0.00057217114057740671 0 -0.026332962775902306 -0.00061041022794116435 0 -0.026225618226379217 -0.00050149188193118418 0 -0.020830844188608144 -0.00032129478243349513 0 -0.027728326097170391 -0.0001844875036473345 0 -0.026225618226379217 -0.00050149188193118418 0 -0.024913780215266353 -0.0010275788415163235 0 -0.026715622772425819 -0.0016168149507374621 0 -0.024913780215266353 -0.0010275788415163235 0 -0.026715622772425819 -0.0016168149507374621 0 -0.024656204934043982 -0.0024351084508832349 0 -0.026695857777898721 -0.0016700190976120144 0 -0.026451864757330835 -0.0019147039652630193 0 -0.026715622772425819 -0.0016168149507374621 0 -0.02757713472289133 -0.0010054766322650113 0 -0.028239623433137205 -0.0014620963654110291 0 -0.026715622772425819 -0.0016168149507374621 0 -0.027117210011304141 -0.0010058985796102024 0 -0.02757713472289133 -0.0010054766322650113 0 -0.027117210011304141 -0.0010058985796102024 0 -0.02757713472289133 -0.0010054766322650113 0 -0.027512043659617343 -0.00062554154140260284 0 -0.02757713472289133 -0.0010054766322650113 0 -0.028237690296377321 -0.00087689592709485882 0 -0.028239623433137205 -0.0014620963654110291 0 -0.02757713472289133 -0.0010054766322650113 0 -0.02790436467795554 -0.00064684765221602043 0 -0.028237690296377321 -0.00087689592709485882 0 -0.02790436467795554 -0.00064684765221602043 0 -0.028214474324765142 -0.00061886258090350442 0 -0.028237690296377321 -0.00087689592709485882 0 -0.028145235272034518 -0.0004212797491905258 0 -0.02790436467795554 -0.00064684765221602043 0 -0.028214474324765142 -0.00061886258090350442 0 -0.027865436298246768 -0.00045757307575147418 0 -0.028145235272034518 -0.0004212797491905258 0 -0.02790436467795554 -0.00064684765221602043 0 -0.027865436298246768 -0.00045757307575147418 0 -0.02790436467795554 -0.00064684765221602043 0 -0.027512043659617343 -0.00062554154140260284 0 -0.02757713472289133 -0.0010054766322650113 0 -0.02790436467795554 -0.00064684765221602043 0 -0.027512043659617343 -0.00062554154140260284 0 -0.027865436298246768 -0.00045757307575147418 0 -0.027575621924777676 -0.00047593589325236365 0 -0.027512043659617343 -0.00062554154140260284 0 -0.028828631639796747 -0.00087832348646219884 0 -0.028726321847170121 -0.00059534710568082702 0 -0.029093598261691167 -0.00062763897776058899 0 -0.028828631639796747 -0.00087832348646219884 0 -0.028726321847170121 -0.00059534710568082702 0 -0.028561964947678969 -0.00082472005377949413 0 -0.028726321847170121 -0.00059534710568082702 0 -0.02847175723067661 -0.0006139711657085254 0 -0.028561964947678969 -0.00082472005377949413 0 -0.028348227562671666 -0.00044194376541124934 0 -0.028214474324765142 -0.00061886258090350442 0 -0.02847175723067661 -0.0006139711657085254 0 -0.028214474324765142 -0.00061886258090350442 0 -0.02847175723067661 -0.0006139711657085254 0 -0.028237690296377321 -0.00087689592709485882 0 -0.02847175723067661 -0.0006139711657085254 0 -0.028561964947678969 -0.00082472005377949413 0 -0.028237690296377321 -0.00087689592709485882 0 -0.028561964947678969 -0.00082472005377949413 0 -0.028567118992820276 -0.0010555409076599606 0 -0.028237690296377321 -0.00087689592709485882 0 -0.028567118992820276 -0.0010555409076599606 0 -0.028237690296377321 -0.00087689592709485882 0 -0.028239623433137205 -0.0014620963654110291 0 -0.028567118992820276 -0.0010555409076599606 0 -0.028908968308092923 -0.0012270791344889153 0 -0.028239623433137205 -0.0014620963654110291 0 -0.028828631639796747 -0.00087832348646219884 0 -0.028567118992820276 -0.0010555409076599606 0 -0.028908968308092923 -0.0012270791344889153 0 -0.028828631639796747 -0.00087832348646219884 0 -0.028561964947678969 -0.00082472005377949413 0 -0.028567118992820276 -0.0010555409076599606 0 -0.022529963722147082 -0.0027912015174014204 0 -0.023068597102294551 -0.0021381881173447763 0 -0.022199815584912283 -0.0020647665831019977 0 -0.022529963722147082 -0.0027912015174014204 0 -0.023068597102294551 -0.0021381881173447763 0 -0.024656204934043982 -0.0024351084508832349 0 -0.025637800423975402 -0.0020227052338583212 0 -0.026451864757330835 -0.0019147039652630193 0 -0.023068597102294551 -0.0021381881173447763 0 -0.024656204934043982 -0.0024351084508832349 0 -0.023894198515548418 -0.0015360676577406466 0 -0.024913780215266353 -0.0010275788415163235 0 -0.023894198515548418 -0.0015360676577406466 0 -0.023798312446562008 -0.00097576881949219601 0 -0.024913780215266353 -0.0010275788415163235 0 -0.024656204934043982 -0.0024351084508832349 0 -0.023894198515548418 -0.0015360676577406466 0 -0.022350916657787726 -0.00054738374878615615 0 -0.023068597102294551 -0.0021381881173447763 0 -0.022162441686870194 -0.0014469283710804089 0 -0.022821443580828622 -0.00056465918284783877 0 -0.023068597102294551 -0.0021381881173447763 0 -0.023249764340224407 -0.0012006192204258314 0 -0.024126009395540382 -0.00052573518927921084 0 -0.022602558821708099 -0.002057848091515148 0 -0.023068597102294551 -0.0021381881173447763 0 -0.023894198515548418 -0.0015360676577406466 0 -0.023249764340224407 -0.0012006192204258314 0 -0.023077126811757106 -0.00071252381246516422 0 -0.023798312446562008 -0.00097576881949219601 0 -0.023249764340224407 -0.0012006192204258314 0 -0.023894198515548418 -0.0015360676577406466 0 -0.023798312446562008 -0.00097576881949219601 0 -0.023249764340224407 -0.0012006192204258314 0 -0.022350916657787726 -0.00054738374878615615 0 -0.022162441686870194 -0.0014469283710804089 0 -0.021598451426371856 -0.00089878838510663406 0 -0.022162441686870194 -0.0014469283710804089 0 -0.021510208626716099 -0.0016019783049552518 0 -0.021598451426371856 -0.00089878838510663406 0 -0.022162441686870194 -0.0014469283710804089 0 -0.021510208626716099 -0.0016019783049552518 0 -0.022199815584912283 -0.0020647665831019977 0 -0.020855408573891766 -0.001173835953812967 0 -0.021510208626716099 -0.0016019783049552518 0 -0.021598451426371856 -0.00089878838510663406 0 -0.020855408573891766 -0.001173835953812967 0 -0.021510208626716099 -0.0016019783049552518 0 -0.020894055250837859 -0.0019671909279914339 0 -0.020894055250837859 -0.0019671909279914339 0 -0.021586534243523272 -0.0022668190852457243 0 -0.020819879293654666 -0.0028463922108210847 0 -0.021510208626716099 -0.0016019783049552518 0 -0.020894055250837859 -0.0019671909279914339 0 -0.021586534243523272 -0.0022668190852457243 0 -0.022529963722147082 -0.0027912015174014204 0 -0.021586534243523272 -0.0022668190852457243 0 -0.020819879293654666 -0.0028463922108210847 0 -0.023068597102294551 -0.0021381881173447763 0 -0.022162441686870194 -0.0014469283710804089 0 -0.022199815584912283 -0.0020647665831019977 0 -0.021510208626716099 -0.0016019783049552518 0 -0.022199815584912283 -0.0020647665831019977 0 -0.021586534243523272 -0.0022668190852457243 0 -0.022529963722147082 -0.0027912015174014204 0 -0.022199815584912283 -0.0020647665831019977 0 -0.021586534243523272 -0.0022668190852457243 0 -0.028828631639796747 -0.00087832348646219884 0 -0.028908968308092923 -0.0012270791344889153 0 -0.029138945329694368 -0.00092433294480254592 0 -0.028908968308092923 -0.0012270791344889153 0 -0.029138945329694368 -0.00092433294480254592 0 -0.029458517105037895 -0.0010878648398252248 0 -0.025637800423975402 -0.0020227052338583212 0 -0.025555206046137077 -0.0019026200477500086 0 -0.029138945329694368 -0.00092433294480254592 0 -0.029458517105037895 -0.0010878648398252248 0 -0.029376918556838025 -0.00077692413545222628 0 -0.029458517105037895 -0.0010878648398252248 0 -0.029376918556838025 -0.00077692413545222628 0 -0.029667049956879708 -0.00071049161423961636 0 -0.028828631639796747 -0.00087832348646219884 0 -0.029138945329694368 -0.00092433294480254592 0 -0.029093598261691167 -0.00062763897776058899 0 -0.029138945329694368 -0.00092433294480254592 0 -0.029376918556838025 -0.00077692413545222628 0 -0.029093598261691167 -0.00062763897776058899 0 -0.029968650137390383 -0.00039297834300021009 0 -0.029900104783490002 -0.00076931656094980714 0 -0.030107062100459818 -0.00085394522426372938 0 -0.029900104783490002 -0.00076931656094980714 0 -0.029748117163780712 -0.00088524604978372035 0 -0.029965196627539992 -0.00097157539756348086 0 -0.022990116508873844 -0.0021637084420829907 0 -0.026865007074155588 -0.0022553550767207614 0 -0.029900104783490002 -0.00076931656094980714 0 -0.029965196627539992 -0.00097157539756348086 0 -0.030107062100459818 -0.00085394522426372938 0 -0.029458517105037895 -0.0010878648398252248 0 -0.029667049956879708 -0.00071049161423961636 0 -0.029748117163780712 -0.00088524604978372035 0 -0.029900104783490002 -0.00076931656094980714 0 -0.029667049956879708 -0.00071049161423961636 0 -0.029748117163780712 -0.00088524604978372035 0 -0.029458517105037895 -0.0010878648398252248 0 -0.029748117163780712 -0.00088524604978372035 0 -0.029965196627539992 -0.00097157539756348086 0 -0.020819879293654666 -0.0028463922108210847 0 -0.01999019773266749 -0.0025221764403499662 0 -0.019491062986697328 -0.0029008954334367658 0 -0.025555206046137077 -0.0019026200477500086 0 -0.022990116508873844 -0.0021637084420829907 0 -0.020819879293654666 -0.0028463922108210847 0 -0.01999019773266749 -0.0025221764403499662 0 -0.02023930152882622 -0.0021402524163847574 0 -0.01999019773266749 -0.0025221764403499662 0 -0.019642517823332997 -0.0026242587531004956 0 -0.019644850792201345 -0.0023753995089400427 0 -0.019381322752471241 -0.003220364493460518 0 -0.022990116508873844 -0.0021637084420829907 0 -0.022990116508873844 -0.0021637084420829907 0 -0.019807574422149841 -0.0027201687419238238 0 -0.019642517823332997 -0.0026242587531004956 0 -0.019644850792201345 -0.0023753995089400427 0 -0.019464558028238675 -0.0023036622576955964 0 -0.019644850792201345 -0.0023753995089400427 0 -0.019380133527373451 -0.0018695954110757693 0 -0.019464558028238675 -0.0023036622576955964 0 -0.01999019773266749 -0.0025221764403499662 0 -0.02023930152882622 -0.0021402524163847574 0 -0.019380133527373451 -0.0018695954110757693 0 -0.01999019773266749 -0.0025221764403499662 0 -0.019644850792201345 -0.0023753995089400427 0 -0.019380133527373451 -0.0018695954110757693 0 -0.020894055250837859 -0.0019671909279914339 0 -0.020819879293654666 -0.0028463922108210847 0 -0.02023930152882622 -0.0021402524163847574 0 -0.02023930152882622 -0.0021402524163847574 0 -0.020268372736155803 -0.0015965185210520022 0 -0.019380133527373451 -0.0018695954110757693 0 -0.020894055250837859 -0.0019671909279914339 0 -0.02023930152882622 -0.0021402524163847574 0 -0.020268372736155803 -0.0015965185210520022 0 -0.020855408573891766 -0.001173835953812967 0 -0.020268372736155803 -0.0015965185210520022 0 -0.019859043167571176 -0.00061661384426261198 0 -0.020855408573891766 -0.001173835953812967 0 -0.020894055250837859 -0.0019671909279914339 0 -0.020268372736155803 -0.0015965185210520022 0 -0.020268372736155803 -0.0015965185210520022 0 -0.019380133527373451 -0.0018695954110757693 0 -0.019859043167571176 -0.00061661384426261198 0 -0.019380133527373451 -0.0018695954110757693 0 -0.019859043167571176 -0.00061661384426261198 0 -0.018571035151943988 -0.00068202590824965805 0 -0.019271663512711295 0.00068379536418792305 0 -0.019859043167571176 -0.00061661384426261198 0 -0.018571035151943988 -0.00068202590824965805 0 -0.019271663512711295 0.00068379536418792305 0 -0.020336396157708683 2.3158134283978974e-05 0 -0.019859043167571176 -0.00061661384426261198 0 -0.019271663512711295 0.00068379536418792305 0 -0.020336396157708683 2.3158134283978974e-05 0 -0.020554679355776526 0.00078434544875909974 0 -0.020336396157708683 2.3158134283978974e-05 0 -0.019859043167571176 -0.00061661384426261198 0 -0.02104317805466157 -0.00040820402879811348 0 -0.020855408573891766 -0.001173835953812967 0 -0.019859043167571176 -0.00061661384426261198 0 -0.02104317805466157 -0.00040820402879811348 0 -0.020855408573891766 -0.001173835953812967 0 -0.02104317805466157 -0.00040820402879811348 0 -0.021598451426371856 -0.00089878838510663406 0 -0.02104317805466157 -0.00040820402879811348 0 -0.021598451426371856 -0.00089878838510663406 0 -0.021599139860889943 -0.0001210716416313724 0 -0.022350916657787726 -0.00054738374878615615 0 -0.021598451426371856 -0.00089878838510663406 0 -0.021599139860889943 -0.0001210716416313724 0 -0.021599139860889943 -0.0001210716416313724 0 -0.021068808191015087 0.00023941838570898952 0 -0.021796865077704158 0.00090058168200209338 0 -0.024126009395540382 -0.00052573518927921084 0 -0.011938435887265836 -0.0011598428491808297 0 -0.022350916657787726 -0.00054738374878615615 0 -0.021599139860889943 -0.0001210716416313724 0 -0.021796865077704158 0.00090058168200209338 0 -0.021068808191015087 0.00023941838570898952 0 -0.020554679355776526 0.00078434544875909974 0 -0.021796865077704158 0.00090058168200209338 0 -0.020336396157708683 2.3158134283978974e-05 0 -0.02104317805466157 -0.00040820402879811348 0 -0.021068808191015087 0.00023941838570898952 0 -0.02104317805466157 -0.00040820402879811348 0 -0.021599139860889943 -0.0001210716416313724 0 -0.021068808191015087 0.00023941838570898952 0 -0.020336396157708683 2.3158134283978974e-05 0 -0.021068808191015087 0.00023941838570898952 0 -0.020554679355776526 0.00078434544875909974 0 -0.0062907942826011393 -0.00010199446549353162 0 -0.011938435887265836 -0.0011598428491808297 0 0.0065850788846589098 -0.0011543310085841809 0 0.0052481372513509018 -0.0012152368733212482 0 0.0066002816644068667 -0.00055430671373135035 0 -0.007440508709029266 -0.00069303181217327718 0 -0.0066367422908356986 -0.0017425105184912398 0 -0.0060595143654467729 0.00026012712026985297 0 -0.011938435887265836 -0.0011598428491808297 0 0.0023208196112755159 0.00026463452757087569 0 0.0052481372513509018 -0.0012152368733212482 0 0.0056112440146276208 -9.170476299929397e-06 0 0.0059916435589608659 -1.6871959534628292e-05 0 0.0023208196112755159 0.00026463452757087569 0 0.0056398851606749584 -0.00078014555035041248 0 0.0047476080773469261 0.00011558968069432414 0 0.0051941628218060741 0.00011345095216351042 0 0.0048300003381032217 0.00043516073571707849 0 0.0052481372513509018 -0.0012152368733212482 0 0.0066002816644068667 -0.00055430671373135035 0 0.0059916435589608659 -1.6871959534628292e-05 0 0.0023208196112755159 0.00026463452757087569 0 0.006432818511984217 -0.00033754270614152348 0 0.006432818511984217 -0.00033754270614152348 0 0.0056398851606749584 -0.00078014555035041248 0 0.006457929603313076 -0.00041049290632329673 0 0.006432818511984217 -0.00033754270614152348 0 0.0066002816644068667 -0.00055430671373135035 0 0.0062482078400243292 -0.00019764429019327443 0 0.0072867700782414712 -0.00059861403085933475 0 0.0066002816644068667 -0.00055430671373135035 0 0.0072867700782414712 -0.00059861403085933475 0 0.0070412973274594226 -0.00072990717234338578 0 0.006432818511984217 -0.00033754270614152348 0 0.0076299454594989536 -0.00055811936461664876 0 0.0071781540225380885 -0.00072271332295872014 0 0.0072535478721727316 -0.00091847844938217895 0 0.0070895776191917548 -0.0010507386116429616 0 0.0072867700782414712 -0.00059861403085933475 0 0.0071781540225380885 -0.00072271332295872014 0 0.0072535478721727316 -0.00091847844938217895 0 0.0072867700782414712 -0.00059861403085933475 0 0.0071781540225380885 -0.00072271332295872014 0 0.0070412973274594226 -0.00072990717234338578 0 0.0071070824448069498 -0.00059549199327379348 0 0.0071781540225380885 -0.00072271332295872014 0 0.0070412973274594226 -0.00072990717234338578 0 0.0071070824448069498 -0.00059549199327379348 0 0.0071781540225380885 -0.00072271332295872014 0 0.0069112080599379698 -0.00062902260659590992 0 -0.0060862430834635944 3.1915253511687163e-05 0 -0.0062907942826011393 -0.00010199446549353162 0 0.0065850788846589098 -0.0011543310085841809 0 0.0066002816644068667 -0.00055430671373135035 0 0.0070412973274594226 -0.00072990717234338578 0 0.0071070824448069498 -0.00059549199327379348 0 0.0065850788846589098 -0.0011543310085841809 0 0.0070412973274594226 -0.00072990717234338578 0 0.0076990582710415251 -0.0011705412348805206 0 0.0079270834799348294 -0.00093038626444630194 0 0.0080358807449271725 -0.0012016349160329208 0 0.0076990582710415251 -0.0011705412348805206 0 0.0080358807449271725 -0.0012016349160329208 0 0.0079229910070456513 -0.001437186576456173 0 0.0076990582710415251 -0.0011705412348805206 0 0.0074270168220533376 -0.0011584945914248088 0 0.0079229910070456513 -0.001437186576456173 0 0.0076990582710415251 -0.0011705412348805206 0 0.0074270168220533376 -0.0011584945914248088 0 0.0075240664351107246 -0.0009393497196013243 0 0.0074270168220533376 -0.0011584945914248088 0 0.0072535478721727316 -0.00091847844938217895 0 0.007211919592661706 -0.0010612618738970406 0 0.0074270168220533376 -0.0011584945914248088 0 0.0072535478721727316 -0.00091847844938217895 0 0.0075240664351107246 -0.0009393497196013243 0 0.0072535478721727316 -0.00091847844938217895 0 0.0070895776191917548 -0.0010507386116429616 0 0.007211919592661706 -0.0010612618738970406 0 0.0072867700782414712 -0.00059861403085933475 0 0.0072535478721727316 -0.00091847844938217895 0 0.0075240664351107246 -0.0009393497196013243 0 0.0083249337871737512 -0.00049864905502655448 0 0.0072867700782414712 -0.00059861403085933475 0 0.0079270834799348294 -0.00093038626444630194 0 0.0072867700782414712 -0.00059861403085933475 0 0.0075240664351107246 -0.0009393497196013243 0 0.0079270834799348294 -0.00093038626444630194 0 0.0076990582710415251 -0.0011705412348805206 0 0.0075240664351107246 -0.0009393497196013243 0 0.0079270834799348294 -0.00093038626444630194 0 0.0056398851606749584 -0.00078014555035041248 0 0.0085423984537828547 -0.0017048511347109389 0 0.0083249337871737512 -0.00049864905502655448 0 0.0079270834799348294 -0.00093038626444630194 0 0.0082227930741975604 -0.00079692598259871775 0 0.0081807254787955655 -0.0010388339474083795 0 0.0084742654661284708 -0.00067158937996530206 0 0.0083511812321351662 -0.0012118219362451501 0 0.0082227930741975604 -0.00079692598259871775 0 0.0081807254787955655 -0.0010388339474083795 0 0.0084742654661284708 -0.00067158937996530206 0 0.0083249337871737512 -0.00049864905502655448 0 0.0082227930741975604 -0.00079692598259871775 0 0.0084742654661284708 -0.00067158937996530206 0 0.0079270834799348294 -0.00093038626444630194 0 0.0081807254787955655 -0.0010388339474083795 0 0.0080358807449271725 -0.0012016349160329208 0 0.0079270834799348294 -0.00093038626444630194 0 0.0082227930741975604 -0.00079692598259871775 0 0.0081807254787955655 -0.0010388339474083795 0 0.0083549082964447883 -0.002346150704951421 0 0.0082920327590491616 -0.0021045619449343122 0 0.0084529892335790755 -0.002109058338498455 0 0.0056398851606749584 -0.00078014555035041248 0 0.006135003347238442 -0.0022908546074675456 0 0.0083549082964447883 -0.002346150704951421 0 0.0082920327590491616 -0.0021045619449343122 0 0.0081508999055272709 -0.0021680826402255579 0 0.0034175314108191132 -0.0014691816852958773 0 0.0018737431147958087 -7.9451795264502643e-05 0 0.002086128723363783 -0.0013803418010382928 0 0.0033034217433661316 -0.0019089828133702772 0 0.0034175314108191132 -0.0014691816852958773 0 0.002086128723363783 -0.0013803418010382928 0 0.0082920327590491616 -0.0021045619449343122 0 0.0083286828400066567 -0.0019128100189448056 0 0.0081740474237062665 -0.0020917915825498334 0 0.0084391568346869738 -0.0017647869915983071 0 0.006135003347238442 -0.0022908546074675456 0 0.0082920327590491616 -0.0021045619449343122 0 0.0084529892335790755 -0.002109058338498455 0 0.0083762278546024339 -0.00191316693101615 0 0.0080358807449271725 -0.0012016349160329208 0 0.0083511812321351662 -0.0012118219362451501 0 0.0084424951140369495 -0.0016793067961647129 0 0.0085423984537828547 -0.0017048511347109389 0 0.0084115315146229344 -0.0016947768981534347 0 0.0081807254787955655 -0.0010388339474083795 0 0.0080358807449271725 -0.0012016349160329208 0 0.0083511812321351662 -0.0012118219362451501 0 0.0084529892335790755 -0.002109058338498455 0 0.0084424951140369495 -0.0016793067961647129 0 0.0083762278546024339 -0.00191316693101615 0 0.0084424951140369495 -0.0016793067961647129 0 0.0083286828400066567 -0.0019128100189448056 0 0.0085142950685834461 -0.0017067804495130988 0 0.0082920327590491616 -0.0021045619449343122 0 0.0083286828400066567 -0.0019128100189448056 0 0.0083762278546024339 -0.00191316693101615 0 0.0084424951140369495 -0.0016793067961647129 0 0.0083286828400066567 -0.0019128100189448056 0 0.0083762278546024339 -0.00191316693101615 0 0.0083286828400066567 -0.0019128100189448056 0 0.0085142950685834461 -0.0017067804495130988 0 0.00828749832567615 -0.001733010909721595 0 0.0085142950685834461 -0.0017067804495130988 0 0.0085960091749050262 -0.0015990439021069962 0 0.0086795727111273133 -0.0016202809364844295 0 0.0085142950685834461 -0.0017067804495130988 0 0.0085960091749050262 -0.0015990439021069962 0 0.00828749832567615 -0.001733010909721595 0 0.0085960091749050262 -0.0015990439021069962 0 0.0084233245216742119 -0.0014576991274738685 0 0.00828749832567615 -0.001733010909721595 0 0.0084424951140369495 -0.0016793067961647129 0 0.0084750512747201572 -0.0017506253859963009 0 0.0086795727111273133 -0.0016202809364844295 0 0.0084424951140369495 -0.0016793067961647129 0 0.0085142950685834461 -0.0017067804495130988 0 0.0086795727111273133 -0.0016202809364844295 0 0.0084424951140369495 -0.0016793067961647129 0 0.0078205323035977284 -0.0017172982944321695 0 0.0084750512747201572 -0.0017506253859963009 0 0.0084163342877251555 -0.0013249200422827583 0 0.0088415766046175837 -0.0013995310853679842 0 0.0090178639638169942 -0.00096461242830231549 0 0.0090873748749240469 -0.0011483721260321619 0 0.0092522130370379999 -0.0011385528403350732 0 0.0084424951140369495 -0.0016793067961647129 0 0.0079229910070456513 -0.001437186576456173 0 0.0078205323035977284 -0.0017172982944321695 0 0.0080358807449271725 -0.0012016349160329208 0 0.0084424951140369495 -0.0016793067961647129 0 0.0079229910070456513 -0.001437186576456173 0 0.0074270168220533376 -0.0011584945914248088 0 0.0079229910070456513 -0.001437186576456173 0 0.0078205323035977284 -0.0017172982944321695 0 0.0084163342877251555 -0.0013249200422827583 0 0.0079680434869279278 -0.0011052770221586486 0 0.0090178639638169942 -0.00096461242830231549 0 0.0087731331695414354 -0.0010052475264219246 0 0.0086307944902799891 -0.00086704164352209405 0 0.0074270168220533376 -0.0011584945914248088 0 0.0078205323035977284 -0.0017172982944321695 0 0.0072522862426415537 -0.0012757432318268316 0 0.0090178639638169942 -0.00096461242830231549 0 0.0090873748749240469 -0.0011483721260321619 0 0.0087731331695414354 -0.0010052475264219246 0 0.0090873748749240469 -0.0011483721260321619 0 0.0087731331695414354 -0.0010052475264219246 0 0.0089004764294867769 -0.0011801393360755391 0 0.0090873748749240469 -0.0011483721260321619 0 0.0092994351595886791 -0.0011770088675068611 0 0.0092522130370379999 -0.0011385528403350732 0 0.0092994351595886791 -0.0011770088675068611 0 0.0092074879117740073 -0.0012300932689947026 0 0.0094129094039098454 -0.0011627206353884477 0 0.0090873748749240469 -0.0011483721260321619 0 0.0092994351595886791 -0.0011770088675068611 0 0.0092074879117740073 -0.0012300932689947026 0 0.0090873748749240469 -0.0011483721260321619 0 0.0092074879117740073 -0.0012300932689947026 0 0.0089004764294867769 -0.0011801393360755391 0 0.0093949403862017902 -0.0012407557917011307 0 0.0090589880708314228 -0.0011324484909398178 0 0.0092074879117740073 -0.0012300932689947026 0 0.00945921988670596 -0.0012250386944198132 0 0.0094129094039098454 -0.0011627206353884477 0 0.0093949403862017902 -0.0012407557917011307 0 0.0096149893863017293 -0.0012412085801771673 0 0.0095944188358607751 -0.0012590829047341302 0 0.0097648869331003491 -0.0012783930827171611 0 0.0096694024848675807 -0.0013206584120798509 0 0.0099133682926379058 -0.00095494234856560712 0 0.010074260722778615 -0.0005461336996767964 0 0.0096548887121310802 -0.001151884926941376 0 0.0098668462418777681 -0.0010205558139085348 0 0.0097369198615075963 -0.0012377509250955784 0 0.0096548887121310802 -0.001151884926941376 0 0.0096618639106351104 -0.0010743541255704711 0 0.0098668462418777681 -0.0010205558139085348 0 0.00945921988670596 -0.0012250386944198132 0 0.0095386829352395678 -0.001177468977190638 0 0.0096666038090352947 -0.0012124620773571132 0 0.0096548887121310802 -0.001151884926941376 0 0.0095386829352395678 -0.001177468977190638 0 0.0096666038090352947 -0.0012124620773571132 0 0.00945921988670596 -0.0012250386944198132 0 0.0095386829352395678 -0.001177468977190638 0 0.0094129094039098454 -0.0011627206353884477 0 0.0096548887121310802 -0.001151884926941376 0 0.0095386829352395678 -0.001177468977190638 0 0.0095465578705897954 -0.0011206530773650351 0 0.0095386829352395678 -0.001177468977190638 0 0.0094129094039098454 -0.0011627206353884477 0 0.0095465578705897954 -0.0011206530773650351 0 0.0094129094039098454 -0.0011627206353884477 0 0.0094356093103884035 -0.0011386882006857904 0 0.0093212833577845898 -0.0011631383687818564 0 0.0094129094039098454 -0.0011627206353884477 0 0.0094356093103884035 -0.0011386882006857904 0 0.0095465578705897954 -0.0011206530773650351 0 0.0095351422590540559 -0.0011120077522680538 0 0.0094356093103884035 -0.0011386882006857904 0 0.0095465578705897954 -0.0011206530773650351 0 0.0095351422590540559 -0.0011120077522680538 0 0.0095465578705897954 -0.0011206530773650351 0 0.0096618639106351104 -0.0010743541255704711 0 0.0096548887121310802 -0.001151884926941376 0 0.0095465578705897954 -0.0011206530773650351 0 0.0096618639106351104 -0.0010743541255704711 0 0.0096618639106351104 -0.0010743541255704711 0 0.0096910450747484025 -0.0010668152646925882 0 0.0098668462418777681 -0.0010205558139085348 0 0.0095351422590540559 -0.0011120077522680538 0 0.0096910450747484025 -0.0010668152646925882 0 0.0094791947988889392 -0.0011586197889985577 0 0.0095351422590540559 -0.0011120077522680538 0 0.0096618639106351104 -0.0010743541255704711 0 0.0096910450747484025 -0.0010668152646925882 0 0.0095351422590540559 -0.0011120077522680538 0 0.0094791947988889392 -0.0011586197889985577 0 0.0093490088297109898 -0.0011863490137246763 0 0.0094356093103884035 -0.0011386882006857904 0 0.0093490088297109898 -0.0011863490137246763 0 0.0093212833577845898 -0.0011631383687818564 0 0.0095351422590540559 -0.0011120077522680538 0 0.0094356093103884035 -0.0011386882006857904 0 0.0093490088297109898 -0.0011863490137246763 0 0.0093490088297109898 -0.0011863490137246763 0 0.0091577892213968067 -0.001250993997078662 0 0.0093212833577845898 -0.0011631383687818564 0 0.0094791947988889392 -0.0011586197889985577 0 0.0093490088297109898 -0.0011863490137246763 0 0.0093749826601219263 -0.0012083675498723502 0 0.0093490088297109898 -0.0011863490137246763 0 0.0091577892213968067 -0.001250993997078662 0 0.0093749826601219263 -0.0012083675498723502 0 0.0092994351595886791 -0.0011770088675068611 0 0.0094129094039098454 -0.0011627206353884477 0 0.0093212833577845898 -0.0011631383687818564 0 0.0092994351595886791 -0.0011770088675068611 0 0.0091577892213968067 -0.001250993997078662 0 0.0093212833577845898 -0.0011631383687818564 0 0.0091577892213968067 -0.001250993997078662 0 0.0084750512747201572 -0.0017506253859963009 0 0.0086795727111273133 -0.0016202809364844295 0 0.0090613452333142257 -0.0012688594698838142 0 0.0088415766046175837 -0.0013995310853679842 0 0.0092994351595886791 -0.0011770088675068611 0 0.0091577892213968067 -0.001250993997078662 0 0.0092522130370379999 -0.0011385528403350732 0 0.0091577892213968067 -0.001250993997078662 0 0.0086795727111273133 -0.0016202809364844295 0 0.008904161722560722 -0.0013701386554812113 0 0.008904161722560722 -0.0013701386554812113 0 0.0084233245216742119 -0.0014576991274738685 0 0.0083547005979927747 -0.0010852447595347057 0 0.0089672964875767321 -0.0013287199826341846 0 0.0087904732459804964 -0.0011528231171436458 0 0.0091577892213968067 -0.001250993997078662 0 0.008904161722560722 -0.0013701386554812113 0 0.0093749826601219263 -0.0012083675498723502 0 0.0085960091749050262 -0.0015990439021069962 0 0.0086795727111273133 -0.0016202809364844295 0 0.008904161722560722 -0.0013701386554812113 0 0.0085960091749050262 -0.0015990439021069962 0 0.008904161722560722 -0.0013701386554812113 0 0.0084233245216742119 -0.0014576991274738685 0 0.0084233245216742119 -0.0014576991274738685 0 0.0080456159590527616 -0.0014143069745481361 0 0.00828749832567615 -0.001733010909721595 0 0.0080456159590527616 -0.0014143069745481361 0 0.0079534548604411701 -0.00087614873930723727 0 0.0083547005979927747 -0.0010852447595347057 0 0.0084233245216742119 -0.0014576991274738685 0 0.0080456159590527616 -0.0014143069745481361 0 0.0083547005979927747 -0.0010852447595347057 0 0.0089091249711597664 -0.0014376408477544975 0 0.0075367511889773281 -0.002128502469570828 0 0.0080456159590527616 -0.0014143069745481361 0 0.0079534548604411701 -0.00087614873930723727 0 0.0073595276057371777 -0.0013835802822263087 0 0.0088467805473357655 -0.0019314461755691047 0 0.007883341259832052 -0.0014538520877707282 0 0.0079058609202261928 -0.0028259869560966024 0 0.0089091249711597664 -0.0014376408477544975 0 0.0085547088017996539 -0.0014616520296643338 0 0.0096910450747484025 -0.0010668152646925882 0 0.0094791947988889392 -0.0011586197889985577 0 0.0093027986479728274 -0.0011794678936772678 0 0.0098465929729034726 -0.00099847693381606515 0 0.0089091249711597664 -0.0014376408477544975 0 0.0094791947988889392 -0.0011586197889985577 0 0.0093027986479728274 -0.0011794678936772678 0 0.0093749826601219263 -0.0012083675498723502 0 0.0089091249711597664 -0.0014376408477544975 0 0.0087904732459804964 -0.0011528231171436458 0 0.0096910450747484025 -0.0010668152646925882 0 0.0096865731876076069 -0.0014027352093908809 0 0.0097459152720861669 -0.0010871632681291683 0 0.0096865731876076069 -0.0014027352093908809 0 0.0097459152720861669 -0.0010871632681291683 0 0.0096514276797362002 -0.0010839720108346469 0 0.0098668462418777681 -0.0010205558139085348 0 0.0097459152720861669 -0.0010871632681291683 0 0.00984504802256061 -0.00072131752248813085 0 0.0096910450747484025 -0.0010668152646925882 0 0.0098668462418777681 -0.0010205558139085348 0 0.0097459152720861669 -0.0010871632681291683 0 0.0097459152720861669 -0.0010871632681291683 0 0.0096514276797362002 -0.0010839720108346469 0 0.00984504802256061 -0.00072131752248813085 0 0.0096865731876076069 -0.0014027352093908809 0 0.0096514276797362002 -0.0010839720108346469 0 0.0091170193201966614 -0.0013954466398593613 0 0.0096514276797362002 -0.0010839720108346469 0 0.0095566545254939898 -0.00065517566730787121 0 0.0091170193201966614 -0.0013954466398593613 0 0.0096514276797362002 -0.0010839720108346469 0 0.0095566545254939898 -0.00065517566730787121 0 0.00984504802256061 -0.00072131752248813085 0 0.0095566545254939898 -0.00065517566730787121 0 0.0090261394748489647 -0.00061320689266393846 0 0.0096651412125776347 0.00012156365570075742 0 0.0095566545254939898 -0.00065517566730787121 0 0.00984504802256061 -0.00072131752248813085 0 0.0099521045078037676 -0.00010136203033170959 0 0.0098668462418777681 -0.0010205558139085348 0 0.00984504802256061 -0.00072131752248813085 0 0.010461111072150305 0.00014713207499469848 0 0.0090261394748489647 -0.00061320689266393846 0 0.0080399571133031814 -0.0011889153406914529 0 0.0083335667646338152 0.00023239836735611445 0 0.0080399571133031814 -0.0011889153406914529 0 0.0065135301654751804 -0.00052118047519413772 0 0.0083335667646338152 0.00023239836735611445 0 0.007883341259832052 -0.0014538520877707282 0 0.0069931432932717353 -0.0010175755719285845 0 0.0073017067257612096 -0.0019804815054188882 0 0.0095566545254939898 -0.00065517566730787121 0 0.0090261394748489647 -0.00061320689266393846 0 0.0091170193201966614 -0.0013954466398593613 0 0.0085547088017996539 -0.0014616520296643338 0 0.0074782619717043185 -0.0010522357118006977 0 0.0090261394748489647 -0.00061320689266393846 0 0.0091170193201966614 -0.0013954466398593613 0 0.0080399571133031814 -0.0011889153406914529 0 0.0069931432932717353 -0.0010175755719285845 0 0.006711261800820374 -0.0018282886464288375 0 0.0073017067257612096 -0.0019804815054188882 0 0.006711261800820374 -0.0018282886464288375 0 0.0073017067257612096 -0.0019804815054188882 0 0.0068382163367110491 -0.0026877916663768995 0 0.007883341259832052 -0.0014538520877707282 0 0.0073017067257612096 -0.0019804815054188882 0 0.0079058609202261928 -0.0028259869560966024 0 0.0073017067257612096 -0.0019804815054188882 0 0.0079058609202261928 -0.0028259869560966024 0 0.0068382163367110491 -0.0026877916663768995 0 0.0079058609202261928 -0.0028259869560966024 0 0.0068382163367110491 -0.0026877916663768995 0 0.006852676992866776 -0.0038011919814452122 0 0.0068382163367110491 -0.0026877916663768995 0 0.006852676992866776 -0.0038011919814452122 0 0.006317949886626169 -0.0032759945474469792 0 0.0062960083435320089 -0.0028911614844386755 0 0.0068597083794328263 -0.0025743284702900659 0 0.0069830573118852624 -0.0031049480941886939 0 0.0064883704421404504 -0.0021005290930541745 0 0.0062960083435320089 -0.0028911614844386755 0 0.0068597083794328263 -0.0025743284702900659 0 0.0064883704421404504 -0.0021005290930541745 0 0.0073587637439817589 -0.002182419969251329 0 0.0068597083794328263 -0.0025743284702900659 0 0.0073587637439817589 -0.002182419969251329 0 0.0068597083794328263 -0.0025743284702900659 0 0.0069830573118852624 -0.0031049480941886939 0 0.0073587637439817589 -0.002182419969251329 0 0.0079896137318406762 -0.0029565818334647302 0 0.0069830573118852624 -0.0031049480941886939 0 0.0075367511889773281 -0.002128502469570828 0 0.0066866974277852613 -0.0029493396994761962 0 0.0073595276057371777 -0.0013835802822263087 0 0.0064883704421404504 -0.0021005290930541745 0 0.0073587637439817589 -0.002182419969251329 0 0.0073595276057371777 -0.0013835802822263087 0 0.0073587637439817589 -0.002182419969251329 0 0.0078543954320092705 -0.0018569983449977399 0 0.0080456159590527616 -0.0014143069745481361 0 0.0073595276057371777 -0.0013835802822263087 0 0.0078543954320092705 -0.0018569983449977399 0 0.0080456159590527616 -0.0014143069745481361 0 0.0078543954320092705 -0.0018569983449977399 0 0.00828749832567615 -0.001733010909721595 0 0.0078543954320092705 -0.0018569983449977399 0 0.00828749832567615 -0.001733010909721595 0 0.0081183939997973593 -0.0019692517654481259 0 0.0083286828400066567 -0.0019128100189448056 0 0.00828749832567615 -0.001733010909721595 0 0.0081183939997973593 -0.0019692517654481259 0 0.0081183939997973593 -0.0019692517654481259 0 0.0079163040626554423 -0.0021953108884288064 0 0.0081740474237062665 -0.0020917915825498334 0 0.0083286828400066567 -0.0019128100189448056 0 0.0081183939997973593 -0.0019692517654481259 0 0.0081740474237062665 -0.0020917915825498334 0 0.0072619999114675376 -0.0020732636217204699 0 0.0082951227946868652 -0.0027948513005116296 0 0.0073587637439817589 -0.002182419969251329 0 0.0078543954320092705 -0.0018569983449977399 0 0.0079163040626554423 -0.0021953108884288064 0 0.0078543954320092705 -0.0018569983449977399 0 0.0081183939997973593 -0.0019692517654481259 0 0.0079163040626554423 -0.0021953108884288064 0 0.0079896137318406762 -0.0029565818334647302 0 0.0080856967506836453 -0.0035146938593281713 0 0.0072273037530399264 -0.0036851179207021433 0 0.0079163040626554423 -0.0021953108884288064 0 0.0081740474237062665 -0.0020917915825498334 0 0.0081831474397902129 -0.0022176104544105362 0 0.0082951227946868652 -0.0027948513005116296 0 0.006135003347238442 -0.0022908546074675456 0 0.0079896137318406762 -0.0029565818334647302 0 0.0080856967506836453 -0.0035146938593281713 0 0.008627103403718521 -0.003580663999352857 0 0.0082920327590491616 -0.0021045619449343122 0 0.0081740474237062665 -0.0020917915825498334 0 0.0081831474397902129 -0.0022176104544105362 0 0.0018737431147958087 -7.9451795264502643e-05 0 0.002086128723363783 -0.0013803418010382928 0 0.00011338312915907189 -0.0009848115984641163 0 0.0080856967506836453 -0.0035146938593281713 0 0.008627103403718521 -0.003580663999352857 0 0.007804823648585881 -0.0040297947909094505 0 0.006135003347238442 -0.0022908546074675456 0 0.0045243311027899471 -0.0023980836629884537 0 0.00082569672633923139 -0.0019077261008200422 0 0.002086128723363783 -0.0013803418010382928 0 0.00011338312915907189 -0.0009848115984641163 0 0.0080856967506836453 -0.0035146938593281713 0 0.007804823648585881 -0.0040297947909094505 0 0.0072273037530399264 -0.0036851179207021433 0 -0.0016442889800305628 -0.0019088139526872356 0 0.00082569672633923139 -0.0019077261008200422 0 0.00011338312915907189 -0.0009848115984641163 0 -0.0019522824086582852 -0.0018135649765992257 0 0.0045243311027899471 -0.0023980836629884537 0 0.0069263351530635909 -0.0044763694333527634 0 0.007804823648585881 -0.0040297947909094505 0 0.0072273037530399264 -0.0036851179207021433 0 0.0069263351530635909 -0.0044763694333527634 0 0.0072273037530399264 -0.0036851179207021433 0 0.0065678437109129226 -0.0041381060193662516 0 0.006198429268719754 -0.0044722275348227196 0 0.0065678437109129226 -0.0041381060193662516 0 0.0062697605666031542 -0.0035772656219898243 0 0.0063151164109257587 -0.0061103956927096642 0 0.0062636446638597793 -0.0059598250924158018 0 0.0063962771430968127 -0.0046204673176842188 0 -0.00058769339090396233 -0.004662073506200559 0 0.0067223824823231474 -0.0042188534097925365 0 0.0072273037530399264 -0.0036851179207021433 0 0.0065678437109129226 -0.0041381060193662516 0 0.0062697605666031542 -0.0035772656219898243 0 0.0062960083435320089 -0.0028911614844386755 0 0.0062697605666031542 -0.0035772656219898243 0 0.0069830573118852624 -0.0031049480941886939 0 0.0062714864969017374 -0.0029619630148442553 0 0.0067223824823231474 -0.0042188534097925365 0 0.0079896137318406762 -0.0029565818334647302 0 0.0072273037530399264 -0.0036851179207021433 0 0.0069830573118852624 -0.0031049480941886939 0 0.0072273037530399264 -0.0036851179207021433 0 0.0062697605666031542 -0.0035772656219898243 0 0.0069830573118852624 -0.0031049480941886939 0 0.0051487333515718263 -0.0036527012905607243 0 0.0047467125861910403 -0.0053914272061100273 0 0.0041371957960739296 -0.0053352489503142291 0 0.0044008325555571423 -0.0047630396948277996 0 0.0055577008596775779 -0.0047365282460038252 0 0.0041371957960739296 -0.0053352489503142291 0 0.0053660109513868981 -0.0041800147788934967 0 0.0042441253239543951 -0.005236161356744669 0 0.0062960083435320089 -0.0028911614844386755 0 0.0063962771430968127 -0.0046204673176842188 0 0.0051487333515718263 -0.0036527012905607243 0 0.0063962771430968127 -0.0046204673176842188 0 0.0051487333515718263 -0.0036527012905607243 0 0.0054771680742153077 -0.0051965375368866933 0 0.0051487333515718263 -0.0036527012905607243 0 0.0054771680742153077 -0.0051965375368866933 0 0.0047467125861910403 -0.0053914272061100273 0 0.0062636446638597793 -0.0059598250924158018 0 0.0063962771430968127 -0.0046204673176842188 0 0.0054771680742153077 -0.0051965375368866933 0 0.0048294386062373825 -0.0061129900620474076 0 0.0062636446638597793 -0.0059598250924158018 0 0.0054771680742153077 -0.0051965375368866933 0 0.0048294386062373825 -0.0061129900620474076 0 0.0054771680742153077 -0.0051965375368866933 0 0.0047467125861910403 -0.0053914272061100273 0 0.0048294386062373825 -0.0061129900620474076 0 0.0047467125861910403 -0.0053914272061100273 0 0.0041439905188739249 -0.0057286676174925178 0 0.0047467125861910403 -0.0053914272061100273 0 0.0041439905188739249 -0.0057286676174925178 0 0.0041371957960739296 -0.0053352489503142291 0 0.0035519419097306514 -0.0061750024745009973 0 0.0041439905188739249 -0.0057286676174925178 0 0.0034630277727496117 -0.0056415551790076684 0 0.0036080889878299873 -0.0072241093343598682 0 0.0029266739820735586 -0.0064374774457309136 0 0.0034630277727496117 -0.0056415551790076684 0 0.0012821230962807464 -0.0068947036780613461 0 0.0027795791154646048 -0.0059804304164574858 0 0.0029266739820735586 -0.0064374774457309136 0 0.0034630277727496117 -0.0056415551790076684 0 0.0025949763385137055 -0.0056111819646006292 0 0.0034630277727496117 -0.0056415551790076684 0 0.0025949763385137055 -0.0056111819646006292 0 0.0036807029728518101 -0.0051048523176288668 0 0.0034630277727496117 -0.0056415551790076684 0 0.0041371957960739296 -0.0053352489503142291 0 0.0036807029728518101 -0.0051048523176288668 0 0.0041439905188739249 -0.0057286676174925178 0 0.0034630277727496117 -0.0056415551790076684 0 0.0041371957960739296 -0.0053352489503142291 0 0.0033085808220446079 -0.005097951076810419 0 0.0023418895197933067 -0.005302038718440984 0 0.0021613947200940066 -0.0056708950776738565 0 0.00061991225046540289 -0.0059858070438950596 0 0.0015434306528282007 -0.0066967333954106589 0 0.0025949763385137055 -0.0056111819646006292 0 -9.5018652700267305e-05 -0.0060641963752459133 0 0.0025949763385137055 -0.0056111819646006292 0 0.00081852234248200469 -0.0050037778461066214 0 0.00043798192990103442 -0.0060781033749487774 0 0.0025949763385137055 -0.0056111819646006292 0 0.0036807029728518101 -0.0051048523176288668 0 0.00081852234248200469 -0.0050037778461066214 0 0.00065931050776310617 -0.0074508237378223124 0 0.0015434306528282007 -0.0066967333954106589 0 -9.5018652700267305e-05 -0.0060641963752459133 0 0.0015434306528282007 -0.0066967333954106589 0 0.0023289778069888272 -0.0067136228136435499 0 0.0025949763385137055 -0.0056111819646006292 0 0.0029266739820735586 -0.0064374774457309136 0 0.0023289778069888272 -0.0067136228136435499 0 0.0025949763385137055 -0.0056111819646006292 0 0.0028186642058129147 -0.0072188692565697699 0 0.0029266739820735586 -0.0064374774457309136 0 0.0023289778069888272 -0.0067136228136435499 0 0.0033235263304558426 -0.0049719048681882531 0 0.0036807029728518101 -0.0051048523176288668 0 0.0028715286142413617 -0.0054048883013037051 0 0.0033235263304558426 -0.0049719048681882531 0 0.0028972922859053832 -0.0049089059400880342 0 0.0028715286142413617 -0.0054048883013037051 0 0.0033235263304558426 -0.0049719048681882531 0 0.003296281362906522 -0.0046435532351819702 0 0.0037937904091297128 -0.0046954944123713364 0 0.0033235263304558426 -0.0049719048681882531 0 0.003296281362906522 -0.0046435532351819702 0 0.0028972922859053832 -0.0049089059400880342 0 0.0044008325555571423 -0.0047630396948277996 0 0.0041371957960739296 -0.0053352489503142291 0 0.0036807029728518101 -0.0051048523176288668 0 0.0033235263304558426 -0.0049719048681882531 0 0.0036807029728518101 -0.0051048523176288668 0 0.0037937904091297128 -0.0046954944123713364 0 0.0044008325555571423 -0.0047630396948277996 0 0.0036807029728518101 -0.0051048523176288668 0 0.0037937904091297128 -0.0046954944123713364 0 0.0044008325555571423 -0.0047630396948277996 0 0.0037937904091297128 -0.0046954944123713364 0 0.0043177997905059383 -0.0043392956878580803 0 0.0037937904091297128 -0.0046954944123713364 0 0.0043177997905059383 -0.0043392956878580803 0 0.0036109514058110044 -0.0040009595286697583 0 0.0043177997905059383 -0.0043392956878580803 0 0.0036109514058110044 -0.0040009595286697583 0 0.0045967652801387178 -0.0036867507224751213 0 0.003296281362906522 -0.0046435532351819702 0 0.0036109514058110044 -0.0040009595286697583 0 0.0025826575731303326 -0.0042845324218516332 0 0.003296281362906522 -0.0046435532351819702 0 0.0037937904091297128 -0.0046954944123713364 0 0.0036109514058110044 -0.0040009595286697583 0 0.0036109514058110044 -0.0040009595286697583 0 0.0027026622399577969 -0.0036897625683725015 0 0.0025826575731303326 -0.0042845324218516332 0 0.003296281362906522 -0.0046435532351819702 0 0.0025826575731303326 -0.0042845324218516332 0 0.0028972922859053832 -0.0049089059400880342 0 0.0036109514058110044 -0.0040009595286697583 0 0.0032182733759234996 -0.0032293040738147808 0 0.0041036380949961626 -0.0031575890647223244 0 0.0036109514058110044 -0.0040009595286697583 0 0.0032182733759234996 -0.0032293040738147808 0 0.0027026622399577969 -0.0036897625683725015 0 0.0036109514058110044 -0.0040009595286697583 0 0.0045967652801387178 -0.0036867507224751213 0 0.0041036380949961626 -0.0031575890647223244 0 0.0045967652801387178 -0.0036867507224751213 0 0.0049756732416981102 -0.0029789750606754473 0 0.0041036380949961626 -0.0031575890647223244 0 0.0045967652801387178 -0.0036867507224751213 0 0.0055084202790695201 -0.0034215912411748087 0 0.0049756732416981102 -0.0029789750606754473 0 0.0055084202790695201 -0.0034215912411748087 0 0.0050284341356230345 -0.0041426691430169141 0 0.005870368990749439 -0.0038807760653913875 0 0.0045967652801387178 -0.0036867507224751213 0 0.0055084202790695201 -0.0034215912411748087 0 0.0050284341356230345 -0.0041426691430169141 0 0.0043177997905059383 -0.0043392956878580803 0 0.0045967652801387178 -0.0036867507224751213 0 0.0050284341356230345 -0.0041426691430169141 0 0.0044008325555571423 -0.0047630396948277996 0 0.0055577008596775779 -0.0047365282460038252 0 0.0050284341356230345 -0.0041426691430169141 0 0.0044008325555571423 -0.0047630396948277996 0 0.0043177997905059383 -0.0043392956878580803 0 0.0050284341356230345 -0.0041426691430169141 0 0.0066866974277852613 -0.0029493396994761962 0 0.0053660109513868981 -0.0041800147788934967 0 0.006852676992866776 -0.0038011919814452122 0 0.0055577008596775779 -0.0047365282460038252 0 0.005870368990749439 -0.0038807760653913875 0 0.0064883704421404504 -0.0021005290930541745 0 0.0062960083435320089 -0.0028911614844386755 0 0.0051487333515718263 -0.0036527012905607243 0 0.0055577008596775779 -0.0047365282460038252 0 0.0050284341356230345 -0.0041426691430169141 0 0.005870368990749439 -0.0038807760653913875 0 0.006852676992866776 -0.0038011919814452122 0 0.005870368990749439 -0.0038807760653913875 0 0.006317949886626169 -0.0032759945474469792 0 0.0055084202790695201 -0.0034215912411748087 0 0.005870368990749439 -0.0038807760653913875 0 0.006317949886626169 -0.0032759945474469792 0 0.0055084202790695201 -0.0034215912411748087 0 0.006317949886626169 -0.0032759945474469792 0 0.0058939433959349034 -0.0024000632181681212 0 0.0068382163367110491 -0.0026877916663768995 0 0.006317949886626169 -0.0032759945474469792 0 0.0058939433959349034 -0.0024000632181681212 0 0.006711261800820374 -0.0018282886464288375 0 0.0068382163367110491 -0.0026877916663768995 0 0.0058939433959349034 -0.0024000632181681212 0 0.0055084202790695201 -0.0034215912411748087 0 0.0058939433959349034 -0.0024000632181681212 0 0.0049756732416981102 -0.0029789750606754473 0 0.0058939433959349034 -0.0024000632181681212 0 0.0049756732416981102 -0.0029789750606754473 0 0.0046707113105503087 -0.0021826751338753919 0 0.0058939433959349034 -0.0024000632181681212 0 0.0056694450797894532 -0.0014477368346955375 0 0.0046707113105503087 -0.0021826751338753919 0 0.006711261800820374 -0.0018282886464288375 0 0.0058939433959349034 -0.0024000632181681212 0 0.0063776321939490194 -0.0014173155359449559 0 0.0058939433959349034 -0.0024000632181681212 0 0.0063776321939490194 -0.0014173155359449559 0 0.0056694450797894532 -0.0014477368346955375 0 0.0069931432932717353 -0.0010175755719285845 0 0.0063776321939490194 -0.0014173155359449559 0 0.0065135301654751804 -0.00052118047519413772 0 0.0063776321939490194 -0.0014173155359449559 0 0.0056694450797894532 -0.0014477368346955375 0 0.0065135301654751804 -0.00052118047519413772 0 0.0069931432932717353 -0.0010175755719285845 0 0.006711261800820374 -0.0018282886464288375 0 0.0063776321939490194 -0.0014173155359449559 0 0.0056694450797894532 -0.0014477368346955375 0 0.0050323847753133265 -0.0010319469894036265 0 0.0046707113105503087 -0.0021826751338753919 0 0.0056694450797894532 -0.0014477368346955375 0 0.0065135301654751804 -0.00052118047519413772 0 0.0050323847753133265 -0.0010319469894036265 0 0.0065135301654751804 -0.00052118047519413772 0 0.0054059062112458865 8.3983552022476543e-05 0 0.0050323847753133265 -0.0010319469894036265 0 0.0074782619717043185 -0.0010522357118006977 0 0.0065754754956150767 -0.00057532505802144703 0 0.0041181570862380079 -0.00047774003264727441 0 0.0034668869309182264 0.00018575009018330122 0 0.0027432101921900905 -0.00071027879293508343 0 0.0041181570862380079 -0.00047774003264727441 0 0.0034668869309182264 0.00018575009018330122 0 0.0043024203424359125 0.00080522200088333862 0 0.0041181570862380079 -0.00047774003264727441 0 0.0054059062112458865 8.3983552022476543e-05 0 0.0043024203424359125 0.00080522200088333862 0 0.0041181570862380079 -0.00047774003264727441 0 0.0054059062112458865 8.3983552022476543e-05 0 0.0050323847753133265 -0.0010319469894036265 0 0.0041181570862380079 -0.00047774003264727441 0 0.0050323847753133265 -0.0010319469894036265 0 0.0036728842896803261 -0.0015406328571062665 0 0.0041181570862380079 -0.00047774003264727441 0 0.0036728842896803261 -0.0015406328571062665 0 0.0027432101921900905 -0.00071027879293508343 0 0.0036728842896803261 -0.0015406328571062665 0 0.0032932229485773488 -0.0025225796648077723 0 0.0024457857211907966 -0.0019087822245571968 0 0.0036728842896803261 -0.0015406328571062665 0 0.0046707113105503087 -0.0021826751338753919 0 0.0032932229485773488 -0.0025225796648077723 0 0.0050323847753133265 -0.0010319469894036265 0 0.0036728842896803261 -0.0015406328571062665 0 0.0046707113105503087 -0.0021826751338753919 0 0.0046707113105503087 -0.0021826751338753919 0 0.0041036380949961626 -0.0031575890647223244 0 0.0032932229485773488 -0.0025225796648077723 0 0.0049756732416981102 -0.0029789750606754473 0 0.0046707113105503087 -0.0021826751338753919 0 0.0041036380949961626 -0.0031575890647223244 0 0.0032182733759234996 -0.0032293040738147808 0 0.0041036380949961626 -0.0031575890647223244 0 0.0032932229485773488 -0.0025225796648077723 0 0.0032932229485773488 -0.0025225796648077723 0 0.0022307235970910324 -0.0029390815708733387 0 0.0024457857211907966 -0.0019087822245571968 0 0.0032182733759234996 -0.0032293040738147808 0 0.0032932229485773488 -0.0025225796648077723 0 0.0022307235970910324 -0.0029390815708733387 0 0.0022307235970910324 -0.0029390815708733387 0 0.00096050370919663417 -0.0031010998644571772 0 0.001982828057579955 -0.0036645106647012256 0 0.0022307235970910324 -0.0029390815708733387 0 0.0015083832164461211 -0.0022081950964559986 0 0.00096050370919663417 -0.0031010998644571772 0 0.0015083832164461211 -0.0022081950964559986 0 0.0024457857211907966 -0.0019087822245571968 0 0.0014895837772720675 -0.0012954279479710864 0 0.0015083832164461211 -0.0022081950964559986 0 0.0014895837772720675 -0.0012954279479710864 0 0.00032633184807548046 -0.0018146795667275664 0 0.0022307235970910324 -0.0029390815708733387 0 0.0015083832164461211 -0.0022081950964559986 0 0.0024457857211907966 -0.0019087822245571968 0 0.0036728842896803261 -0.0015406328571062665 0 0.0024457857211907966 -0.0019087822245571968 0 0.0027432101921900905 -0.00071027879293508343 0 0.0024457857211907966 -0.0019087822245571968 0 0.0027432101921900905 -0.00071027879293508343 0 0.0014895837772720675 -0.0012954279479710864 0 0.0027432101921900905 -0.00071027879293508343 0 0.0014895837772720675 -0.0012954279479710864 0 0.0013817151420005298 -0.00018210059103315152 0 0.0014895837772720675 -0.0012954279479710864 0 0.0013817151420005298 -0.00018210059103315152 0 0.00062304480761352077 -0.00082944102047585527 0 0.0013817151420005298 -0.00018210059103315152 0 0.00062091817904380217 0.00015038666636226522 0 0.00085017042910246734 0.00031516344043270987 0 0.0013817151420005298 -0.00018210059103315152 0 0.00062091817904380217 0.00015038666636226522 0 0.00062304480761352077 -0.00082944102047585527 0 0.0027432101921900905 -0.00071027879293508343 0 0.0013817151420005298 -0.00018210059103315152 0 0.0023940947434574022 0.00032425301658274141 0 0.0034668869309182264 0.00018575009018330122 0 0.0027432101921900905 -0.00071027879293508343 0 0.0023940947434574022 0.00032425301658274141 0 -0.00062645099941446988 -3.8354252836161972e-05 0 -0.0016630100682310776 -7.8600750510367025e-07 0 0.00089045607852806347 1.3824357900536493e-06 0 -0.00062645099941446988 -3.8354252836161972e-05 0 0.00062091817904380217 0.00015038666636226522 0 0.00062304480761352077 -0.00082944102047585527 0 -0.00062645099941446988 -3.8354252836161972e-05 0 0.00062304480761352077 -0.00082944102047585527 0 0.00032633184807548046 -0.0018146795667275664 0 -0.00090746111972378083 4.7824948247325111e-05 0 -0.0017673453232888089 -0.00076618771265962705 0 0.0014895837772720675 -0.0012954279479710864 0 0.00062304480761352077 -0.00082944102047585527 0 0.00032633184807548046 -0.0018146795667275664 0 -0.0016630100682310776 -7.8600750510367025e-07 0 -0.0042172378421237939 2.0818075788557585e-07 0 -0.0038959127659613331 -9.0260160495739386e-05 0 -0.00062645099941446988 -3.8354252836161972e-05 0 -0.0016630100682310776 -7.8600750510367025e-07 0 -0.0038959127659613331 -9.0260160495739386e-05 0 -0.0017673453232888089 -0.00076618771265962705 0 -0.0026452788822594413 -0.0014007903568117549 0 0.0015083832164461211 -0.0022081950964559986 0 0.00032633184807548046 -0.0018146795667275664 0 0.00096050370919663417 -0.0031010998644571772 0 -0.0042172378421237939 2.0818075788557585e-07 0 -0.0038959127659613331 -9.0260160495739386e-05 0 -0.006277762325496079 0.00014040447753537158 0 -0.0042172378421237939 2.0818075788557585e-07 0 -0.006277762325496079 0.00014040447753537158 0 -0.0067694729538740808 1.4532960863931522e-07 0 -0.006277762325496079 0.00014040447753537158 0 -0.0067694729538740808 1.4532960863931522e-07 0 -0.0076973828281069086 0.00019824065956541135 0 -0.0067694729538740808 1.4532960863931522e-07 0 -0.0076973828281069086 0.00019824065956541135 0 -0.0093242646810677201 1.6114460730298258e-06 0 -0.0076973828281069086 0.00019824065956541135 0 -0.0093242646810677201 1.6114460730298258e-06 0 -0.0083745384020531399 -5.1795584483701558e-05 0 -0.0076973828281069086 0.00019824065956541135 0 -0.0077415729109699752 0.00019071183656668131 0 -0.0083745384020531399 -5.1795584483701558e-05 0 -0.0026452788822594413 -0.0014007903568117549 0 -0.0032437290114504008 -0.001904238273273993 0 -0.006277762325496079 0.00014040447753537158 0 -0.0076973828281069086 0.00019824065956541135 0 -0.0077415729109699752 0.00019071183656668131 0 0.00096050370919663417 -0.0031010998644571772 0 0.001982828057579955 -0.0036645106647012256 0 0.0014081777138890668 -0.0042432079082230642 0 0.0032182733759234996 -0.0032293040738147808 0 0.0022307235970910324 -0.0029390815708733387 0 0.0027026622399577969 -0.0036897625683725015 0 0.0022307235970910324 -0.0029390815708733387 0 0.001982828057579955 -0.0036645106647012256 0 0.0027026622399577969 -0.0036897625683725015 0 0.001982828057579955 -0.0036645106647012256 0 0.0027026622399577969 -0.0036897625683725015 0 0.0025826575731303326 -0.0042845324218516332 0 0.0025826575731303326 -0.0042845324218516332 0 0.0014081777138890668 -0.0042432079082230642 0 0.0023518711448360509 -0.0048109444436617464 0 0.001982828057579955 -0.0036645106647012256 0 0.0025826575731303326 -0.0042845324218516332 0 0.0014081777138890668 -0.0042432079082230642 0 0.0014081777138890668 -0.0042432079082230642 0 0.0023518711448360509 -0.0048109444436617464 0 0.001697468014392676 -0.0053906302366184822 0 -0.0032437290114504008 -0.001904238273273993 0 -0.0023514833304755815 -0.0031492880790725069 0 -0.0077415729109699752 0.00019071183656668131 0 -0.008023372912235139 -0.00036721127062937806 0 -0.0083745384020531399 -5.1795584483701558e-05 0 0.0023518711448360509 -0.0048109444436617464 0 0.0017138740607418651 -0.0053476332285649405 0 0.0020126538245675827 -0.0053432569071849879 0 0.0026785479586649156 -0.0046022912555600589 0 -0.0023514833304755815 -0.0031492880790725069 0 -0.0082218212342978266 -0.00052442162565836449 0 -0.008023372912235139 -0.00036721127062937806 0 -0.0083745384020531399 -5.1795584483701558e-05 0 0.0028972922859053832 -0.0049089059400880342 0 0.0023518711448360509 -0.0048109444436617464 0 0.0026033328993187669 -0.0051121814938110575 0 0.0025826575731303326 -0.0042845324218516332 0 0.0028972922859053832 -0.0049089059400880342 0 0.0023518711448360509 -0.0048109444436617464 0 0.0023518711448360509 -0.0048109444436617464 0 0.0026033328993187669 -0.0051121814938110575 0 0.0022931386072255534 -0.0053299960497732854 0 0.0023518711448360509 -0.0048109444436617464 0 0.0022931386072255534 -0.0053299960497732854 0 0.0020126538245675827 -0.0053432569071849879 0 0.0026033328993187669 -0.0051121814938110575 0 0.0028715286142413617 -0.0054048883013037051 0 0.0022931386072255534 -0.0053299960497732854 0 0.0028972922859053832 -0.0049089059400880342 0 0.0026033328993187669 -0.0051121814938110575 0 0.0028715286142413617 -0.0054048883013037051 0 0.0023418895197933067 -0.005302038718440984 0 -0.0026451475163152003 -0.0038821089404694918 0 0.0028715286142413617 -0.0054048883013037051 0 0.0022931386072255534 -0.0053299960497732854 0 0.0017516169733811102 -0.0055664717359505322 0 0.00081852234248200469 -0.0050037778461066214 0 -0.00067977840531959215 -0.0057505982340990197 0 -0.0021397832418922976 -0.0052965670178899806 0 -0.00067977840531959215 -0.0057505982340990197 0 0.00043798192990103442 -0.0060781033749487774 0 -0.0018434272495619418 -0.0066353765093675144 0 -0.0013641118838768542 -0.0071940424585787465 0 -9.5018652700267305e-05 -0.0060641963752459133 0 -0.0026429886049586827 -0.0066378375987094168 0 0.00061991225046540289 -0.0059858070438950596 0 -0.0050804654493330917 -0.0049131321375339874 0 0.00081852234248200469 -0.0050037778461066214 0 -0.00067977840531959215 -0.0057505982340990197 0 0.00043798192990103442 -0.0060781033749487774 0 -0.0077378438009240757 -0.0022525374905515566 0 -0.0026451475163152003 -0.0038821089404694918 0 -0.0023514833304755815 -0.0031492880790725069 0 -0.0026451475163152003 -0.0038821089404694918 0 -0.0077378438009240757 -0.0022525374905515566 0 -0.0023514833304755815 -0.0031492880790725069 0 -0.0049629430426958573 -0.0030485879206594321 0 -0.0041883309862880682 -0.0023135948760788197 0 -0.0040457206678543812 -0.0029447418954543065 0 0.0017138740607418651 -0.0053476332285649405 0 0.0020126538245675827 -0.0053432569071849879 0 0.0017516169733811102 -0.0055664717359505322 0 0.0022931386072255534 -0.0053299960497732854 0 0.0020126538245675827 -0.0053432569071849879 0 0.0017516169733811102 -0.0055664717359505322 0 -0.0026451475163152003 -0.0038821089404694918 0 -0.0050804654493330917 -0.0049131321375339874 0 -0.00067977840531959215 -0.0057505982340990197 0 -0.0021397832418922976 -0.0052965670178899806 0 -0.0018434272495619418 -0.0066353765093675144 0 -0.007361614731168426 -0.0020573299498961089 0 -0.0062683361305392463 -0.0019359490414331789 0 -0.0058614236609858209 -0.0037308532777520186 0 -0.012415949419623602 2.0204912615848392e-05 0 -0.012472851116066245 -8.360015343203784e-05 0 -0.01246629580424609 -5.9975143807661059e-05 0 -0.010255141555324178 -0.0047949776125454291 0 -0.007361614731168426 -0.0020573299498961089 0 -0.0058614236609858209 -0.0037308532777520186 0 -0.0082218212342978266 -0.00052442162565836449 0 -0.0094421829216122799 -0.00043635069465431926 0 -0.0083745384020531399 -5.1795584483701558e-05 0 -0.012235258256521261 -0.0020113708414502786 0 -0.0077378438009240757 -0.0022525374905515566 0 -0.0077378438009240757 -0.0022525374905515566 0 -0.011306496224173847 -0.0002760301241433297 0 -0.0093242646810677201 1.6114460730298258e-06 0 -0.0094421829216122799 -0.00043635069465431926 0 -0.011871848103681288 -3.4026135240560585e-06 0 -0.01246629580424609 -5.9975143807661059e-05 0 -0.012380032358277513 7.0076765906701205e-05 0 -0.011879923718908654 3.3191627347997154e-07 0 -0.012415949419623602 2.0204912615848392e-05 0 -0.01246629580424609 -5.9975143807661059e-05 0 -0.012380032358277513 7.0076765906701205e-05 0 -0.011306496224173847 -0.0002760301241433297 0 -0.011876289144283732 -1.2546037481610549e-07 0 -0.012499782429936388 7.8735771022383184e-05 0 -0.012380032358277513 7.0076765906701205e-05 0 -0.011879923718908654 3.3191627347997154e-07 0 -0.0093242646810677201 1.6114460730298258e-06 0 -0.0094421829216122799 -0.00043635069465431926 0 -0.0083745384020531399 -5.1795584483701558e-05 0 -0.0052848616956350982 -0.00080966323898830665 0 -0.0058024880424013998 -0.0010297479404807099 0 -0.0056685935959633485 -0.0011919368306372599 0 -0.0062238225526960239 -0.0014328802689256015 0 -0.0068788420088152832 -0.0011534214318362126 0 -0.0058024880424013998 -0.0010297479404807099 0 -0.0057673475542483364 -0.00093502589645537274 0 -0.0059609977786744478 -0.0010380728873440994 0 -0.0062238225526960239 -0.0014328802689256015 0 -0.0068788420088152832 -0.0011534214318362126 0 -0.006671670156137747 -0.0017663720511101155 0 -0.0058024880424013998 -0.0010297479404807099 0 -0.0057206005210500913 -0.0010881237712495352 0 -0.0057679759499808464 -0.001359811269861411 0 -0.0057206005210500913 -0.0010881237712495352 0 -0.0057679759499808464 -0.001359811269861411 0 -0.0055141625093909161 -0.0012131781238776532 0 -0.0062238225526960239 -0.0014328802689256015 0 -0.0058024880424013998 -0.0010297479404807099 0 -0.0057679759499808464 -0.001359811269861411 0 -0.006155921979107349 -0.0018399439567000895 0 -0.0065013086571112828 -0.0022838816272970678 0 -0.0056162703070402791 -0.0025371277896804531 0 -0.0062238225526960239 -0.0014328802689256015 0 -0.0057679759499808464 -0.001359811269861411 0 -0.006155921979107349 -0.0018399439567000895 0 -0.0057679759499808464 -0.001359811269861411 0 -0.0056510504848762211 -0.0018602191823871227 0 -0.0054152151626474469 -0.0014779003451840518 0 -0.0057679759499808464 -0.001359811269861411 0 -0.006155921979107349 -0.0018399439567000895 0 -0.0056510504848762211 -0.0018602191823871227 0 -0.006155921979107349 -0.0018399439567000895 0 -0.0056510504848762211 -0.0018602191823871227 0 -0.0056162703070402791 -0.0025371277896804531 0 -0.006155921979107349 -0.0018399439567000895 0 -0.006671670156137747 -0.0017663720511101155 0 -0.0065013086571112828 -0.0022838816272970678 0 -0.0062238225526960239 -0.0014328802689256015 0 -0.006155921979107349 -0.0018399439567000895 0 -0.006671670156137747 -0.0017663720511101155 0 -0.0068788420088152832 -0.0011534214318362126 0 -0.006671670156137747 -0.0017663720511101155 0 -0.0072649517368968547 -0.0017188261021932377 0 -0.006671670156137747 -0.0017663720511101155 0 -0.0070233393356435945 -0.0021889244345294572 0 -0.0072649517368968547 -0.0017188261021932377 0 -0.006671670156137747 -0.0017663720511101155 0 -0.0070233393356435945 -0.0021889244345294572 0 -0.0065013086571112828 -0.0022838816272970678 0 -0.007462527938100723 -0.0020771618836677055 0 -0.0077682263584226818 -0.0016803698613817898 0 -0.0077963015835390958 -0.0027159473237301991 0 -0.0070233393356435945 -0.0021889244345294572 0 -0.007462527938100723 -0.0020771618836677055 0 -0.0072649517368968547 -0.0017188261021932377 0 -0.0077682263584226818 -0.0016803698613817898 0 -0.0072649517368968547 -0.0017188261021932377 0 -0.0078123516138570983 -0.0014268465250754615 0 -0.007462527938100723 -0.0020771618836677055 0 -0.0077682263584226818 -0.0016803698613817898 0 -0.0072649517368968547 -0.0017188261021932377 0 -0.0081374355154082197 -0.0010835404384474101 0 -0.0083741111293246136 -0.00018807389038088127 0 -0.0077682263584226818 -0.0016803698613817898 0 -0.0080666510713787928 -0.0015157090090189972 0 -0.0077963015835390958 -0.0027159473237301991 0 -0.014413376682593746 -0.0013577850635854642 0 -0.01355672748606301 0.00059565629037516084 0 -0.012555329448489484 -0.0029642691984954847 0 -0.013332375098373987 0.0011476515895462202 0 -0.011910468277730485 -0.003194010717817517 0 -0.012310818173284601 0.00076403383530195413 0 -0.0090379184023959835 -0.0029679198300651922 0 -0.012377476110058317 0.00012065173578535155 0 -0.012758492582338568 -1.0149891610681681e-05 0 -0.01184092029592936 -0.0024204364604746152 0 -0.012310818173284601 0.00076403383530195413 0 -0.0083741111293246136 -0.00018807389038088127 0 -0.0077682263584226818 -0.0016803698613817898 0 -0.0080666510713787928 -0.0015157090090189972 0 -0.0078163847182357842 -0.0014294109930732559 0 -0.012310818173284601 0.00076403383530195413 0 -0.013332375098373987 0.0011476515895462202 0 -0.014593735434717155 0.0027798904283310218 0 -0.013897862893024453 0.0015558931053885978 0 -0.014184996008444395 0.00075595109606970594 0 -0.014495786427728117 0.0026502391381324972 0 -0.014895768701006453 0.0025157793219738561 0 -0.014184996008444395 0.00075595109606970594 0 -0.012310818173284601 0.00076403383530195413 0 -0.014740905226806239 0.001762087431029722 0 -0.014593735434717155 0.0027798904283310218 0 -0.014278483038690682 0.0028859267034165468 0 -0.013897862893024453 0.0015558931053885978 0 -0.0083741111293246136 -0.00018807389038088127 0 -0.0098873649311485515 -0.00018816887260501139 0 -0.013332375098373987 0.0011476515895462202 0 -0.013743803986310638 0.0020295364688132748 0 -0.01270055959750719 0.0023952163288340545 0 -0.013676136228380018 0.0023460468886300277 0 -0.013162296734755214 0.002674357552396223 0 -0.0052848616956350982 -0.00080966323898830665 0 -0.0048557093402633736 -0.0006459377633662879 0 -0.0050076840948719697 -0.0009866364727398472 0 -0.0048557093402633736 -0.0006459377633662879 0 -0.0050076840948719697 -0.0009866364727398472 0 -0.0046934596268638131 -0.0013109651225028456 0 -0.0057673475542483364 -0.00093502589645537274 0 -0.0083741111293246136 -0.00018807389038088127 0 -0.0068788420088152832 -0.0011534214318362126 0 -0.0072649517368968547 -0.0017188261021932377 0 -0.0078123516138570983 -0.0014268465250754615 0 -0.0052848616956350982 -0.00080966323898830665 0 -0.0050076840948719697 -0.0009866364727398472 0 -0.0051923835996911605 -0.0011793030485328395 0 -0.0046934596268638131 -0.0013109651225028456 0 -0.0051108644780071474 -0.0015104812880462107 0 -0.0051923835996911605 -0.0011793030485328395 0 -0.0050076840948719697 -0.0009866364727398472 0 -0.0046934596268638131 -0.0013109651225028456 0 -0.0051923835996911605 -0.0011793030485328395 0 -0.013743803986310638 0.0020295364688132748 0 -0.013370856489541266 0.00034200548249208501 0 -0.014895768701006453 0.0025157793219738561 0 -0.014184996008444395 0.00075595109606970594 0 -0.014724062665126693 0.00034050482343510921 0 -0.013897862893024453 0.0015558931053885978 0 -0.014184996008444395 0.00075595109606970594 0 -0.013362256765425188 0.0001784449045810825 0 -0.014184996008444395 0.00075595109606970594 0 -0.014724062665126693 0.00034050482343510921 0 -0.013362256765425188 0.0001784449045810825 0 -0.0046934596268638131 -0.0013109651225028456 0 -0.0048674625460732946 -0.0017480350295104928 0 -0.0045331820072845594 -0.0019508394207884544 0 -0.014724062665126693 0.00034050482343510921 0 -0.013444899075336162 -0.0012715682555543544 0 -0.014289304761306902 -0.002990372622054256 0 -0.0098873649311485515 -0.00018816887260501139 0 -0.0096097470041771431 -0.0027956979271937343 0 -0.014724062665126693 0.00034050482343510921 0 -0.013362256765425188 0.0001784449045810825 0 -0.013444899075336162 -0.0012715682555543544 0 -0.0046934596268638131 -0.0013109651225028456 0 -0.0051108644780071474 -0.0015104812880462107 0 -0.0048674625460732946 -0.0017480350295104928 0 -0.0051108644780071474 -0.0015104812880462107 0 -0.0048674625460732946 -0.0017480350295104928 0 -0.0051560831749140517 -0.001812851872129029 0 -0.0051108644780071474 -0.0015104812880462107 0 -0.0053723643939822263 -0.001675609776447996 0 -0.0051560831749140517 -0.001812851872129029 0 -0.0022843971920513354 -0.0019117850818524966 0 -0.0045769392341841438 -0.0010881001611283739 0 -0.0054119260749478796 -0.0015980826807616448 0 -0.0054620075566273194 -0.0013428350926104921 0 -0.0056841114886633922 -0.0013221571867569879 0 -0.0022843971920513354 -0.0019117850818524966 0 -0.00472105889841214 -0.0012166394177603979 0 -0.0051108644780071474 -0.0015104812880462107 0 -0.0053723643939822263 -0.001675609776447996 0 -0.0054620075566273194 -0.0013428350926104921 0 -0.0052848616956350982 -0.00080966323898830665 0 -0.0051923835996911605 -0.0011793030485328395 0 -0.0056685935959633485 -0.0011919368306372599 0 -0.0054620075566273194 -0.0013428350926104921 0 -0.0051923835996911605 -0.0011793030485328395 0 -0.0056685935959633485 -0.0011919368306372599 0 -0.0051108644780071474 -0.0015104812880462107 0 -0.0054620075566273194 -0.0013428350926104921 0 -0.0051923835996911605 -0.0011793030485328395 0 -0.0056685935959633485 -0.0011919368306372599 0 -0.0056841114886633922 -0.0013221571867569879 0 -0.0057007734703809964 -0.0011017087458124587 0 0.0064351501125296841 -0.00085731690772586334 0 0.0062148450157736689 -0.0010866277002056243 0 0.006093306199201425 -0.00059202095879373967 0 -0.0057206005210500913 -0.0010881237712495352 0 -0.0056685935959633485 -0.0011919368306372599 0 -0.0057007734703809964 -0.0011017087458124587 0 -0.0058024880424013998 -0.0010297479404807099 0 -0.0057206005210500913 -0.0010881237712495352 0 -0.0056685935959633485 -0.0011919368306372599 0 -0.0054620075566273194 -0.0013428350926104921 0 -0.0056685935959633485 -0.0011919368306372599 0 -0.0056841114886633922 -0.0013221571867569879 0 0.00049400416229552807 -0.0012190186726439266 0 0.0010188811820293952 -0.0012037481237860692 0 0.0064351501125296841 -0.00085731690772586334 0 0.0064496337190565007 -0.0010717311984465789 0 0.0062148450157736689 -0.0010866277002056243 0 0.0067049054489704274 -0.0010721848348824016 0 0.0064351501125296841 -0.00085731690772586334 0 0.0064496337190565007 -0.0010717311984465789 0 -0.0022843971920513354 -0.0019117850818524966 0 0.00049400416229552807 -0.0012190186726439266 0 0.0067049054489704274 -0.0010721848348824016 0 0.0064496337190565007 -0.0010717311984465789 0 0.0064549555269678028 -0.0012580153364776345 0 0.0064496337190565007 -0.0010717311984465789 0 0.0062148450157736689 -0.0010866277002056243 0 0.0064549555269678028 -0.0012580153364776345 0 0.0062148450157736689 -0.0010866277002056243 0 0.0060882379720271088 -0.0010101090334592481 0 0.0061028981310611565 -0.0011911138265302641 0 0.0060882379720271088 -0.0010101090334592481 0 0.0061028981310611565 -0.0011911138265302641 0 0.0059916806422447488 -0.0010742866648216071 0 0.0061028981310611565 -0.0011911138265302641 0 0.0059916806422447488 -0.0010742866648216071 0 0.005972085173390645 -0.001283243732772496 0 0.0058952660248290829 -0.0011504070641874657 0 0.0059916806422447488 -0.0010742866648216071 0 0.005972085173390645 -0.001283243732772496 0 0.0058952660248290829 -0.0011504070641874657 0 0.0059916806422447488 -0.0010742866648216071 0 0.0058960939292686514 -0.0010239037457674873 0 0.0060882379720271088 -0.0010101090334592481 0 0.0059916806422447488 -0.0010742866648216071 0 0.005981349001396929 -0.00097660969436354412 0 0.0059916806422447488 -0.0010742866648216071 0 0.005981349001396929 -0.00097660969436354412 0 0.0058960939292686514 -0.0010239037457674873 0 0.0054761809354933275 -0.00081159278102349596 0 0.0060170558456173204 -0.00088187927609015618 0 0.005981349001396929 -0.00097660969436354412 0 0.0058979010922098306 -0.00092866238241897736 0 0.0060558214172827269 -0.0008786783991780382 0 0.0050364626523435397 -0.00070893925748839346 0 0.0056711061028052326 -0.00062671264812689859 0 0.0060558214172827269 -0.0008786783991780382 0 0.005981349001396929 -0.00097660969436354412 0 0.0058960939292686514 -0.0010239037457674873 0 0.0058979010922098306 -0.00092866238241897736 0 0.0066609739498926833 -0.00098663339457692387 0 0.0010188811820293952 -0.0012037481237860692 0 0.0056711061028052326 -0.00062671264812689859 0 0.0061634497965850294 -0.00082467952093631138 0 0.0060558214172827269 -0.0008786783991780382 0 0.0062148450157736689 -0.0010866277002056243 0 0.0060882379720271088 -0.0010101090334592481 0 0.0061634497965850294 -0.00082467952093631138 0 0.0060882379720271088 -0.0010101090334592481 0 0.0061634497965850294 -0.00082467952093631138 0 0.0060558214172827269 -0.0008786783991780382 0 0.0060882379720271088 -0.0010101090334592481 0 0.005981349001396929 -0.00097660969436354412 0 0.0060558214172827269 -0.0008786783991780382 0 0.005691528585328111 -0.0011110090067653637 0 0.0057232010246347645 -0.0010586164406381758 0 0.0056712756674794041 -0.00098920007019906247 0 0.0056736556646907205 -0.0011122550077459622 0 0.005691528585328111 -0.0011110090067653637 0 0.0056712756674794041 -0.00098920007019906247 0 0.005691528585328111 -0.0011110090067653637 0 0.005746694327708881 -0.0011358793978326067 0 0.0057393742221226538 -0.0012239786187427776 0 0.005691528585328111 -0.0011110090067653637 0 0.005746694327708881 -0.0011358793978326067 0 0.0057232010246347645 -0.0010586164406381758 0 0.005746694327708881 -0.0011358793978326067 0 0.0057232010246347645 -0.0010586164406381758 0 0.0058013074805384262 -0.001091733032293181 0 0.005746694327708881 -0.0011358793978326067 0 0.0057393742221226538 -0.0012239786187427776 0 0.0058165183284632806 -0.0012007810291832445 0 0.005746694327708881 -0.0011358793978326067 0 0.0058013074805384262 -0.001091733032293181 0 0.0058165183284632806 -0.0012007810291832445 0 0.0058952660248290829 -0.0011504070641874657 0 0.0058013074805384262 -0.001091733032293181 0 0.0058165183284632806 -0.0012007810291832445 0 0.0058952660248290829 -0.0011504070641874657 0 0.0058960939292686514 -0.0010239037457674873 0 0.0058013074805384262 -0.001091733032293181 0 0.0054761809354933275 -0.00081159278102349596 0 0.0049901646418418497 -0.0007055304206701799 0 0.0058979010922098306 -0.00092866238241897736 0 0.0057871637680534148 -0.00098023264520487514 0 0.0057116672091970921 -0.00089560447937055664 0 0.0058960939292686514 -0.0010239037457674873 0 0.0058013074805384262 -0.001091733032293181 0 0.0057871637680534148 -0.00098023264520487514 0 0.0058960939292686514 -0.0010239037457674873 0 0.0058979010922098306 -0.00092866238241897736 0 0.0057871637680534148 -0.00098023264520487514 0 0.0057232010246347645 -0.0010586164406381758 0 0.0058013074805384262 -0.001091733032293181 0 0.0057871637680534148 -0.00098023264520487514 0 0.0056303974784386555 -0.0015417448079587559 0 0.0057019334891120974 -0.00090983123506610335 0 0.005339582058932691 -0.00081368903629057247 0 0.0056712756674794041 -0.00098920007019906247 0 0.0057116672091970921 -0.00089560447937055664 0 0.0057232010246347645 -0.0010586164406381758 0 0.0057871637680534148 -0.00098023264520487514 0 0.0057268636702191992 -0.00097881656099486924 0 0.0057232010246347645 -0.0010586164406381758 0 0.0057268636702191992 -0.00097881656099486924 0 0.0056712756674794041 -0.00098920007019906247 0 0.0057871637680534148 -0.00098023264520487514 0 0.0057268636702191992 -0.00097881656099486924 0 0.0057116672091970921 -0.00089560447937055664 0 0.0057268636702191992 -0.00097881656099486924 0 0.0056712756674794041 -0.00098920007019906247 0 0.0057116672091970921 -0.00089560447937055664 0 0.0034510694649731717 -0.00034918239336410937 0 0.003947621997289724 -0.00020278905721273922 0 0.0041937993393770887 -0.00050604616858818932 0 0.003947621997289724 -0.00020278905721273922 0 0.0042659816026232415 -7.6260553291199483e-05 0 0.0038910766392476611 0.00012417359098503071 0 0.003947621997289724 -0.00020278905721273922 0 0.0041937993393770887 -0.00050604616858818932 0 0.0042659816026232415 -7.6260553291199483e-05 0 0.0046861171636568937 -0.00019283829693452078 0 0.004624343847213227 0.00044882536634868357 0 0.0053797483830547582 -0.00011342777719157617 0 0.0050364626523435397 -0.00070893925748839346 0 0.0041937993393770887 -0.00050604616858818932 0 0.0046861171636568937 -0.00019283829693452078 0 0.0041937993393770887 -0.00050604616858818932 0 0.0042659816026232415 -7.6260553291199483e-05 0 0.0046861171636568937 -0.00019283829693452078 0 0.0042659816026232415 -7.6260553291199483e-05 0 0.0046861171636568937 -0.00019283829693452078 0 0.004624343847213227 0.00044882536634868357 0 -0.0047859364316293904 -0.0015118762393631585 0 -0.0049523583105425149 -0.0014744178376306504 0 -0.0041471443606125443 -0.0021447466919165023 0 -0.0047859364316293904 -0.0015118762393631585 0 -0.0049523583105425149 -0.0014744178376306504 0 -0.0048789879155340405 -0.001283361283741838 0 0.004624343847213227 0.00044882536634868357 0 0.0038910766392476611 0.00012417359098503071 0 0.0039851495049333325 0.00098657851229367764 0 0.0042659816026232415 -7.6260553291199483e-05 0 0.004624343847213227 0.00044882536634868357 0 0.0038910766392476611 0.00012417359098503071 0 0.003617307535366225 0.00055714341788593838 0 0.0038910766392476611 0.00012417359098503071 0 0.0039851495049333325 0.00098657851229367764 0 -0.0034206497899799599 -0.0019605182324136188 0 -0.0033755114091855451 -0.002294051880625687 0 -0.0041471443606125443 -0.0021447466919165023 0 0.0010188811820293952 -0.0012037481237860692 0 0.00073292079268472588 -0.001258197294162092 0 -0.003303602164944503 -0.0028243336649769191 0 -0.0033755114091855451 -0.002294051880625687 0 -0.0041471443606125443 -0.0021447466919165023 0 0.0056711061028052326 -0.00062671264812689859 0 0.0061634497965850294 -0.00082467952093631138 0 0.0053797483830547582 -0.00011342777719157617 0 -0.0057679759499808464 -0.001359811269861411 0 -0.0054152151626474469 -0.0014779003451840518 0 -0.0055141625093909161 -0.0012131781238776532 0 -0.0042439306753714913 -0.0017306012723309933 0 -0.0036990217811835235 -0.00176096182158561 0 0.0010188811820293952 -0.0012037481237860692 0 -0.0036990217811835235 -0.00176096182158561 0 -0.0057206005210500913 -0.0010881237712495352 0 -0.0057007734703809964 -0.0011017087458124587 0 -0.0055141625093909161 -0.0012131781238776532 0 0.0050364626523435397 -0.00070893925748839346 0 0.0056711061028052326 -0.00062671264812689859 0 0.0053797483830547582 -0.00011342777719157617 0 0.0050364626523435397 -0.00070893925748839346 0 0.0046861171636568937 -0.00019283829693452078 0 0.0053797483830547582 -0.00011342777719157617 0 -0.0034206497899799599 -0.0019605182324136188 0 -0.0041471443606125443 -0.0021447466919165023 0 -0.0041350430317250884 -0.0016770378668268372 0 -0.0002630677859802631 -0.00043734992960352514 0 0.00073292079268472588 -0.001258197294162092 0 -0.0034206497899799599 -0.0019605182324136188 0 -0.0041350430317250884 -0.0016770378668268372 0 -0.004197428092439102 -0.0010897641936261717 0 -0.0047859364316293904 -0.0015118762393631585 0 -0.0041471443606125443 -0.0021447466919165023 0 -0.0041350430317250884 -0.0016770378668268372 0 -0.0048462662852791884 -0.0015291561676999323 0 -0.0042046262324206265 -0.00099848617463025365 0 -0.0047859364316293904 -0.0015118762393631585 0 -0.0041350430317250884 -0.0016770378668268372 0 -0.004197428092439102 -0.0010897641936261717 0 -0.0034206497899799599 -0.0019605182324136188 0 -0.0035395500944857719 -0.0013007852342258473 0 -0.004197428092439102 -0.0010897641936261717 0 -0.0056510504848762211 -0.0018602191823871227 0 -0.0054152151626474469 -0.0014779003451840518 0 -0.0052683720171926582 -0.0021428716141733881 0 -0.0042439306753714913 -0.0017306012723309933 0 -0.0050916765212125235 -0.0018093527436011125 0 -0.0056510504848762211 -0.0018602191823871227 0 -0.0052683720171926582 -0.0021428716141733881 0 -0.0056162703070402791 -0.0025371277896804531 0 -0.0050916765212125235 -0.0018093527436011125 0 -0.0073690898556860018 -0.0021239669619060983 0 -0.0052683720171926582 -0.0021428716141733881 0 -0.0052504285821732832 -0.0028669934428138116 0 -0.0056162703070402791 -0.0025371277896804531 0 -0.0052504285821732832 -0.0028669934428138116 0 -0.0054232167325045126 -0.0029971128756289163 0 -0.0056162703070402791 -0.0025371277896804531 0 -0.0073690898556860018 -0.0021239669619060983 0 -0.0080841338467382892 -0.0027433623646127003 0 -0.0060578713333900129 -0.0019494713894364565 0 -0.0060945825069322552 -0.0015632737722464751 0 -0.0061341595772099761 -0.0015933066726411466 0 -0.0046129788509201471 -0.0012145738023042231 0 -0.004731284751872753 -0.0013291125925144977 0 -0.0046232703332463685 -0.0011541227032416583 0 -0.0078094778670394407 -0.0022239981973692369 0 -0.0079582442089909337 -0.0023327253657869796 0 -0.0080320033579061364 -0.0018513770845393249 0 -0.0064218963745102386 -0.00148897291761317 0 -0.0092125273113426581 -0.0020049809944610855 0 -0.0073690898556860018 -0.0021239669619060983 0 -0.0064218963745102386 -0.00148897291761317 0 -0.0035395500944857719 -0.0013007852342258473 0 -0.0036471097804430279 -0.0006913717312550915 0 -0.004197428092439102 -0.0010897641936261717 0 -0.0050916765212125235 -0.0018093527436011125 0 -0.0064218963745102386 -0.00148897291761317 0 -0.004731284751872753 -0.0013291125925144977 0 -0.0046232703332463685 -0.0011541227032416583 0 -0.0048789879155340405 -0.001283361283741838 0 -0.0047859364316293904 -0.0015118762393631585 0 -0.004731284751872753 -0.0013291125925144977 0 -0.0048789879155340405 -0.001283361283741838 0 -0.0064218963745102386 -0.00148897291761317 0 -0.0042046262324206265 -0.00099848617463025365 0 -0.012801166201004816 -0.0022263820987066009 0 -0.01288172545034145 -0.0019302708366869081 0 -0.013079159445250184 -0.0019816533436830615 0 -0.012801166201004816 -0.0022263820987066009 0 -0.013248883959841246 -0.0021115683511518778 0 -0.013079159445250184 -0.0019816533436830615 0 -0.0046232703332463685 -0.0011541227032416583 0 -0.0048789879155340405 -0.001283361283741838 0 -0.004960823676467158 -0.0010401598390505007 0 -0.0092125273113426581 -0.0020049809944610855 0 -0.008841276476907781 -0.0015843246325306249 0 -0.0092125273113426581 -0.0020049809944610855 0 -0.012956558358987329 -0.0019603788749278082 0 -0.013145025220100224 -0.002136077180987855 0 -0.013012169920742908 -0.0019698051343147653 0 -0.012974732460355978 -0.0022530551711134428 0 -0.012968089388437666 -0.0018949359265845792 0 -0.013012169920742908 -0.0019698051343147653 0 -0.012974732460355978 -0.0022530551711134428 0 -0.013145025220100224 -0.002136077180987855 0 -0.01308720173533008 -0.0018629226426874312 0 -0.013012169920742908 -0.0019698051343147653 0 -0.0079760600987613325 -0.0026405504359352356 0 -0.0081837508960538961 -0.0027925996712241117 0 -0.0079606137726272123 -0.0028432279547332064 0 -0.01308720173533008 -0.0018629226426874312 0 -0.01300959328526889 -0.0018807922796583564 0 -0.013012169920742908 -0.0019698051343147653 0 -0.0080841338467382892 -0.0027433623646127003 0 -0.0090729948042868307 -0.0021289373940231058 0 -0.0073690898556860018 -0.0021239669619060983 0 -0.0090729948042868307 -0.0021289373940231058 0 -0.0078094778670394407 -0.0022239981973692369 0 -0.0078398394616177904 -0.0018957445661449896 0 -0.0080320033579061364 -0.0018513770845393249 0 -0.013004142361257505 -0.0018866587259610244 0 -0.012968089388437666 -0.0018949359265845792 0 -0.013012169920742908 -0.0019698051343147653 0 -0.0090729948042868307 -0.0021289373940231058 0 -0.0092125273113426581 -0.0020049809944610855 0 -0.0090729948042868307 -0.0021289373940231058 0 -0.0098096103505411307 -0.0019139135137278991 0 -0.0002630677859802631 -0.00043734992960352514 0 -0.0001412937129908143 -0.00035279240569708334 0 -0.0049523583105425149 -0.0014744178376306504 0 -0.0052266787812704964 -0.0012411769316071411 0 -0.0048789879155340405 -0.001283361283741838 0 -0.0052266787812704964 -0.0012411769316071411 0 -0.0048789879155340405 -0.001283361283741838 0 -0.004960823676467158 -0.0010401598390505007 0 -0.010266997666245616 -0.0012254810131488607 0 -0.008841276476907781 -0.0015843246325306249 0 -0.0054060056902565613 -0.00091013853419606152 0 -0.0052266787812704964 -0.0012411769316071411 0 -0.004960823676467158 -0.0010401598390505007 0 -0.013640963442283018 -0.0019866692873962274 0 -0.013248883959841246 -0.0021115683511518778 0 -0.013579603454876183 -0.0019492635180787569 0 -0.013579603454876183 -0.0019492635180787569 0 -0.013342837493824812 -0.0018495816636841793 0 -0.013627027088546571 -0.0017175058931526883 0 -0.013248883959841246 -0.0021115683511518778 0 -0.013579603454876183 -0.0019492635180787569 0 -0.013342837493824812 -0.0018495816636841793 0 -0.013342837493824812 -0.0018495816636841793 0 -0.013079159445250184 -0.0019816533436830615 0 -0.013109595959032041 -0.0018025514210325637 0 -0.013248883959841246 -0.0021115683511518778 0 -0.013342837493824812 -0.0018495816636841793 0 -0.013079159445250184 -0.0019816533436830615 0 -0.013342837493824812 -0.0018495816636841793 0 -0.013258325703947993 -0.001721261547446364 0 -0.013109595959032041 -0.0018025514210325637 0 -0.013258325703947993 -0.001721261547446364 0 -0.013442455224716644 -0.001645082007169673 0 -0.013136069687081179 -0.001586194202671297 0 -0.013342837493824812 -0.0018495816636841793 0 -0.013258325703947993 -0.001721261547446364 0 -0.013442455224716644 -0.001645082007169673 0 -0.013342837493824812 -0.0018495816636841793 0 -0.013442455224716644 -0.001645082007169673 0 -0.013627027088546571 -0.0017175058931526883 0 -0.013571985336041875 -0.0014483527154419233 0 -0.013442455224716644 -0.001645082007169673 0 -0.013627027088546571 -0.0017175058931526883 0 -0.02098364186142852 -0.0029764771066692701 0 -0.015843084865483262 -0.00021678793564728103 0 -0.013145025220100224 -0.002136077180987855 0 -0.012974732460355978 -0.0022530551711134428 0 -0.01323629147452063 -0.0024898234496945472 0 -0.01288172545034145 -0.0019302708366869081 0 -0.013109595959032041 -0.0018025514210325637 0 -0.012962577798426718 -0.0016487977754068702 0 -0.01288172545034145 -0.0019302708366869081 0 -0.013079159445250184 -0.0019816533436830615 0 -0.013109595959032041 -0.0018025514210325637 0 -0.013258325703947993 -0.001721261547446364 0 -0.013109595959032041 -0.0018025514210325637 0 -0.013136069687081179 -0.001586194202671297 0 -0.013109595959032041 -0.0018025514210325637 0 -0.013136069687081179 -0.001586194202671297 0 -0.012962577798426718 -0.0016487977754068702 0 -0.016470316002769922 -0.0031821764708525645 0 -0.016038813420484316 -0.0028104513675418384 0 -0.016038813420484316 -0.0028104513675418384 0 -0.018387933614115899 -0.0034262385362614986 0 -0.012974732460355978 -0.0022530551711134428 0 -0.012971891659071824 -0.0025921271951451692 0 -0.01323629147452063 -0.0024898234496945472 0 -0.012956558358987329 -0.0019603788749278082 0 -0.016038813420484316 -0.0028104513675418384 0 -0.021834816783832905 -0.0047480279970140054 0 -0.02173261791182628 -0.0046341448555839446 0 -0.021805599064813427 -0.0046133019577730902 0 -0.021885061858826077 -0.0046957513322484325 0 -0.021805599064813427 -0.0046133019577730902 0 -0.021900150711364176 -0.0046268344159586588 0 -0.021805599064813427 -0.0046133019577730902 0 -0.021900150711364176 -0.0046268344159586588 0 -0.021899817293918995 -0.004551033583053545 0 -0.021948926970490661 -0.004703594710203215 0 -0.021951536523160901 -0.0046421752729050841 0 -0.021900150711364176 -0.0046268344159586588 0 -0.021948926970490661 -0.004703594710203215 0 -0.021885061858826077 -0.0046957513322484325 0 -0.021900150711364176 -0.0046268344159586588 0 -0.021951536523160901 -0.0046421752729050841 0 -0.021900150711364176 -0.0046268344159586588 0 -0.021941294225001556 -0.0046027809635855437 0 -0.021900150711364176 -0.0046268344159586588 0 -0.021941294225001556 -0.0046027809635855437 0 -0.021899817293918995 -0.004551033583053545 0 -0.014808222063674048 -0.0032551010010268204 0 -0.0093912353414223691 -0.0025501270553262997 0 -0.018387933614115899 -0.0034262385362614986 0 -0.014808222063674048 -0.0032551010010268204 0 -0.013145025220100224 -0.002136077180987855 0 -0.01323629147452063 -0.0024898234496945472 0 -0.013414000000785995 -0.0020854252094062316 0 -0.01323629147452063 -0.0024898234496945472 0 -0.013730534978610829 -0.0023086822291205318 0 -0.013414000000785995 -0.0020854252094062316 0 -0.0080841338467382892 -0.0027433623646127003 0 -0.0093912353414223691 -0.0025501270553262997 0 -0.013145025220100224 -0.002136077180987855 0 -0.01308720173533008 -0.0018629226426874312 0 -0.013414000000785995 -0.0020854252094062316 0 -0.0056203013769859089 -0.0030127765626988389 0 -0.0062635703129335788 -0.00350954453374925 0 -0.0064470538569486383 -0.0027868072384601358 0 -0.0062635703129335788 -0.00350954453374925 0 -0.0070181498607746664 -0.003313696324098156 0 -0.0064470538569486383 -0.0027868072384601358 0 -0.0070267672718392514 -0.0040581929727331748 0 -0.0062635703129335788 -0.00350954453374925 0 -0.0070181498607746664 -0.003313696324098156 0 -0.0070181498607746664 -0.003313696324098156 0 -0.0064470538569486383 -0.0027868072384601358 0 -0.0069983661498874182 -0.0027231172121617402 0 -0.0070233393356435945 -0.0021889244345294572 0 -0.0069983661498874182 -0.0027231172121617402 0 -0.0065013086571112828 -0.0022838816272970678 0 -0.0064470538569486383 -0.0027868072384601358 0 -0.0069983661498874182 -0.0027231172121617402 0 -0.0065013086571112828 -0.0022838816272970678 0 -0.0080841338467382892 -0.0027433623646127003 0 -0.0054007016201941295 -0.0029827464732284669 0 -0.0064470538569486383 -0.0027868072384601358 0 -0.0065013086571112828 -0.0022838816272970678 0 -0.0056162703070402791 -0.0025371277896804531 0 -0.0054232167325045126 -0.0029971128756289163 0 -0.0064470538569486383 -0.0027868072384601358 0 -0.0056162703070402791 -0.0025371277896804531 0 -0.012555329448489484 -0.0029642691984954847 0 -0.01458897529433229 -0.0052507503218759783 0 -0.015403963938636939 -0.0027865809146201382 0 -0.012758492582338568 -1.0149891610681681e-05 0 -0.012032832200310751 -0.0024770177515956618 0 -0.01184092029592936 -0.0024204364604746152 0 -0.014413376682593746 -0.0013577850635854642 0 -0.012555329448489484 -0.0029642691984954847 0 -0.015403963938636939 -0.0027865809146201382 0 -0.0070181498607746664 -0.003313696324098156 0 -0.0069983661498874182 -0.0027231172121617402 0 -0.0077963015835390958 -0.0027159473237301991 0 -0.0070233393356435945 -0.0021889244345294572 0 -0.007462527938100723 -0.0020771618836677055 0 -0.0077963015835390958 -0.0027159473237301991 0 -0.0070233393356435945 -0.0021889244345294572 0 -0.0069983661498874182 -0.0027231172121617402 0 -0.0077963015835390958 -0.0027159473237301991 0 -0.0070181498607746664 -0.003313696324098156 0 -0.0077963015835390958 -0.0027159473237301991 0 -0.0075974444006679173 -0.0038365130334278301 0 -0.0090379184023959835 -0.0029679198300651922 0 -0.014229187011725649 -0.0044274207384037518 0 -0.011910468277730485 -0.003194010717817517 0 -0.014229187011725649 -0.0044274207384037518 0 -0.012032832200310751 -0.0024770177515956618 0 -0.01184092029592936 -0.0024204364604746152 0 -0.011510067517567894 -0.0046948923103060924 0 -0.012555329448489484 -0.0029642691984954847 0 -0.01458897529433229 -0.0052507503218759783 0 -0.011560959102004342 -0.0063993603509950505 0 -0.020067648838534544 -0.0042341320879214972 0 -0.014229187011725649 -0.0044274207384037518 0 -0.024187630751845667 -0.003365764926141148 0 -0.024255509160529137 -0.0033356497970339414 0 -0.024104363497662658 -0.0033366729699905321 0 -0.024221022751100833 -0.0034086172292066676 0 -0.024255509160529137 -0.0033356497970339414 0 -0.024104363497662658 -0.0033366729699905321 0 -0.024187630751845667 -0.003365764926141148 0 -0.024134432368758781 -0.003369000845023356 0 -0.024227326571914478 -0.0034050670204796079 0 -0.024187630751845667 -0.003365764926141148 0 -0.024255509160529137 -0.0033356497970339414 0 -0.024227326571914478 -0.0034050670204796079 0 -0.0070267672718392514 -0.0040581929727331748 0 -0.0070181498607746664 -0.003313696324098156 0 -0.0075974444006679173 -0.0038365130334278301 0 -0.01630421920289735 -0.0037006636330897606 0 -0.016960638111722302 -0.0035883767922361455 0 -0.016991838242164069 -0.0034368822042824829 0 -0.014808222063674048 -0.0032551010010268204 0 -0.014229187011725649 -0.0044274207384037518 0 -0.024095513538429668 -0.0033466209641526677 0 -0.024104363497662658 -0.0033366729699905321 0 -0.024134432368758781 -0.003369000845023356 0 -0.016702870040686626 -0.0035627122861595314 0 -0.014229187011725649 -0.0044274207384037518 0 -0.024095513538429668 -0.0033466209641526677 0 -0.024134432368758781 -0.003369000845023356 0 -0.024052221816570889 -0.0034042187409573542 0 -0.024187630751845667 -0.003365764926141148 0 -0.024104363497662658 -0.0033366729699905321 0 -0.024134432368758781 -0.003369000845023356 0 -0.024134432368758781 -0.003369000845023356 0 -0.024052221816570889 -0.0034042187409573542 0 -0.024227326571914478 -0.0034050670204796079 0 -0.01630421920289735 -0.0037006636330897606 0 -0.016960638111722302 -0.0035883767922361455 0 -0.0168593814442402 -0.0040987093878685141 0 -0.016702870040686626 -0.0035627122861595314 0 -0.020590018063769814 -0.0045783641179093322 0 -0.014808222063674048 -0.0032551010010268204 0 -0.020590018063769814 -0.0045783641179093322 0 -0.021941294225001556 -0.0046027809635855437 0 -0.021899817293918995 -0.004551033583053545 0 -0.021973370731664582 -0.0045837607174791248 0 -0.020590018063769814 -0.0045783641179093322 0 -0.024306453478509096 -0.0039080340910548177 0 -0.021994975646951433 -0.0045576542394479775 0 -0.022051612680367073 -0.0046411464126989727 0 -0.022150970158461073 -0.0046461177144624475 0 -0.021951536523160901 -0.0046421752729050841 0 -0.021941294225001556 -0.0046027809635855437 0 -0.021984156131408455 -0.0046124349126321611 0 -0.021941294225001556 -0.0046027809635855437 0 -0.021973370731664582 -0.0045837607174791248 0 -0.021984156131408455 -0.0046124349126321611 0 -0.020590018063769814 -0.0045783641179093322 0 -0.021086228924435256 -0.0044592146154873325 0 -0.021994975646951433 -0.0045576542394479775 0 -0.021984156131408455 -0.0046124349126321611 0 -0.022051612680367073 -0.0046411464126989727 0 -0.022050164690367902 -0.0046795790421978317 0 -0.022051612680367073 -0.0046411464126989727 0 -0.022081899135746107 -0.0046664620782276324 0 -0.022002827901078065 -0.0046784964459993614 0 -0.022050164690367902 -0.0046795790421978317 0 -0.022051612680367073 -0.0046411464126989727 0 -0.022002827901078065 -0.0046784964459993614 0 -0.021951536523160901 -0.0046421752729050841 0 -0.021984156131408455 -0.0046124349126321611 0 -0.022002827901078065 -0.0046784964459993614 0 -0.021984156131408455 -0.0046124349126321611 0 -0.022051612680367073 -0.0046411464126989727 0 -0.024052221816570889 -0.0034042187409573542 0 -0.024227326571914478 -0.0034050670204796079 0 -0.024257616489271851 -0.0035518441473763054 0 -0.024227326571914478 -0.0034050670204796079 0 -0.024257616489271851 -0.0035518441473763054 0 -0.024432821990592126 -0.0034101349443280103 0 -0.024255509160529137 -0.0033356497970339414 0 -0.024227326571914478 -0.0034050670204796079 0 -0.024432821990592126 -0.0034101349443280103 0 -0.022051612680367073 -0.0046411464126989727 0 -0.022081899135746107 -0.0046664620782276324 0 -0.022150970158461073 -0.0046461177144624475 0 -0.024483597465666522 -0.0038363895355418313 0 -0.024306453478509096 -0.0039080340910548177 0 -0.024864940392292825 -0.0033623542282660989 0 -0.024893062970155998 -0.0033977552263146945 0 -0.024432821990592126 -0.0034101349443280103 0 -0.024306453478509096 -0.0039080340910548177 0 -0.024611266178574266 -0.0033956584214650657 0 -0.024513416669657909 -0.0033327895515574656 0 -0.024260417930920448 -0.0033196425252859513 0 -0.024338218770652471 -0.0033399980754039928 0 -0.024864940392292825 -0.0033623542282660989 0 -0.024513416669657909 -0.0033327895515574656 0 -0.024432821990592126 -0.0034101349443280103 0 -0.024513416669657909 -0.0033327895515574656 0 -0.024260417930920448 -0.0033196425252859513 0 -0.024432821990592126 -0.0034101349443280103 0 -0.024260417930920448 -0.0033196425252859513 0 -0.024432821990592126 -0.0034101349443280103 0 -0.024164843868947478 -0.0033006963213702578 0 -0.024260417930920448 -0.0033196425252859513 0 -0.024164843868947478 -0.0033006963213702578 0 -0.02360658080568406 -0.0032325604847121526 0 -0.024255509160529137 -0.0033356497970339414 0 -0.024432821990592126 -0.0034101349443280103 0 -0.024164843868947478 -0.0033006963213702578 0 -0.024221022751100833 -0.0034086172292066676 0 -0.024164843868947478 -0.0033006963213702578 0 -0.02360658080568406 -0.0032325604847121526 0 -0.024221022751100833 -0.0034086172292066676 0 -0.024255509160529137 -0.0033356497970339414 0 -0.024164843868947478 -0.0033006963213702578 0 -0.023901664594541475 -0.0029955571408174413 0 -0.023663299308921849 -0.003259483237827516 0 -0.024260417930920448 -0.0033196425252859513 0 -0.024338218770652471 -0.0033399980754039928 0 -0.02360658080568406 -0.0032325604847121526 0 -0.023508098584511864 -0.0026126964377528876 0 -0.023217304796512728 -0.0029233117789986339 0 -0.02360658080568406 -0.0032325604847121526 0 -0.023217304796512728 -0.0029233117789986339 0 -0.023126633016014534 -0.0031429067637213431 0 -0.02360658080568406 -0.0032325604847121526 0 -0.023508098584511864 -0.0026126964377528876 0 -0.023156454462140558 -0.0026876267032715701 0 -0.023217304796512728 -0.0029233117789986339 0 -0.023156454462140558 -0.0026876267032715701 0 -0.022990322401874898 -0.0029780623651177295 0 -0.023217304796512728 -0.0029233117789986339 0 -0.026589016604466199 -0.0015769532158879426 0 -0.026250810803106976 -0.0025121889533766518 0 -0.023156454462140558 -0.0026876267032715701 0 -0.022990322401874898 -0.0029780623651177295 0 -0.022795533195146718 -0.0028966038593945878 0 -0.022996005184801566 -0.0024574335282923723 0 -0.023156454462140558 -0.0026876267032715701 0 -0.022795533195146718 -0.0028966038593945878 0 -0.022990322401874898 -0.0029780623651177295 0 -0.02288146763282151 -0.0031642126974826819 0 -0.022795533195146718 -0.0028966038593945878 0 -0.022990322401874898 -0.0029780623651177295 0 -0.022871971399777858 -0.0031537315235533837 0 -0.02288146763282151 -0.0031642126974826819 0 -0.022990322401874898 -0.0029780623651177295 0 -0.023217304796512728 -0.0029233117789986339 0 -0.022871971399777858 -0.0031537315235533837 0 -0.023217304796512728 -0.0029233117789986339 0 -0.023126633016014534 -0.0031429067637213431 0 -0.022871971399777858 -0.0031537315235533837 0 -0.023126633016014534 -0.0031429067637213431 0 -0.022936424663274724 -0.0032158636577644755 0 -0.022871971399777858 -0.0031537315235533837 0 -0.022936424663274724 -0.0032158636577644755 0 -0.022871971399777858 -0.0031537315235533837 0 -0.022618835159958061 -0.0032205040085221273 0 -0.022618835159958061 -0.0032205040085221273 0 -0.022709884544237467 -0.0031922752068078244 0 -0.022038970255927871 -0.0029122903409621757 0 -0.022936424663274724 -0.0032158636577644755 0 -0.022618835159958061 -0.0032205040085221273 0 -0.022709884544237467 -0.0031922752068078244 0 -0.02288146763282151 -0.0031642126974826819 0 -0.022958985820586017 -0.0032133745531586775 0 -0.022780283145394258 -0.0031910570561344445 0 -0.022871971399777858 -0.0031537315235533837 0 -0.022618835159958061 -0.0032205040085221273 0 -0.02288146763282151 -0.0031642126974826819 0 -0.022618835159958061 -0.0032205040085221273 0 -0.02288146763282151 -0.0031642126974826819 0 -0.022958985820586017 -0.0032133745531586775 0 -0.022618835159958061 -0.0032205040085221273 0 -0.022958985820586017 -0.0032133745531586775 0 -0.022038970255927871 -0.0029122903409621757 0 -0.023398666189762642 -0.0032323748883485849 0 -0.022001688443854882 -0.0022579391205638619 0 -0.024100311504624394 -0.0033965964357661037 0 -0.023691066765963647 -0.0014381044731856558 0 -0.021813042445150203 -0.0021325285016528433 0 -0.024100311504624394 -0.0033965964357661037 0 -0.023691066765963647 -0.0014381044731856558 0 -0.025824273790777518 -0.0013660927103070917 0 -0.023691066765963647 -0.0014381044731856558 0 -0.025824273790777518 -0.0013660927103070917 0 -0.024928856907748684 -0.00016394814540747509 0 -0.022709884544237467 -0.0031922752068078244 0 -0.022038970255927871 -0.0029122903409621757 0 -0.023571035910989906 -0.0035700009716112973 0 -0.022099603898185157 -0.0030047233498168438 0 -0.020560084352413074 -0.003867141081324734 0 -0.022038970255927871 -0.0029122903409621757 0 -0.019746796618446427 -0.0027505200734697921 0 -0.017703704400728715 -0.0042684841563918234 0 -0.022038970255927871 -0.0029122903409621757 0 -0.020989736102607709 -0.0023163309638853341 0 -0.019746796618446427 -0.0027505200734697921 0 -0.022958985820586017 -0.0032133745531586775 0 -0.022038970255927871 -0.0029122903409621757 0 -0.021813042445150203 -0.0021325285016528433 0 -0.022038970255927871 -0.0029122903409621757 0 -0.021813042445150203 -0.0021325285016528433 0 -0.020989736102607709 -0.0023163309638853341 0 -0.023691066765963647 -0.0014381044731856558 0 -0.021813042445150203 -0.0021325285016528433 0 -0.022544012385506833 -0.00068133137581166572 0 -0.021813042445150203 -0.0021325285016528433 0 -0.021451832179405803 -0.00089302844063159255 0 -0.022544012385506833 -0.00068133137581166572 0 -0.021813042445150203 -0.0021325285016528433 0 -0.020396554015130523 -0.0014188802514593208 0 -0.021451832179405803 -0.00089302844063159255 0 -0.020396554015130523 -0.0014188802514593208 0 -0.019746796618446427 -0.0027505200734697921 0 -0.01882957889972401 -0.00099967668346284525 0 -0.021813042445150203 -0.0021325285016528433 0 -0.020396554015130523 -0.0014188802514593208 0 -0.020989736102607709 -0.0023163309638853341 0 -0.020396554015130523 -0.0014188802514593208 0 -0.020989736102607709 -0.0023163309638853341 0 -0.019746796618446427 -0.0027505200734697921 0 -0.019746796618446427 -0.0027505200734697921 0 -0.017485546798300604 -0.0021587618335103757 0 -0.01882957889972401 -0.00099967668346284525 0 -0.019746796618446427 -0.0027505200734697921 0 -0.017485546798300604 -0.0021587618335103757 0 -0.017703704400728715 -0.0042684841563918234 0 -0.014413376682593746 -0.0013577850635854642 0 -0.015403963938636939 -0.0027865809146201382 0 -0.016175472135394251 -0.00025777350112029325 0 -0.017485546798300604 -0.0021587618335103757 0 -0.015403963938636939 -0.0027865809146201382 0 -0.016175472135394251 -0.00025777350112029325 0 -0.017485546798300604 -0.0021587618335103757 0 -0.015403963938636939 -0.0027865809146201382 0 -0.017703704400728715 -0.0042684841563918234 0 -0.01458897529433229 -0.0052507503218759783 0 -0.015403963938636939 -0.0027865809146201382 0 -0.017703704400728715 -0.0042684841563918234 0 -0.020067648838534544 -0.0042341320879214972 0 -0.020560084352413074 -0.003867141081324734 0 -0.024221022751100833 -0.0034086172292066676 0 -0.02360658080568406 -0.0032325604847121526 0 -0.023571035910989906 -0.0035700009716112973 0 -0.022936424663274724 -0.0032158636577644755 0 -0.02360658080568406 -0.0032325604847121526 0 -0.023571035910989906 -0.0035700009716112973 0 -0.023126633016014534 -0.0031429067637213431 0 -0.022936424663274724 -0.0032158636577644755 0 -0.02360658080568406 -0.0032325604847121526 0 -0.022936424663274724 -0.0032158636577644755 0 -0.022709884544237467 -0.0031922752068078244 0 -0.023571035910989906 -0.0035700009716112973 0 -0.019464558028238675 -0.0023036622576955964 0 -0.01949096924569875 -0.0026242837171965312 0 -0.019248164976093173 -0.0021379682868030657 0 -0.018863510811313693 -0.0016843901046600569 0 -0.019517726022089205 -0.0018116053811838121 0 -0.019248164976093173 -0.0021379682868030657 0 -0.01949096924569875 -0.0026242837171965312 0 -0.019478637081781738 -0.0027790745802234807 0 -0.019248164976093173 -0.0021379682868030657 0 -0.026865007074155588 -0.0022553550767207614 0 -0.017289380050772386 -0.0014736051652511715 0 -0.019789562257013896 -0.0025754067094254682 0 -0.01949096924569875 -0.0026242837171965312 0 -0.019478637081781738 -0.0027790745802234807 0 -0.019642517823332997 -0.0026242587531004956 0 -0.019464558028238675 -0.0023036622576955964 0 -0.01949096924569875 -0.0026242837171965312 0 -0.019690113771210833 -0.00058287648579457207 0 -0.018863510811313693 -0.0016843901046600569 0 -0.019517726022089205 -0.0018116053811838121 0 -0.028635645295966933 -0.0015229434078479276 0 -0.026865007074155588 -0.0022553550767207614 0 -0.019690113771210833 -0.00058287648579457207 0 -0.019517726022089205 -0.0018116053811838121 0 -0.020277337031597811 -0.0012787218643056627 0 -0.019690113771210833 -0.00058287648579457207 0 -0.020277337031597811 -0.0012787218643056627 0 -0.021302178772426048 -0.00096224584151716533 0 -0.019517726022089205 -0.0018116053811838121 0 -0.020277337031597811 -0.0012787218643056627 0 -0.020613261944191857 -0.0017642066328364407 0 -0.019517726022089205 -0.0018116053811838121 0 -0.019323674784794177 -0.0020206443299765455 0 -0.019215468461046284 -0.0020739231054671312 0 -0.019517726022089205 -0.0018116053811838121 0 -0.019323674784794177 -0.0020206443299765455 0 -0.019248164976093173 -0.0021379682868030657 0 -0.019200799872375472 -0.0018251358959826929 0 -0.021186903147587439 -0.002440448567854039 0 -0.021186903147587439 -0.002440448567854039 0 -0.02135278218981344 -0.0013376763718459346 0 -0.019517726022089205 -0.0018116053811838121 0 -0.02132881338740052 -0.0031114255040685505 0 -0.020613261944191857 -0.0017642066328364407 0 -0.02132881338740052 -0.0031114255040685505 0 -0.020613261944191857 -0.0017642066328364407 0 -0.021302178772426048 -0.00096224584151716533 0 -0.021400536626903867 -0.003064625608298956 0 -0.021626564631725752 -0.0014510550012796916 0 -0.021302178772426048 -0.00096224584151716533 0 -0.020277337031597811 -0.0012787218643056627 0 -0.020613261944191857 -0.0017642066328364407 0 -0.021302178772426048 -0.00096224584151716533 0 -0.030022492112197555 -0.00083496505268080006 0 -0.028800909827933128 -0.001771635156051799 0 -0.029608414920977374 -0.0021306459584227951 0 -0.029608414920977374 -0.0021306459584227951 0 -0.029201605068827859 -0.00341430528251036 0 -0.029104912503381989 -0.0033447489823080242 0 -0.026250810803106976 -0.0025121889533766518 0 -0.025490402070441023 -0.0032937402430598902 0 -0.028800909827933128 -0.001771635156051799 0 -0.029608414920977374 -0.0021306459584227951 0 -0.029104912503381989 -0.0033447489823080242 0 -0.021400536626903867 -0.003064625608298956 0 -0.021626564631725752 -0.0014510550012796916 0 -0.022222639364278946 -0.0036137535246073341 0 -0.024333520160408621 -0.0014730166925816979 0 -0.024916235623085349 -0.0034224515187731134 0 -0.02288146763282151 -0.0031642126974826819 0 -0.022795533195146718 -0.0028966038593945878 0 -0.022780283145394258 -0.0031910570561344445 0 -0.021186903147587439 -0.002440448567854039 0 -0.024916235623085349 -0.0034224515187731134 0 -0.023159321929109772 -0.0031517652758206839 0 -0.022567291349605032 -0.002734955358756729 0 -0.022509166819679061 -0.0024897524398017545 0 -0.024916235623085349 -0.0034224515187731134 0 -0.025367867926027729 -0.0035696285379371801 0 -0.025049527690307286 -0.0035481184801157261 0 -0.025158387158382006 -0.0036235535870667245 0 -0.025097025026140116 -0.0033692832444101178 0 -0.025490402070441023 -0.0032937402430598902 0 -0.024916235623085349 -0.0034224515187731134 0 -0.025490402070441023 -0.0032937402430598902 0 -0.025367867926027729 -0.0035696285379371801 0 -0.024100311504624394 -0.0033965964357661037 0 -0.026463166432910384 -0.0050112967063443798 0 -0.026588688670301702 -0.0045393085508391197 0 -0.023398666189762642 -0.0032323748883485849 0 -0.025490402070441023 -0.0032937402430598902 0 -0.026564531728385132 -0.0044340932199322886 0 -0.025824273790777518 -0.0013660927103070917 0 -0.027383875266328534 -0.0014127039395904718 0 -0.024100311504624394 -0.0033965964357661037 0 -0.026588688670301702 -0.0045393085508391197 0 -0.025824273790777518 -0.0013660927103070917 0 -0.025367867926027729 -0.0035696285379371801 0 -0.026071976844368294 -0.0020404167395532908 0 -0.022509166819679061 -0.0024897524398017545 0 -0.022797101009728728 -0.0013543035161127479 0 -0.023134499195567083 -0.0016984442343929501 0 -0.025367867926027729 -0.0035696285379371801 0 -0.025189009713676568 -0.0012349630776882026 0 -0.019037923543369625 -0.0018740271558777655 0 -0.019188453280006155 -0.0018513099054297333 0 -0.019048135565346166 -0.0017364066117399911 0 -0.019037923543369625 -0.0018740271558777655 0 -0.01921947652976335 -0.0020046039281557235 0 -0.019188453280006155 -0.0018513099054297333 0 -0.023159321929109772 -0.0031517652758206839 0 -0.022509166819679061 -0.0024897524398017545 0 -0.023134499195567083 -0.0016984442343929501 0 -0.019215468461046284 -0.0020739231054671312 0 -0.019037923543369625 -0.0018740271558777655 0 -0.01921947652976335 -0.0020046039281557235 0 -0.021186903147587439 -0.002440448567854039 0 -0.020911284811358646 -0.0020809539469636758 0 -0.019323674784794177 -0.0020206443299765455 0 -0.019215468461046284 -0.0020739231054671312 0 -0.01921947652976335 -0.0020046039281557235 0 -0.01921947652976335 -0.0020046039281557235 0 -0.019188453280006155 -0.0018513099054297333 0 -0.019248164976093173 -0.0021379682868030657 0 -0.019323674784794177 -0.0020206443299765455 0 -0.01921947652976335 -0.0020046039281557235 0 -0.019248164976093173 -0.0021379682868030657 0 -0.019380133527373451 -0.0018695954110757693 0 -0.019188453280006155 -0.0018513099054297333 0 -0.019289006511405398 -0.0017104748639357797 0 -0.018974250138796042 -0.0014587843448648546 0 -0.020296163439448133 -0.0018709726173599102 0 -0.019380133527373451 -0.0018695954110757693 0 -0.019464558028238675 -0.0023036622576955964 0 -0.019248164976093173 -0.0021379682868030657 0 -0.019380133527373451 -0.0018695954110757693 0 -0.019188453280006155 -0.0018513099054297333 0 -0.019248164976093173 -0.0021379682868030657 0 -0.0066601938557583062 0.00028751753945562524 0 -0.020296163439448133 -0.0018709726173599102 0 -0.019271663512711295 0.00068379536418792305 0 -0.017874536803532154 0.00057093515410989244 0 -0.018571035151943988 -0.00068202590824965805 0 -0.0060862430834635944 3.1915253511687163e-05 0 -0.0066601938557583062 0.00028751753945562524 0 -0.019188453280006155 -0.0018513099054297333 0 -0.019289006511405398 -0.0017104748639357797 0 -0.019054865946464862 -0.0015973439001702801 0 -0.019188453280006155 -0.0018513099054297333 0 -0.019054865946464862 -0.0015973439001702801 0 -0.019048135565346166 -0.0017364066117399911 0 -0.0066601938557583062 0.00028751753945562524 0 -0.010958846927712568 0.001669189810312587 0 -0.019113085615242612 -0.0014677279447381567 0 -0.019289006511405398 -0.0017104748639357797 0 -0.019054865946464862 -0.0015973439001702801 0 -0.019113085615242612 -0.0014677279447381567 0 -0.019054865946464862 -0.0015973439001702801 0 -0.018890286687828998 -0.0014952964191378446 0 -0.019054865946464862 -0.0015973439001702801 0 -0.018890286687828998 -0.0014952964191378446 0 -0.018909181938381908 -0.0016035627944033094 0 -0.010958846927712568 0.001669189810312587 0 -0.022815524998217363 0.00045297493010833359 0 -0.02843590847217882 0.0033697268269616168 0 -0.028038421343432641 0.0022778117392327781 0 -0.028056401640848751 0.0017835273991459461 0 -0.02843590847217882 0.0033697268269616168 0 -0.028038421343432641 0.0022778117392327781 0 -0.026795349720576924 0.0020777009987945163 0 -0.023332757494665735 0.00096921940058982195 0 -0.022815524998217363 0.00045297493010833359 0 -0.020911284811358646 -0.0020809539469636758 0 -0.022815524998217363 0.00045297493010833359 0 -0.019054865946464862 -0.0015973439001702801 0 -0.018909181938381908 -0.0016035627944033094 0 -0.019048135565346166 -0.0017364066117399911 0 -0.022797101009728728 -0.0013543035161127479 0 -0.023134499195567083 -0.0016984442343929501 0 -0.023099429875257912 -0.00018930185114846205 0 -0.019037923543369625 -0.0018740271558777655 0 -0.018909181938381908 -0.0016035627944033094 0 -0.019048135565346166 -0.0017364066117399911 0 -0.025189009713676568 -0.0012349630776882026 0 -0.022815524998217363 0.00045297493010833359 0 -0.028097246753966035 0.0017633986500405301 0 -0.026356767362792501 0.0003603318857347898 0 -0.026795349720576924 0.0020777009987945163 0 -0.027383875266328534 -0.0014127039395904718 0 -0.028097246753966035 0.0017633986500405301 0 -0.026356767362792501 0.0003603318857347898 0 -0.025824273790777518 -0.0013660927103070917 0 -0.027383875266328534 -0.0014127039395904718 0 -0.026356767362792501 0.0003603318857347898 0 -0.025824273790777518 -0.0013660927103070917 0 -0.026356767362792501 0.0003603318857347898 0 -0.024928856907748684 -0.00016394814540747509 0 -0.026356767362792501 0.0003603318857347898 0 -0.026795349720576924 0.0020777009987945163 0 -0.025141371052128238 0.0013387664009993844 0 -0.026356767362792501 0.0003603318857347898 0 -0.024928856907748684 -0.00016394814540747509 0 -0.025141371052128238 0.0013387664009993844 0 -0.02843590847217882 0.0033697268269616168 0 -0.026795349720576924 0.0020777009987945163 0 -0.024614624879121205 0.0032367102592151375 0 -0.026795349720576924 0.0020777009987945163 0 -0.025141371052128238 0.0013387664009993844 0 -0.024614624879121205 0.0032367102592151375 0 -0.010958846927712568 0.001669189810312587 0 -0.015286318198357988 0.0038623489993752972 0 0.00015032740287905879 0.0037542617255442224 0 -0.0017390344386154172 0.0013865599099218298 0 -0.00464795411939829 0.0039960648257695904 0 -0.028038421343432641 0.0022778117392327781 0 -0.028097246753966035 0.0017633986500405301 0 -0.026795349720576924 0.0020777009987945163 0 -0.0017390344386154172 0.0013865599099218298 0 -0.00464795411939829 0.0039960648257695904 0 -0.0047440047405966192 0.0010658084733699521 0 -0.0017390344386154172 0.0013865599099218298 0 -0.003235858712507241 -0.00090732895945018965 0 -0.0047440047405966192 0.0010658084733699521 0 -0.003235858712507241 -0.00090732895945018965 0 -0.0016144582589851424 -0.0026928841892905698 0 7.2824354334556887e-05 -0.0013269633338159072 0 -0.0017390344386154172 0.0013865599099218298 0 -0.003235858712507241 -0.00090732895945018965 0 7.2824354334556887e-05 -0.0013269633338159072 0 -0.003235858712507241 -0.00090732895945018965 0 -0.0016144582589851424 -0.0026928841892905698 0 -0.0043059062664154773 -0.0052645282942041152 0 0.0025478831574251614 -0.0023006746206357333 0 0.0018210027918078163 0.0003379777203033294 0 7.2824354334556887e-05 -0.0013269633338159072 0 0.0027515565514143149 -0.0026568870215665117 0 0.0012257951430329162 0.000564921506338769 0 0.0027515565514143149 -0.0026568870215665117 0 0.0019073095505886576 0.00060086492743321649 0 0.0032372215404402912 -0.0008372490283857268 0 -0.0016144582589851424 -0.0026928841892905698 0 7.2824354334556887e-05 -0.0013269633338159072 0 0.00073182912015916292 -0.0037784701726529864 0 0.0027515565514143149 -0.0026568870215665117 0 0.0037466230041422318 -0.0023170231920993604 0 0.00073182912015916292 -0.0037784701726529864 0 7.2824354334556887e-05 -0.0013269633338159072 0 0.0027515565514143149 -0.0026568870215665117 0 0.00073182912015916292 -0.0037784701726529864 0 -0.010958846927712568 0.001669189810312587 0 0.0018210027918078163 0.0003379777203033294 0 0.0053503766907817421 0.0030226020585441033 0 0.0010346904016329363 0.0034666095075267583 0 0.0019073095505886576 0.00060086492743321649 0 0.00015032740287905879 0.0037542617255442224 0 -0.0017390344386154172 0.0013865599099218298 0 0.0012257951430329162 0.000564921506338769 0 -0.0017390344386154172 0.0013865599099218298 0 7.2824354334556887e-05 -0.0013269633338159072 0 0.0012257951430329162 0.000564921506338769 0 0.0053503766907817421 0.0030226020585441033 0 0.0019073095505886576 0.00060086492743321649 0 0.0044262101633702504 0.00045874327172878391 0 -0.0066601938557583062 0.00028751753945562524 0 0.0053533699497064135 0.00089656594541215231 0 0.0019073095505886576 0.00060086492743321649 0 0.0044262101633702504 0.00045874327172878391 0 0.0032372215404402912 -0.0008372490283857268 0 0.0044262101633702504 0.00045874327172878391 0 0.0032372215404402912 -0.0008372490283857268 0 0.0037466230041422318 -0.0023170231920993604 0 0.0037466230041422318 -0.0023170231920993604 0 0.0067895004880018225 -0.0013924290224676381 0 0.00073182912015916292 -0.0037784701726529864 0 0.0053533699497064135 0.00089656594541215231 0 0.0038496882738379722 -0.0024652802770457061 0 0.006673027298906873 -0.0014474093281305813 0 0.0040476311093565987 -0.0024729651681832348 0 0.0027515565514143149 -0.0026568870215665117 0 0.0032372215404402912 -0.0008372490283857268 0 0.0037466230041422318 -0.0023170231920993604 0 0.006013169402829685 -0.00025829689244072205 0 0.0037466230041422318 -0.0023170231920993604 0 0.0067895004880018225 -0.0013924290224676381 0 0.006013169402829685 -0.00025829689244072205 0 0.0067895004880018225 -0.0013924290224676381 0 0.0069112080599379698 -0.00062902260659590992 0 0.0067895004880018225 -0.0013924290224676381 0 0.0070895776191917548 -0.0010507386116429616 0 0.0069112080599379698 -0.00062902260659590992 0 0.0067895004880018225 -0.0013924290224676381 0 0.0070895776191917548 -0.0010507386116429616 0 0.0071422171177193449 -0.0011436201348528591 0 0.0071781540225380885 -0.00072271332295872014 0 0.0070895776191917548 -0.0010507386116429616 0 0.0069112080599379698 -0.00062902260659590992 0 0.0071070824448069498 -0.00059549199327379348 0 0.006440270574375624 -2.6747625865015399e-05 0 0.0069112080599379698 -0.00062902260659590992 0 0.006440270574375624 -2.6747625865015399e-05 0 0.006013169402829685 -0.00025829689244072205 0 0.0069112080599379698 -0.00062902260659590992 0 -0.013562961886434244 0.0031112088785860905 0 -0.014270017672357638 0.0035434782134145023 0 -0.013500486588709911 0.0029701756561759688 0 -0.0091633203205935907 0.003862448929384402 0 -0.010643795557772794 0.0017997823058987122 0 -0.013500486588709911 0.0029701756561759688 0 -0.017457937519378124 0.0013703386646939275 0 -0.019919419451340219 0.0034711150220422438 0 -0.013500486588709911 0.0029701756561759688 0 -0.010643795557772794 0.0017997823058987122 0 -0.012448943500390738 0.0016936307487592003 0 -0.013138314560275807 0.0023889241901115222 0 -0.013500486588709911 0.0029701756561759688 0 -0.012448943500390738 0.0016936307487592003 0 -0.013676136228380018 0.0023460468886300277 0 -0.013138314560275807 0.0023889241901115222 0 -0.013162296734755214 0.002674357552396223 0 -0.013676136228380018 0.0023460468886300277 0 -0.013138314560275807 0.0023889241901115222 0 -0.012448943500390738 0.0016936307487592003 0 -0.013138314560275807 0.0023889241901115222 0 -0.013162296734755214 0.002674357552396223 0 -0.013500486588709911 0.0029701756561759688 0 -0.014413376682593746 -0.0013577850635854642 0 -0.01355672748606301 0.00059565629037516084 0 -0.016175472135394251 -0.00025777350112029325 0 -0.013332375098373987 0.0011476515895462202 0 -0.01525835635974951 0.00033424506312850725 0 -0.01270055959750719 0.0023952163288340545 0 -0.013162296734755214 0.002674357552396223 0 -0.013977503710729413 0.00089371098432715942 0 -0.013500486588709911 0.0029701756561759688 0 -0.013977503710729413 0.00089371098432715942 0 -0.017457937519378124 0.0013703386646939275 0 -0.013162296734755214 0.002674357552396223 0 -0.013500486588709911 0.0029701756561759688 0 -0.013977503710729413 0.00089371098432715942 0 -0.01525835635974951 0.00033424506312850725 0 -0.0184452285792117 -0.00086311620387771737 0 -0.017485546798300604 -0.0021587618335103757 0 -0.016175472135394251 -0.00025777350112029325 0 -0.01882957889972401 -0.00099967668346284525 0 -0.013977503710729413 0.00089371098432715942 0 -0.017457937519378124 0.0013703386646939275 0 -0.01882957889972401 -0.00099967668346284525 0 -0.017457937519378124 0.0013703386646939275 0 -0.01882957889972401 -0.00099967668346284525 0 -0.020889252611895868 0.00045284816335418814 0 -0.020396554015130523 -0.0014188802514593208 0 -0.01882957889972401 -0.00099967668346284525 0 -0.020889252611895868 0.00045284816335418814 0 -0.020889252611895868 0.00045284816335418814 0 -0.02323381236702643 0.0008111937292522521 0 -0.019919419451340219 0.0034711150220422438 0 -0.020396554015130523 -0.0014188802514593208 0 -0.020889252611895868 0.00045284816335418814 0 -0.021451832179405803 -0.00089302844063159255 0 -0.020889252611895868 0.00045284816335418814 0 -0.021451832179405803 -0.00089302844063159255 0 -0.022544012385506833 -0.00068133137581166572 0 -0.020889252611895868 0.00045284816335418814 0 -0.022544012385506833 -0.00068133137581166572 0 -0.02323381236702643 0.0008111937292522521 0 -0.017457937519378124 0.0013703386646939275 0 -0.020889252611895868 0.00045284816335418814 0 -0.019919419451340219 0.0034711150220422438 0 -0.023691066765963647 -0.0014381044731856558 0 -0.024928856907748684 -0.00016394814540747509 0 -0.02323381236702643 0.0008111937292522521 0 -0.023691066765963647 -0.0014381044731856558 0 -0.022544012385506833 -0.00068133137581166572 0 -0.02323381236702643 0.0008111937292522521 0 -0.02323381236702643 0.0008111937292522521 0 -0.025141371052128238 0.0013387664009993844 0 -0.024614624879121205 0.0032367102592151375 0 -0.024928856907748684 -0.00016394814540747509 0 -0.02323381236702643 0.0008111937292522521 0 -0.025141371052128238 0.0013387664009993844 0 -0.02323381236702643 0.0008111937292522521 0 -0.024614624879121205 0.0032367102592151375 0 -0.019919419451340219 0.0034711150220422438 0 -0.015286318198357988 0.0038623489993752972 0 -0.014270017672357638 0.0035434782134145023 0 -0.00464795411939829 0.0039960648257695904 0 -0.0091633203205935907 0.003862448929384402 0 -0.007265252303825704 0.0018447950193772591 0 -0.0091633203205935907 0.003862448929384402 0 -0.007265252303825704 0.0018447950193772591 0 -0.010643795557772794 0.0017997823058987122 0 -0.007265252303825704 0.0018447950193772591 0 -0.0093989258475179124 -0.00018226633505559985 0 -0.0066797321324626796 -0.00094287869486196817 0 -0.007265252303825704 0.0018447950193772591 0 -0.0093989258475179124 -0.00018226633505559985 0 -0.010643795557772794 0.0017997823058987122 0 -0.00464795411939829 0.0039960648257695904 0 -0.007265252303825704 0.0018447950193772591 0 -0.0047440047405966192 0.0010658084733699521 0 -0.007265252303825704 0.0018447950193772591 0 -0.0047440047405966192 0.0010658084733699521 0 -0.0066797321324626796 -0.00094287869486196817 0 -0.003235858712507241 -0.00090732895945018965 0 -0.0047440047405966192 0.0010658084733699521 0 -0.0066797321324626796 -0.00094287869486196817 0 -0.003235858712507241 -0.00090732895945018965 0 -0.0066797321324626796 -0.00094287869486196817 0 -0.0043059062664154773 -0.0052645282942041152 0 -0.0093989258475179124 -0.00018226633505559985 0 -0.0066797321324626796 -0.00094287869486196817 0 -0.0086795481418532033 -0.0033540173869061819 0 -0.0093989258475179124 -0.00018226633505559985 0 -0.010429153417102472 -0.0011502203014070094 0 -0.0086795481418532033 -0.0033540173869061819 0 -0.011306993466144076 -0.0015534901439603075 0 -0.009384382310478943 -0.0028603399412016422 0 -0.010429153417102472 -0.0011502203014070094 0 -0.012030661740788071 -0.0013598284245294385 0 -0.0086795481418532033 -0.0033540173869061819 0 -0.010429153417102472 -0.0011502203014070094 0 -0.011507259593445123 0.00020735301383082691 0 -0.012030661740788071 -0.0013598284245294385 0 -0.0093989258475179124 -0.00018226633505559985 0 -0.010429153417102472 -0.0011502203014070094 0 -0.011507259593445123 0.00020735301383082691 0 -0.0093989258475179124 -0.00018226633505559985 0 -0.011507259593445123 0.00020735301383082691 0 -0.010643795557772794 0.0017997823058987122 0 -0.011507259593445123 0.00020735301383082691 0 -0.010643795557772794 0.0017997823058987122 0 -0.012448943500390738 0.0016936307487592003 0 -0.013676136228380018 0.0023460468886300277 0 -0.012448943500390738 0.0016936307487592003 0 -0.013362256765425188 0.0001784449045810825 0 -0.011507259593445123 0.00020735301383082691 0 -0.012448943500390738 0.0016936307487592003 0 -0.013362256765425188 0.0001784449045810825 0 -0.013362256765425188 0.0001784449045810825 0 -0.012030661740788071 -0.0013598284245294385 0 -0.013444899075336162 -0.0012715682555543544 0 -0.011507259593445123 0.00020735301383082691 0 -0.013362256765425188 0.0001784449045810825 0 -0.012030661740788071 -0.0013598284245294385 0 -0.012030661740788071 -0.0013598284245294385 0 -0.013444899075336162 -0.0012715682555543544 0 -0.01269376230361698 -0.0026020894057147549 0 -0.013444899075336162 -0.0012715682555543544 0 -0.01269376230361698 -0.0026020894057147549 0 -0.014289304761306902 -0.002990372622054256 0 -0.012030661740788071 -0.0013598284245294385 0 -0.01269376230361698 -0.0026020894057147549 0 -0.011133102430820385 -0.0032600139740954228 0 -0.01269376230361698 -0.0026020894057147549 0 -0.012493822064023462 -0.0041761521938510756 0 -0.011133102430820385 -0.0032600139740954228 0 -0.01269376230361698 -0.0026020894057147549 0 -0.012493822064023462 -0.0041761521938510756 0 -0.014289304761306902 -0.002990372622054256 0 -0.012493822064023462 -0.0041761521938510756 0 -0.010880590759122776 -0.0054869391297897195 0 -0.013544629854802221 -0.0064481603131309071 0 -0.0036887584309218064 -0.0031771405927841939 0 -0.0068801423613111413 -0.0031054567262235326 0 -0.012493822064023462 -0.0041761521938510756 0 -0.010880590759122776 -0.0054869391297897195 0 -0.011133102430820385 -0.0032600139740954228 0 -0.010744131598814393 -0.0064677978142883633 0 -0.0091143066411836574 -0.0041370992731166352 0 -0.011133102430820385 -0.0032600139740954228 0 -0.0036887584309218064 -0.0031771405927841939 0 -0.011287129962372484 -0.0042671320504606884 0 -0.0036887584309218064 -0.0031771405927841939 0 0.00091763129447411038 -0.0028781931142294152 0 -0.010744131598814393 -0.0064677978142883633 0 -0.0091143066411836574 -0.0041370992731166352 0 -0.007139156188523791 -0.0052568277470003491 0 -0.0091143066411836574 -0.0041370992731166352 0 -0.011133102430820385 -0.0032600139740954228 0 -0.0078574095239935908 -0.0023362248354853077 0 -0.012030661740788071 -0.0013598284245294385 0 -0.011133102430820385 -0.0032600139740954228 0 -0.0078574095239935908 -0.0023362248354853077 0 -0.0091143066411836574 -0.0041370992731166352 0 -0.0078574095239935908 -0.0023362248354853077 0 -0.007139156188523791 -0.0052568277470003491 0 -0.0078574095239935908 -0.0023362248354853077 0 -0.0032554598809977258 -0.0039090910165271277 0 -0.007139156188523791 -0.0052568277470003491 0 -0.009384382310478943 -0.0028603399412016422 0 0.0018563613347987377 -0.0027163831116471327 0 0.0018563613347987377 -0.0027163831116471327 0 0.00091763129447411038 -0.0028781931142294152 0 -0.0066797321324626796 -0.00094287869486196817 0 -0.0086795481418532033 -0.0033540173869061819 0 -0.0043059062664154773 -0.0052645282942041152 0 0.0082189019328546085 -0.00082238898472248006 0 0.007981370483228889 -0.00071839601875751328 0 0.0081874787102663021 -0.00093767330744290748 0 0.0082729520117768868 -0.00071059420187785779 0 0.0082189019328546085 -0.00082238898472248006 0 0.0084270425560176321 -0.00092163764267370885 0 0.0082729520117768868 -0.00071059420187785779 0 0.0082189019328546085 -0.00082238898472248006 0 0.007981370483228889 -0.00071839601875751328 0 0.007981370483228889 -0.00071839601875751328 0 0.0079323055050862408 -0.00090568108869218877 0 0.0081874787102663021 -0.00093767330744290748 0 0.0076081000470976231 -0.0007931559761501126 0 0.007981370483228889 -0.00071839601875751328 0 0.0079323055050862408 -0.00090568108869218877 0 0.0079323055050862408 -0.00090568108869218877 0 0.008016508803750726 -0.0010253950829754979 0 0.0081874787102663021 -0.00093767330744290748 0 0.008016508803750726 -0.0010253950829754979 0 0.0081874787102663021 -0.00093767330744290748 0 0.0081747394576374924 -0.0010881608912827615 0 0.0079323055050862408 -0.00090568108869218877 0 0.008016508803750726 -0.0010253950829754979 0 0.0078352888894393912 -0.0010491185751440142 0 0.008016508803750726 -0.0010253950829754979 0 0.0079081872955585747 -0.0011763058573900096 0 0.0078352888894393912 -0.0010491185751440142 0 0.0082189019328546085 -0.00082238898472248006 0 0.0081874787102663021 -0.00093767330744290748 0 0.0084270425560176321 -0.00092163764267370885 0 0.0081874787102663021 -0.00093767330744290748 0 0.0081747394576374924 -0.0010881608912827615 0 0.0084300926025674631 -0.0010188305451679115 0 0.0081874787102663021 -0.00093767330744290748 0 0.0084270425560176321 -0.00092163764267370885 0 0.0084300926025674631 -0.0010188305451679115 0 0.0083901297274659031 -0.0011236881006085231 0 0.0081747394576374924 -0.0010881608912827615 0 0.0084300926025674631 -0.0010188305451679115 0 0.0083901297274659031 -0.0011236881006085231 0 0.0082690601001626108 -0.0010864696257540266 0 0.008337505092636489 -0.0011456995123911265 0 0.0083901297274659031 -0.0011236881006085231 0 0.0081747394576374924 -0.0010881608912827615 0 0.0078292871337160442 -0.0012543266081551808 0 0.0079081872955585747 -0.0011763058573900096 0 0.0081747394576374924 -0.0010881608912827615 0 0.0078292871337160442 -0.0012543266081551808 0 0.0085512190974614405 -0.0010358566370708201 0 0.0075582028540762871 -0.0016169158391242792 0 0.008016508803750726 -0.0010253950829754979 0 0.0079081872955585747 -0.0011763058573900096 0 0.0081747394576374924 -0.0010881608912827615 0 0.0082690601001626108 -0.0010864696257540266 0 0.0082672080028652322 -0.0011330003453123016 0 0.008337505092636489 -0.0011456995123911265 0 0.0082690601001626108 -0.0010864696257540266 0 0.0082308232624519785 -0.0011071339905750234 0 0.0082672080028652322 -0.0011330003453123016 0 0.0064382272240297795 -0.0021233060014334585 0 0.0061613126237888656 -0.0020769852542783726 0 0.0061867328032157764 -0.0023064307875872237 0 0.0075582028540762871 -0.0016169158391242792 0 0.0066102940408903302 -0.0017898667109453948 0 0.0079081872955585747 -0.0011763058573900096 0 0.0078242579571588186 -0.0012349540137851476 0 0.0078352888894393912 -0.0010491185751440142 0 0.0078242579571588186 -0.0012349540137851476 0 0.0077133418020925134 -0.0012227595761388633 0 0.0078352888894393912 -0.0010491185751440142 0 0.0077906655103000943 -0.0014058558763228857 0 0.0075582028540762871 -0.0016169158391242792 0 0.0075582028540762871 -0.0016169158391242792 0 0.0048539585163971345 -0.0023786030996807987 0 0.0048539585163971345 -0.0023786030996807987 0 0.0066102940408903302 -0.0017898667109453948 0 0.0010983341121687286 -0.0031404487398473606 0 0.0067627463235415382 -0.0017786409755131188 0 0.0049803668533979087 -0.0021735781147414817 0 0.0043522042941171735 -0.00193359428188928 0 0.0044861629800931986 -0.0025387867231197484 0 0.0048539585163971345 -0.0023786030996807987 0 0.0010983341121687286 -0.0031404487398473606 0 0.0049621763109944901 -0.0020304596772974851 0 0.0049803668533979087 -0.0021735781147414817 0 0.0043522042941171735 -0.00193359428188928 0 -0.00047402502855020939 -0.0022622195487105611 0 -0.00022946542466172276 -0.0040652635278708256 0 -0.0016181713540212755 -0.0038359608298984844 0 -0.00047402502855020939 -0.0022622195487105611 0 -0.0016181713540212755 -0.0038359608298984844 0 -0.0018464881418355269 -0.0027506836969744502 0 0.0076081000470976231 -0.0007931559761501126 0 0.0077133418020925134 -0.0012227595761388633 0 0.0078352888894393912 -0.0010491185751440142 0 -0.0036887584309218064 -0.0031771405927841939 0 0.0048539585163971345 -0.0023786030996807987 0 0.0076081000470976231 -0.0007931559761501126 0 0.0079323055050862408 -0.00090568108869218877 0 0.0078352888894393912 -0.0010491185751440142 0 0.0076152316426245214 -0.00098528483256118396 0 0.0080613891075305456 -0.00099858844592343567 0 0.0086307944902799891 -0.00086704164352209405 0 0.0077085081842601941 -0.0010218368845520346 0 0.0079680434869279278 -0.0011052770221586486 0 0.0072689785916981407 -0.0011080866690072362 0 0.0076152316426245214 -0.00098528483256118396 0 0.0072522862426415537 -0.0012757432318268316 0 0.0074270168220533376 -0.0011584945914248088 0 0.0072689785916981407 -0.0011080866690072362 0 0.0072522862426415537 -0.0012757432318268316 0 0.0074270168220533376 -0.0011584945914248088 0 0.0072689785916981407 -0.0011080866690072362 0 0.007211919592661706 -0.0010612618738970406 0 0.0072689785916981407 -0.0011080866690072362 0 0.007211919592661706 -0.0010612618738970406 0 0.0071422171177193449 -0.0011436201348528591 0 0.0070895776191917548 -0.0010507386116429616 0 0.007211919592661706 -0.0010612618738970406 0 0.0071422171177193449 -0.0011436201348528591 0 0.0072689785916981407 -0.0011080866690072362 0 0.0071422171177193449 -0.0011436201348528591 0 0.0076152316426245214 -0.00098528483256118396 0 0.0071422171177193449 -0.0011436201348528591 0 0.0072969794665910769 -0.0011009049143247413 0 0.0076152316426245214 -0.00098528483256118396 0 0.0067895004880018225 -0.0013924290224676381 0 0.0072969794665910769 -0.0011009049143247413 0 0.007514307641153321 -0.0010905855714551135 0 0.0067895004880018225 -0.0013924290224676381 0 0.0071422171177193449 -0.0011436201348528591 0 0.0072969794665910769 -0.0011009049143247413 0 0.0072969794665910769 -0.0011009049143247413 0 0.0076152316426245214 -0.00098528483256118396 0 0.0074571657611786591 -0.001040946314080318 0 0.0075634749203933663 -0.00091675813180870105 0 0.0091293843100027586 -0.0010138329309189234 0 0.0076152316426245214 -0.00098528483256118396 0 0.0080613891075305456 -0.00099858844592343567 0 0.007429044506749187 -0.0011118060668856311 0 0.0076152316426245214 -0.00098528483256118396 0 0.007429044506749187 -0.0011118060668856311 0 0.0074571657611786591 -0.001040946314080318 0 0.0085024548618417243 -0.0009287241887479047 0 0.0084270425560176321 -0.00092163764267370885 0 0.0084488061203673165 -0.00091321222861548337 0 0.0080613891075305456 -0.00099858844592343567 0 0.0085024548618417243 -0.0009287241887479047 0 0.0084488061203673165 -0.00091321222861548337 0 0.0072969794665910769 -0.0011009049143247413 0 0.0074571657611786591 -0.001040946314080318 0 0.007514307641153321 -0.0010905855714551135 0 0.007429044506749187 -0.0011118060668856311 0 0.0074571657611786591 -0.001040946314080318 0 0.007514307641153321 -0.0010905855714551135 0 -0.0016144582589851424 -0.0026928841892905698 0 -0.0043059062664154773 -0.0052645282942041152 0 0.00073182912015916292 -0.0037784701726529864 0 0.0018563613347987377 -0.0027163831116471327 0 0.0040476311093565987 -0.0024729651681832348 0 0.0072265230680418971 -0.0011120768029323632 0 0.007429044506749187 -0.0011118060668856311 0 0.007514307641153321 -0.0010905855714551135 0 0.0082729520117768868 -0.00071059420187785779 0 0.0085024548618417243 -0.0009287241887479047 0 0.0084270425560176321 -0.00092163764267370885 0 0.0018563613347987377 -0.0027163831116471327 0 0.0091293843100027586 -0.0010138329309189234 0 0.0084270425560176321 -0.00092163764267370885 0 0.0084300926025674631 -0.0010188305451679115 0 0.0085720065748711178 -0.00096147143623373141 0 0.0085618192716546346 -0.0010501937451776813 0 0.0084300926025674631 -0.0010188305451679115 0 0.0085720065748711178 -0.00096147143623373141 0 0.0083901297274659031 -0.0011236881006085231 0 0.0085618192716546346 -0.0010501937451776813 0 0.0084300926025674631 -0.0010188305451679115 0 0.0085618192716546346 -0.0010501937451776813 0 0.0085720065748711178 -0.00096147143623373141 0 0.0087506177703301682 -0.0010968229066730343 0 0.0084270425560176321 -0.00092163764267370885 0 0.0085720065748711178 -0.00096147143623373141 0 0.0084488061203673165 -0.00091321222861548337 0 0.0085720065748711178 -0.00096147143623373141 0 0.0084488061203673165 -0.00091321222861548337 0 0.0084204310430798495 -0.00092342189749792614 0 0.0080613891075305456 -0.00099858844592343567 0 0.0084488061203673165 -0.00091321222861548337 0 0.0084204310430798495 -0.00092342189749792614 0 0.0080613891075305456 -0.00099858844592343567 0 0.0084204310430798495 -0.00092342189749792614 0 0.0084698274655292012 -0.00096494827715482153 0 0.0084204310430798495 -0.00092342189749792614 0 0.0086200232539505768 -0.00097269246389722558 0 0.0084698274655292012 -0.00096494827715482153 0 0.0085720065748711178 -0.00096147143623373141 0 0.0086200232539505768 -0.00097269246389722558 0 0.0088868060671328328 -0.0010430318671477774 0 0.0085720065748711178 -0.00096147143623373141 0 0.0084204310430798495 -0.00092342189749792614 0 0.0086200232539505768 -0.00097269246389722558 0 0.0086910399411848499 -0.00097911780124452499 0 0.0090589880708314228 -0.0011324484909398178 0 0.0086200232539505768 -0.00097269246389722558 0 0.0087731331695414354 -0.0010052475264219246 0 0.0089004764294867769 -0.0011801393360755391 0 0.0086200232539505768 -0.00097269246389722558 0 0.0087731331695414354 -0.0010052475264219246 0 0.0084698274655292012 -0.00096494827715482153 0 0.0087731331695414354 -0.0010052475264219246 0 0.0084698274655292012 -0.00096494827715482153 0 0.0086307944902799891 -0.00086704164352209405 0 0.0080613891075305456 -0.00099858844592343567 0 0.0084698274655292012 -0.00096494827715482153 0 0.0086307944902799891 -0.00086704164352209405 0 0.0095944188358607751 -0.0012590829047341302 0 0.0092413155115725377 -0.0010682806463416788 0 0.0094433167037994703 -0.0013064819544895533 0 0.0092413155115725377 -0.0010682806463416788 0 0.0091165215077009722 -0.0012078794886701625 0 0.0094433167037994703 -0.0013064819544895533 0 0.0086200232539505768 -0.00097269246389722558 0 0.0092413155115725377 -0.0010682806463416788 0 0.0088868060671328328 -0.0010430318671477774 0 0.0092413155115725377 -0.0010682806463416788 0 0.0088868060671328328 -0.0010430318671477774 0 0.0091165215077009722 -0.0012078794886701625 0 0.0088868060671328328 -0.0010430318671477774 0 0.0091165215077009722 -0.0012078794886701625 0 0.0087506177703301682 -0.0010968229066730343 0 0.0091165215077009722 -0.0012078794886701625 0 0.0087506177703301682 -0.0010968229066730343 0 0.0088371490804470543 -0.0012902443320624128 0 0.0085720065748711178 -0.00096147143623373141 0 0.0088868060671328328 -0.0010430318671477774 0 0.0087506177703301682 -0.0010968229066730343 0 0.0083901297274659031 -0.0011236881006085231 0 0.0085618192716546346 -0.0010501937451776813 0 0.008522706295529682 -0.0011647681911643713 0 0.0085618192716546346 -0.0010501937451776813 0 0.0087506177703301682 -0.0010968229066730343 0 0.008522706295529682 -0.0011647681911643713 0 0.0087506177703301682 -0.0010968229066730343 0 0.0088371490804470543 -0.0012902443320624128 0 0.008522706295529682 -0.0011647681911643713 0 0.0088371490804470543 -0.0012902443320624128 0 0.008522706295529682 -0.0011647681911643713 0 0.0085441922822676684 -0.001300996194435932 0 0.0088371490804470543 -0.0012902443320624128 0 0.0085441922822676684 -0.001300996194435932 0 0.0085289793686578064 -0.0015602367723403497 0 0.0088371490804470543 -0.0012902443320624128 0 0.0088061540744374979 -0.0017209050396429541 0 0.0085289793686578064 -0.0015602367723403497 0 0.0088371490804470543 -0.0012902443320624128 0 0.0088061540744374979 -0.0017209050396429541 0 0.0094710981484338735 -0.0014588777942865436 0 0.0094015944632604743 -0.0015380786103104613 0 0.0094736761938834044 -0.0014666123238970372 0 0.0091165215077009722 -0.0012078794886701625 0 0.0088371490804470543 -0.0012902443320624128 0 0.0094710981484338735 -0.0014588777942865436 0 0.0091165215077009722 -0.0012078794886701625 0 0.0094710981484338735 -0.0014588777942865436 0 0.0094433167037994703 -0.0013064819544895533 0 0.0094710981484338735 -0.0014588777942865436 0 0.0096694024848675807 -0.0013206584120798509 0 0.0094433167037994703 -0.0013064819544895533 0 0.0095944188358607751 -0.0012590829047341302 0 0.0096694024848675807 -0.0013206584120798509 0 0.0094433167037994703 -0.0013064819544895533 0 0.008232332930619056 -0.0013422189425495899 0 0.0082298628035141763 -0.0011953183362656654 0 0.0083792159392069299 -0.0012479974932684723 0 0.008232332930619056 -0.0013422189425495899 0 0.0081613130623783333 -0.0013534521404557711 0 0.008193858103905596 -0.0012692643521133036 0 0.0081613130623783333 -0.0013534521404557711 0 0.0081398294987285458 -0.0012791723402385481 0 0.008193858103905596 -0.0012692643521133036 0 0.008223211070933132 -0.0013509761712127909 0 0.0081329691278620112 -0.0011760860679509047 0 0.008232332930619056 -0.0013422189425495899 0 0.0081613130623783333 -0.0013534521404557711 0 0.0082343390121028866 -0.0014498663587333975 0 0.0081613130623783333 -0.0013534521404557711 0 0.0080921438917958815 -0.0013302551183113583 0 0.008134537149187139 -0.0014447637927255787 0 0.0081613130623783333 -0.0013534521404557711 0 0.0080921438917958815 -0.0013302551183113583 0 0.0081398294987285458 -0.0012791723402385481 0 0.0066102940408903302 -0.0017898667109453948 0 0.0067627463235415382 -0.0017786409755131188 0 0.0080921438917958815 -0.0013302551183113583 0 0.0081398294987285458 -0.0012791723402385481 0 0.0080782751464922187 -0.0012607888494787984 0 0.0081720849409861272 -0.0011929416626696421 0 0.0081398294987285458 -0.0012791723402385481 0 0.0080782751464922187 -0.0012607888494787984 0 0.0077182667797879223 -0.0013256699690997493 0 0.0067627463235415382 -0.0017786409755131188 0 0.0082298628035141763 -0.0011953183362656654 0 0.0082672080028652322 -0.0011330003453123016 0 0.008337505092636489 -0.0011456995123911265 0 0.0081720849409861272 -0.0011929416626696421 0 0.0081398294987285458 -0.0012791723402385481 0 0.008193858103905596 -0.0012692643521133036 0 0.0082308232624519785 -0.0011071339905750234 0 0.0082298628035141763 -0.0011953183362656654 0 0.0082672080028652322 -0.0011330003453123016 0 0.0066102940408903302 -0.0017898667109453948 0 0.0081329691278620112 -0.0011760860679509047 0 0.0082298628035141763 -0.0011953183362656654 0 0.008337505092636489 -0.0011456995123911265 0 0.0083792159392069299 -0.0012479974932684723 0 0.0083901297274659031 -0.0011236881006085231 0 0.008337505092636489 -0.0011456995123911265 0 0.008522706295529682 -0.0011647681911643713 0 0.008337505092636489 -0.0011456995123911265 0 0.008522706295529682 -0.0011647681911643713 0 0.0083792159392069299 -0.0012479974932684723 0 0.0085441922822676684 -0.001300996194435932 0 0.0083792159392069299 -0.0012479974932684723 0 0.0083732798384014238 -0.0013957410869386395 0 0.008522706295529682 -0.0011647681911643713 0 0.0085441922822676684 -0.001300996194435932 0 0.0083792159392069299 -0.0012479974932684723 0 0.008232332930619056 -0.0013422189425495899 0 0.0083792159392069299 -0.0012479974932684723 0 0.0083732798384014238 -0.0013957410869386395 0 0.0083732798384014238 -0.0013957410869386395 0 0.008311075394582694 -0.0015555639364707872 0 0.0082343390121028866 -0.0014498663587333975 0 0.0083732798384014238 -0.0013957410869386395 0 0.0085289793686578064 -0.0015602367723403497 0 0.008311075394582694 -0.0015555639364707872 0 0.0085441922822676684 -0.001300996194435932 0 0.0083732798384014238 -0.0013957410869386395 0 0.0085289793686578064 -0.0015602367723403497 0 0.0088061540744374979 -0.0017209050396429541 0 0.0085289793686578064 -0.0015602367723403497 0 0.0084615492010463814 -0.0017798044423361294 0 0.0085289793686578064 -0.0015602367723403497 0 0.0083558556891153712 -0.0016825017212230163 0 0.0084615492010463814 -0.0017798044423361294 0 0.0085289793686578064 -0.0015602367723403497 0 0.008311075394582694 -0.0015555639364707872 0 0.0083558556891153712 -0.0016825017212230163 0 0.008311075394582694 -0.0015555639364707872 0 0.008240618622953947 -0.0016759511410327698 0 0.0083558556891153712 -0.0016825017212230163 0 0.008311075394582694 -0.0015555639364707872 0 0.0081920624536134384 -0.0015632422382981445 0 0.008240618622953947 -0.0016759511410327698 0 0.0081920624536134384 -0.0015632422382981445 0 0.0081183210603709838 -0.0016970190413213117 0 0.008240618622953947 -0.0016759511410327698 0 0.008311075394582694 -0.0015555639364707872 0 0.0081920624536134384 -0.0015632422382981445 0 0.0082343390121028866 -0.0014498663587333975 0 0.008232332930619056 -0.0013422189425495899 0 0.0083732798384014238 -0.0013957410869386395 0 0.0082343390121028866 -0.0014498663587333975 0 0.0081920624536134384 -0.0015632422382981445 0 0.0082343390121028866 -0.0014498663587333975 0 0.008134537149187139 -0.0014447637927255787 0 0.0081613130623783333 -0.0013534521404557711 0 0.0082343390121028866 -0.0014498663587333975 0 0.008134537149187139 -0.0014447637927255787 0 0.0080921438917958815 -0.0013302551183113583 0 0.008134537149187139 -0.0014447637927255787 0 0.0080362406935819402 -0.0014557652111701865 0 0.0081920624536134384 -0.0015632422382981445 0 0.008134537149187139 -0.0014447637927255787 0 0.0080824035186624014 -0.0015624845307211984 0 0.008134537149187139 -0.0014447637927255787 0 0.0080824035186624014 -0.0015624845307211984 0 0.0080362406935819402 -0.0014557652111701865 0 0.0081920624536134384 -0.0015632422382981445 0 0.0080824035186624014 -0.0015624845307211984 0 0.0081183210603709838 -0.0016970190413213117 0 0.0080824035186624014 -0.0015624845307211984 0 0.0080147563420628204 -0.0016595278011430552 0 0.0081183210603709838 -0.0016970190413213117 0 0.0080147563420628204 -0.0016595278011430552 0 0.007964367327105001 -0.0015656032947027113 0 0.0079128683992632856 -0.0016850442485736358 0 0.0080824035186624014 -0.0015624845307211984 0 0.0080147563420628204 -0.0016595278011430552 0 0.007964367327105001 -0.0015656032947027113 0 0.007964367327105001 -0.0015656032947027113 0 0.0078360510850760123 -0.0016147928592751503 0 0.0079128683992632856 -0.0016850442485736358 0 0.0078360510850760123 -0.0016147928592751503 0 0.007794815530405062 -0.0016546214576747694 0 0.0079128683992632856 -0.0016850442485736358 0 0.0076007531440122006 -0.0015957234071116626 0 0.007473997286036314 -0.0016055659846326386 0 0.0078360510850760123 -0.0016147928592751503 0 0.0076665153460541485 -0.0015880426033654091 0 0.007899002178029647 -0.0013784758339478076 0 0.007964367327105001 -0.0015656032947027113 0 0.0078360510850760123 -0.0016147928592751503 0 0.007899002178029647 -0.0013784758339478076 0 0.007964367327105001 -0.0015656032947027113 0 0.0080362406935819402 -0.0014557652111701865 0 0.007899002178029647 -0.0013784758339478076 0 0.0080824035186624014 -0.0015624845307211984 0 0.007964367327105001 -0.0015656032947027113 0 0.0080362406935819402 -0.0014557652111701865 0 0.0078360510850760123 -0.0016147928592751503 0 0.007794815530405062 -0.0016546214576747694 0 0.0076665153460541485 -0.0015880426033654091 0 0.0078560227692239717 -0.0015854631616717637 0 0.007794815530405062 -0.0016546214576747694 0 0.0076665153460541485 -0.0015880426033654091 0 0.0076665153460541485 -0.0015880426033654091 0 0.0074859851177438916 -0.0018776975914667246 0 0.0068797509698682105 -0.0018573462896903021 0 0.0076665153460541485 -0.0015880426033654091 0 0.0077978330087801256 -0.0017590029772277223 0 0.0074859851177438916 -0.0018776975914667246 0 0.0078560227692239717 -0.0015854631616717637 0 0.0076665153460541485 -0.0015880426033654091 0 0.0077978330087801256 -0.0017590029772277223 0 0.0076535200624175395 -0.0020633638296193796 0 0.0078748565699590725 -0.0022671634298594857 0 0.0082145319391628488 -0.0019175362401877439 0 0.0077978330087801256 -0.0017590029772277223 0 0.0076535200624175395 -0.0020633638296193796 0 0.0074859851177438916 -0.0018776975914667246 0 0.0077978330087801256 -0.0017590029772277223 0 0.0076535200624175395 -0.0020633638296193796 0 0.0082145319391628488 -0.0019175362401877439 0 0.0076535200624175395 -0.0020633638296193796 0 0.0074859851177438916 -0.0018776975914667246 0 0.0072385441611362168 -0.0021411630238304274 0 0.0076535200624175395 -0.0020633638296193796 0 0.0072385441611362168 -0.0021411630238304274 0 0.0073757063568158027 -0.0023257597236170497 0 0.0076535200624175395 -0.0020633638296193796 0 0.0073757063568158027 -0.0023257597236170497 0 0.0075419667577156279 -0.0024475259309119477 0 0.0072385441611362168 -0.0021411630238304274 0 0.0073757063568158027 -0.0023257597236170497 0 0.0071078829643115805 -0.0023903087688390049 0 0.0073757063568158027 -0.0023257597236170497 0 0.0071078829643115805 -0.0023903087688390049 0 0.0072395065038441545 -0.0025672996175236159 0 0.0073757063568158027 -0.0023257597236170497 0 0.0075419667577156279 -0.0024475259309119477 0 0.0072395065038441545 -0.0025672996175236159 0 0.0076535200624175395 -0.0020633638296193796 0 0.0075419667577156279 -0.0024475259309119477 0 0.0078748565699590725 -0.0022671634298594857 0 0.0075419667577156279 -0.0024475259309119477 0 0.0078748565699590725 -0.0022671634298594857 0 0.0079205702015259505 -0.0026361790032085985 0 0.0067627463235415382 -0.0017786409755131188 0 0.007473997286036314 -0.0016055659846326386 0 0.0080921438917958815 -0.0013302551183113583 0 0.0080362406935819402 -0.0014557652111701865 0 0.007899002178029647 -0.0013784758339478076 0 0.0080921438917958815 -0.0013302551183113583 0 0.0080695672874314776 -0.0012422028649152789 0 0.007899002178029647 -0.0013784758339478076 0 0.0074859851177438916 -0.0018776975914667246 0 0.0072385441611362168 -0.0021411630238304274 0 0.0068797509698682105 -0.0018573462896903021 0 0.0072385441611362168 -0.0021411630238304274 0 0.0068797509698682105 -0.0018573462896903021 0 0.0068189272244244346 -0.0022994521369372471 0 0.0068189272244244346 -0.0022994521369372471 0 0.006553152222822399 -0.0025340165162618627 0 0.00695113118738417 -0.0025944133246291216 0 0.0072385441611362168 -0.0021411630238304274 0 0.0068189272244244346 -0.0022994521369372471 0 0.0071078829643115805 -0.0023903087688390049 0 0.0068189272244244346 -0.0022994521369372471 0 0.0071078829643115805 -0.0023903087688390049 0 0.00695113118738417 -0.0025944133246291216 0 0.006242203384463448 -0.0022565571415512258 0 0.0068797509698682105 -0.0018573462896903021 0 0.0068189272244244346 -0.0022994521369372471 0 0.006242203384463448 -0.0022565571415512258 0 0.0068189272244244346 -0.0022994521369372471 0 0.006553152222822399 -0.0025340165162618627 0 0.0063109934888957364 -0.0028031220386916219 0 0.006242203384463448 -0.0022565571415512258 0 0.006553152222822399 -0.0025340165162618627 0 0.0063109934888957364 -0.0028031220386916219 0 0.006553152222822399 -0.0025340165162618627 0 0.0067893609460507589 -0.0028675410429265758 0 0.0010983341121687286 -0.0031404487398473606 0 0.00071078870964493576 -0.0028092676218114824 0 0.0010983341121687286 -0.0031404487398473606 0 -0.0068801423613111413 -0.0031054567262235326 0 -0.0042078266954409848 -0.0029001421439999752 0 -0.0045003647668577307 -0.0025560642724398721 0 -0.0046653676683735702 -0.0027976381880339338 0 -0.0042078266954409848 -0.0029001421439999752 0 -0.0045003647668577307 -0.0025560642724398721 0 -0.0043165517719346881 -0.002490280806688235 0 -0.0045003647668577307 -0.0025560642724398721 0 -0.0047323180555279773 -0.002573772011763406 0 -0.0046653676683735702 -0.0027976381880339338 0 -0.0045003647668577307 -0.0025560642724398721 0 -0.0043776820163788869 -0.0025094571151318681 0 -0.0046481157235940158 -0.0023476713006397873 0 -0.0045003647668577307 -0.0025560642724398721 0 -0.0047323180555279773 -0.002573772011763406 0 -0.0046481157235940158 -0.0023476713006397873 0 -0.0047101059327837834 -0.0024565754190030388 0 -0.0068801423613111413 -0.0031054567262235326 0 -0.0047323180555279773 -0.002573772011763406 0 -0.0046653676683735702 -0.0027976381880339338 0 -0.0050338805304438036 -0.0027144205028893664 0 0.00071078870964493576 -0.0028092676218114824 0 0.0031547644479620572 -0.0017881271557681174 0 -0.0047323180555279773 -0.002573772011763406 0 -0.0050338805304438036 -0.0027144205028893664 0 -0.0048774114049786625 -0.002398666454758511 0 0.0067893609460507589 -0.0028675410429265758 0 0.00695113118738417 -0.0025944133246291216 0 0.0072340784508600651 -0.002925426102624965 0 0.006553152222822399 -0.0025340165162618627 0 0.0067893609460507589 -0.0028675410429265758 0 0.00695113118738417 -0.0025944133246291216 0 0.0071078829643115805 -0.0023903087688390049 0 0.00695113118738417 -0.0025944133246291216 0 0.0072395065038441545 -0.0025672996175236159 0 0.0075419667577156279 -0.0024475259309119477 0 0.0072395065038441545 -0.0025672996175236159 0 0.0071883813159461614 -0.0025214049815089701 0 0.0069777593121411454 -0.0023783966263882343 0 0.0071883813159461614 -0.0025214049815089701 0 0.00675375720842187 -0.0023744360142724285 0 0.0069777593121411454 -0.0023783966263882343 0 0.00675375720842187 -0.0023744360142724285 0 0.0069325662429735721 -0.0022698382904866301 0 0.0069777593121411454 -0.0023783966263882343 0 0.0071883813159461614 -0.0025214049815089701 0 0.0070668678415960612 -0.0023532280601253237 0 0.0071883813159461614 -0.0025214049815089701 0 0.0071465207627199696 -0.002311605730274756 0 0.0070668678415960612 -0.0023532280601253237 0 0.0072395065038441545 -0.0025672996175236159 0 0.0071883813159461614 -0.0025214049815089701 0 0.0071465207627199696 -0.002311605730274756 0 0.0069120383251592907 -0.0029544777665508355 0 0.0031547644479620572 -0.0017881271557681174 0 0.00695113118738417 -0.0025944133246291216 0 0.0072395065038441545 -0.0025672996175236159 0 0.0072340784508600651 -0.002925426102624965 0 0.0075419667577156279 -0.0024475259309119477 0 0.0071883813159461614 -0.0025214049815089701 0 0.0079205702015259505 -0.0026361790032085985 0 0.0075991231102361763 -0.0024978207346475459 0 0.0062400636076582958 -0.0026203179038080996 0 0.0071883813159461614 -0.0025214049815089701 0 0.00675375720842187 -0.0023744360142724285 0 0.006438230852119085 -0.0025533257324579142 0 0.00675375720842187 -0.0023744360142724285 0 0.0065836520742779073 -0.0022176991186777539 0 0.006438230852119085 -0.0025533257324579142 0 0.0065836520742779073 -0.0022176991186777539 0 0.0063680542990640042 -0.0023012959432388712 0 0.006438230852119085 -0.0025533257324579142 0 0.0065836520742779073 -0.0022176991186777539 0 0.0065450566532142072 -0.0019628107713380422 0 0.0063680542990640042 -0.0023012959432388712 0 0.00675375720842187 -0.0023744360142724285 0 0.006797395032235626 -0.0021317009862332763 0 0.0069325662429735721 -0.0022698382904866301 0 0.00675375720842187 -0.0023744360142724285 0 0.0065836520742779073 -0.0022176991186777539 0 0.006797395032235626 -0.0021317009862332763 0 0.006797395032235626 -0.0021317009862332763 0 0.0065450566532142072 -0.0019628107713380422 0 0.0067786353263922568 -0.0018868254774822677 0 0.0065836520742779073 -0.0022176991186777539 0 0.006797395032235626 -0.0021317009862332763 0 0.0065450566532142072 -0.0019628107713380422 0 0.0031547644479620572 -0.0017881271557681174 0 0.00096280073464680941 -0.00195420303202847 0 0.0071465207627199696 -0.002311605730274756 0 0.0070892485801792356 -0.0022685384748170356 0 0.0070668678415960612 -0.0023532280601253237 0 0.0031547644479620572 -0.0017881271557681174 0 0.0035264137264353207 -0.0018470730088248491 0 0.006797395032235626 -0.0021317009862332763 0 0.0070892485801792356 -0.0022685384748170356 0 0.0069325662429735721 -0.0022698382904866301 0 0.0069777593121411454 -0.0023783966263882343 0 0.0070668678415960612 -0.0023532280601253237 0 0.0069325662429735721 -0.0022698382904866301 0 0.0071330925912580041 -0.0022747734108984037 0 0.0070892485801792356 -0.0022685384748170356 0 0.0067786353263922568 -0.0018868254774822677 0 0.0070892485801792356 -0.0022685384748170356 0 0.0070668678415960612 -0.0023532280601253237 0 0.0069325662429735721 -0.0022698382904866301 0 0.006797395032235626 -0.0021317009862332763 0 0.0070892485801792356 -0.0022685384748170356 0 0.0067786353263922568 -0.0018868254774822677 0 0.0067786353263922568 -0.0018868254774822677 0 0.0068940609824954969 -0.0015955210562561652 0 0.0066351203324932851 -0.0014720441384591958 0 -0.0050338805304438036 -0.0027144205028893664 0 -0.0051584233621746944 -0.0022046788019747313 0 -0.0048774114049786625 -0.002398666454758511 0 0.0071330925912580041 -0.0022747734108984037 0 0.0067786353263922568 -0.0018868254774822677 0 0.0068940609824954969 -0.0015955210562561652 0 0.0067786353263922568 -0.0018868254774822677 0 0.0063977699110200443 -0.0015526892570450941 0 0.0066351203324932851 -0.0014720441384591958 0 0.0065450566532142072 -0.0019628107713380422 0 0.0063977699110200443 -0.0015526892570450941 0 0.0062578457365669096 -0.0017632757226552311 0 0.0065450566532142072 -0.0019628107713380422 0 0.0067786353263922568 -0.0018868254774822677 0 0.0063977699110200443 -0.0015526892570450941 0 0.0067049054489704274 -0.0010721848348824016 0 0.0066351203324932851 -0.0014720441384591958 0 0.0064549555269678028 -0.0012580153364776345 0 0.0063977699110200443 -0.0015526892570450941 0 0.0064549555269678028 -0.0012580153364776345 0 0.006260733056692289 -0.0013211599073026268 0 0.0063977699110200443 -0.0015526892570450941 0 0.0066351203324932851 -0.0014720441384591958 0 0.0064549555269678028 -0.0012580153364776345 0 0.0062148450157736689 -0.0010866277002056243 0 0.0064549555269678028 -0.0012580153364776345 0 0.006260733056692289 -0.0013211599073026268 0 -0.005277814486762099 -0.0017042557042155752 0 -0.0051584233621746944 -0.0022046788019747313 0 -0.0051560831749140517 -0.001812851872129029 0 -0.0051584233621746944 -0.0022046788019747313 0 -0.0051560831749140517 -0.001812851872129029 0 -0.0048735033298368518 -0.0020834984832973518 0 0.0067049054489704274 -0.0010721848348824016 0 0.0068940609824954969 -0.0015955210562561652 0 0.0066351203324932851 -0.0014720441384591958 0 -0.0022843971920513354 -0.0019117850818524966 0 0.00096280073464680941 -0.00195420303202847 0 -0.0048674625460732946 -0.0017480350295104928 0 -0.0048735033298368518 -0.0020834984832973518 0 -0.0045331820072845594 -0.0019508394207884544 0 -0.0048674625460732946 -0.0017480350295104928 0 -0.0051560831749140517 -0.001812851872129029 0 -0.0048735033298368518 -0.0020834984832973518 0 -0.0048735033298368518 -0.0020834984832973518 0 -0.0045331820072845594 -0.0019508394207884544 0 -0.0046481157235940158 -0.0023476713006397873 0 -0.012493822064023462 -0.0041761521938510756 0 -0.013544629854802221 -0.0064481603131309071 0 -0.014289304761306902 -0.002990372622054256 0 -0.0043776820163788869 -0.0025094571151318681 0 -0.0045331820072845594 -0.0019508394207884544 0 -0.0046481157235940158 -0.0023476713006397873 0 -0.0068801423613111413 -0.0031054567262235326 0 -0.0096097470041771431 -0.0027956979271937343 0 -0.0047323180555279773 -0.002573772011763406 0 -0.0046481157235940158 -0.0023476713006397873 0 -0.0048774114049786625 -0.002398666454758511 0 -0.0051584233621746944 -0.0022046788019747313 0 -0.0048735033298368518 -0.0020834984832973518 0 -0.0048774114049786625 -0.002398666454758511 0 -0.0048735033298368518 -0.0020834984832973518 0 -0.0046481157235940158 -0.0023476713006397873 0 -0.0048774114049786625 -0.002398666454758511 0 0.0058806474583088736 -0.00150043895344973 0 0.0057035292306410095 -0.0013963945479515604 0 0.0058366534914123655 -0.0017210100019915615 0 0.0057777560966890337 -0.0012475930501271021 0 0.0058720460892225318 -0.0013973018131839825 0 0.0058806474583088736 -0.00150043895344973 0 0.0057035292306410095 -0.0013963945479515604 0 0.0058414901404550499 -0.0013095051489332721 0 0.0059543941395644642 -0.0010557469881399928 0 0.0058736007539141773 -0.0011178798957188398 0 0.0058045989937270306 -0.0011215165835571661 0 0.0059543941395644642 -0.0010557469881399928 0 0.0058736007539141773 -0.0011178798957188398 0 0.0059112352780117394 -0.00098820872519346016 0 0.0059377979338799767 -0.0010737808773648488 0 0.005904194493935159 -0.0010906324196784882 0 0.005691528585328111 -0.0011110090067653637 0 0.0058736007539141773 -0.0011178798957188398 0 0.0058045989937270306 -0.0011215165835571661 0 0.0057102428484080417 -0.001137457959771571 0 0.0057777560966890337 -0.0012475930501271021 0 0.005691528585328111 -0.0011110090067653637 0 0.0057035292306410095 -0.0013963945479515604 0 0.0057393742221226538 -0.0012239786187427776 0 0.0057393742221226538 -0.0012239786187427776 0 0.0058414901404550499 -0.0013095051489332721 0 0.0058165183284632806 -0.0012007810291832445 0 0.0057035292306410095 -0.0013963945479515604 0 0.0057393742221226538 -0.0012239786187427776 0 0.0058414901404550499 -0.0013095051489332721 0 0.0058952660248290829 -0.0011504070641874657 0 0.0058414901404550499 -0.0013095051489332721 0 0.0058165183284632806 -0.0012007810291832445 0 0.0058952660248290829 -0.0011504070641874657 0 0.0058414901404550499 -0.0013095051489332721 0 0.005972085173390645 -0.001283243732772496 0 0.005972085173390645 -0.001283243732772496 0 0.0061233178364483096 -0.0014196320679218805 0 0.00598409132903952 -0.0014423808987937832 0 0.0058414901404550499 -0.0013095051489332721 0 0.005972085173390645 -0.001283243732772496 0 0.00598409132903952 -0.0014423808987937832 0 0.0062148450157736689 -0.0010866277002056243 0 0.0061028981310611565 -0.0011911138265302641 0 0.006260733056692289 -0.0013211599073026268 0 0.0061028981310611565 -0.0011911138265302641 0 0.005972085173390645 -0.001283243732772496 0 0.0061233178364483096 -0.0014196320679218805 0 0.0061028981310611565 -0.0011911138265302641 0 0.006260733056692289 -0.0013211599073026268 0 0.0061233178364483096 -0.0014196320679218805 0 0.0063977699110200443 -0.0015526892570450941 0 0.006260733056692289 -0.0013211599073026268 0 0.0061233178364483096 -0.0014196320679218805 0 0.0063977699110200443 -0.0015526892570450941 0 0.0061233178364483096 -0.0014196320679218805 0 0.0060674553724617266 -0.0016069720595227829 0 0.0063977699110200443 -0.0015526892570450941 0 0.0062578457365669096 -0.0017632757226552311 0 0.0060073401116835234 -0.0018434621970930892 0 0.0064001721102254078 -0.0015348894488758803 0 0.0060011018317990186 -0.0017865889067494615 0 0.0058806474583088736 -0.00150043895344973 0 0.00598409132903952 -0.0014423808987937832 0 0.0060674553724617266 -0.0016069720595227829 0 0.0058806474583088736 -0.00150043895344973 0 0.0058414901404550499 -0.0013095051489332721 0 0.00598409132903952 -0.0014423808987937832 0 0.0061233178364483096 -0.0014196320679218805 0 0.00598409132903952 -0.0014423808987937832 0 0.0060674553724617266 -0.0016069720595227829 0 0.0058806474583088736 -0.00150043895344973 0 0.0060674553724617266 -0.0016069720595227829 0 0.0058366534914123655 -0.0017210100019915615 0 0.0060073401116835234 -0.0018434621970930892 0 0.0058398915854455703 -0.002053650654576454 0 0.0056705886830015068 -0.0020567542130021715 0 0.0060011018317990186 -0.0017865889067494615 0 0.0058720460892225318 -0.0013973018131839825 0 0.0060073401116835234 -0.0018434621970930892 0 0.0059406645124899142 -0.0021109520746380962 0 0.0058398915854455703 -0.002053650654576454 0 0.0058398915854455703 -0.002053650654576454 0 0.0057447945181966576 -0.0021922063316246886 0 0.0056705886830015068 -0.0020567542130021715 0 0.0059406645124899142 -0.0021109520746380962 0 0.0058398915854455703 -0.002053650654576454 0 0.0057447945181966576 -0.0021922063316246886 0 0.0064766133657259686 -0.0019958850843606658 0 0.006075407205702924 -0.0022798322460565994 0 0.0061779077848720283 -0.0017897991278208213 0 0.006075407205702924 -0.0022798322460565994 0 0.0065450566532142072 -0.0019628107713380422 0 0.0062578457365669096 -0.0017632757226552311 0 0.005772872123199449 -0.0023021369130545449 0 0.0065450566532142072 -0.0019628107713380422 0 0.0061214890583362021 -0.002306773569989728 0 0.0063680542990640042 -0.0023012959432388712 0 0.0062578457365669096 -0.0017632757226552311 0 0.0060073401116835234 -0.0018434621970930892 0 0.0059406645124899142 -0.0021109520746380962 0 0.0063680542990640042 -0.0023012959432388712 0 0.006438230852119085 -0.0025533257324579142 0 0.0061882332607717085 -0.0024381214674660469 0 0.006438230852119085 -0.0025533257324579142 0 0.0061882332607717085 -0.0024381214674660469 0 0.0060675243735861572 -0.0025574122724123989 0 0.0062400636076582958 -0.0026203179038080996 0 0.011575520873075115 -0.0028705371116956105 0 0.0061214890583362021 -0.002306773569989728 0 0.0063680542990640042 -0.0023012959432388712 0 0.0061882332607717085 -0.0024381214674660469 0 0.006075407205702924 -0.0022798322460565994 0 0.0069060150553747679 -0.0011736480965032477 0 0.0064693236352974378 -0.0023181406929542203 0 0.0077923370592209691 -0.0017171501444676726 0 0.0075146582656416576 -0.0011679548616540091 0 0.006075407205702924 -0.0022798322460565994 0 0.0084170008270076854 -0.0016306029242788298 0 0.0069060150553747679 -0.0011736480965032477 0 0.0084170008270076854 -0.0016306029242788298 0 0.0061214890583362021 -0.002306773569989728 0 0.0061882332607717085 -0.0024381214674660469 0 0.0060179319189476704 -0.0024621396646383148 0 0.0061882332607717085 -0.0024381214674660469 0 0.0060675243735861572 -0.0025574122724123989 0 0.0060179319189476704 -0.0024621396646383148 0 0.011575520873075115 -0.0028705371116956105 0 0.011914681692198833 -0.00071136560452281358 0 0.0099075371745883205 -0.0014687455820239473 0 0.010263180689884258 -0.0021754885546341148 0 0.011073015153110733 -0.0012850277103031139 0 0.011575520873075115 -0.0028705371116956105 0 0.0084170008270076854 -0.0016306029242788298 0 0.0079256220760518838 0.00013585958223538295 0 0.0077740748092599322 -0.00010267979316564022 0 0.0074952645465271462 -0.00018770822934298449 0 0.0069060150553747679 -0.0011736480965032477 0 0.0065461903646400633 -0.00041687631987930197 0 0.0080148997606039468 -3.7034928415756368e-05 0 0.0077740748092599322 -0.00010267979316564022 0 0.0077449954911952843 -0.00032669342770595846 0 0.0079256220760518838 0.00013585958223538295 0 0.0074952645465271462 -0.00018770822934298449 0 0.0070512669716098269 -0.00022590294435422865 0 0.0058720460892225318 -0.0013973018131839825 0 0.0059840469558250439 -0.00084838138936576201 0 0.0057543621086494738 -0.0009275146799065146 0 0.0058732356965615455 -0.00090676900299369002 0 0.0059845360829617741 -0.00079360285070078545 0 0.0058732356965615455 -0.00090676900299369002 0 0.0057943935727262398 -0.0010021831245871286 0 0.005961629018628155 -0.00089445191257288238 0 0.0084170008270076854 -0.0016306029242788298 0 0.011914681692198833 -0.00071136560452281358 0 0.0077740748092599322 -0.00010267979316564022 0 0.0074952645465271462 -0.00018770822934298449 0 0.0077449954911952843 -0.00032669342770595846 0 0.0057543621086494738 -0.0009275146799065146 0 0.0058732356965615455 -0.00090676900299369002 0 0.0057943935727262398 -0.0010021831245871286 0 0.0079256220760518838 0.00013585958223538295 0 0.0080148997606039468 -3.7034928415756368e-05 0 0.0077740748092599322 -0.00010267979316564022 0 0.0058105204114994409 -0.00096635159966969092 0 0.0059112352780117394 -0.00098820872519346016 0 0.0059516736546452306 -0.00086442888517471823 0 0.0058736007539141773 -0.0011178798957188398 0 0.0058105204114994409 -0.00096635159966969092 0 0.0059112352780117394 -0.00098820872519346016 0 0.0069060150553747679 -0.0011736480965032477 0 0.0058720460892225318 -0.0013973018131839825 0 0.0059543941395644642 -0.0010557469881399928 0 0.0059112352780117394 -0.00098820872519346016 0 0.0060294311923530172 -0.00096726755746669049 0 0.0059112352780117394 -0.00098820872519346016 0 0.0060294311923530172 -0.00096726755746669049 0 0.0059516736546452306 -0.00086442888517471823 0 0.006182210607511813 -0.00078816549675451509 0 0.0059840469558250439 -0.00084838138936576201 0 0.0062227826210882161 -0.00077735449953722599 0 0.005961629018628155 -0.00089445191257288238 0 0.0059845360829617741 -0.00079360285070078545 0 0.0061132520643772236 -0.00088768751624260928 0 0.0060294311923530172 -0.00096726755746669049 0 0.0059516736546452306 -0.00086442888517471823 0 0.0058732356965615455 -0.00090676900299369002 0 0.005961629018628155 -0.00089445191257288238 0 0.0059845360829617741 -0.00079360285070078545 0 0.0074952645465271462 -0.00018770822934298449 0 0.0070512669716098269 -0.00022590294435422865 0 0.0069882975351464646 -0.00040523731000314183 0 0.0069523138525252092 -0.00063425613826256007 0 0.0076528987652729726 -0.00031406879368371096 0 0.007061519415967929 -0.00080249657620522241 0 0.0069882975351464646 -0.00040523731000314183 0 0.0069523138525252092 -0.00063425613826256007 0 0.0076528987652729726 -0.00031406879368371096 0 0.0067411846325878249 -0.00070519264946907714 0 0.0069882975351464646 -0.00040523731000314183 0 0.0069523138525252092 -0.00063425613826256007 0 0.0067411846325878249 -0.00070519264946907714 0 0.0069523138525252092 -0.00063425613826256007 0 0.007061519415967929 -0.00080249657620522241 0 0.020942900601928577 -0.0026661132617660961 0 0.021027354404727343 -0.0028478843182672439 0 0.020863661572143383 -0.0028249666147146359 0 0.020942900601928577 -0.0026661132617660961 0 0.021027354404727343 -0.0028478843182672439 0 0.021037580137409986 -0.0027482549069563094 0 0.0074952645465271462 -0.00018770822934298449 0 0.0069882975351464646 -0.00040523731000314183 0 0.0077449954911952843 -0.00032669342770595846 0 0.0054739131656736262 -0.00051847563805740152 0 0.011914681692198833 -0.00071136560452281358 0 0.011914681692198833 -0.00071136560452281358 0 0.014363819756774344 -0.0017601551248276526 0 0.020974569781236258 -0.0029361479312662595 0 0.021027354404727343 -0.0028478843182672439 0 0.021099453555961125 -0.0030442048783035826 0 0.020974569781236258 -0.0029361479312662595 0 0.021027354404727343 -0.0028478843182672439 0 0.020863661572143383 -0.0028249666147146359 0 0.020974569781236258 -0.0029361479312662595 0 0.020863661572143383 -0.0028249666147146359 0 0.020867337409707358 -0.0029846243448012756 0 0.013171519419447433 -0.0020515806349647829 0 0.014363819756774344 -0.0017601551248276526 0 0.02061213486986626 -0.0029555579648229448 0 0.020863661572143383 -0.0028249666147146359 0 0.020867337409707358 -0.0029846243448012756 0 0.0079205702015259505 -0.0026361790032085985 0 0.0086055127286287798 -0.002543269885562134 0 0.0081682688113812948 -0.0023282461025702886 0 0.0078748565699590725 -0.0022671634298594857 0 0.0081682688113812948 -0.0023282461025702886 0 0.0082145319391628488 -0.0019175362401877439 0 0.0078748565699590725 -0.0022671634298594857 0 0.0079205702015259505 -0.0026361790032085985 0 0.0081682688113812948 -0.0023282461025702886 0 0.0086055127286287798 -0.002543269885562134 0 0.0081682688113812948 -0.0023282461025702886 0 0.0082145319391628488 -0.0019175362401877439 0 0.021033864972957859 -0.0026396884798766994 0 0.021037580137409986 -0.0027482549069563094 0 0.021255120390858796 -0.0029049149284899778 0 0.011575520873075115 -0.0028705371116956105 0 0.015238300627201674 -0.0024819608510452721 0 0.021033864972957859 -0.0026396884798766994 0 0.020942900601928577 -0.0026661132617660961 0 0.021037580137409986 -0.0027482549069563094 0 0.021027354404727343 -0.0028478843182672439 0 0.021255120390858796 -0.0029049149284899778 0 0.021099453555961125 -0.0030442048783035826 0 0.021027354404727343 -0.0028478843182672439 0 0.021037580137409986 -0.0027482549069563094 0 0.021255120390858796 -0.0029049149284899778 0 0.01455440317093119 -0.0023683917243423292 0 0.015238300627201674 -0.0024819608510452721 0 0.021410114910090948 -0.0031944483380247956 0 0.021255120390858796 -0.0029049149284899778 0 0.021263601266434829 -0.0031762172370666665 0 0.0078560227692239717 -0.0015854631616717637 0 0.0077978330087801256 -0.0017590029772277223 0 0.0082145319391628488 -0.0019175362401877439 0 0.021255120390858796 -0.0029049149284899778 0 0.021263601266434829 -0.0031762172370666665 0 0.021099453555961125 -0.0030442048783035826 0 0.021263601266434829 -0.0031762172370666665 0 0.021099453555961125 -0.0030442048783035826 0 0.021143350479232204 -0.0031922445782696105 0 0.021263601266434829 -0.0031762172370666665 0 0.021143350479232204 -0.0031922445782696105 0 0.021254729879332593 -0.0033183873529301646 0 0.021263601266434829 -0.0031762172370666665 0 0.021254729879332593 -0.0033183873529301646 0 0.021356050434427253 -0.0033485544853373425 0 0.021410114910090948 -0.0031944483380247956 0 0.021263601266434829 -0.0031762172370666665 0 0.021356050434427253 -0.0033485544853373425 0 0.020974569781236258 -0.0029361479312662595 0 0.020991249096984355 -0.0031253842004208346 0 0.020867337409707358 -0.0029846243448012756 0 0.020836934601677379 -0.0031525641047095488 0 0.020991249096984355 -0.0031253842004208346 0 0.020867337409707358 -0.0029846243448012756 0 0.020974569781236258 -0.0029361479312662595 0 0.020991249096984355 -0.0031253842004208346 0 0.021099453555961125 -0.0030442048783035826 0 0.020991249096984355 -0.0031253842004208346 0 0.021099453555961125 -0.0030442048783035826 0 0.021143350479232204 -0.0031922445782696105 0 0.021143350479232204 -0.0031922445782696105 0 0.021094061577244728 -0.0032847401524418863 0 0.021254729879332593 -0.0033183873529301646 0 0.020991249096984355 -0.0031253842004208346 0 0.021143350479232204 -0.0031922445782696105 0 0.021094061577244728 -0.0032847401524418863 0 0.020991249096984355 -0.0031253842004208346 0 0.020913738700080713 -0.0032337272789156892 0 0.021094061577244728 -0.0032847401524418863 0 0.020836934601677379 -0.0031525641047095488 0 0.020991249096984355 -0.0031253842004208346 0 0.020913738700080713 -0.0032337272789156892 0 0.020913738700080713 -0.0032337272789156892 0 0.021094061577244728 -0.0032847401524418863 0 0.02092223038784655 -0.0034417459717243182 0 0.021094061577244728 -0.0032847401524418863 0 0.021261620386550172 -0.0034269547748242216 0 0.02092223038784655 -0.0034417459717243182 0 0.021094061577244728 -0.0032847401524418863 0 0.021254729879332593 -0.0033183873529301646 0 0.021261620386550172 -0.0034269547748242216 0 0.021254729879332593 -0.0033183873529301646 0 0.021261620386550172 -0.0034269547748242216 0 0.021378795744269492 -0.0034573077069957573 0 0.021261620386550172 -0.0034269547748242216 0 0.021378795744269492 -0.0034573077069957573 0 0.021504505831918482 -0.0035390998561499929 0 0.021100504919321375 -0.0033314468032857349 0 0.022162151816530411 -0.0035990889072770134 0 0.021261620386550172 -0.0034269547748242216 0 0.021504505831918482 -0.0035390998561499929 0 0.02092223038784655 -0.0034417459717243182 0 0.021410114910090948 -0.0031944483380247956 0 0.021356050434427253 -0.0033485544853373425 0 0.021414413837706498 -0.0033874045495754465 0 0.021356050434427253 -0.0033485544853373425 0 0.021414413837706498 -0.0033874045495754465 0 0.02142782493056845 -0.003459039534046891 0 0.021254729879332593 -0.0033183873529301646 0 0.021356050434427253 -0.0033485544853373425 0 0.021378795744269492 -0.0034573077069957573 0 0.021356050434427253 -0.0033485544853373425 0 0.021378795744269492 -0.0034573077069957573 0 0.02142782493056845 -0.003459039534046891 0 0.021378795744269492 -0.0034573077069957573 0 0.02142782493056845 -0.003459039534046891 0 0.021502022855438698 -0.0035265380402360455 0 0.021414413837706498 -0.0033874045495754465 0 0.02142782493056845 -0.003459039534046891 0 0.021434203267067398 -0.0034478624597034119 0 0.02142782493056845 -0.003459039534046891 0 0.02146797615411258 -0.0034836519968798876 0 0.021434203267067398 -0.0034478624597034119 0 0.02142782493056845 -0.003459039534046891 0 0.021502022855438698 -0.0035265380402360455 0 0.02146797615411258 -0.0034836519968798876 0 0.021502022855438698 -0.0035265380402360455 0 0.021618254172870558 -0.0036048944862301451 0 0.02146797615411258 -0.0034836519968798876 0 0.0214298780815343 -0.0036030127847732031 0 0.021989658471650894 -0.0035762744073260804 0 0.021618254172870558 -0.0036048944862301451 0 0.021651580430460192 -0.0035617485459594179 0 0.021652654325017225 -0.0035818098781872565 0 0.021504505831918482 -0.0035390998561499929 0 0.021501753093932017 -0.0031899601563023391 0 0.021505258788610666 -0.0035053683300119349 0 0.021504505831918482 -0.0035390998561499929 0 0.021612467375203656 -0.0036432437286545573 0 0.021505258788610666 -0.0035053683300119349 0 0.021378795744269492 -0.0034573077069957573 0 0.021502022855438698 -0.0035265380402360455 0 0.021504505831918482 -0.0035390998561499929 0 0.021502022855438698 -0.0035265380402360455 0 0.021618254172870558 -0.0036048944862301451 0 0.021504505831918482 -0.0035390998561499929 0 0.021618254172870558 -0.0036048944862301451 0 0.021504505831918482 -0.0035390998561499929 0 0.021732979230601086 -0.0036893028306153432 0 0.021612467375203656 -0.0036432437286545573 0 0.021732979230601086 -0.0036893028306153432 0 0.021588973544939844 -0.0039030097243132954 0 0.021504505831918482 -0.0035390998561499929 0 0.021612467375203656 -0.0036432437286545573 0 0.021732979230601086 -0.0036893028306153432 0 0.021756615953331216 -0.003988686107201888 0 0.021786972832635948 -0.0037278834091149836 0 0.021969951468080298 -0.0043117648354807914 0 0.021732979230601086 -0.0036893028306153432 0 0.021588973544939844 -0.0039030097243132954 0 0.021969951468080298 -0.0043117648354807914 0 0.021998621266826956 -0.0049206648662569446 0 0.02166122515751611 -0.0045343064339092871 0 0.021766936422666812 -0.0035918402448502766 0 0.021663119743163813 -0.0035889712487002499 0 0.021701943060231262 -0.0035427019670632703 0 0.021618254172870558 -0.0036048944862301451 0 0.021732979230601086 -0.0036893028306153432 0 0.021663119743163813 -0.0035889712487002499 0 0.021766936422666812 -0.0035918402448502766 0 0.021732979230601086 -0.0036893028306153432 0 0.021663119743163813 -0.0035889712487002499 0 0.021618254172870558 -0.0036048944862301451 0 0.021652654325017225 -0.0035818098781872565 0 0.021663119743163813 -0.0035889712487002499 0 0.021652654325017225 -0.0035818098781872565 0 0.021663119743163813 -0.0035889712487002499 0 0.021670632766474972 -0.0035700771166352007 0 0.023837067496960934 -0.003910628941783882 0 0.023844699779451323 -0.0038286365143932717 0 0.026133738376697521 -0.0042305117885171164 0 0.025915520638291223 -0.0044727450587195598 0 0.025740590170201864 -0.0042301422012740904 0 0.021663119743163813 -0.0035889712487002499 0 0.021670632766474972 -0.0035700771166352007 0 0.021701943060231262 -0.0035427019670632703 0 0.025915520638291223 -0.0044727450587195598 0 0.026245552576395853 -0.0044227684685565769 0 0.026165833507731398 -0.0046907329604087044 0 0.026133738376697521 -0.0042305117885171164 0 0.025915520638291223 -0.0044727450587195598 0 0.026245552576395853 -0.0044227684685565769 0 0.02593939192496568 -0.0044891394120362346 0 0.02631332197657054 -0.0047629150322669334 0 0.025915520638291223 -0.0044727450587195598 0 0.025510299808585827 -0.0045602113539594848 0 0.025740590170201864 -0.0042301422012740904 0 0.025915520638291223 -0.0044727450587195598 0 0.025510299808585827 -0.0045602113539594848 0 0.025761980729322093 -0.0047185177982973277 0 0.025510299808585827 -0.0045602113539594848 0 0.025170529077313483 -0.0042749616160405188 0 0.025042324130563811 -0.0046658885941711029 0 0.022980958764963359 -0.004321531581064489 0 0.023331262411735602 -0.0055214100527362416 0 0.021766936422666812 -0.0035918402448502766 0 0.021804515060658881 -0.0035295696365900122 0 0.021701943060231262 -0.0035427019670632703 0 0.021756615953331216 -0.003988686107201888 0 0.022980958764963359 -0.004321531581064489 0 0.025510299808585827 -0.0045602113539594848 0 0.025170529077313483 -0.0042749616160405188 0 0.025740590170201864 -0.0042301422012740904 0 0.022980958764963359 -0.004321531581064489 0 0.023844699779451323 -0.0038286365143932717 0 0.027013249262123059 -0.0041400646028567165 0 0.024263205255139451 -0.0031227710884924602 0 0.026535193750814288 -0.0043141766023182667 0 0.026556344701606654 -0.0042705273562342614 0 0.026544827890248687 -0.0042383308623086934 0 0.024235788031146767 -0.0038873965739616135 0 0.023368961957035379 -0.0038994879003616408 0 0.026535193750814288 -0.0043141766023182667 0 0.026454033278692134 -0.0042226655921151178 0 0.026544827890248687 -0.0042383308623086934 0 0.023159727615842091 -0.0020706975929103465 0 0.022917162615885674 -0.002183801619494568 0 0.023753632952423276 -0.0031797619068996497 0 0.024263205255139451 -0.0031227710884924602 0 0.023368961957035379 -0.0038994879003616408 0 0.020897608004849699 -0.0040505577572107409 0 0.020477143344208762 -0.0042445753947726933 0 0.020018015749770541 -0.0033053886590855867 0 0.019848988721454526 -0.0026696941635085416 0 0.024263205255139451 -0.0031227710884924602 0 0.027203975917261473 -0.0040558725220462217 0 0.027128274837054531 -0.0043975484340945626 0 0.027462191362736182 -0.0045765767594228065 0 0.022917162615885674 -0.002183801619494568 0 0.023753632952423276 -0.0031797619068996497 0 0.02353902747070517 -0.003458689877250746 0 0.024263205255139451 -0.0031227710884924602 0 0.025538350088927058 -0.0041160143118295703 0 0.027128274837054531 -0.0043975484340945626 0 0.027462191362736182 -0.0045765767594228065 0 0.02693246083031017 -0.0047246893748719033 0 0.026866251769977225 -0.0042264365416382508 0 0.027203975917261473 -0.0040558725220462217 0 0.027128274837054531 -0.0043975484340945626 0 0.026866251769977225 -0.0042264365416382508 0 0.027128274837054531 -0.0043975484340945626 0 0.02693246083031017 -0.0047246893748719033 0 0.026866251769977225 -0.0042264365416382508 0 0.026495192634841472 -0.0044120185754352665 0 0.02693246083031017 -0.0047246893748719033 0 0.027013249262123059 -0.0041400646028567165 0 0.026404928232790396 -0.0044371389076205883 0 0.026495192634841472 -0.0044120185754352665 0 0.026245552576395853 -0.0044227684685565769 0 0.026165833507731398 -0.0046907329604087044 0 0.026133738376697521 -0.0042305117885171164 0 0.026245552576395853 -0.0044227684685565769 0 0.026454033278692134 -0.0042226655921151178 0 0.026495192634841472 -0.0044120185754352665 0 0.026245552576395853 -0.0044227684685565769 0 0.026454033278692134 -0.0042226655921151178 0 0.023837067496960934 -0.003910628941783882 0 0.024235788031146767 -0.0038873965739616135 0 0.026535193750814288 -0.0043141766023182667 0 0.026495192634841472 -0.0044120185754352665 0 0.026454033278692134 -0.0042226655921151178 0 0.021680476270533447 -0.0035711099817658403 0 0.02167213293207779 -0.0035641172138998092 0 0.021662494103983673 -0.0035667371367562512 0 0.021670632766474972 -0.0035700771166352007 0 0.021680476270533447 -0.0035711099817658403 0 0.021662494103983673 -0.0035667371367562512 0 0.021652654325017225 -0.0035818098781872565 0 0.021670632766474972 -0.0035700771166352007 0 0.021662494103983673 -0.0035667371367562512 0 0.021652654325017225 -0.0035818098781872565 0 0.021662494103983673 -0.0035667371367562512 0 0.021654118525780707 -0.0035579961977392134 0 0.021662494103983673 -0.0035667371367562512 0 0.0216623762668872 -0.0035575829591988498 0 0.021654118525780707 -0.0035579961977392134 0 0.02167213293207779 -0.0035641172138998092 0 0.021662494103983673 -0.0035667371367562512 0 0.0216623762668872 -0.0035575829591988498 0 0.0216623762668872 -0.0035575829591988498 0 0.021668541968673433 -0.0035544681619953111 0 0.02165264834918753 -0.0035511719990687449 0 0.017405057658457325 -0.0024811000186572025 0 0.017378116225708787 -0.0025180988486807701 0 0.017284528396512237 -0.002330527496798815 0 0.018609670895957282 -0.0022646048262129539 0 0.019559333090956737 -0.0031208942145621145 0 0.016378887983591356 -0.0019501022591046553 0 0.015163843088288083 -0.00176897311366989 0 0.019454226181907848 -0.0013189578662759611 0 0.019213842376244312 -0.0016247476638125901 0 0.020180467140835885 -0.0026857159434923446 0 0.016378887983591356 -0.0019501022591046553 0 0.018609670895957282 -0.0022646048262129539 0 0.02167213293207779 -0.0035641172138998092 0 0.0216623762668872 -0.0035575829591988498 0 0.021668541968673433 -0.0035544681619953111 0 0.021680476270533447 -0.0035711099817658403 0 0.02167213293207779 -0.0035641172138998092 0 0.021692176088132144 -0.0035701480138379546 0 0.02167213293207779 -0.0035641172138998092 0 0.021668541968673433 -0.0035544681619953111 0 0.021692176088132144 -0.0035701480138379546 0 0.018609670895957282 -0.0022646048262129539 0 0.023368961957035379 -0.0038994879003616408 0 0.019213842376244312 -0.0016247476638125901 0 0.020018015749770541 -0.0033053886590855867 0 0.020180467140835885 -0.0026857159434923446 0 0.016378887983591356 -0.0019501022591046553 0 0.017807250531116408 -0.0022526838878749616 0 0.01551564119609628 -0.0019990254887833378 0 0.015518512216357932 -0.0019285787082024392 0 0.015453954896939407 -0.0019108288910557921 0 0.019848988721454526 -0.0026696941635085416 0 0.017807250531116408 -0.0022526838878749616 0 0.020897608004849699 -0.0040505577572107409 0 0.020018015749770541 -0.0033053886590855867 0 0.020180467140835885 -0.0026857159434923446 0 0.015518512216357932 -0.0019285787082024392 0 0.015453954896939407 -0.0019108288910557921 0 0.015518911133023608 -0.0018469496009975021 0 0.012831303445078823 -0.0015375720291094842 0 0.012939854503771208 -0.001375531069841184 0 0.015394399502145797 -0.0018160095563443425 0 0.015453954896939407 -0.0019108288910557921 0 0.015518911133023608 -0.0018469496009975021 0 0.015394399502145797 -0.0018160095563443425 0 0.015441688005009587 -0.0017344885497767872 0 0.015518911133023608 -0.0018469496009975021 0 0.016378887983591356 -0.0019501022591046553 0 0.012831303445078823 -0.0015375720291094842 0 0.012109182346604234 -0.0013239280252989169 0 0.011900992004186527 -0.0022441088056805989 0 0.011101513462766315 -0.0025198605049847073 0 0.012831303445078823 -0.0015375720291094842 0 0.010625717998566672 -0.0018835110041876531 0 0.012188964395349187 -0.0014617175511933993 0 0.012109182346604234 -0.0013239280252989169 0 0.011900992004186527 -0.0022441088056805989 0 0.012188964395349187 -0.0014617175511933993 0 0.012632156866969843 -0.0020527251740021235 0 0.011900992004186527 -0.0022441088056805989 0 0.012713246194241428 -0.0006186532130013062 0 0.012188964395349187 -0.0014617175511933993 0 0.01211383965177168 -0.0013274334512840026 0 0.012748906394037429 -0.0014649507624198061 0 0.012831303445078823 -0.0015375720291094842 0 0.012713246194241428 -0.0006186532130013062 0 0.012188964395349187 -0.0014617175511933993 0 0.013159474843610075 -0.0015206819132556287 0 0.012188964395349187 -0.0014617175511933993 0 0.013159474843610075 -0.0015206819132556287 0 0.012632156866969843 -0.0020527251740021235 0 0.013159474843610075 -0.0015206819132556287 0 0.012632156866969843 -0.0020527251740021235 0 0.013623177132942133 -0.0024377053201626296 0 0.017405057658457325 -0.0024811000186572025 0 0.017312080905795363 -0.0023045066157806305 0 0.017284528396512237 -0.002330527496798815 0 0.015163843088288083 -0.00176897311366989 0 0.014598728135597802 -0.0026920239202041889 0 0.0095782678985134716 -0.0025046131656308438 0 0.014598728135597802 -0.0026920239202041889 0 0.012632156866969843 -0.0020527251740021235 0 0.012449434366703942 -0.0028700605384714009 0 0.013623177132942133 -0.0024377053201626296 0 0.012449434366703942 -0.0028700605384714009 0 0.011900992004186527 -0.0022441088056805989 0 0.011277370891744435 -0.0032920269851265584 0 0.012632156866969843 -0.0020527251740021235 0 0.012449434366703942 -0.0028700605384714009 0 0.011900992004186527 -0.0022441088056805989 0 0.021651580430460192 -0.0035617485459594179 0 0.021652654325017225 -0.0035818098781872565 0 0.021654118525780707 -0.0035579961977392134 0 0.021651580430460192 -0.0035617485459594179 0 0.021654118525780707 -0.0035579961977392134 0 0.021641854906986644 -0.003548025017389145 0 0.02165264834918753 -0.0035511719990687449 0 0.021654118525780707 -0.0035579961977392134 0 0.021641854906986644 -0.003548025017389145 0 0.0216623762668872 -0.0035575829591988498 0 0.02165264834918753 -0.0035511719990687449 0 0.021654118525780707 -0.0035579961977392134 0 0.017312080905795363 -0.0023045066157806305 0 0.017284528396512237 -0.002330527496798815 0 0.017177150820935502 -0.0021095902827638676 0 0.019559333090956737 -0.0031208942145621145 0 0.019484300343624878 -0.0027093994118258464 0 0.017312080905795363 -0.0023045066157806305 0 0.017177150820935502 -0.0021095902827638676 0 0.017204900019829376 -0.0020979463097429048 0 0.019484300343624878 -0.0027093994118258464 0 0.014598728135597802 -0.0026920239202041889 0 0.019484300343624878 -0.0027093994118258464 0 0.02049910033848449 -0.0036247061102857659 0 0.021378301889131535 -0.0034442964717281868 0 0.021377015249243445 -0.0034448905798169956 0 0.021398690022104348 -0.0034347307017689394 0 0.02146797615411258 -0.0034836519968798876 0 0.021393755365753522 -0.0034292491452082925 0 0.021398690022104348 -0.0034347307017689394 0 0.021989658471650894 -0.0035762744073260804 0 0.019484300343624878 -0.0027093994118258464 0 0.02146797615411258 -0.0034836519968798876 0 0.021398690022104348 -0.0034347307017689394 0 0.021434203267067398 -0.0034478624597034119 0 0.021398690022104348 -0.0034347307017689394 0 0.021434203267067398 -0.0034478624597034119 0 0.021437669876777917 -0.0033985420413179266 0 0.021414413837706498 -0.0033874045495754465 0 0.021434203267067398 -0.0034478624597034119 0 0.021437669876777917 -0.0033985420413179266 0 0.0079261468044541546 -0.0019060105792795508 0 0.0078173803419225377 -0.0017346631778396202 0 0.0079054573833699359 -0.0017732561398856855 0 0.021377015249243445 -0.0034448905798169956 0 0.021398690022104348 -0.0034347307017689394 0 0.021437669876777917 -0.0033985420413179266 0 0.014598728135597802 -0.0026920239202041889 0 0.014650479365171436 -0.0025674210276086114 0 0.007794815530405062 -0.0016546214576747694 0 0.0078173803419225377 -0.0017346631778396202 0 0.0079054573833699359 -0.0017732561398856855 0 0.0078560227692239717 -0.0015854631616717637 0 0.007794815530405062 -0.0016546214576747694 0 0.0078173803419225377 -0.0017346631778396202 0 0.01455440317093119 -0.0023683917243423292 0 0.014650479365171436 -0.0025674210276086114 0 0.021410114910090948 -0.0031944483380247956 0 0.021414413837706498 -0.0033874045495754465 0 0.021437669876777917 -0.0033985420413179266 0 0.0095782678985134716 -0.0025046131656308438 0 0.0097354441749743625 -0.0025830785801615012 0 0.0079895704910871879 -0.0018686453327803648 0 0.007999891757264517 -0.0017600732804338806 0 0.0080926699743594909 -0.0018452730123969694 0 0.0079895704910871879 -0.0018686453327803648 0 0.0079054573833699359 -0.0017732561398856855 0 0.007999891757264517 -0.0017600732804338806 0 0.0079895704910871879 -0.0018686453327803648 0 0.0079261468044541546 -0.0019060105792795508 0 0.0079054573833699359 -0.0017732561398856855 0 0.0079054573833699359 -0.0017732561398856855 0 0.0079128683992632856 -0.0016850442485736358 0 0.007999891757264517 -0.0017600732804338806 0 0.007794815530405062 -0.0016546214576747694 0 0.0079054573833699359 -0.0017732561398856855 0 0.0079128683992632856 -0.0016850442485736358 0 0.0080147563420628204 -0.0016595278011430552 0 0.007999891757264517 -0.0017600732804338806 0 0.0081183210603709838 -0.0016970190413213117 0 0.0080147563420628204 -0.0016595278011430552 0 0.0079128683992632856 -0.0016850442485736358 0 0.007999891757264517 -0.0017600732804338806 0 0.0081183210603709838 -0.0016970190413213117 0 0.0080926699743594909 -0.0018452730123969694 0 0.0081895863323508521 -0.0017634345542441895 0 0.007999891757264517 -0.0017600732804338806 0 0.0081183210603709838 -0.0016970190413213117 0 0.0080926699743594909 -0.0018452730123969694 0 0.0094218169044227428 -0.0021530804728154907 0 0.010625717998566672 -0.0018835110041876531 0 0.0080926699743594909 -0.0018452730123969694 0 0.0082330695803839518 -0.0018123580179774527 0 0.0081895863323508521 -0.0017634345542441895 0 0.0097354441749743625 -0.0025830785801615012 0 0.0094218169044227428 -0.0021530804728154907 0 0.011277370891744435 -0.0032920269851265584 0 0.010112894165815957 -0.0037066591528328125 0 0.011101513462766315 -0.0025198605049847073 0 0.010287167846551393 -0.0012491018043535313 0 0.010211066763346708 -0.001197984791360405 0 0.010272183632721444 -0.0011505935285029962 0 0.0081183210603709838 -0.0016970190413213117 0 0.0081895863323508521 -0.0017634345542441895 0 0.008240618622953947 -0.0016759511410327698 0 0.0094218169044227428 -0.0021530804728154907 0 0.0087368243446567725 -0.0021531485359841838 0 0.0082330695803839518 -0.0018123580179774527 0 0.0082758320464197711 -0.0017743892309066212 0 0.0081895863323508521 -0.0017634345542441895 0 0.0082758320464197711 -0.0017743892309066212 0 0.0081895863323508521 -0.0017634345542441895 0 0.008240618622953947 -0.0016759511410327698 0 0.0082758320464197711 -0.0017743892309066212 0 0.008240618622953947 -0.0016759511410327698 0 0.0083558556891153712 -0.0016825017212230163 0 0.0082758320464197711 -0.0017743892309066212 0 0.0083558556891153712 -0.0016825017212230163 0 0.0084615492010463814 -0.0017798044423361294 0 0.0094218169044227428 -0.0021530804728154907 0 0.0093090919844030402 -0.0014562845681107995 0 0.0082305291189549833 -0.0018230108303503836 0 0.0082758320464197711 -0.0017743892309066212 0 0.0084615492010463814 -0.0017798044423361294 0 0.0099933504271656932 -0.0013544334648349014 0 0.010176631267803608 -0.0012860678068701877 0 0.010134347798382314 -0.0011921188065055416 0 0.0094015944632604743 -0.0015380786103104613 0 0.0093090919844030402 -0.0014562845681107995 0 0.010176631267803608 -0.0012860678068701877 0 0.010134347798382314 -0.0011921188065055416 0 0.010211066763346708 -0.001197984791360405 0 0.010134347798382314 -0.0011921188065055416 0 0.010211066763346708 -0.001197984791360405 0 0.010173109668448472 -0.0011195989058675187 0 0.010287167846551393 -0.0012491018043535313 0 0.010176631267803608 -0.0012860678068701877 0 0.010211066763346708 -0.001197984791360405 0 0.010211066763346708 -0.001197984791360405 0 0.010173109668448472 -0.0011195989058675187 0 0.010272183632721444 -0.0011505935285029962 0 0.010134347798382314 -0.0011921188065055416 0 0.010173109668448472 -0.0011195989058675187 0 0.010043768825771106 -0.0011183853312075167 0 0.010173109668448472 -0.0011195989058675187 0 0.010159533153153738 -0.0010584678265455635 0 0.010124182779891112 -0.0010369816596940775 0 0.010173109668448472 -0.0011195989058675187 0 0.010159533153153738 -0.0010584678265455635 0 0.010237879811364351 -0.0010713662089401482 0 0.010173109668448472 -0.0011195989058675187 0 0.010237879811364351 -0.0010713662089401482 0 0.010272183632721444 -0.0011505935285029962 0 0.010237879811364351 -0.0010713662089401482 0 0.010355429741945484 -0.0010890624770273729 0 0.010272183632721444 -0.0011505935285029962 0 0.010485296486925718 -0.0010921957094134078 0 0.010355429741945484 -0.0010890624770273729 0 0.010376341056685097 -0.0011763107383359027 0 0.010355429741945484 -0.0010890624770273729 0 0.010376341056685097 -0.0011763107383359027 0 0.010272183632721444 -0.0011505935285029962 0 0.011900992004186527 -0.0022441088056805989 0 0.011277370891744435 -0.0032920269851265584 0 0.011101513462766315 -0.0025198605049847073 0 0.010287167846551393 -0.0012491018043535313 0 0.010376341056685097 -0.0011763107383359027 0 0.010272183632721444 -0.0011505935285029962 0 0.0096694024848675807 -0.0013206584120798509 0 0.0098979242908522613 -0.0011528447799085872 0 0.0097733327347173885 -0.001232383759580779 0 0.0094710981484338735 -0.0014588777942865436 0 0.0096694024848675807 -0.0013206584120798509 0 0.0097733327347173885 -0.001232383759580779 0 0.0098979242908522613 -0.0011528447799085872 0 0.0097733327347173885 -0.001232383759580779 0 0.0099570502399583694 -0.0011031762723564187 0 0.0099933504271656932 -0.0013544334648349014 0 0.010134347798382314 -0.0011921188065055416 0 0.010043768825771106 -0.0011183853312075167 0 0.0099933504271656932 -0.0013544334648349014 0 0.0097733327347173885 -0.001232383759580779 0 0.010043768825771106 -0.0011183853312075167 0 0.0097733327347173885 -0.001232383759580779 0 0.010043768825771106 -0.0011183853312075167 0 0.0099570502399583694 -0.0011031762723564187 0 0.0099933504271656932 -0.0013544334648349014 0 0.0094710981484338735 -0.0014588777942865436 0 0.0097733327347173885 -0.001232383759580779 0 0.010173109668448472 -0.0011195989058675187 0 0.010043768825771106 -0.0011183853312075167 0 0.010124182779891112 -0.0010369816596940775 0 0.010124182779891112 -0.0010369816596940775 0 0.010078648697836555 -0.0010257257469368699 0 0.010157177195020161 -0.00098979412753275714 0 0.010043768825771106 -0.0011183853312075167 0 0.0099570502399583694 -0.0011031762723564187 0 0.010078648697836555 -0.0010257257469368699 0 0.010043768825771106 -0.0011183853312075167 0 0.010124182779891112 -0.0010369816596940775 0 0.010078648697836555 -0.0010257257469368699 0 0.0099570502399583694 -0.0011031762723564187 0 0.010078648697836555 -0.0010257257469368699 0 0.010083957006244955 -0.0010051212777819095 0 0.010078648697836555 -0.0010257257469368699 0 0.010083957006244955 -0.0010051212777819095 0 0.0102275345480232 -0.00093958109630842466 0 0.010083957006244955 -0.0010051212777819095 0 0.0102275345480232 -0.00093958109630842466 0 0.010242041703814918 -0.00088516694637735555 0 0.0098979242908522613 -0.0011528447799085872 0 0.0099570502399583694 -0.0011031762723564187 0 0.010083957006244955 -0.0010051212777819095 0 0.0102275345480232 -0.00093958109630842466 0 0.010348444946505549 -0.00099667269621563754 0 0.010373571559413463 -0.00087513908225089407 0 0.0102275345480232 -0.00093958109630842466 0 0.010242041703814918 -0.00088516694637735555 0 0.010373571559413463 -0.00087513908225089407 0 0.010078648697836555 -0.0010257257469368699 0 0.0102275345480232 -0.00093958109630842466 0 0.010157177195020161 -0.00098979412753275714 0 0.0102275345480232 -0.00093958109630842466 0 0.010235892138941853 -0.0010387661588747413 0 0.010157177195020161 -0.00098979412753275714 0 0.0102275345480232 -0.00093958109630842466 0 0.010235892138941853 -0.0010387661588747413 0 0.010348444946505549 -0.00099667269621563754 0 0.010235892138941853 -0.0010387661588747413 0 0.010164811366974605 -0.0010226145049333968 0 0.010173918391902091 -0.0010741958693320423 0 0.010235892138941853 -0.0010387661588747413 0 0.010157177195020161 -0.00098979412753275714 0 0.010164811366974605 -0.0010226145049333968 0 0.010124182779891112 -0.0010369816596940775 0 0.010157177195020161 -0.00098979412753275714 0 0.010164811366974605 -0.0010226145049333968 0 0.010124182779891112 -0.0010369816596940775 0 0.010164811366974605 -0.0010226145049333968 0 0.01015234325924021 -0.001040531331861688 0 0.010164811366974605 -0.0010226145049333968 0 0.010173918391902091 -0.0010741958693320423 0 0.01015234325924021 -0.001040531331861688 0 0.010173918391902091 -0.0010741958693320423 0 0.01015234325924021 -0.001040531331861688 0 0.010124638841451537 -0.0011339693401940492 0 0.010173918391902091 -0.0010741958693320423 0 0.010177532394398803 -0.0011704317509641368 0 0.010124638841451537 -0.0011339693401940492 0 0.010235892138941853 -0.0010387661588747413 0 0.010173918391902091 -0.0010741958693320423 0 0.010177532394398803 -0.0011704317509641368 0 0.010177532394398803 -0.0011704317509641368 0 0.010274923159966845 -0.001173593600208031 0 0.010167051564424994 -0.0013271391982653995 0 0.010177532394398803 -0.0011704317509641368 0 0.01008827939108462 -0.0012938369008553023 0 0.010167051564424994 -0.0013271391982653995 0 0.010235892138941853 -0.0010387661588747413 0 0.010177532394398803 -0.0011704317509641368 0 0.010274923159966845 -0.001173593600208031 0 0.010235892138941853 -0.0010387661588747413 0 0.010274923159966845 -0.001173593600208031 0 0.010348444946505549 -0.00099667269621563754 0 0.010274923159966845 -0.001173593600208031 0 0.010447304271094179 -0.0011098510020352151 0 0.010348444946505549 -0.00099667269621563754 0 0.010274923159966845 -0.001173593600208031 0 0.010447304271094179 -0.0011098510020352151 0 0.010391641497667069 -0.0012828070415843236 0 0.010348444946505549 -0.00099667269621563754 0 0.010373571559413463 -0.00087513908225089407 0 0.010531158758648285 -0.00096610917829056443 0 0.010447304271094179 -0.0011098510020352151 0 0.010348444946505549 -0.00099667269621563754 0 0.010531158758648285 -0.00096610917829056443 0 0.010266348483158017 -0.00096544802229433905 0 0.01039291034311276 -0.00091709590121908931 0 0.010338817461672499 -0.0010173376414919207 0 0.009651483644203188 -0.0011933145382740185 0 0.013430720830820345 -0.001530818552742701 0 0.015518512216357932 -0.0019285787082024392 0 0.015582330344147004 -0.0019542889998947306 0 0.015518911133023608 -0.0018469496009975021 0 0.013430720830820345 -0.001530818552742701 0 0.012939854503771208 -0.001375531069841184 0 0.01039291034311276 -0.00091709590121908931 0 0.010436904705410921 -0.0010078444839305171 0 0.010338817461672499 -0.0010173376414919207 0 0.010355429741945484 -0.0010890624770273729 0 0.010436904705410921 -0.0010078444839305171 0 0.010338817461672499 -0.0010173376414919207 0 0.010485296486925718 -0.0010921957094134078 0 0.010355429741945484 -0.0010890624770273729 0 0.010436904705410921 -0.0010078444839305171 0 0.010237879811364351 -0.0010713662089401482 0 0.010355429741945484 -0.0010890624770273729 0 0.010338817461672499 -0.0010173376414919207 0 0.010237879811364351 -0.0010713662089401482 0 0.010266348483158017 -0.00096544802229433905 0 0.010338817461672499 -0.0010173376414919207 0 0.010159533153153738 -0.0010584678265455635 0 0.010237879811364351 -0.0010713662089401482 0 0.010148065810574692 -0.0010405986122115633 0 0.010237879811364351 -0.0010713662089401482 0 0.010266348483158017 -0.00096544802229433905 0 0.010148065810574692 -0.0010405986122115633 0 0.010159533153153738 -0.0010584678265455635 0 0.010124182779891112 -0.0010369816596940775 0 0.01015234325924021 -0.001040531331861688 0 0.010159533153153738 -0.0010584678265455635 0 0.01015234325924021 -0.001040531331861688 0 0.010148065810574692 -0.0010405986122115633 0 0.01015234325924021 -0.001040531331861688 0 0.010148065810574692 -0.0010405986122115633 0 0.010124638841451537 -0.0011339693401940492 0 0.010081399256354791 -0.0011380726431230303 0 0.010102513999627548 -0.001129390163468473 0 0.010072359718862214 -0.0011758449162665597 0 0.009651483644203188 -0.0011933145382740185 0 0.010344167095541068 -0.0009672061292292089 0 0.010148065810574692 -0.0010405986122115633 0 0.010102513999627548 -0.001129390163468473 0 0.010124638841451537 -0.0011339693401940492 0 0.010081399256354791 -0.0011380726431230303 0 0.010148065810574692 -0.0010405986122115633 0 0.010102513999627548 -0.001129390163468473 0 0.010072359718862214 -0.0011758449162665597 0 0.010124638841451537 -0.0011339693401940492 0 0.01008827939108462 -0.0012938369008553023 0 0.010102513999627548 -0.001129390163468473 0 0.010072359718862214 -0.0011758449162665597 0 0.010124638841451537 -0.0011339693401940492 0 0.010177532394398803 -0.0011704317509641368 0 0.010124638841451537 -0.0011339693401940492 0 0.01008827939108462 -0.0012938369008553023 0 0.010072359718862214 -0.0011758449162665597 0 0.01008827939108462 -0.0012938369008553023 0 0.010003163171355064 -0.0012968397901145657 0 0.0098348925644282676 -0.0019800012326717134 0 0.017479080015554822 -0.0017723825796571906 0 0.010138277553817583 -0.0011777467844031868 0 0.010072359718862214 -0.0011758449162665597 0 0.010141160154560038 -0.0011440977244847369 0 0.013430720830820345 -0.001530818552742701 0 0.017479080015554822 -0.0017723825796571906 0 0.010081399256354791 -0.0011380726431230303 0 0.010138277553817583 -0.0011777467844031868 0 0.010072359718862214 -0.0011758449162665597 0 0.018931446869027157 -0.0014642367487753415 0 0.019537910617140736 -0.0024284400379335457 0 0.018916454923883018 -0.0020212429522797302 0 0.019848988721454526 -0.0026696941635085416 0 0.013430720830820345 -0.001530818552742701 0 0.01551564119609628 -0.0019990254887833378 0 0.015518512216357932 -0.0019285787082024392 0 0.015582330344147004 -0.0019542889998947306 0 0.018398722786126819 -0.00172180717171508 0 0.018931446869027157 -0.0014642367487753415 0 0.018916454923883018 -0.0020212429522797302 0 0.019537910617140736 -0.0024284400379335457 0 0.018916454923883018 -0.0020212429522797302 0 0.018803963910485826 -0.0024726938794311887 0 0.019848988721454526 -0.0026696941635085416 0 0.021036327468754296 -0.0026140744955790089 0 0.018398722786126819 -0.00172180717171508 0 0.018916454923883018 -0.0020212429522797302 0 0.018803963910485826 -0.0024726938794311887 0 0.021036327468754296 -0.0026140744955790089 0 0.024734374812712123 -0.0036513600570454012 0 0.027462191362736182 -0.0045765767594228065 0 0.027690968059523847 -0.0050820831906374046 0 0.027348846748414781 -0.0050728802844108344 0 0.023753632952423276 -0.0031797619068996497 0 0.02353902747070517 -0.003458689877250746 0 0.024352113443726491 -0.004287166707356108 0 0.02353902747070517 -0.003458689877250746 0 0.02416568790357158 -0.0047301099933572538 0 0.024352113443726491 -0.004287166707356108 0 0.019537910617140736 -0.0024284400379335457 0 0.018803963910485826 -0.0024726938794311887 0 0.019232704570868682 -0.0032355589744360734 0 0.025538350088927058 -0.0041160143118295703 0 0.026562355781165461 -0.0044139091435749338 0 0.027690968059523847 -0.0050820831906374046 0 0.02749875529383513 -0.0054924720654671603 0 0.027348846748414781 -0.0050728802844108344 0 0.026562355781165461 -0.0044139091435749338 0 0.024734374812712123 -0.0036513600570454012 0 0.027982850678290837 -0.0041605416821473397 0 0.028006002653150817 -0.0037855796410436755 0 0.028192534658752797 -0.0040944800832048277 0 0.027698572682010456 -0.003998568221329068 0 0.027982850678290837 -0.0041605416821473397 0 0.027773293831107621 -0.003806348022611733 0 0.02810296334568519 -0.0045341705532459505 0 0.024734374812712123 -0.0036513600570454012 0 0.027982850678290837 -0.0041605416821473397 0 0.028006002653150817 -0.0037855796410436755 0 0.027568538615114265 -0.0036558623252268578 0 0.027811381173850371 -0.0028732085339360164 0 0.028006002653150817 -0.0037855796410436755 0 0.028398010144432301 -0.003776942664962063 0 0.017479080015554822 -0.0017723825796571906 0 0.024734374812712123 -0.0036513600570454012 0 0.027811381173850371 -0.0028732085339360164 0 0.028006002653150817 -0.0037855796410436755 0 0.027568538615114265 -0.0036558623252268578 0 0.01008827939108462 -0.0012938369008553023 0 0.010003163171355064 -0.0012968397901145657 0 0.010003679380549954 -0.0015279922754116715 0 0.017479080015554822 -0.0017723825796571906 0 0.019436067641108154 -0.0027866801806716393 0 0.01008827939108462 -0.0012938369008553023 0 0.010101584390634284 -0.001526133834164846 0 0.010003679380549954 -0.0015279922754116715 0 0.01008827939108462 -0.0012938369008553023 0 0.010101584390634284 -0.001526133834164846 0 0.010167051564424994 -0.0013271391982653995 0 0.010101584390634284 -0.001526133834164846 0 0.010003679380549954 -0.0015279922754116715 0 0.010003668720876756 -0.0018821399016725729 0 0.028398010144432301 -0.003776942664962063 0 0.028192534658752797 -0.0040944800832048277 0 0.028388175063997687 -0.0043968602304155849 0 0.019436067641108154 -0.0027866801806716393 0 0.01929431636775214 -0.0031803697764687072 0 0.028006002653150817 -0.0037855796410436755 0 0.028398010144432301 -0.003776942664962063 0 0.028192534658752797 -0.0040944800832048277 0 0.028398010144432301 -0.003776942664962063 0 0.028388175063997687 -0.0043968602304155849 0 0.028709308576740481 -0.0045673871726466557 0 0.028192534658752797 -0.0040944800832048277 0 0.028388175063997687 -0.0043968602304155849 0 0.028184060238400397 -0.0043060140854374162 0 0.028388175063997687 -0.0043968602304155849 0 0.028709308576740481 -0.0045673871726466557 0 0.028463990070951947 -0.00464193905945905 0 0.028388175063997687 -0.0043968602304155849 0 0.028463990070951947 -0.00464193905945905 0 0.028218312676520616 -0.0044611019704348196 0 0.028388175063997687 -0.0043968602304155849 0 0.028184060238400397 -0.0043060140854374162 0 0.028218312676520616 -0.0044611019704348196 0 0.010101584390634284 -0.001526133834164846 0 0.010003668720876756 -0.0018821399016725729 0 0.010151478722803935 -0.0017528321208803105 0 0.028709308576740481 -0.0045673871726466557 0 0.028470901765219221 -0.0048729722070634243 0 0.028931445896258373 -0.0048927811609164344 0 0.01929431636775214 -0.0031803697764687072 0 0.019329644282613981 -0.003622232338498059 0 0.028709308576740481 -0.0045673871726466557 0 0.028463990070951947 -0.00464193905945905 0 0.028931445896258373 -0.0048927811609164344 0 0.028463990070951947 -0.00464193905945905 0 0.028147926548773395 -0.0046347920457635236 0 0.028219342881187486 -0.004973351773132793 0 0.028147926548773395 -0.0046347920457635236 0 0.027921390864611238 -0.0046607175208300692 0 0.028219342881187486 -0.004973351773132793 0 0.028463990070951947 -0.00464193905945905 0 0.028147926548773395 -0.0046347920457635236 0 0.028218312676520616 -0.0044611019704348196 0 0.027859174322466009 -0.0047754669766468293 0 0.028040794326452005 -0.0044282414240754556 0 0.028147926548773395 -0.0046347920457635236 0 0.027921390864611238 -0.0046607175208300692 0 0.028024209406340348 -0.0044224225034936665 0 0.027851009244650896 -0.0046339970489791705 0 0.027697816145992104 -0.0044645406651474505 0 0.027702425433412461 -0.0048389936175587504 0 0.027859174322466009 -0.0047754669766468293 0 0.029316375819675333 -0.0050865934104948815 0 0.027851009244650896 -0.0046339970489791705 0 0.027867566289877882 -0.0044207121888673422 0 0.028024209406340348 -0.0044224225034936665 0 0.027841501997900045 -0.0041174641630218958 0 0.027867566289877882 -0.0044207121888673422 0 0.027697816145992104 -0.0044645406651474505 0 0.027841501997900045 -0.0041174641630218958 0 0.027867566289877882 -0.0044207121888673422 0 0.027977653987437096 -0.0043840070579566964 0 0.027851009244650896 -0.0046339970489791705 0 0.027867566289877882 -0.0044207121888673422 0 0.027697816145992104 -0.0044645406651474505 0 0.026562355781165461 -0.0044139091435749338 0 0.027659186622695068 -0.0049695884612027562 0 0.027982850678290837 -0.0041605416821473397 0 0.028082139242264978 -0.0043601200297546609 0 0.027977653987437096 -0.0043840070579566964 0 0.026562355781165461 -0.0044139091435749338 0 0.028009890783707417 -0.0043885209360140093 0 0.027698572682010456 -0.003998568221329068 0 0.027982850678290837 -0.0041605416821473397 0 0.027977653987437096 -0.0043840070579566964 0 0.027982850678290837 -0.0041605416821473397 0 0.028184060238400397 -0.0043060140854374162 0 0.028082139242264978 -0.0043601200297546609 0 0.027982850678290837 -0.0041605416821473397 0 0.028192534658752797 -0.0040944800832048277 0 0.028184060238400397 -0.0043060140854374162 0 0.028082139242264978 -0.0043601200297546609 0 0.028218312676520616 -0.0044611019704348196 0 0.028024209406340348 -0.0044224225034936665 0 0.028147926548773395 -0.0046347920457635236 0 0.028218312676520616 -0.0044611019704348196 0 0.028024209406340348 -0.0044224225034936665 0 0.028184060238400397 -0.0043060140854374162 0 0.028082139242264978 -0.0043601200297546609 0 0.028218312676520616 -0.0044611019704348196 0 0.027867566289877882 -0.0044207121888673422 0 0.028024209406340348 -0.0044224225034936665 0 0.027977653987437096 -0.0043840070579566964 0 0.028082139242264978 -0.0043601200297546609 0 0.028024209406340348 -0.0044224225034936665 0 0.027977653987437096 -0.0043840070579566964 0 0.010526959215873696 -0.0013673311799598414 0 0.010544881290303707 -0.0017058805445208252 0 0.010764495358788829 -0.0015141168249322378 0 0.010447304271094179 -0.0011098510020352151 0 0.010526959215873696 -0.0013673311799598414 0 0.010391641497667069 -0.0012828070415843236 0 0.010447304271094179 -0.0011098510020352151 0 0.010526959215873696 -0.0013673311799598414 0 0.010690304346703327 -0.0011621780298964883 0 0.010526959215873696 -0.0013673311799598414 0 0.010391641497667069 -0.0012828070415843236 0 0.010398647584131419 -0.0015387388833354575 0 0.010526959215873696 -0.0013673311799598414 0 0.010398647584131419 -0.0015387388833354575 0 0.010544881290303707 -0.0017058805445208252 0 0.010398647584131419 -0.0015387388833354575 0 0.010217685562343161 -0.0015031455293092353 0 0.010325531301515934 -0.0018780019570301583 0 0.010274923159966845 -0.001173593600208031 0 0.010167051564424994 -0.0013271391982653995 0 0.010217685562343161 -0.0015031455293092353 0 0.010391641497667069 -0.0012828070415843236 0 0.010398647584131419 -0.0015387388833354575 0 0.010217685562343161 -0.0015031455293092353 0 0.010274923159966845 -0.001173593600208031 0 0.010391641497667069 -0.0012828070415843236 0 0.010217685562343161 -0.0015031455293092353 0 0.010101584390634284 -0.001526133834164846 0 0.010167051564424994 -0.0013271391982653995 0 0.010217685562343161 -0.0015031455293092353 0 0.010101584390634284 -0.001526133834164846 0 0.010217685562343161 -0.0015031455293092353 0 0.010151478722803935 -0.0017528321208803105 0 0.010003668720876756 -0.0018821399016725729 0 0.010151478722803935 -0.0017528321208803105 0 0.010084839125723416 -0.0023459817808724492 0 0.010151478722803935 -0.0017528321208803105 0 0.010325531301515934 -0.0018780019570301583 0 0.010084839125723416 -0.0023459817808724492 0 0.010325531301515934 -0.0018780019570301583 0 0.010401612096462712 -0.0024063200652237721 0 0.010084839125723416 -0.0023459817808724492 0 0.010217685562343161 -0.0015031455293092353 0 0.010151478722803935 -0.0017528321208803105 0 0.010325531301515934 -0.0018780019570301583 0 0.010325531301515934 -0.0018780019570301583 0 0.010573618042361184 -0.0021010828270141332 0 0.010544881290303707 -0.0017058805445208252 0 0.010398647584131419 -0.0015387388833354575 0 0.010325531301515934 -0.0018780019570301583 0 0.010544881290303707 -0.0017058805445208252 0 0.010325531301515934 -0.0018780019570301583 0 0.010573618042361184 -0.0021010828270141332 0 0.010401612096462712 -0.0024063200652237721 0 0.010573618042361184 -0.0021010828270141332 0 0.010740271970154553 -0.0025039148159814871 0 0.010905113011585178 -0.0020452577753229122 0 0.010573618042361184 -0.0021010828270141332 0 0.010544881290303707 -0.0017058805445208252 0 0.010905113011585178 -0.0020452577753229122 0 0.010544881290303707 -0.0017058805445208252 0 0.010764495358788829 -0.0015141168249322378 0 0.010905113011585178 -0.0020452577753229122 0 0.010740271970154553 -0.0025039148159814871 0 0.010662432333899787 -0.0029872021872427248 0 0.011096036588695762 -0.0030746941265748337 0 0.010573618042361184 -0.0021010828270141332 0 0.010740271970154553 -0.0025039148159814871 0 0.010401612096462712 -0.0024063200652237721 0 0.010268436033619776 -0.0028916253318009384 0 0.010401612096462712 -0.0024063200652237721 0 0.010662432333899787 -0.0029872021872427248 0 0.010740271970154553 -0.0025039148159814871 0 0.010401612096462712 -0.0024063200652237721 0 0.010662432333899787 -0.0029872021872427248 0 0.010268436033619776 -0.0028916253318009384 0 0.010401612096462712 -0.0024063200652237721 0 0.010084839125723416 -0.0023459817808724492 0 0.018641058044177147 -0.0033445916831129144 0 0.019329644282613981 -0.003622232338498059 0 0.027616513247925915 -0.0039534256161262889 0 0.028470901765219221 -0.0048729722070634243 0 0.028828050125780866 -0.0041002184528204635 0 0.027616513247925915 -0.0039534256161262889 0 0.028469922280446508 -0.003279143945656334 0 0.028828050125780866 -0.0041002184528204635 0 0.027616513247925915 -0.0039534256161262889 0 0.028469922280446508 -0.003279143945656334 0 0.027763213018451999 -0.0026300977902168734 0 0.02898062766094698 -0.0026032026188595584 0 0.028296479343108121 -0.0026325636083943597 0 0.028469922280446508 -0.003279143945656334 0 0.027763213018451999 -0.0026300977902168734 0 0.028795776299935797 -0.0026082848832673141 0 0.027907890290704989 -0.0026827065773068924 0 0.028795776299935797 -0.0026082848832673141 0 0.028276147452219038 -0.0019813698313700667 0 0.027907890290704989 -0.0026827065773068924 0 0.026866189880166428 -0.0027460717358582941 0 0.027356654448332567 -0.0017198455443248335 0 0.02898062766094698 -0.0026032026188595584 0 0.020590052931628876 -0.0029494014933834764 0 0.018641058044177147 -0.0033445916831129144 0 0.020590052931628876 -0.0029494014933834764 0 0.027616513247925915 -0.0039534256161262889 0 0.027763213018451999 -0.0026300977902168734 0 0.026728151880158604 -0.0026613804564499157 0 0.010268436033619776 -0.0028916253318009384 0 0.010662432333899787 -0.0029872021872427248 0 0.01054210976767247 -0.0033865809497968533 0 0.010662432333899787 -0.0029872021872427248 0 0.01054210976767247 -0.0033865809497968533 0 0.010906440930911169 -0.0034244208090197306 0 0.020655295796083238 -0.0042083407426437257 0 0.018596703120965972 -0.0043176070925991326 0 0.019639258902736483 -0.0024245076309994448 0 0.020590052931628876 -0.0029494014933834764 0 0.013676144475695306 -0.0039885150689625282 0 0.010662432333899787 -0.0029872021872427248 0 0.010906440930911169 -0.0034244208090197306 0 0.011096036588695762 -0.0030746941265748337 0 0.031008380124608804 -0.0043092500948337933 0 0.029771257949150608 -0.0043624364871044374 0 0.030480292615060241 -0.0036754969663231841 0 0.031008380124608804 -0.0043092500948337933 0 0.030494478406114012 -0.0052720516910552606 0 0.029771257949150608 -0.0043624364871044374 0 0.031008380124608804 -0.0043092500948337933 0 0.031967178360902945 -0.0040733956478533435 0 0.031546924370669326 -0.0047455697618185482 0 0.031008380124608804 -0.0043092500948337933 0 0.031967178360902945 -0.0040733956478533435 0 0.031358827050637521 -0.0035478103840995696 0 0.031546924370669326 -0.0047455697618185482 0 0.031802688041178043 -0.0054417257314547402 0 0.030494478406114012 -0.0052720516910552606 0 0.027921390864611238 -0.0046607175208300692 0 0.027738784465270543 -0.0049147070269753602 0 0.028219342881187486 -0.004973351773132793 0 0.029316375819675333 -0.0050865934104948815 0 0.029450774949541625 -0.0051144417555130071 0 0.031546924370669326 -0.0047455697618185482 0 0.031802688041178043 -0.0054417257314547402 0 0.032409995638177931 -0.0046625097356408872 0 0.031008380124608804 -0.0043092500948337933 0 0.031546924370669326 -0.0047455697618185482 0 0.030494478406114012 -0.0052720516910552606 0 0.029450774949541625 -0.0051144417555130071 0 0.028920631971033776 -0.004934282749047619 0 0.030494478406114012 -0.0052720516910552606 0 0.028931445896258373 -0.0048927811609164344 0 0.029771257949150608 -0.0043624364871044374 0 0.028463990070951947 -0.00464193905945905 0 0.028219342881187486 -0.004973351773132793 0 0.028931445896258373 -0.0048927811609164344 0 0.028470901765219221 -0.0048729722070634243 0 0.028931445896258373 -0.0048927811609164344 0 0.028828050125780866 -0.0041002184528204635 0 0.028828050125780866 -0.0041002184528204635 0 0.029771257949150608 -0.0043624364871044374 0 0.029646309407075428 -0.0036853369485917763 0 0.028931445896258373 -0.0048927811609164344 0 0.028828050125780866 -0.0041002184528204635 0 0.029771257949150608 -0.0043624364871044374 0 0.029771257949150608 -0.0043624364871044374 0 0.029646309407075428 -0.0036853369485917763 0 0.030480292615060241 -0.0036754969663231841 0 0.029646309407075428 -0.0036853369485917763 0 0.030073403846598623 -0.0031679734990977516 0 0.030480292615060241 -0.0036754969663231841 0 0.029646309407075428 -0.0036853369485917763 0 0.030073403846598623 -0.0031679734990977516 0 0.029336611478297039 -0.0030831972957418318 0 0.028469922280446508 -0.003279143945656334 0 0.028828050125780866 -0.0041002184528204635 0 0.029336611478297039 -0.0030831972957418318 0 0.028828050125780866 -0.0041002184528204635 0 0.029646309407075428 -0.0036853369485917763 0 0.029336611478297039 -0.0030831972957418318 0 0.028795776299935797 -0.0026082848832673141 0 0.029939992989803144 -0.0024983233012083467 0 0.028968548601755073 -0.0017952855158377423 0 0.029336611478297039 -0.0030831972957418318 0 0.028795776299935797 -0.0026082848832673141 0 0.029939992989803144 -0.0024983233012083467 0 0.028469922280446508 -0.003279143945656334 0 0.029336611478297039 -0.0030831972957418318 0 0.028795776299935797 -0.0026082848832673141 0 0.030073403846598623 -0.0031679734990977516 0 0.029336611478297039 -0.0030831972957418318 0 0.029939992989803144 -0.0024983233012083467 0 0.030073403846598623 -0.0031679734990977516 0 0.029939992989803144 -0.0024983233012083467 0 0.030951654898200502 -0.0029835245404254787 0 0.029939992989803144 -0.0024983233012083467 0 0.030951654898200502 -0.0029835245404254787 0 0.031068598345055366 -0.0022097940959390325 0 0.030073403846598623 -0.0031679734990977516 0 0.030951654898200502 -0.0029835245404254787 0 0.030480292615060241 -0.0036754969663231841 0 0.030951654898200502 -0.0029835245404254787 0 0.030480292615060241 -0.0036754969663231841 0 0.031358827050637521 -0.0035478103840995696 0 0.031008380124608804 -0.0043092500948337933 0 0.030480292615060241 -0.0036754969663231841 0 0.031358827050637521 -0.0035478103840995696 0 0.031967178360902945 -0.0040733956478533435 0 0.031358827050637521 -0.0035478103840995696 0 0.032110411805071175 -0.0033123064349002448 0 0.030951654898200502 -0.0029835245404254787 0 0.031358827050637521 -0.0035478103840995696 0 0.0316170109094253 -0.0028183606721313339 0 0.031358827050637521 -0.0035478103840995696 0 0.0316170109094253 -0.0028183606721313339 0 0.032110411805071175 -0.0033123064349002448 0 0.030951654898200502 -0.0029835245404254787 0 0.0316170109094253 -0.0028183606721313339 0 0.031068598345055366 -0.0022097940959390325 0 0.0316170109094253 -0.0028183606721313339 0 0.031848373927460615 -0.0022789538701511597 0 0.031068598345055366 -0.0022097940959390325 0 0.0316170109094253 -0.0028183606721313339 0 0.032360142038301676 -0.0025985030688704834 0 0.031848373927460615 -0.0022789538701511597 0 0.032360142038301676 -0.0025985030688704834 0 0.032779059545484338 -0.00299472127874099 0 0.033101161629898526 -0.002324067238573264 0 0.0316170109094253 -0.0028183606721313339 0 0.032360142038301676 -0.0025985030688704834 0 0.032110411805071175 -0.0033123064349002448 0 0.032360142038301676 -0.0025985030688704834 0 0.032779059545484338 -0.00299472127874099 0 0.032110411805071175 -0.0033123064349002448 0 0.031724733239465133 -0.0047894643441012087 0 0.032765215734956915 -0.0026778055407208025 0 0.032779059545484338 -0.00299472127874099 0 0.033502753544754668 -0.0028380881030238159 0 0.033101161629898526 -0.002324067238573264 0 0.032779059545484338 -0.00299472127874099 0 0.033502753544754668 -0.0028380881030238159 0 0.032994255944669329 -0.0039297226922454841 0 0.031724733239465133 -0.0047894643441012087 0 0.029409694180677265 -0.0055286518503076297 0 0.027481484973126722 -0.0071179346685734434 0 0.027422382392911185 -0.0069329143761220754 0 0.027857431565645647 -0.0064618839163721603 0 0.027422382392911185 -0.0069329143761220754 0 0.027649192437923714 -0.0065804314816191407 0 0.027319520911770853 -0.0065846810370486378 0 0.027033065195363835 -0.0073821250840234998 0 0.029409694180677265 -0.0055286518503076297 0 0.032779059545484338 -0.00299472127874099 0 0.032994255944669329 -0.0039297226922454841 0 0.032110411805071175 -0.0033123064349002448 0 0.031967178360902945 -0.0040733956478533435 0 0.032994255944669329 -0.0039297226922454841 0 0.032110411805071175 -0.0033123064349002448 0 0.031967178360902945 -0.0040733956478533435 0 0.032994255944669329 -0.0039297226922454841 0 0.032409995638177931 -0.0046625097356408872 0 0.031967178360902945 -0.0040733956478533435 0 0.031546924370669326 -0.0047455697618185482 0 0.032409995638177931 -0.0046625097356408872 0 0.029379542170658853 -0.0052775896556933131 0 0.029371103463065942 -0.0052894837113849451 0 0.029374888758530456 -0.0052909945222725345 0 0.029409694180677265 -0.0055286518503076297 0 0.03114237134280521 -0.0046679280863246566 0 0.029409694180677265 -0.0055286518503076297 0 0.028545858772168527 -0.0058527053864080242 0 0.027649192437923714 -0.0065804314816191407 0 0.027801516674307809 -0.0062330425103058248 0 0.027353330130601147 -0.0062191130453806169 0 0.027649192437923714 -0.0065804314816191407 0 0.027353330130601147 -0.0062191130453806169 0 0.027319520911770853 -0.0065846810370486378 0 0.027202087130969735 -0.0058012182675987621 0 0.027994748754471794 -0.0053652861745908161 0 0.027801516674307809 -0.0062330425103058248 0 0.027353330130601147 -0.0062191130453806169 0 0.027456450690709778 -0.0058065109488236299 0 0.027801516674307809 -0.0062330425103058248 0 0.027456450690709778 -0.0058065109488236299 0 0.027964611313742463 -0.0058637152548458183 0 0.029316375819675333 -0.0050865934104948815 0 0.027994748754471794 -0.0053652861745908161 0 0.029316375819675333 -0.0050865934104948815 0 0.03114237134280521 -0.0046679280863246566 0 0.029350277428231531 -0.005311766765926363 0 0.029371103463065942 -0.0052894837113849451 0 0.029362257631272988 -0.0053141914841058928 0 0.028545858772168527 -0.0058527053864080242 0 0.027994748754471794 -0.0053652861745908161 0 0.029371103463065942 -0.0052894837113849451 0 0.029374888758530456 -0.0052909945222725345 0 0.029362257631272988 -0.0053141914841058928 0 0.026586671244392773 -0.0061736230605006033 0 0.026886165143470461 -0.00577710285398003 0 0.026569220874282162 -0.0057300080149007906 0 0.026586671244392773 -0.0061736230605006033 0 0.026984945738238755 -0.0062673951020034303 0 0.026886165143470461 -0.00577710285398003 0 0.027353330130601147 -0.0062191130453806169 0 0.026984945738238755 -0.0062673951020034303 0 0.026886165143470461 -0.00577710285398003 0 0.027353330130601147 -0.0062191130453806169 0 0.027456450690709778 -0.0058065109488236299 0 0.026886165143470461 -0.00577710285398003 0 0.027353330130601147 -0.0062191130453806169 0 0.026984945738238755 -0.0062673951020034303 0 0.027319520911770853 -0.0065846810370486378 0 0.026984945738238755 -0.0062673951020034303 0 0.027319520911770853 -0.0065846810370486378 0 0.027009611468929176 -0.0066253633045519891 0 0.030657272115112943 -0.0068363918405843389 0 0.030483741765968606 -0.0070206106773280201 0 0.026586671244392773 -0.0061736230605006033 0 0.026984945738238755 -0.0062673951020034303 0 0.027009611468929176 -0.0066253633045519891 0 0.034723580979169333 -0.0075853352949131229 0 0.034141562118099655 -0.0069049257557759359 0 0.035047525823098412 -0.0068830276740427555 0 0.034141562118099655 -0.0069049257557759359 0 0.034493467116472311 -0.006121313996086313 0 0.035047525823098412 -0.0068830276740427555 0 0.027481484973126722 -0.0071179346685734434 0 0.027422382392911185 -0.0069329143761220754 0 0.027009611468929176 -0.0066253633045519891 0 0.031724733239465133 -0.0047894643441012087 0 0.030483741765968606 -0.0070206106773280201 0 0.027422382392911185 -0.0069329143761220754 0 0.027319520911770853 -0.0065846810370486378 0 0.027009611468929176 -0.0066253633045519891 0 0.033526431983303191 -0.0061905289842141649 0 0.034141562118099655 -0.0069049257557759359 0 0.034493467116472311 -0.006121313996086313 0 0.033526431983303191 -0.0061905289842141649 0 0.034493467116472311 -0.006121313996086313 0 0.033922504390361832 -0.0053368625243736725 0 0.034493467116472311 -0.006121313996086313 0 0.035423991566635962 -0.006115224443773189 0 0.035047525823098412 -0.0068830276740427555 0 0.035423991566635962 -0.006115224443773189 0 0.035693314728583656 -0.0067477230093293695 0 0.036159404406838541 -0.0062740902597309134 0 0.035423991566635962 -0.006115224443773189 0 0.036159404406838541 -0.0062740902597309134 0 0.035940480590412244 -0.005801708598294774 0 0.035423991566635962 -0.006115224443773189 0 0.035693314728583656 -0.0067477230093293695 0 0.035047525823098412 -0.0068830276740427555 0 0.035693314728583656 -0.0067477230093293695 0 0.035047525823098412 -0.0068830276740427555 0 0.035522092890312475 -0.0071973323173398097 0 0.035693314728583656 -0.0067477230093293695 0 0.036132096143070447 -0.0068942989290681775 0 0.035884180588214708 -0.0072156300347481061 0 0.036804371532094426 -0.0058768753932962109 0 0.036159404406838541 -0.0062740902597309134 0 0.036649817221846667 -0.0066863966135499303 0 0.036741435329586541 -0.0060164429600390945 0 0.036791135540685915 -0.006640994469187424 0 0.036785005643964419 -0.0061267542679230803 0 0.036804371532094426 -0.0058768753932962109 0 0.03655488078497416 -0.0069347440912139579 0 0.036785005643964419 -0.0061267542679230803 0 0.036804371532094426 -0.0058768753932962109 0 0.0371539691053204 -0.0060682030652372335 0 0.036804371532094426 -0.0058768753932962109 0 0.036159404406838541 -0.0062740902597309134 0 0.036344818318479293 -0.005773189351565006 0 0.036159404406838541 -0.0062740902597309134 0 0.036344818318479293 -0.005773189351565006 0 0.035940480590412244 -0.005801708598294774 0 0.036159404406838541 -0.0062740902597309134 0 0.036132096143070447 -0.0068942989290681775 0 0.036649817221846667 -0.0066863966135499303 0 0.035693314728583656 -0.0067477230093293695 0 0.036159404406838541 -0.0062740902597309134 0 0.036132096143070447 -0.0068942989290681775 0 0.036132096143070447 -0.0068942989290681775 0 0.036649817221846667 -0.0066863966135499303 0 0.03623599644087884 -0.0072653894750224594 0 0.036785005643964419 -0.0061267542679230803 0 0.03655488078497416 -0.0069347440912139579 0 0.037564138037519471 -0.0070882411942040256 0 0.036649817221846667 -0.0066863966135499303 0 0.036465857763552781 -0.0074966340752934228 0 0.03623599644087884 -0.0072653894750224594 0 0.03655488078497416 -0.0069347440912139579 0 0.036699771756960028 -0.0080564523746293019 0 0.036347774552329633 -0.0080440551083620967 0 0.036791135540685915 -0.006640994469187424 0 0.03429443475902845 -0.0083379155166453806 0 0.03655488078497416 -0.0069347440912139579 0 0.036699771756960028 -0.0080564523746293019 0 0.037564138037519471 -0.0070882411942040256 0 0.030998091966823463 -0.0090254304263678344 0 0.03429443475902845 -0.0083379155166453806 0 0.03623599644087884 -0.0072653894750224594 0 0.036013534727266996 -0.0075857153071812629 0 0.036244742606683651 -0.0076144378648598538 0 0.036465857763552781 -0.0074966340752934228 0 0.03623599644087884 -0.0072653894750224594 0 0.036244742606683651 -0.0076144378648598538 0 0.036132096143070447 -0.0068942989290681775 0 0.03623599644087884 -0.0072653894750224594 0 0.035884180588214708 -0.0072156300347481061 0 0.03623599644087884 -0.0072653894750224594 0 0.035884180588214708 -0.0072156300347481061 0 0.036013534727266996 -0.0075857153071812629 0 0.035884180588214708 -0.0072156300347481061 0 0.036013534727266996 -0.0075857153071812629 0 0.035709291634249234 -0.007595716246053515 0 0.036013534727266996 -0.0075857153071812629 0 0.035856002194208779 -0.0078487465464975315 0 0.035709291634249234 -0.007595716246053515 0 0.036013534727266996 -0.0075857153071812629 0 0.036093415210213996 -0.0078510793029188952 0 0.036244742606683651 -0.0076144378648598538 0 0.036013534727266996 -0.0075857153071812629 0 0.035856002194208779 -0.0078487465464975315 0 0.036093415210213996 -0.0078510793029188952 0 0.035994264646196636 -0.0080662154648667161 0 0.036093415210213996 -0.0078510793029188952 0 0.036079008529625888 -0.0081528881229155151 0 0.035856002194208779 -0.0078487465464975315 0 0.035994264646196636 -0.0080662154648667161 0 0.03579180773501224 -0.0080078351854185152 0 0.035856002194208779 -0.0078487465464975315 0 0.035994264646196636 -0.0080662154648667161 0 0.036093415210213996 -0.0078510793029188952 0 0.036093415210213996 -0.0078510793029188952 0 0.036386595980870587 -0.0078443087858181444 0 0.036079008529625888 -0.0081528881229155151 0 0.030511738599438676 -0.0091350413117341385 0 0.030494672377569948 -0.0089634239427311985 0 0.036093415210213996 -0.0078510793029188952 0 0.036244742606683651 -0.0076144378648598538 0 0.036386595980870587 -0.0078443087858181444 0 0.036465857763552781 -0.0074966340752934228 0 0.036244742606683651 -0.0076144378648598538 0 0.036386595980870587 -0.0078443087858181444 0 0.03429443475902845 -0.0083379155166453806 0 0.030511738599438676 -0.0091350413117341385 0 0.025098155248912304 -0.011067694572681343 0 0.025541769946470835 -0.010571462596316666 0 0.024834686148454709 -0.010575785331404217 0 0.032126177958515807 -0.0084219325335398131 0 0.031721336018962022 -0.00840544354806993 0 0.031644718017545939 -0.008967764928953622 0 0.030998091966823463 -0.0090254304263678344 0 0.030511738599438676 -0.0091350413117341385 0 0.025541769946470835 -0.010571462596316666 0 0.024834686148454709 -0.010575785331404217 0 0.02506818680878704 -0.010139149637100791 0 0.024834686148454709 -0.010575785331404217 0 0.02506818680878704 -0.010139149637100791 0 0.024388099465024342 -0.010092459686056121 0 0.035047525823098412 -0.0068830276740427555 0 0.035522092890312475 -0.0071973323173398097 0 0.03531247898047022 -0.0075783521040941769 0 0.034723580979169333 -0.0075853352949131229 0 0.035047525823098412 -0.0068830276740427555 0 0.03531247898047022 -0.0075783521040941769 0 0.035693314728583656 -0.0067477230093293695 0 0.035884180588214708 -0.0072156300347481061 0 0.035522092890312475 -0.0071973323173398097 0 0.035884180588214708 -0.0072156300347481061 0 0.035522092890312475 -0.0071973323173398097 0 0.035709291634249234 -0.007595716246053515 0 0.035522092890312475 -0.0071973323173398097 0 0.03531247898047022 -0.0075783521040941769 0 0.035709291634249234 -0.007595716246053515 0 0.03531247898047022 -0.0075783521040941769 0 0.035709291634249234 -0.007595716246053515 0 0.035597617302392179 -0.0079341573517877611 0 0.03531247898047022 -0.0075783521040941769 0 0.035597617302392179 -0.0079341573517877611 0 0.035271485839051826 -0.0082488927854229965 0 0.035856002194208779 -0.0078487465464975315 0 0.035709291634249234 -0.007595716246053515 0 0.035597617302392179 -0.0079341573517877611 0 0.035856002194208779 -0.0078487465464975315 0 0.035597617302392179 -0.0079341573517877611 0 0.03579180773501224 -0.0080078351854185152 0 0.035597617302392179 -0.0079341573517877611 0 0.03579180773501224 -0.0080078351854185152 0 0.035717723770811928 -0.008180391470553737 0 0.026586671244392773 -0.0061736230605006033 0 0.026235663718935952 -0.0058140290981285245 0 0.026569220874282162 -0.0057300080149007906 0 0.034723580979169333 -0.0075853352949131229 0 0.03531247898047022 -0.0075783521040941769 0 0.035271485839051826 -0.0082488927854229965 0 0.030657272115112943 -0.0068363918405843389 0 0.030728580417265946 -0.0070718904147570472 0 0.026235663718935952 -0.0058140290981285245 0 0.026397254482390515 -0.0053568679019148002 0 0.026569220874282162 -0.0057300080149007906 0 0.035597617302392179 -0.0079341573517877611 0 0.035271485839051826 -0.0082488927854229965 0 0.035717723770811928 -0.008180391470553737 0 0.035717723770811928 -0.008180391470553737 0 0.035579154968168263 -0.0086346197203502235 0 0.036066700239725261 -0.0081427918494078894 0 0.030728580417265946 -0.0070718904147570472 0 0.030035023222728614 -0.0076713945200503082 0 0.035271485839051826 -0.0082488927854229965 0 0.035717723770811928 -0.008180391470553737 0 0.035579154968168263 -0.0086346197203502235 0 0.026235663718935952 -0.0058140290981285245 0 0.026003122988231608 -0.0056174024203656985 0 0.026397254482390515 -0.0053568679019148002 0 0.026003122988231608 -0.0056174024203656985 0 0.026397254482390515 -0.0053568679019148002 0 0.025831664117099151 -0.0054669239117440998 0 0.030035023222728614 -0.0076713945200503082 0 0.025891016447217176 -0.0064596075769473996 0 0.024815620736210263 -0.0096439301584253945 0 0.025639700252950148 -0.009804272699036139 0 0.024393291735300762 -0.008667819647691 0 0.024815620736210263 -0.0096439301584253945 0 0.02506818680878704 -0.010139149637100791 0 0.024388099465024342 -0.010092459686056121 0 0.024815620736210263 -0.0096439301584253945 0 0.02506818680878704 -0.010139149637100791 0 0.025639700252950148 -0.009804272699036139 0 0.025541769946470835 -0.010571462596316666 0 0.02506818680878704 -0.010139149637100791 0 0.025639700252950148 -0.009804272699036139 0 0.024517496795232581 -0.0094979841096410195 0 0.025072441023161564 -0.008990351160612994 0 0.024598268400319846 -0.0084653347997194206 0 0.026221254984385045 -0.0091948449875957263 0 0.024768670967589286 -0.0087980031734633153 0 0.028958258107993566 -0.0088911215467013978 0 0.028889344436388673 -0.0093117799791341532 0 0.028723209150919162 -0.0091491773408060029 0 0.024517496795232581 -0.0094979841096410195 0 0.024954467623765426 -0.0098954511482485259 0 0.025072441023161564 -0.008990351160612994 0 0.030511738599438676 -0.0091350413117341385 0 0.026221254984385045 -0.0091948449875957263 0 0.026221254984385045 -0.0091948449875957263 0 0.030494672377569948 -0.0089634239427311985 0 0.035994264646196636 -0.0080662154648667161 0 0.035717723770811928 -0.008180391470553737 0 0.036066700239725261 -0.0081427918494078894 0 0.035994264646196636 -0.0080662154648667161 0 0.03579180773501224 -0.0080078351854185152 0 0.035717723770811928 -0.008180391470553737 0 0.03168952521050597 -0.0094431962085737408 0 0.030494672377569948 -0.0089634239427311985 0 0.025917680409383255 -0.0088076151585271319 0 0.024954467623765426 -0.0098954511482485259 0 0.025072441023161564 -0.008990351160612994 0 0.030035023222728614 -0.0076713945200503082 0 0.030494672377569948 -0.0089634239427311985 0 0.025411883697323646 -0.0082434298192154438 0 0.024598268400319846 -0.0084653347997194206 0 0.024122829337708353 -0.0068802028073236257 0 0.025072441023161564 -0.008990351160612994 0 0.025411883697323646 -0.0082434298192154438 0 0.024598268400319846 -0.0084653347997194206 0 0.025917680409383255 -0.0088076151585271319 0 0.025072441023161564 -0.008990351160612994 0 0.025411883697323646 -0.0082434298192154438 0 0.024598268400319846 -0.0084653347997194206 0 0.023508098165662784 -0.0074728930402338358 0 0.022798823549864535 -0.0080062418206365577 0 0.026221254984385045 -0.0091948449875957263 0 0.023401338437926571 -0.0083769640178065433 0 0.024466294408727822 -0.009559000042676449 0 0.024598268400319846 -0.0084653347997194206 0 0.022798823549864535 -0.0080062418206365577 0 0.024598268400319846 -0.0084653347997194206 0 0.023508098165662784 -0.0074728930402338358 0 0.024122829337708353 -0.0068802028073236257 0 0.023508098165662784 -0.0074728930402338358 0 0.024122829337708353 -0.0068802028073236257 0 0.022557825026257396 -0.0065958696545800662 0 0.025831664117099151 -0.0054669239117440998 0 0.025417375401531845 -0.0050687008703541262 0 0.025969064895650006 -0.0049890716636200039 0 0.025891016447217176 -0.0064596075769473996 0 0.024830178041252433 -0.0059912441752924209 0 0.025510299808585827 -0.0045602113539594848 0 0.025417375401531845 -0.0050687008703541262 0 0.025761980729322093 -0.0047185177982973277 0 0.025417375401531845 -0.0050687008703541262 0 0.025761980729322093 -0.0047185177982973277 0 0.025969064895650006 -0.0049890716636200039 0 0.025510299808585827 -0.0045602113539594848 0 0.025417375401531845 -0.0050687008703541262 0 0.025042324130563811 -0.0046658885941711029 0 0.024830178041252433 -0.0059912441752924209 0 0.023331262411735602 -0.0055214100527362416 0 0.024122829337708353 -0.0068802028073236257 0 0.022901002986107203 -0.0055535105593475754 0 0.022557825026257396 -0.0065958696545800662 0 0.026397254482390515 -0.0053568679019148002 0 0.025969064895650006 -0.0049890716636200039 0 0.026471718469305319 -0.0048319403974502271 0 0.026397254482390515 -0.0053568679019148002 0 0.025831664117099151 -0.0054669239117440998 0 0.025969064895650006 -0.0049890716636200039 0 0.025915520638291223 -0.0044727450587195598 0 0.025969064895650006 -0.0049890716636200039 0 0.026471718469305319 -0.0048319403974502271 0 0.025915520638291223 -0.0044727450587195598 0 0.025761980729322093 -0.0047185177982973277 0 0.025969064895650006 -0.0049890716636200039 0 0.02631332197657054 -0.0047629150322669334 0 0.026732445567816836 -0.0051119209122150759 0 0.026495192634841472 -0.0044120185754352665 0 0.026553781507100565 -0.0050416003092730475 0 0.02693246083031017 -0.0047246893748719033 0 0.026495192634841472 -0.0044120185754352665 0 0.026165833507731398 -0.0046907329604087044 0 0.026553781507100565 -0.0050416003092730475 0 0.026397254482390515 -0.0053568679019148002 0 0.026471718469305319 -0.0048319403974502271 0 0.026899782804650017 -0.0051820968289618208 0 0.026553781507100565 -0.0050416003092730475 0 0.02693246083031017 -0.0047246893748719033 0 0.027126415039903526 -0.0054137338198582997 0 0.02693246083031017 -0.0047246893748719033 0 0.027348846748414781 -0.0050728802844108344 0 0.027126415039903526 -0.0054137338198582997 0 0.027462191362736182 -0.0045765767594228065 0 0.02693246083031017 -0.0047246893748719033 0 0.027348846748414781 -0.0050728802844108344 0 0.026732445567816836 -0.0051119209122150759 0 0.027102124953241619 -0.0053940380736714026 0 0.026899782804650017 -0.0051820968289618208 0 0.027126415039903526 -0.0054137338198582997 0 0.026980980998376737 -0.0055570897845188833 0 0.027126415039903526 -0.0054137338198582997 0 0.027209283533709765 -0.0056256648300539516 0 0.026980980998376737 -0.0055570897845188833 0 0.02749875529383513 -0.0054924720654671603 0 0.027348846748414781 -0.0050728802844108344 0 0.027126415039903526 -0.0054137338198582997 0 0.02749875529383513 -0.0054924720654671603 0 0.027126415039903526 -0.0054137338198582997 0 0.027209283533709765 -0.0056256648300539516 0 0.027659186622695068 -0.0049695884612027562 0 0.027994748754471794 -0.0053652861745908161 0 0.02707561227693191 -0.005755126751918682 0 0.027337138594403919 -0.0058008031473406954 0 0.027209283533709765 -0.0056256648300539516 0 0.02749875529383513 -0.0054924720654671603 0 0.027337138594403919 -0.0058008031473406954 0 0.027209283533709765 -0.0056256648300539516 0 0.027697816145992104 -0.0044645406651474505 0 0.027702425433412461 -0.0048389936175587504 0 0.027554854070165089 -0.0048211862658403401 0 0.02707561227693191 -0.005755126751918682 0 0.027209283533709765 -0.0056256648300539516 0 0.026980980998376737 -0.0055570897845188833 0 0.026980980998376737 -0.0055570897845188833 0 0.026886165143470461 -0.00577710285398003 0 0.026737866322183383 -0.0055168336891847462 0 0.02707561227693191 -0.005755126751918682 0 0.026980980998376737 -0.0055570897845188833 0 0.026886165143470461 -0.00577710285398003 0 0.027202087130969735 -0.0058012182675987621 0 0.02694284698195918 -0.0057694635832117773 0 0.026886165143470461 -0.00577710285398003 0 0.026569220874282162 -0.0057300080149007906 0 0.026737866322183383 -0.0055168336891847462 0 0.026397254482390515 -0.0053568679019148002 0 0.026899782804650017 -0.0051820968289618208 0 0.026737866322183383 -0.0055168336891847462 0 0.026397254482390515 -0.0053568679019148002 0 0.026569220874282162 -0.0057300080149007906 0 0.026737866322183383 -0.0055168336891847462 0 0.026899782804650017 -0.0051820968289618208 0 0.026980980998376737 -0.0055570897845188833 0 0.026737866322183383 -0.0055168336891847462 0 0.0088398243843863366 -7.1936180486852145e-05 0 0.0088813667458183896 -4.6907086042896518e-05 0 0.0087873692605036514 -2.592867471411382e-05 0 0.010473884394055121 0.00037605532425436747 0 0.01028389962709215 0.00033267374826929935 0 0.010369688982658255 0.00057845864839739958 0 0.010473884394055121 0.00037605532425436747 0 0.01028389962709215 0.00033267374826929935 0 0.010430456864784899 0.00018500440007482825 0 0.0095787961829578178 0.00010515057290069511 0 0.008389512762244344 -7.6426134107548379e-05 0 0.0094959556652737965 2.7145944348809423e-07 0 0.011073471451863682 -2.8561892376427876e-06 0 0.011594837193729233 -2.6752047350080476e-07 0 0.0088398243843863366 -7.1936180486852145e-05 0 0.0088813667458183896 -4.6907086042896518e-05 0 0.0089000095193639325 -0.00011883601042056483 0 0.0094959556652737965 2.7145944348809423e-07 0 0.0094358360821606459 -5.7941472953961152e-07 0 0.011073471451863682 -2.8561892376427876e-06 0 0.0091649402064245648 0.00010353787738797881 0 0.010361552621318488 0.00024875129249243112 0 0.0095787961829578178 0.00010515057290069511 0 0.010361552621318488 0.00024875129249243112 0 0.010125257014894711 0.00049637878544505417 0 0.010369688982658255 0.00057845864839739958 0 0.010121087418399266 0.00082499434162050316 0 0.01028389962709215 0.00033267374826929935 0 0.010125257014894711 0.00049637878544505417 0 0.010369688982658255 0.00057845864839739958 0 0.011350165702666056 -8.5779175150559675e-06 0 0.011596916657777128 -3.8251783380434926e-08 0 0.013317712429523466 5.525527983450792e-06 0 0.010361552621318488 0.00024875129249243112 0 0.011753508599512057 0.00049013728769520596 0 0.010361552621318488 0.00024875129249243112 0 0.011594359594515165 -3.3853172162675589e-07 0 0.010473884394055121 0.00037605532425436747 0 0.010369688982658255 0.00057845864839739958 0 0.010633752643351153 0.00049105288056663758 0 0.010633752643351153 0.00049105288056663758 0 0.010860538866862274 0.00067527279315911834 0 0.010576016819252295 0.000792050874535428 0 0.010369688982658255 0.00057845864839739958 0 0.010633752643351153 0.00049105288056663758 0 0.010576016819252295 0.000792050874535428 0 0.010633752643351153 0.00049105288056663758 0 0.010747850883675643 0.00033864136318503417 0 0.010860538866862274 0.00067527279315911834 0 0.010633752643351153 0.00049105288056663758 0 0.010747850883675643 0.00033864136318503417 0 0.010628836967483931 0.0002995839980282711 0 0.010620355916758941 0.00026960616788233009 0 0.010744965642652472 0.00033551676019533149 0 0.010747850883675643 0.00033864136318503417 0 0.010276910402931085 6.24793029835569e-05 0 0.010369187324686713 -6.9849098197222043e-05 0 0.010747850883675643 0.00033864136318503417 0 0.010369187324686713 -6.9849098197222043e-05 0 0.010731033141155026 6.1839892165601991e-05 0 0.010473884394055121 0.00037605532425436747 0 0.010633752643351153 0.00049105288056663758 0 0.010628836967483931 0.0002995839980282711 0 0.010473884394055121 0.00037605532425436747 0 0.010628836967483931 0.0002995839980282711 0 0.010430456864784899 0.00018500440007482825 0 0.010744965642652472 0.00033551676019533149 0 0.008389512762244344 -7.6426134107548379e-05 0 0.010302306332371574 -4.6878876309131502e-05 0 0.010428533990734882 -0.00010705931820025641 0 0.010409871264763745 -0.00020516302836494208 0 0.010302306332371574 -4.6878876309131502e-05 0 0.010409871264763745 -0.00020516302836494208 0 0.010162949673750936 -2.9836284586760912e-05 0 0.0090179000118781379 0.00039168111062472293 0 0.008389512762244344 -7.6426134107548379e-05 0 0.010276910402931085 6.24793029835569e-05 0 0.010302306332371574 -4.6878876309131502e-05 0 0.010162949673750936 -2.9836284586760912e-05 0 0.010276910402931085 6.24793029835569e-05 0 0.010302306332371574 -4.6878876309131502e-05 0 0.010369187324686713 -6.9849098197222043e-05 0 0.010302306332371574 -4.6878876309131502e-05 0 0.010428533990734882 -0.00010705931820025641 0 0.010369187324686713 -6.9849098197222043e-05 0 0.010369187324686713 -6.9849098197222043e-05 0 0.010150794907861421 -0.00025849178196083058 0 0.010731033141155026 6.1839892165601991e-05 0 0.010428533990734882 -0.00010705931820025641 0 0.010369187324686713 -6.9849098197222043e-05 0 0.010150794907861421 -0.00025849178196083058 0 0.010150794907861421 -0.00025849178196083058 0 0.010028983356367264 0.00044979806012506135 0 0.0084722700139168508 0.0011871859733454373 0 0.010428533990734882 -0.00010705931820025641 0 0.010028983356367264 0.00044979806012506135 0 0.010606165293316875 0.00042527345673620359 0 0.010428533990734882 -0.00010705931820025641 0 0.010150794907861421 -0.00025849178196083058 0 0.010028983356367264 0.00044979806012506135 0 0.0090179000118781379 0.00039168111062472293 0 0.0095169491717838443 0.0012837290132736063 0 0.0099745120140692332 0.00072642806863165124 0 0.010036394385198478 0.0017755318854847108 0 0.0092541469137425534 0.001454034720954827 0 0.010028983356367264 0.00044979806012506135 0 0.010606165293316875 0.00042527345673620359 0 0.0097736303181205509 0.0013663784128042662 0 0.010028983356367264 0.00044979806012506135 0 0.0097736303181205509 0.0013663784128042662 0 0.0084722700139168508 0.0011871859733454373 0 0.0053856741865248433 -8.2449223345832059e-05 0 0.005551716887127342 -2.0473203922676649e-05 0 0.0055877194498890658 -0.00057165282726445905 0 0.0097065903040154458 3.4866312223873859e-05 0 0.0090179000118781379 0.00039168111062472293 0 0.0053856741865248433 -8.2449223345832059e-05 0 0.005551716887127342 -2.0473203922676649e-05 0 0.0055187489540622133 7.2871169660081042e-05 0 0.0090179000118781379 0.00039168111062472293 0 0.0077665225504674014 0.00093156427125532675 0 0.005551716887127342 -2.0473203922676649e-05 0 0.0056209329671323095 7.1552363761476895e-05 0 0.0057996244646645826 -0.00020757518809390391 0 0.005551716887127342 -2.0473203922676649e-05 0 0.0057996244646645826 -0.00020757518809390391 0 0.0055877194498890658 -0.00057165282726445905 0 0.0056209329671323095 7.1552363761476895e-05 0 0.0057996244646645826 -0.00020757518809390391 0 0.0059826324104949712 -8.1372017258014739e-05 0 0.0057996244646645826 -0.00020757518809390391 0 0.0055877194498890658 -0.00057165282726445905 0 0.006439056117590396 -0.00038425078704914086 0 0.008389512762244344 -7.6426134107548379e-05 0 0.0075518517660787925 -0.00019710634162373327 0 0.0091649402064245648 0.00010353787738797881 0 0.0075518517660787925 -0.00019710634162373327 0 0.0094959556652737965 2.7145944348809423e-07 0 0.0094358360821606459 -5.7941472953961152e-07 0 0.0079270563249995811 4.5055707147921113e-06 0 0.0094959556652737965 2.7145944348809423e-07 0 0.0079270563249995811 4.5055707147921113e-06 0 0.0073981023438564764 -2.7152150488434347e-07 0 0.0088813667458183896 -4.6907086042896518e-05 0 0.0087873692605036514 -2.592867471411382e-05 0 0.0088674538437193834 2.0371867564501605e-05 0 0.0065417435123833615 -0.000642833901120242 0 0.0065182372367680545 -0.00023025719561093233 0 0.0073939972589726526 -1.2537673650558856e-06 0 0.0073939972589726526 -1.2537673650558856e-06 0 0.0054272500349201013 1.3949411491160612e-06 0 0.0057937639290857055 0.00014155054484067933 0 0.0075518517660787925 -0.00019710634162373327 0 0.007396741820910083 -3.6675428398265891e-07 0 0.0075518517660787925 -0.00019710634162373327 0 0.0074814953937577394 -0.00020791312646068047 0 0.0057996244646645826 -0.00020757518809390391 0 0.006439056117590396 -0.00038425078704914086 0 0.0059826324104949712 -8.1372017258014739e-05 0 0.006439056117590396 -0.00038425078704914086 0 0.0065182372367680545 -0.00023025719561093233 0 0.0059826324104949712 -8.1372017258014739e-05 0 0.0056209329671323095 7.1552363761476895e-05 0 0.0059826324104949712 -8.1372017258014739e-05 0 0.0057937639290857055 0.00014155054484067933 0 0.0065182372367680545 -0.00023025719561093233 0 0.0059826324104949712 -8.1372017258014739e-05 0 0.0057937639290857055 0.00014155054484067933 0 0.0065182372367680545 -0.00023025719561093233 0 0.0073939972589726526 -1.2537673650558856e-06 0 0.0057937639290857055 0.00014155054484067933 0 0.0057937639290857055 0.00014155054484067933 0 0.0054646240933183023 0.00017220451416427891 0 0.004957245694071675 0.00014517716361866706 0 0.0054272500349201013 1.3949411491160612e-06 0 0.0057937639290857055 0.00014155054484067933 0 0.004957245694071675 0.00014517716361866706 0 0.005551716887127342 -2.0473203922676649e-05 0 0.0056209329671323095 7.1552363761476895e-05 0 0.0055674122196171403 9.096169356469912e-05 0 0.0056209329671323095 7.1552363761476895e-05 0 0.0054646240933183023 0.00017220451416427891 0 0.0055674122196171403 9.096169356469912e-05 0 0.0056209329671323095 7.1552363761476895e-05 0 0.0057937639290857055 0.00014155054484067933 0 0.0054646240933183023 0.00017220451416427891 0 0.0054646240933183023 0.00017220451416427891 0 0.0055674122196171403 9.096169356469912e-05 0 0.0055081931077873517 -0.00020090680254955778 0 0.0036466105612883346 0.00043833302227495104 0 0.0036600322347742523 0.00064807109213216156 0 0.0043756888404548576 0.00033634685096241545 0 0.0054646240933183023 0.00017220451416427891 0 0.0055081931077873517 -0.00020090680254955778 0 0.004957245694071675 0.00014517716361866706 0 0.0054272500349201013 1.3949411491160612e-06 0 0.00344682646608332 -1.495417823855428e-06 0 0.004957245694071675 0.00014517716361866706 0 0.0022040829360660055 0.00010161181323175176 0 0.0032959754155442544 0.00026156697111363294 0 0.0036466105612883346 0.00043833302227495104 0 0.0036600322347742523 0.00064807109213216156 0 0.0029423009994545158 0.00053215969510981653 0 0.0042875642765449031 0.0001827811395784177 0 0.0032959754155442544 0.00026156697111363294 0 0.0055081931077873517 -0.00020090680254955778 0 0.00344682646608332 -1.495417823855428e-06 0 0.004957245694071675 0.00014517716361866706 0 0.00096647253174262737 -0.00022789928403536391 0 0.0034399745858338603 -1.6892266214320486e-06 0 0.0015476921343462865 0.00017608220976319486 0 0.0034399745858338603 -1.6892266214320486e-06 0 0.0015476921343462865 0.00017608220976319486 0 0.00089045607852806347 1.3824357900536493e-06 0 0.00096647253174262737 -0.00022789928403536391 0 0.00071347066748884123 0.00032139733323534211 0 0.00076482368040693151 0.00017500280516631421 0 0.00096647253174262737 -0.00022789928403536391 0 0.0015476921343462865 0.00017608220976319486 0 0.00071347066748884123 0.00032139733323534211 0 -0.00062645099941446988 -3.8354252836161972e-05 0 0.00062091817904380217 0.00015038666636226522 0 0.00071347066748884123 0.00032139733323534211 0 0.00062091817904380217 0.00015038666636226522 0 0.00071347066748884123 0.00032139733323534211 0 0.00085017042910246734 0.00031516344043270987 0 0.0015476921343462865 0.00017608220976319486 0 0.00071347066748884123 0.00032139733323534211 0 0.00089045607852806347 1.3824357900536493e-06 0 -0.00062645099941446988 -3.8354252836161972e-05 0 0.00071347066748884123 0.00032139733323534211 0 0.00089045607852806347 1.3824357900536493e-06 0 0.0023940947434574022 0.00032425301658274141 0 0.0028159480643882464 0.001232805883895299 0 0.0015669379192089692 0.0011061777979432888 0 0.0034668869309182264 0.00018575009018330122 0 0.0023940947434574022 0.00032425301658274141 0 0.0028159480643882464 0.001232805883895299 0 0.0013162388537330738 -0.00012783103535052878 0 0.0011899539340397595 0.00064436084185004255 0 0.00071347066748884123 0.00032139733323534211 0 0.00085017042910246734 0.00031516344043270987 0 0.00076482368040693151 0.00017500280516631421 0 0.0013817151420005298 -0.00018210059103315152 0 0.0023940947434574022 0.00032425301658274141 0 0.0015669379192089692 0.0011061777979432888 0 0.00096647253174262737 -0.00022789928403536391 0 0.00076482368040693151 0.00017500280516631421 0 0.00062230341403418492 5.4258888864619835e-05 0 0.0022040829360660055 0.00010161181323175176 0 0.0031895005498454774 0.0011637565824666027 0 0.0011899539340397595 0.00064436084185004255 0 0.0031895005498454774 0.0011637565824666027 0 0.00085017042910246734 0.00031516344043270987 0 0.00076482368040693151 0.00017500280516631421 0 0.00062230341403418492 5.4258888864619835e-05 0 0.0056277487984478167 0.0018200570592411573 0 0.0058956669751660216 0.001945005988444199 0 0.0061499512122176322 0.0018050424995540368 0 0.0028159480643882464 0.001232805883895299 0 0.0016489328984271401 0.0024891448632879411 0 0.0035687293454194054 0.0022112052451709724 0 0.0031895005498454774 0.0011637565824666027 0 0.0049449200827293462 0.0020723295501057885 0 0.0028159480643882464 0.001232805883895299 0 0.0015669379192089692 0.0011061777979432888 0 0.0016489328984271401 0.0024891448632879411 0 0.0058956669751660216 0.001945005988444199 0 0.0060826660580496012 0.0019348530375194941 0 0.0061499512122176322 0.0018050424995540368 0 0.006250701354227145 0.0011713871328445789 0 0.007722881274736736 0.0024971528106063376 0 0.0058956669751660216 0.001945005988444199 0 0.0060196629695638826 0.0021223784056579281 0 0.0060826660580496012 0.0019348530375194941 0 0.0058956669751660216 0.001945005988444199 0 0.0056589935590536135 0.0020641903487356303 0 0.0060196629695638826 0.0021223784056579281 0 0.010082226707594007 0.0028092153577300711 0 0.0094710392425617247 0.0023042868952079087 0 0.0087660452038654194 0.0027377323746656857 0 0.0056277487984478167 0.0018200570592411573 0 0.0058956669751660216 0.001945005988444199 0 0.0056589935590536135 0.0020641903487356303 0 0.0090016290957458216 0.0022323042608748045 0 0.0094710392425617247 0.0023042868952079087 0 0.0087660452038654194 0.0027377323746656857 0 0.0042875642765449031 0.0001827811395784177 0 0.006250701354227145 0.0011713871328445789 0 0.0036600322347742523 0.00064807109213216156 0 0.0043756888404548576 0.00033634685096241545 0 0.004406484736093382 0.00075686373247675642 0 0.0055674122196171403 9.096169356469912e-05 0 0.0055081931077873517 -0.00020090680254955778 0 0.0056301983624386306 8.3030038484556694e-06 0 0.0031895005498454774 0.0011637565824666027 0 0.006250701354227145 0.0011713871328445789 0 0.005551716887127342 -2.0473203922676649e-05 0 0.0055674122196171403 9.096169356469912e-05 0 0.0055187489540622133 7.2871169660081042e-05 0 0.0055674122196171403 9.096169356469912e-05 0 0.0056301983624386306 8.3030038484556694e-06 0 0.0055187489540622133 7.2871169660081042e-05 0 0.010082226707594007 0.0028092153577300711 0 0.010036394385198478 0.0017755318854847108 0 0.0094710392425617247 0.0023042868952079087 0 0.006250701354227145 0.0011713871328445789 0 0.0077665225504674014 0.00093156427125532675 0 0.0090016290957458216 0.0022323042608748045 0 0.0094710392425617247 0.0023042868952079087 0 0.0092541469137425534 0.001454034720954827 0 0.0090016290957458216 0.0022323042608748045 0 0.0092541469137425534 0.001454034720954827 0 0.0084590649964881148 0.0021523434778375266 0 0.010036394385198478 0.0017755318854847108 0 0.0094710392425617247 0.0023042868952079087 0 0.0092541469137425534 0.001454034720954827 0 0.0095169491717838443 0.0012837290132736063 0 0.0086391141804258182 0.0020824257218673417 0 0.0084590649964881148 0.0021523434778375266 0 0.0066946569404157307 0.0022004301246180383 0 0.0084722700139168508 0.0011871859733454373 0 0.0066946569404157307 0.0022004301246180383 0 0.0070938979763124875 0.0009349421304075782 0 0.0084722700139168508 0.0011871859733454373 0 0.0097736303181205509 0.0013663784128042662 0 0.0084590649964881148 0.0021523434778375266 0 0.0084722700139168508 0.0011871859733454373 0 0.0090016290957458216 0.0022323042608748045 0 0.0084590649964881148 0.0021523434778375266 0 0.0087660452038654194 0.0027377323746656857 0 0.0066946569404157307 0.0022004301246180383 0 0.0064924743401451662 0.0021608531403584253 0 0.0070938979763124875 0.0009349421304075782 0 0.0066946569404157307 0.0022004301246180383 0 0.0059194900676217549 0.001609108346078279 0 0.0065350271924338931 0.0018953510530649259 0 0.0066946569404157307 0.0022004301246180383 0 0.0062566963344901777 0.0019008508197377321 0 0.0059194900676217549 0.001609108346078279 0 0.0066946569404157307 0.0022004301246180383 0 0.0060196629695638826 0.0021223784056579281 0 0.0062566963344901777 0.0019008508197377321 0 0.006646892080185725 0.0022288164836988533 0 0.007722881274736736 0.0024971528106063376 0 0.0084590649964881148 0.0021523434778375266 0 0.0066946569404157307 0.0022004301246180383 0 0.0087660452038654194 0.0027377323746656857 0 0.0060196629695638826 0.0021223784056579281 0 0.0062566963344901777 0.0019008508197377321 0 0.0060826660580496012 0.0019348530375194941 0 0.0062566963344901777 0.0019008508197377321 0 0.0061499512122176322 0.0018050424995540368 0 0.0059194900676217549 0.001609108346078279 0 0.0035687293454194054 0.0022112052451709724 0 0.0059194900676217549 0.001609108346078279 0 0.0043024203424359125 0.00080522200088333862 0 0.0062566963344901777 0.0019008508197377321 0 0.0060826660580496012 0.0019348530375194941 0 0.0061499512122176322 0.0018050424995540368 0 0.0049449200827293462 0.0020723295501057885 0 0.0058290475157129129 0.0016541353054693609 0 0.0054059062112458865 8.3983552022476543e-05 0 0.0059194900676217549 0.001609108346078279 0 0.0043024203424359125 0.00080522200088333862 0 0.0028159480643882464 0.001232805883895299 0 0.0035687293454194054 0.0022112052451709724 0 0.0043024203424359125 0.00080522200088333862 0 0.0034668869309182264 0.00018575009018330122 0 0.0028159480643882464 0.001232805883895299 0 0.0043024203424359125 0.00080522200088333862 0 0.0065135301654751804 -0.00052118047519413772 0 0.0067467236602061524 0.00084491579082567275 0 0.0083335667646338152 0.00023239836735611445 0 0.0054059062112458865 8.3983552022476543e-05 0 0.0059194900676217549 0.001609108346078279 0 0.0067467236602061524 0.00084491579082567275 0 0.0065135301654751804 -0.00052118047519413772 0 0.0054059062112458865 8.3983552022476543e-05 0 0.0067467236602061524 0.00084491579082567275 0 0.0059194900676217549 0.001609108346078279 0 0.0067467236602061524 0.00084491579082567275 0 0.0065350271924338931 0.0018953510530649259 0 0.0067467236602061524 0.00084491579082567275 0 0.0065350271924338931 0.0018953510530649259 0 0.0079036092470788043 0.0021215529682570341 0 0.0065350271924338931 0.0018953510530649259 0 0.0064924743401451662 0.0021608531403584253 0 0.0079036092470788043 0.0021215529682570341 0 0.0091103295865111959 0.0010665265266654516 0 0.0095860235010500425 0.0012599352904567424 0 0.0066946569404157307 0.0022004301246180383 0 0.0065350271924338931 0.0018953510530649259 0 0.0064924743401451662 0.0021608531403584253 0 0.0091103295865111959 0.0010665265266654516 0 0.0092838482504406343 0.00031608250493945226 0 0.011681730490778855 3.4563363765320987e-05 0 0.011496812444475236 4.637166556189754e-05 0 0.011271222638198818 0.00050975502183982604 0 0.011733349370618269 -6.6878578887713351e-05 0 0.011684968974370763 -9.3795204062064832e-05 0 0.011496812444475236 4.637166556189754e-05 0 0.011681730490778855 3.4563363765320987e-05 0 0.011684968974370763 -9.3795204062064832e-05 0 0.011496812444475236 4.637166556189754e-05 0 0.011733349370618269 -6.6878578887713351e-05 0 0.011789468922465705 -1.6825179939511319e-05 0 0.011639546352799726 -9.8058990059640027e-05 0 0.011733349370618269 -6.6878578887713351e-05 0 0.011789468922465705 -1.6825179939511319e-05 0 0.011975311367471653 -2.8595919866925625e-05 0 0.011733349370618269 -6.6878578887713351e-05 0 0.011639546352799726 -9.8058990059640027e-05 0 0.011684968974370763 -9.3795204062064832e-05 0 0.011639546352799726 -9.8058990059640027e-05 0 0.011684968974370763 -9.3795204062064832e-05 0 0.011415633353651521 -0.000388364163665978 0 0.011681730490778855 3.4563363765320987e-05 0 0.011684968974370763 -9.3795204062064832e-05 0 0.011415633353651521 -0.000388364163665978 0 0.011415633353651521 -0.000388364163665978 0 0.011010177907715406 -0.00010638951125287764 0 0.011352546081856282 -0.00012494605864050474 0 0.011639546352799726 -9.8058990059640027e-05 0 0.011415633353651521 -0.000388364163665978 0 0.011352546081856282 -0.00012494605864050474 0 0.010049338928108338 -0.00021325913076835051 0 0.0092838482504406343 0.00031608250493945226 0 0.010150794907861421 -0.00025849178196083058 0 0.0070938979763124875 0.0009349421304075782 0 0.0084722700139168508 0.0011871859733454373 0 0.010150794907861421 -0.00025849178196083058 0 0.011415633353651521 -0.000388364163665978 0 0.011010177907715406 -0.00010638951125287764 0 0.010150794907861421 -0.00025849178196083058 0 0.011010177907715406 -0.00010638951125287764 0 0.010731033141155026 6.1839892165601991e-05 0 0.011010177907715406 -0.00010638951125287764 0 0.010731033141155026 6.1839892165601991e-05 0 0.011239538850044114 7.1302438290986854e-05 0 0.011639546352799726 -9.8058990059640027e-05 0 0.011352546081856282 -0.00012494605864050474 0 0.011239538850044114 7.1302438290986854e-05 0 0.011010177907715406 -0.00010638951125287764 0 0.011352546081856282 -0.00012494605864050474 0 0.011239538850044114 7.1302438290986854e-05 0 0.011639546352799726 -9.8058990059640027e-05 0 0.011239538850044114 7.1302438290986854e-05 0 0.011474787772336098 0.00021251462836952671 0 0.011239538850044114 7.1302438290986854e-05 0 0.011474787772336098 0.00021251462836952671 0 0.011093831860131482 0.00025789680698952108 0 0.010747850883675643 0.00033864136318503417 0 0.010731033141155026 6.1839892165601991e-05 0 0.011093831860131482 0.00025789680698952108 0 0.010731033141155026 6.1839892165601991e-05 0 0.011239538850044114 7.1302438290986854e-05 0 0.011093831860131482 0.00025789680698952108 0 0.010747850883675643 0.00033864136318503417 0 0.011269824326039971 0.00051035060872474782 0 0.010860538866862274 0.00067527279315911834 0 0.010747850883675643 0.00033864136318503417 0 0.011093831860131482 0.00025789680698952108 0 0.011269824326039971 0.00051035060872474782 0 0.011474787772336098 0.00021251462836952671 0 0.011093831860131482 0.00025789680698952108 0 0.011269824326039971 0.00051035060872474782 0 0.011474787772336098 0.00021251462836952671 0 0.011269824326039971 0.00051035060872474782 0 0.011778294848703753 0.00048938365253262453 0 0.011474787772336098 0.00021251462836952671 0 0.011778294848703753 0.00048938365253262453 0 0.011770511680744535 0.00016735679850458986 0 0.011778294848703753 0.00048938365253262453 0 0.012177640310531765 0.00038524126065492406 0 0.011770511680744535 0.00016735679850458986 0 0.012177640310531765 0.00038524126065492406 0 0.011770511680744535 0.00016735679850458986 0 0.011975311367471653 -2.8595919866925625e-05 0 0.011789468922465705 -1.6825179939511319e-05 0 0.011770511680744535 0.00016735679850458986 0 0.011975311367471653 -2.8595919866925625e-05 0 0.011789468922465705 -1.6825179939511319e-05 0 0.011639546352799726 -9.8058990059640027e-05 0 0.011770511680744535 0.00016735679850458986 0 0.011639546352799726 -9.8058990059640027e-05 0 0.011474787772336098 0.00021251462836952671 0 0.011770511680744535 0.00016735679850458986 0 0.0117102199911237 -0.00018204863176762549 0 0.011975311367471653 -2.8595919866925625e-05 0 0.012232074135663674 -8.2156741009081668e-05 0 0.0117102199911237 -0.00018204863176762549 0 0.011975311367471653 -2.8595919866925625e-05 0 0.01166176808517571 -6.8406101300774608e-05 0 0.012177640310531765 0.00038524126065492406 0 0.011975311367471653 -2.8595919866925625e-05 0 0.012232074135663674 -8.2156741009081668e-05 0 0.0117102199911237 -0.00018204863176762549 0 0.012232074135663674 -8.2156741009081668e-05 0 0.011756771263635243 -0.00041418786472475192 0 0.0117102199911237 -0.00018204863176762549 0 0.011756771263635243 -0.00041418786472475192 0 0.011354879282805303 -0.00049263787557180189 0 0.011756771263635243 -0.00041418786472475192 0 0.011354879282805303 -0.00049263787557180189 0 0.011351622978139653 -0.00079161994781195958 0 0.011354879282805303 -0.00049263787557180189 0 0.011112539089013414 -0.00030885042707914115 0 0.010892096275253192 -0.00069685536527817199 0 0.0117102199911237 -0.00018204863176762549 0 0.011354879282805303 -0.00049263787557180189 0 0.011112539089013414 -0.00030885042707914115 0 0.0117102199911237 -0.00018204863176762549 0 0.011112539089013414 -0.00030885042707914115 0 0.011290935698986232 -2.4633068900143121e-05 0 0.011112539089013414 -0.00030885042707914115 0 0.010880760447058935 -3.2437431837268267e-07 0 0.011290935698986232 -2.4633068900143121e-05 0 0.011112539089013414 -0.00030885042707914115 0 0.010880760447058935 -3.2437431837268267e-07 0 0.010625695425475052 -0.00041600286286228429 0 0.010880760447058935 -3.2437431837268267e-07 0 0.011290935698986232 -2.4633068900143121e-05 0 0.010616156125963559 0.00041336394806283503 0 0.011290935698986232 -2.4633068900143121e-05 0 0.011496812444475236 4.637166556189754e-05 0 0.010616156125963559 0.00041336394806283503 0 0.011290935698986232 -2.4633068900143121e-05 0 0.01166176808517571 -6.8406101300774608e-05 0 0.011496812444475236 4.637166556189754e-05 0 0.0117102199911237 -0.00018204863176762549 0 0.011290935698986232 -2.4633068900143121e-05 0 0.01166176808517571 -6.8406101300774608e-05 0 0.011733349370618269 -6.6878578887713351e-05 0 0.011975311367471653 -2.8595919866925625e-05 0 0.01166176808517571 -6.8406101300774608e-05 0 0.011733349370618269 -6.6878578887713351e-05 0 0.01166176808517571 -6.8406101300774608e-05 0 0.011496812444475236 4.637166556189754e-05 0 0.011496812444475236 4.637166556189754e-05 0 0.011271222638198818 0.00050975502183982604 0 0.010616156125963559 0.00041336394806283503 0 0.011271222638198818 0.00050975502183982604 0 0.010048688753669396 0.00087405381385517429 0 0.010616156125963559 0.00041336394806283503 0 0.0095860235010500425 0.0012599352904567424 0 0.010048310103584389 0.00091703497950160922 0 0.0079036092470788043 0.0021215529682570341 0 0.0083335667646338152 0.00023239836735611445 0 0.010048688753669396 0.00087405381385517429 0 0.0067467236602061524 0.00084491579082567275 0 0.0079036092470788043 0.0021215529682570341 0 0.0083335667646338152 0.00023239836735611445 0 0.0090261394748489647 -0.00061320689266393846 0 0.0083335667646338152 0.00023239836735611445 0 0.0096651412125776347 0.00012156365570075742 0 0.0083335667646338152 0.00023239836735611445 0 0.0096651412125776347 0.00012156365570075742 0 0.010048688753669396 0.00087405381385517429 0 0.0099521045078037676 -0.00010136203033170959 0 0.010233737164244246 0.00058733329711366982 0 0.010461111072150305 0.00014713207499469848 0 0.00984504802256061 -0.00072131752248813085 0 0.0099521045078037676 -0.00010136203033170959 0 0.010461111072150305 0.00014713207499469848 0 0.0095566545254939898 -0.00065517566730787121 0 0.0099521045078037676 -0.00010136203033170959 0 0.0096651412125776347 0.00012156365570075742 0 0.0099521045078037676 -0.00010136203033170959 0 0.0096651412125776347 0.00012156365570075742 0 0.010233737164244246 0.00058733329711366982 0 0.0096651412125776347 0.00012156365570075742 0 0.010048688753669396 0.00087405381385517429 0 0.010233737164244246 0.00058733329711366982 0 0.010233737164244246 0.00058733329711366982 0 0.010382944923732519 0.00057338150650943615 0 0.010461111072150305 0.00014713207499469848 0 0.010233737164244246 0.00058733329711366982 0 0.010616156125963559 0.00041336394806283503 0 0.010382944923732519 0.00057338150650943615 0 0.010048688753669396 0.00087405381385517429 0 0.010233737164244246 0.00058733329711366982 0 0.010616156125963559 0.00041336394806283503 0 0.010616156125963559 0.00041336394806283503 0 0.010488593955302656 0.00026345781213296497 0 0.010382944923732519 0.00057338150650943615 0 0.010880760447058935 -3.2437431837268267e-07 0 0.010616156125963559 0.00041336394806283503 0 0.010488593955302656 0.00026345781213296497 0 0.010129269438589815 -0.00080570037012163789 0 0.010111210970719851 -0.00094678966803496997 0 0.0098589818494317482 -0.0010633286589951235 0 0.01032586091697725 -0.00028352543121435315 0 0.010138054267625431 -0.00026356005945096409 0 0.010129269438589815 -0.00080570037012163789 0 0.010111210970719851 -0.00094678966803496997 0 0.010434266694831461 -0.00070834840332729358 0 0.010111210970719851 -0.00094678966803496997 0 0.0098589818494317482 -0.0010633286589951235 0 0.0098204523413126885 -0.0011906894329979793 0 0.0098589818494317482 -0.0010633286589951235 0 0.0098204523413126885 -0.0011906894329979793 0 0.0097369198615075963 -0.0012377509250955784 0 0.010138054267625431 -0.00026356005945096409 0 0.010074260722778615 -0.0005461336996767964 0 0.00945921988670596 -0.0012250386944198132 0 0.0098204523413126885 -0.0011906894329979793 0 0.0096666038090352947 -0.0012124620773571132 0 0.0098204523413126885 -0.0011906894329979793 0 0.0096666038090352947 -0.0012124620773571132 0 0.0097369198615075963 -0.0012377509250955784 0 0.0096548887121310802 -0.001151884926941376 0 0.0096666038090352947 -0.0012124620773571132 0 0.0097369198615075963 -0.0012377509250955784 0 0.0097648869331003491 -0.0012783930827171611 0 0.0096694024848675807 -0.0013206584120798509 0 0.00984121794476122 -0.001217476099263942 0 0.0096694024848675807 -0.0013206584120798509 0 0.0098979242908522613 -0.0011528447799085872 0 0.00984121794476122 -0.001217476099263942 0 0.0096149893863017293 -0.0012412085801771673 0 0.0097794054759089387 -0.0011964663032974744 0 0.0097648869331003491 -0.0012783930827171611 0 0.0098204523413126885 -0.0011906894329979793 0 0.00984121794476122 -0.001217476099263942 0 0.0098204523413126885 -0.0011906894329979793 0 0.00984121794476122 -0.001217476099263942 0 0.010012167258763581 -0.0010598827212223256 0 0.0098979242908522613 -0.0011528447799085872 0 0.00984121794476122 -0.001217476099263942 0 0.010012167258763581 -0.0010598827212223256 0 0.0098979242908522613 -0.0011528447799085872 0 0.010083957006244955 -0.0010051212777819095 0 0.010012167258763581 -0.0010598827212223256 0 0.010111210970719851 -0.00094678966803496997 0 0.0098204523413126885 -0.0011906894329979793 0 0.010012167258763581 -0.0010598827212223256 0 0.010111210970719851 -0.00094678966803496997 0 0.010012167258763581 -0.0010598827212223256 0 0.010242041703814918 -0.00088516694637735555 0 0.010111210970719851 -0.00094678966803496997 0 0.010242041703814918 -0.00088516694637735555 0 0.010434266694831461 -0.00070834840332729358 0 0.010083957006244955 -0.0010051212777819095 0 0.010012167258763581 -0.0010598827212223256 0 0.010242041703814918 -0.00088516694637735555 0 0.010242041703814918 -0.00088516694637735555 0 0.010373571559413463 -0.00087513908225089407 0 0.010434266694831461 -0.00070834840332729358 0 0.010373571559413463 -0.00087513908225089407 0 0.010434266694831461 -0.00070834840332729358 0 0.010567908237888628 -0.00078078825443692501 0 0.010434266694831461 -0.00070834840332729358 0 0.010623301118328579 -0.00062917880213918275 0 0.010567908237888628 -0.00078078825443692501 0 0.010129269438589815 -0.00080570037012163789 0 0.010434266694831461 -0.00070834840332729358 0 0.010625695425475052 -0.00041600286286228429 0 0.01032586091697725 -0.00028352543121435315 0 0.010560642660666954 -0.00041798650809622484 0 0.010880760447058935 -3.2437431837268267e-07 0 0.010488593955302656 0.00026345781213296497 0 0.010625695425475052 -0.00041600286286228429 0 0.010434266694831461 -0.00070834840332729358 0 0.010625695425475052 -0.00041600286286228429 0 0.010623301118328579 -0.00062917880213918275 0 0.010625695425475052 -0.00041600286286228429 0 0.010623301118328579 -0.00062917880213918275 0 0.010892096275253192 -0.00069685536527817199 0 0.010623301118328579 -0.00062917880213918275 0 0.010892096275253192 -0.00069685536527817199 0 0.010567908237888628 -0.00078078825443692501 0 0.011112539089013414 -0.00030885042707914115 0 0.010625695425475052 -0.00041600286286228429 0 0.010892096275253192 -0.00069685536527817199 0 0.011354879282805303 -0.00049263787557180189 0 0.010892096275253192 -0.00069685536527817199 0 0.011351622978139653 -0.00079161994781195958 0 0.010892096275253192 -0.00069685536527817199 0 0.010803036159938995 -0.00094220844337124265 0 0.011261926121310958 -0.00097473300640575969 0 0.010447304271094179 -0.0011098510020352151 0 0.010531158758648285 -0.00096610917829056443 0 0.010690304346703327 -0.0011621780298964883 0 0.010803036159938995 -0.00094220844337124265 0 0.010531158758648285 -0.00096610917829056443 0 0.010690304346703327 -0.0011621780298964883 0 0.010373571559413463 -0.00087513908225089407 0 0.010531158758648285 -0.00096610917829056443 0 0.010567908237888628 -0.00078078825443692501 0 0.010892096275253192 -0.00069685536527817199 0 0.010803036159938995 -0.00094220844337124265 0 0.010567908237888628 -0.00078078825443692501 0 0.010803036159938995 -0.00094220844337124265 0 0.010531158758648285 -0.00096610917829056443 0 0.010567908237888628 -0.00078078825443692501 0 0.010992915362646386 -0.0012803753021845942 0 0.010764495358788829 -0.0015141168249322378 0 0.011093596165267122 -0.0016839568037865431 0 0.010992915362646386 -0.0012803753021845942 0 0.010764495358788829 -0.0015141168249322378 0 0.010690304346703327 -0.0011621780298964883 0 0.010526959215873696 -0.0013673311799598414 0 0.010764495358788829 -0.0015141168249322378 0 0.010690304346703327 -0.0011621780298964883 0 0.010803036159938995 -0.00094220844337124265 0 0.010992915362646386 -0.0012803753021845942 0 0.010690304346703327 -0.0011621780298964883 0 0.010803036159938995 -0.00094220844337124265 0 0.010992915362646386 -0.0012803753021845942 0 0.011261926121310958 -0.00097473300640575969 0 0.010892096275253192 -0.00069685536527817199 0 0.011261926121310958 -0.00097473300640575969 0 0.011351622978139653 -0.00079161994781195958 0 0.011261926121310958 -0.00097473300640575969 0 0.011360570919999384 -0.0010627664561278203 0 0.011351622978139653 -0.00079161994781195958 0 0.011261926121310958 -0.00097473300640575969 0 0.011557575890558874 -0.0016703525484693194 0 0.012165431259598845 -0.0013684890902486658 0 0.011326209173811407 -0.00098430367562541646 0 0.011761638211944049 -0.0012309464726073728 0 0.010992915362646386 -0.0012803753021845942 0 0.011261926121310958 -0.00097473300640575969 0 0.011557575890558874 -0.0016703525484693194 0 0.010992915362646386 -0.0012803753021845942 0 0.011557575890558874 -0.0016703525484693194 0 0.011093596165267122 -0.0016839568037865431 0 0.011557575890558874 -0.0016703525484693194 0 0.012077621384568006 -0.0022184685302717418 0 0.011390229132924333 -0.0020144342772121398 0 0.011557575890558874 -0.0016703525484693194 0 0.011390229132924333 -0.0020144342772121398 0 0.011093596165267122 -0.0016839568037865431 0 0.011557575890558874 -0.0016703525484693194 0 0.012077621384568006 -0.0022184685302717418 0 0.012165431259598845 -0.0013684890902486658 0 0.011390229132924333 -0.0020144342772121398 0 0.011383495061230813 -0.0024270539998846792 0 0.011794862181620304 -0.0025314582673319243 0 0.012077621384568006 -0.0022184685302717418 0 0.011390229132924333 -0.0020144342772121398 0 0.011794862181620304 -0.0025314582673319243 0 0.011390229132924333 -0.0020144342772121398 0 0.010905113011585178 -0.0020452577753229122 0 0.011383495061230813 -0.0024270539998846792 0 0.011390229132924333 -0.0020144342772121398 0 0.011093596165267122 -0.0016839568037865431 0 0.010905113011585178 -0.0020452577753229122 0 0.010764495358788829 -0.0015141168249322378 0 0.011093596165267122 -0.0016839568037865431 0 0.010905113011585178 -0.0020452577753229122 0 0.010740271970154553 -0.0025039148159814871 0 0.010905113011585178 -0.0020452577753229122 0 0.011080573700054035 -0.002585457836449243 0 0.010905113011585178 -0.0020452577753229122 0 0.011080573700054035 -0.002585457836449243 0 0.011383495061230813 -0.0024270539998846792 0 0.011080573700054035 -0.002585457836449243 0 0.011383495061230813 -0.0024270539998846792 0 0.011586687200255057 -0.0029658445655416634 0 0.011080573700054035 -0.002585457836449243 0 0.011096036588695762 -0.0030746941265748337 0 0.011586687200255057 -0.0029658445655416634 0 0.010740271970154553 -0.0025039148159814871 0 0.011080573700054035 -0.002585457836449243 0 0.011096036588695762 -0.0030746941265748337 0 0.010906440930911169 -0.0034244208090197306 0 0.011096036588695762 -0.0030746941265748337 0 0.011335106586657219 -0.003563033456652607 0 0.011096036588695762 -0.0030746941265748337 0 0.011335106586657219 -0.003563033456652607 0 0.011594074190797226 -0.0034115104139441467 0 0.011096036588695762 -0.0030746941265748337 0 0.011594074190797226 -0.0034115104139441467 0 0.011586687200255057 -0.0029658445655416634 0 0.016516988911501579 -0.004420021647123803 0 0.015115216460150722 -0.0035215258149041309 0 0.016058912660862925 -0.0027296237274334863 0 0.018596703120965972 -0.0043176070925991326 0 0.016516988911501579 -0.004420021647123803 0 0.017783232457196256 -0.0025814636343774082 0 0.013676144475695306 -0.0039885150689625282 0 0.014171215795423157 -0.0039744087613066449 0 0.013161569028064561 -0.0040658168918052658 0 0.013041204205519389 -0.0039668647770490185 0 0.013571314069526854 -0.0036773934896740506 0 0.014398822136341796 -0.0043921407155096039 0 0.012973838524311819 -0.0039306569450553606 0 0.013571314069526854 -0.0036773934896740506 0 0.014398822136341796 -0.0043921407155096039 0 0.013873683761886199 -0.0034714521751064106 0 0.011335106586657219 -0.003563033456652607 0 0.011943397537391895 -0.0037923461088001827 0 0.011594074190797226 -0.0034115104139441467 0 0.016516988911501579 -0.004420021647123803 0 0.015115216460150722 -0.0035215258149041309 0 0.014398822136341796 -0.0043921407155096039 0 0.015115216460150722 -0.0035215258149041309 0 0.014398822136341796 -0.0043921407155096039 0 0.013873683761886199 -0.0034714521751064106 0 0.014171215795423157 -0.0039744087613066449 0 0.013161569028064561 -0.0040658168918052658 0 0.011594074190797226 -0.0034115104139441467 0 0.012195641747500086 -0.003389519518548015 0 0.011586687200255057 -0.0029658445655416634 0 0.011943397537391895 -0.0037923461088001827 0 0.011594074190797226 -0.0034115104139441467 0 0.012195641747500086 -0.003389519518548015 0 0.011943397537391895 -0.0037923461088001827 0 0.012195641747500086 -0.003389519518548015 0 0.012973838524311819 -0.0039306569450553606 0 0.012195641747500086 -0.003389519518548015 0 0.012210274202780725 -0.0029442071887402377 0 0.012786672398489405 -0.0033223505758057949 0 0.012195641747500086 -0.003389519518548015 0 0.012210274202780725 -0.0029442071887402377 0 0.011586687200255057 -0.0029658445655416634 0 0.012210274202780725 -0.0029442071887402377 0 0.011586687200255057 -0.0029658445655416634 0 0.011794862181620304 -0.0025314582673319243 0 0.011383495061230813 -0.0024270539998846792 0 0.011586687200255057 -0.0029658445655416634 0 0.011794862181620304 -0.0025314582673319243 0 0.012077621384568006 -0.0022184685302717418 0 0.012210274202780725 -0.0029442071887402377 0 0.011794862181620304 -0.0025314582673319243 0 0.012077621384568006 -0.0022184685302717418 0 0.012210274202780725 -0.0029442071887402377 0 0.012836008956434683 -0.0026863808317484431 0 0.012836008956434683 -0.0026863808317484431 0 0.013378729612140768 -0.0028395599798461137 0 0.013390498414234741 -0.0022949497569178068 0 0.012836008956434683 -0.0026863808317484431 0 0.013138338425724719 -0.0032109649244310926 0 0.013378729612140768 -0.0028395599798461137 0 0.012836008956434683 -0.0026863808317484431 0 0.013138338425724719 -0.0032109649244310926 0 0.012786672398489405 -0.0033223505758057949 0 0.012210274202780725 -0.0029442071887402377 0 0.012836008956434683 -0.0026863808317484431 0 0.012786672398489405 -0.0033223505758057949 0 0.012195641747500086 -0.003389519518548015 0 0.012786672398489405 -0.0033223505758057949 0 0.012973838524311819 -0.0039306569450553606 0 0.012786672398489405 -0.0033223505758057949 0 0.013188972237511911 -0.0037455937041773659 0 0.012973838524311819 -0.0039306569450553606 0 0.013138338425724719 -0.0032109649244310926 0 0.013188972237511911 -0.0037455937041773659 0 0.013466420323963406 -0.0037060804558959157 0 0.013138338425724719 -0.0032109649244310926 0 0.012786672398489405 -0.0033223505758057949 0 0.013188972237511911 -0.0037455937041773659 0 0.013188972237511911 -0.0037455937041773659 0 0.013163230371568416 -0.0038745799370562221 0 0.012973838524311819 -0.0039306569450553606 0 0.013188972237511911 -0.0037455937041773659 0 0.013276966582471048 -0.0039140391086738453 0 0.013393234891284349 -0.0039007158593369635 0 0.013188972237511911 -0.0037455937041773659 0 0.013163230371568416 -0.0038745799370562221 0 0.013276966582471048 -0.0039140391086738453 0 0.013163230371568416 -0.0038745799370562221 0 0.013276966582471048 -0.0039140391086738453 0 0.013187928103728239 -0.0038649454244114602 0 0.013163230371568416 -0.0038745799370562221 0 0.013226342160271749 -0.0037743126033547986 0 0.013187928103728239 -0.0038649454244114602 0 0.013163230371568416 -0.0038745799370562221 0 0.012973838524311819 -0.0039306569450553606 0 0.013226342160271749 -0.0037743126033547986 0 0.012973838524311819 -0.0039306569450553606 0 0.013314364033082064 -0.0036154982169819961 0 0.013226342160271749 -0.0037743126033547986 0 0.013571314069526854 -0.0036773934896740506 0 0.012973838524311819 -0.0039306569450553606 0 0.013314364033082064 -0.0036154982169819961 0 0.013446742212064539 -0.0041911416559319509 0 0.013626369145643724 -0.0040413605906880713 0 0.014400197417329395 -0.0041637018936683872 0 0.01547201608060088 -0.0060091866292144493 0 0.014895592672728195 -0.0059739783295021855 0 0.01556454018446489 -0.0052388250975847371 0 0.01547201608060088 -0.0060091866292144493 0 0.014895592672728195 -0.0059739783295021855 0 0.015173634623405569 -0.0062101549037695712 0 0.013628308569172749 -0.0048065884707762475 0 0.015148570452287062 -0.0046434983318519845 0 0.014895592672728195 -0.0059739783295021855 0 0.01500801315778179 -0.0063511305181906839 0 0.015173634623405569 -0.0062101549037695712 0 0.013628308569172749 -0.0048065884707762475 0 0.013624749341596605 -0.0035594446561369934 0 0.013276966582471048 -0.0039140391086738453 0 0.013457763210657196 -0.0040199291994548999 0 0.013187928103728239 -0.0038649454244114602 0 0.013276966582471048 -0.0039140391086738453 0 0.013457763210657196 -0.0040199291994548999 0 0.013393234891284349 -0.0039007158593369635 0 0.013457763210657196 -0.0040199291994548999 0 0.013393234891284349 -0.0039007158593369635 0 0.013626369145643724 -0.0040413605906880713 0 0.013628308569172749 -0.0048065884707762475 0 0.013747722690990076 -0.0041639980204535975 0 0.013626369145643724 -0.0040413605906880713 0 0.013466420323963406 -0.0037060804558959157 0 0.013859809490526674 -0.0037746754480843187 0 0.013393234891284349 -0.0039007158593369635 0 0.013626369145643724 -0.0040413605906880713 0 0.013466420323963406 -0.0037060804558959157 0 0.013188972237511911 -0.0037455937041773659 0 0.013393234891284349 -0.0039007158593369635 0 0.013466420323963406 -0.0037060804558959157 0 0.013466420323963406 -0.0037060804558959157 0 0.013859809490526674 -0.0037746754480843187 0 0.013673803698180763 -0.0033506613783276305 0 0.013626369145643724 -0.0040413605906880713 0 0.013859809490526674 -0.0037746754480843187 0 0.014400197417329395 -0.0041637018936683872 0 0.013859809490526674 -0.0037746754480843187 0 0.014380953911305241 -0.0034259433521207122 0 0.014400197417329395 -0.0041637018936683872 0 0.013859809490526674 -0.0037746754480843187 0 0.014380953911305241 -0.0034259433521207122 0 0.013673803698180763 -0.0033506613783276305 0 0.014380953911305241 -0.0034259433521207122 0 0.013673803698180763 -0.0033506613783276305 0 0.013858554273217551 -0.0026991900883517549 0 0.014380953911305241 -0.0034259433521207122 0 0.013858554273217551 -0.0026991900883517549 0 0.014663884806110172 -0.002990809751143947 0 0.013673803698180763 -0.0033506613783276305 0 0.013378729612140768 -0.0028395599798461137 0 0.013858554273217551 -0.0026991900883517549 0 0.013138338425724719 -0.0032109649244310926 0 0.013673803698180763 -0.0033506613783276305 0 0.013378729612140768 -0.0028395599798461137 0 0.013138338425724719 -0.0032109649244310926 0 0.013466420323963406 -0.0037060804558959157 0 0.013673803698180763 -0.0033506613783276305 0 0.013767545051710524 -0.0026680083344140433 0 0.013041162223954642 -0.0021652931612406523 0 0.013378729612140768 -0.0028395599798461137 0 0.013858554273217551 -0.0026991900883517549 0 0.013390498414234741 -0.0022949497569178068 0 0.013858554273217551 -0.0026991900883517549 0 0.013899529624164521 -0.0019391702210925926 0 0.014518747770978594 -0.0025033745461669268 0 0.013858554273217551 -0.0026991900883517549 0 0.014518747770978594 -0.0025033745461669268 0 0.014663884806110172 -0.002990809751143947 0 0.013858554273217551 -0.0026991900883517549 0 0.013899529624164521 -0.0019391702210925926 0 0.012662869943448708 -0.0020479107838611843 0 0.013899529624164521 -0.0019391702210925926 0 0.013297000332727236 -0.0013755023970331275 0 0.012662869943448708 -0.0020479107838611843 0 0.013899529624164521 -0.0019391702210925926 0 0.013297000332727236 -0.0013755023970331275 0 0.013944804842486065 -0.0012045945915000482 0 0.013297000332727236 -0.0013755023970331275 0 0.0125866481677754 -0.0012117666137850282 0 0.012662869943448708 -0.0020479107838611843 0 0.0125866481677754 -0.0012117666137850282 0 0.012662869943448708 -0.0020479107838611843 0 0.01186266116523174 -0.0014692725411984422 0 0.013041162223954642 -0.0021652931612406523 0 0.012343333083581111 -0.0016435427444177306 0 0.012836008956434683 -0.0026863808317484431 0 0.013390498414234741 -0.0022949497569178068 0 0.012823509167439595 -0.0018145650434595413 0 0.012077621384568006 -0.0022184685302717418 0 0.012836008956434683 -0.0026863808317484431 0 0.012823509167439595 -0.0018145650434595413 0 0.012077621384568006 -0.0022184685302717418 0 0.012823509167439595 -0.0018145650434595413 0 0.012165431259598845 -0.0013684890902486658 0 0.012343333083581111 -0.0016435427444177306 0 0.011761638211944049 -0.0012309464726073728 0 0.0125866481677754 -0.0012117666137850282 0 0.01186266116523174 -0.0014692725411984422 0 0.011951905896599562 -0.00074186503242744991 0 0.01186266116523174 -0.0014692725411984422 0 0.011360570919999384 -0.0010627664561278203 0 0.011951905896599562 -0.00074186503242744991 0 0.011360570919999384 -0.0010627664561278203 0 0.011351622978139653 -0.00079161994781195958 0 0.011951905896599562 -0.00074186503242744991 0 0.011756771263635243 -0.00041418786472475192 0 0.011351622978139653 -0.00079161994781195958 0 0.011951905896599562 -0.00074186503242744991 0 0.012232074135663674 -8.2156741009081668e-05 0 0.011756771263635243 -0.00041418786472475192 0 0.011951905896599562 -0.00074186503242744991 0 0.012232074135663674 -8.2156741009081668e-05 0 0.011951905896599562 -0.00074186503242744991 0 0.01304370597057476 -0.00060983988326985736 0 0.012177640310531765 0.00038524126065492406 0 0.012232074135663674 -8.2156741009081668e-05 0 0.012661004665107944 0.0007867406574355155 0 0.012350259486689259 -2.151930618863839e-05 0 0.012824733081038445 0.000100721401118815 0 0.013297000332727236 -0.0013755023970331275 0 0.0125866481677754 -0.0012117666137850282 0 0.01304370597057476 -0.00060983988326985736 0 0.012824733081038445 0.000100721401118815 0 0.013366397145620268 0.00026237641912011804 0 0.013297000332727236 -0.0013755023970331275 0 0.01304370597057476 -0.00060983988326985736 0 0.013944804842486065 -0.0012045945915000482 0 0.0125866481677754 -0.0012117666137850282 0 0.011951905896599562 -0.00074186503242744991 0 0.01304370597057476 -0.00060983988326985736 0 0.012147695769887192 0.00084293842820862351 0 0.011717687907562323 0.00082388043413791109 0 0.012014554132484314 0.0012425656390260865 0 0.012654875366713371 0.0013422779708724508 0 0.012147695769887192 0.00084293842820862351 0 0.012014554132484314 0.0012425656390260865 0 0.012654875366713371 0.0013422779708724508 0 0.012479556423941796 0.00098485344410700329 0 0.012769447219614205 0.0018365081552895487 0 0.012661004665107944 0.0007867406574355155 0 0.012479556423941796 0.00098485344410700329 0 0.012769447219614205 0.0018365081552895487 0 0.012654875366713371 0.0013422779708724508 0 0.012479556423941796 0.00098485344410700329 0 0.012147695769887192 0.00084293842820862351 0 0.012177640310531765 0.00038524126065492406 0 0.012479556423941796 0.00098485344410700329 0 0.012147695769887192 0.00084293842820862351 0 0.012177640310531765 0.00038524126065492406 0 0.012661004665107944 0.0007867406574355155 0 0.012479556423941796 0.00098485344410700329 0 0.011778294848703753 0.00048938365253262453 0 0.012177640310531765 0.00038524126065492406 0 0.012147695769887192 0.00084293842820862351 0 0.011778294848703753 0.00048938365253262453 0 0.012147695769887192 0.00084293842820862351 0 0.011717687907562323 0.00082388043413791109 0 0.011269824326039971 0.00051035060872474782 0 0.011778294848703753 0.00048938365253262453 0 0.011717687907562323 0.00082388043413791109 0 0.011269824326039971 0.00051035060872474782 0 0.011717687907562323 0.00082388043413791109 0 0.01126360373186624 0.00092170148317995235 0 0.011269824326039971 0.00051035060872474782 0 0.01126360373186624 0.00092170148317995235 0 0.010860538866862274 0.00067527279315911834 0 0.01126360373186624 0.00092170148317995235 0 0.011280970583403917 0.0013463467538387943 0 0.010820808519986897 0.0011101791975734413 0 0.011717687907562323 0.00082388043413791109 0 0.01126360373186624 0.00092170148317995235 0 0.012014554132484314 0.0012425656390260865 0 0.01126360373186624 0.00092170148317995235 0 0.012014554132484314 0.0012425656390260865 0 0.011280970583403917 0.0013463467538387943 0 0.012014554132484314 0.0012425656390260865 0 0.011654930526337329 0.0018324048778754997 0 0.011280970583403917 0.0013463467538387943 0 0.015148174951521483 0.0018481340375170231 0 0.016690413615421656 0.0010662931499758222 0 0.011654930526337329 0.0018324048778754997 0 0.011280970583403917 0.0013463467538387943 0 0.010991224879199261 0.0015860408528874832 0 0.018679766590482948 0.0020337186107342031 0 0.020501546258768242 -0.00026634999551263059 0 0.022572473595522967 0.00061951688598532403 0 0.018679766590482948 0.0020337186107342031 0 0.020501546258768242 -0.00026634999551263059 0 0.017000767566672636 -0.00067576884221627912 0 0.013425237326514903 0.0017537980848250194 0 0.013992846870921656 -2.1408029891710444e-05 0 0.017000767566672636 -0.00067576884221627912 0 0.018679766590482948 0.0020337186107342031 0 0.013425237326514903 0.0017537980848250194 0 0.017000767566672636 -0.00067576884221627912 0 0.012654875366713371 0.0013422779708724508 0 0.012014554132484314 0.0012425656390260865 0 0.013425237326514903 0.0017537980848250194 0 0.012014554132484314 0.0012425656390260865 0 0.011654930526337329 0.0018324048778754997 0 0.013425237326514903 0.0017537980848250194 0 0.015148174951521483 0.0018481340375170231 0 0.013563805308525649 0.0018164116710568086 0 0.012769447219614205 0.0018365081552895487 0 0.013425237326514903 0.0017537980848250194 0 0.013992846870921656 -2.1408029891710444e-05 0 0.012654875366713371 0.0013422779708724508 0 0.012769447219614205 0.0018365081552895487 0 0.013425237326514903 0.0017537980848250194 0 0.013899529624164521 -0.0019391702210925926 0 0.014959528084790412 -0.0019489192779427972 0 0.014518747770978594 -0.0025033745461669268 0 0.013366397145620268 0.00026237641912011804 0 0.01455090840389881 -0.0010174711832640429 0 0.013899529624164521 -0.0019391702210925926 0 0.013944804842486065 -0.0012045945915000482 0 0.014959528084790412 -0.0019489192779427972 0 0.014959528084790412 -0.0019489192779427972 0 0.014518747770978594 -0.0025033745461669268 0 0.015354639840459679 -0.0030147554592818422 0 0.014518747770978594 -0.0025033745461669268 0 0.014663884806110172 -0.002990809751143947 0 0.015354639840459679 -0.0030147554592818422 0 0.017000767566672636 -0.00067576884221627912 0 0.016280569288757461 -0.002907987973952272 0 0.017794864098908618 -0.0025447901256343934 0 0.014959528084790412 -0.0019489192779427972 0 0.016280569288757461 -0.002907987973952272 0 0.015354639840459679 -0.0030147554592818422 0 0.013992846870921656 -2.1408029891710444e-05 0 0.017000767566672636 -0.00067576884221627912 0 0.016280569288757461 -0.002907987973952272 0 0.01455090840389881 -0.0010174711832640429 0 0.016049644330111881 -0.0028213916526018449 0 0.016280569288757461 -0.002907987973952272 0 0.017426738360402767 -0.0036268941076174972 0 0.017794864098908618 -0.0025447901256343934 0 0.016280569288757461 -0.002907987973952272 0 0.016260655888540632 -0.0038202474101899373 0 0.015354639840459679 -0.0030147554592818422 0 0.016260655888540632 -0.0038202474101899373 0 0.017256528881801573 -0.0046534664600994813 0 0.017426738360402767 -0.0036268941076174972 0 0.016280569288757461 -0.002907987973952272 0 0.016260655888540632 -0.0038202474101899373 0 0.017426738360402767 -0.0036268941076174972 0 0.014380953911305241 -0.0034259433521207122 0 0.016260655888540632 -0.0038202474101899373 0 0.015354639840459679 -0.0030147554592818422 0 0.014380953911305241 -0.0034259433521207122 0 0.014663884806110172 -0.002990809751143947 0 0.015354639840459679 -0.0030147554592818422 0 0.014380953911305241 -0.0034259433521207122 0 0.016260655888540632 -0.0038202474101899373 0 0.014400197417329395 -0.0041637018936683872 0 0.01556454018446489 -0.0052388250975847371 0 0.016339250603370256 -0.0050942973766016494 0 0.016138431051286286 -0.0058361033039885839 0 0.016260655888540632 -0.0038202474101899373 0 0.01556454018446489 -0.0052388250975847371 0 0.016339250603370256 -0.0050942973766016494 0 0.016217411997407196 -0.0038433871639123292 0 0.015148570452287062 -0.0046434983318519845 0 0.016260655888540632 -0.0038202474101899373 0 0.017256528881801573 -0.0046534664600994813 0 0.016339250603370256 -0.0050942973766016494 0 0.017256528881801573 -0.0046534664600994813 0 0.016339250603370256 -0.0050942973766016494 0 0.017293175338230455 -0.0054873246181791138 0 0.016339250603370256 -0.0050942973766016494 0 0.016681099791979979 -0.0057062181528786584 0 0.017293175338230455 -0.0054873246181791138 0 0.016339250603370256 -0.0050942973766016494 0 0.016681099791979979 -0.0057062181528786584 0 0.016138431051286286 -0.0058361033039885839 0 0.016681099791979979 -0.0057062181528786584 0 0.016799366838441444 -0.0062243247949374855 0 0.016138431051286286 -0.0058361033039885839 0 0.016681099791979979 -0.0057062181528786584 0 0.017293175338230455 -0.0054873246181791138 0 0.017375863688780198 -0.0060667699863740671 0 0.017293175338230455 -0.0054873246181791138 0 0.017375863688780198 -0.0060667699863740671 0 0.018024137405893294 -0.006000554285169258 0 0.017375863688780198 -0.0060667699863740671 0 0.016799366838441444 -0.0062243247949374855 0 0.017800165321111248 -0.0068596619901960905 0 0.016681099791979979 -0.0057062181528786584 0 0.017375863688780198 -0.0060667699863740671 0 0.016799366838441444 -0.0062243247949374855 0 0.01547201608060088 -0.0060091866292144493 0 0.016138431051286286 -0.0058361033039885839 0 0.016287535934210891 -0.0067294166883814753 0 0.01547201608060088 -0.0060091866292144493 0 0.01556454018446489 -0.0052388250975847371 0 0.016138431051286286 -0.0058361033039885839 0 0.016799366838441444 -0.0062243247949374855 0 0.016138431051286286 -0.0058361033039885839 0 0.016287535934210891 -0.0067294166883814753 0 0.029426259363390456 -0.00054017951291998004 0 0.028542538101500252 -0.00048724070270255863 0 0.029182474881065623 -0.00050397478435200991 0 0.029182474881065623 -0.00050397478435200991 0 0.029420878804049769 -0.00046857984283716557 0 0.029816423086986323 -0.00057562334008969408 0 0.029426259363390456 -0.00054017951291998004 0 0.029182474881065623 -0.00050397478435200991 0 0.029816423086986323 -0.00057562334008969408 0 0.029426259363390456 -0.00054017951291998004 0 0.029640046124904049 -0.00061759212610490465 0 0.029816423086986323 -0.00057562334008969408 0 0.022836743819343804 -0.0047920849207180828 0 0.029673982034748286 -0.00028965307253170169 0 0.01915850079217735 -0.0059424438272719206 0 0.018024137405893294 -0.006000554285169258 0 0.017800165321111248 -0.0068596619901960905 0 0.022836743819343804 -0.0047920849207180828 0 0.026480408555026688 -0.0018517560162274933 0 0.024759757721394958 -0.0043268340616259412 0 0.027715054678131183 -0.0010010996205736945 0 0.025681258896739736 -0.0013227140153745267 0 0.017375863688780198 -0.0060667699863740671 0 0.018024137405893294 -0.006000554285169258 0 0.017800165321111248 -0.0068596619901960905 0 0.017293175338230455 -0.0054873246181791138 0 0.018024137405893294 -0.006000554285169258 0 0.018195858785110111 -0.0052413696491951005 0 0.01915850079217735 -0.0059424438272719206 0 0.018024137405893294 -0.006000554285169258 0 0.018195858785110111 -0.0052413696491951005 0 0.01915850079217735 -0.0059424438272719206 0 0.018195858785110111 -0.0052413696491951005 0 0.019031496009101537 -0.0046575988460039785 0 0.017256528881801573 -0.0046534664600994813 0 0.017293175338230455 -0.0054873246181791138 0 0.018195858785110111 -0.0052413696491951005 0 0.017256528881801573 -0.0046534664600994813 0 0.018206929127348132 -0.0043432742382639332 0 0.017426738360402767 -0.0036268941076174972 0 0.017256528881801573 -0.0046534664600994813 0 0.018195858785110111 -0.0052413696491951005 0 0.018206929127348132 -0.0043432742382639332 0 0.018195858785110111 -0.0052413696491951005 0 0.018206929127348132 -0.0043432742382639332 0 0.019031496009101537 -0.0046575988460039785 0 0.018206929127348132 -0.0043432742382639332 0 0.019031496009101537 -0.0046575988460039785 0 0.018891728267132306 -0.0034210403827171537 0 0.022836743819343804 -0.0047920849207180828 0 0.019642047170744574 -0.0052540344388381606 0 0.01915850079217735 -0.0059424438272719206 0 0.019031496009101537 -0.0046575988460039785 0 0.02044577511849598 -0.0040654134829863058 0 0.019352091077896552 -0.0079587151130094437 0 0.021780039002128663 -0.0052462870935486424 0 0.02044577511849598 -0.0040654134829863058 0 0.029426259363390456 -0.00054017951291998004 0 0.028542538101500252 -0.00048724070270255863 0 0.028159027341962635 -0.00093681860396584887 0 0.022836743819343804 -0.0047920849207180828 0 0.025110648580511808 -0.0027515538593686798 0 0.021780039002128663 -0.0052462870935486424 0 0.02166944675005944 -0.0030223812229320341 0 0.02044577511849598 -0.0040654134829863058 0 0.02166944675005944 -0.0030223812229320341 0 0.02044577511849598 -0.0040654134829863058 0 0.020347835556733779 -0.0027928276312289137 0 0.02044577511849598 -0.0040654134829863058 0 0.020347835556733779 -0.0027928276312289137 0 0.018891728267132306 -0.0034210403827171537 0 0.019031496009101537 -0.0046575988460039785 0 0.02044577511849598 -0.0040654134829863058 0 0.018891728267132306 -0.0034210403827171537 0 0.020347835556733779 -0.0027928276312289137 0 0.018891728267132306 -0.0034210403827171537 0 0.01938731210044977 -0.0018734283525760353 0 0.020347835556733779 -0.0027928276312289137 0 0.01938731210044977 -0.0018734283525760353 0 0.021541575718326458 -0.0017365597975208707 0 0.02166944675005944 -0.0030223812229320341 0 0.020347835556733779 -0.0027928276312289137 0 0.021541575718326458 -0.0017365597975208707 0 0.018206929127348132 -0.0043432742382639332 0 0.017426738360402767 -0.0036268941076174972 0 0.018891728267132306 -0.0034210403827171537 0 0.018891728267132306 -0.0034210403827171537 0 0.017794864098908618 -0.0025447901256343934 0 0.01938731210044977 -0.0018734283525760353 0 0.017426738360402767 -0.0036268941076174972 0 0.018891728267132306 -0.0034210403827171537 0 0.017794864098908618 -0.0025447901256343934 0 0.020501546258768242 -0.00026634999551263059 0 0.017000767566672636 -0.00067576884221627912 0 0.01938731210044977 -0.0018734283525760353 0 0.017000767566672636 -0.00067576884221627912 0 0.017794864098908618 -0.0025447901256343934 0 0.01938731210044977 -0.0018734283525760353 0 0.020501546258768242 -0.00026634999551263059 0 0.021541575718326458 -0.0017365597975208707 0 0.022633275905259591 -0.00071138955352797941 0 0.020501546258768242 -0.00026634999551263059 0 0.01938731210044977 -0.0018734283525760353 0 0.021541575718326458 -0.0017365597975208707 0 0.021541575718326458 -0.0017365597975208707 0 0.022633275905259591 -0.00071138955352797941 0 0.024416538725353498 -0.0017924145783563214 0 0.022633275905259591 -0.00071138955352797941 0 0.023315117801104537 -0.00074945775006750109 0 0.024416538725353498 -0.0017924145783563214 0 0.023315117801104537 -0.00074945775006750109 0 0.024028430369817059 -0.00095823644035969489 0 0.022748086152885708 -0.00046041861701214015 0 0.023315117801104537 -0.00074945775006750109 0 0.024028430369817059 -0.00095823644035969489 0 0.024416538725353498 -0.0017924145783563214 0 0.024028430369817059 -0.00095823644035969489 0 0.024416538725353498 -0.0017924145783563214 0 0.025885080283571137 -0.00052734706804178689 0 0.02166944675005944 -0.0030223812229320341 0 0.021541575718326458 -0.0017365597975208707 0 0.024416538725353498 -0.0017924145783563214 0 0.024416538725353498 -0.0017924145783563214 0 0.026415457178474863 -0.0008494380673216373 0 0.025885080283571137 -0.00052734706804178689 0 0.025110648580511808 -0.0027515538593686798 0 0.024687963599414019 -0.0020522419535124532 0 0.028159027341962635 -0.00093681860396584887 0 0.024416538725353498 -0.0017924145783563214 0 0.026415457178474863 -0.0008494380673216373 0 0.021780039002128663 -0.0052462870935486424 0 0.02166944675005944 -0.0030223812229320341 0 0.024416538725353498 -0.0017924145783563214 0 0.028159027341962635 -0.00093681860396584887 0 0.027293748927397207 -0.000453740656853461 0 0.026415457178474863 -0.0008494380673216373 0 0.028542538101500252 -0.00048724070270255863 0 0.028159027341962635 -0.00093681860396584887 0 0.027293748927397207 -0.000453740656853461 0 0.027293748927397207 -0.000453740656853461 0 0.026415457178474863 -0.0008494380673216373 0 0.025885080283571137 -0.00052734706804178689 0 0.024028430369817059 -0.00095823644035969489 0 0.025885080283571137 -0.00052734706804178689 0 0.023132687445812355 -7.8654197332115689e-07 0 0.027293748927397207 -0.000453740656853461 0 0.025885080283571137 -0.00052734706804178689 0 0.028774453288378719 -0.00057456364830510247 0 0.026097890704299617 -0.00053559183231610891 0 0.026263382551793505 -0.00011627656024460183 0 0.025885080283571137 -0.00052734706804178689 0 0.023679715117483062 0.0006743666626008954 0 0.023132687445812355 -7.8654197332115689e-07 0 0.027293748927397207 -0.000453740656853461 0 0.028774453288378719 -0.00057456364830510247 0 0.028476059750933973 -0.00052290088784981848 0 0.028774453288378719 -0.00057456364830510247 0 0.028476059750933973 -0.00052290088784981848 0 0.029188570504235331 -0.00057653023709683946 0 0.028476059750933973 -0.00052290088784981848 0 0.029420878804049769 -0.00046857984283716557 0 0.029188570504235331 -0.00057653023709683946 0 0.029182474881065623 -0.00050397478435200991 0 0.028476059750933973 -0.00052290088784981848 0 0.029420878804049769 -0.00046857984283716557 0 0.028542538101500252 -0.00048724070270255863 0 0.027293748927397207 -0.000453740656853461 0 0.028476059750933973 -0.00052290088784981848 0 0.028542538101500252 -0.00048724070270255863 0 0.029182474881065623 -0.00050397478435200991 0 0.028476059750933973 -0.00052290088784981848 0 0.024994222162307997 1.0264628845511585e-06 0 0.023683591633413097 0.00035754056751820192 0 0.024368242896121377 -7.6268798127065789e-05 0 0.024994222162307997 1.0264628845511585e-06 0 0.023683591633413097 0.00035754056751820192 0 0.022533540160236228 1.6582380698056105e-07 0 0.023679715117483062 0.0006743666626008954 0 0.023683591633413097 0.00035754056751820192 0 0.024368242896121377 -7.6268798127065789e-05 0 0.026263382551793505 -0.00011627656024460183 0 0.026744230305474494 -0.00030527929234815175 0 0.023679715117483062 0.0006743666626008954 0 0.023683591633413097 0.00035754056751820192 0 0.023132687445812355 -7.8654197332115689e-07 0 0.023132687445812355 -7.8654197332115689e-07 0 0.022533540160236228 1.6582380698056105e-07 0 0.021888856334709942 -2.6737742410946692e-05 0 0.023683591633413097 0.00035754056751820192 0 0.023132687445812355 -7.8654197332115689e-07 0 0.022533540160236228 1.6582380698056105e-07 0 0.022533540160236228 1.6582380698056105e-07 0 0.021888856334709942 -2.6737742410946692e-05 0 0.020072081118725243 1.2440061675784093e-06 0 0.024028430369817059 -0.00095823644035969489 0 0.023132687445812355 -7.8654197332115689e-07 0 0.022748086152885708 -0.00046041861701214015 0 0.023132687445812355 -7.8654197332115689e-07 0 0.021888856334709942 -2.6737742410946692e-05 0 0.022748086152885708 -0.00046041861701214015 0 0.023315117801104537 -0.00074945775006750109 0 0.022748086152885708 -0.00046041861701214015 0 0.021196779752259722 -0.00018952378351414591 0 0.021888856334709942 -2.6737742410946692e-05 0 0.022748086152885708 -0.00046041861701214015 0 0.021196779752259722 -0.00018952378351414591 0 0.021196779752259722 -0.00018952378351414591 0 0.020072081118725243 1.2440061675784093e-06 0 0.017840039625434734 -4.6262150437160117e-06 0 0.021888856334709942 -2.6737742410946692e-05 0 0.021196779752259722 -0.00018952378351414591 0 0.020072081118725243 1.2440061675784093e-06 0 0.014278738445860414 -0.00078042710776339943 0 0.016456042776176918 0.00042485191481276185 0 0.021196779752259722 -0.00018952378351414591 0 0.017985441232467595 -0.00043075265329418401 0 0.017840039625434734 -4.6262150437160117e-06 0 0.021196779752259722 -0.00018952378351414591 0 0.017985441232467595 -0.00043075265329418401 0 0.022599871916957236 -0.0011837789268186706 0 0.014278738445860414 -0.00078042710776339943 0 0.014359192003464277 3.6678520378319994e-05 0 0.017608825533822908 -4.6887874089995374e-08 0 0.014602678501134737 5.4532368767147774e-08 0 0.015465775606827032 -6.2520330649888175e-07 0 0.014278738445860414 -0.00078042710776339943 0 0.012758446510027201 0.0010333733715873316 0 0.010174678763173321 0.0014590694970780349 0 0.010327426903088082 0.0013144484908154883 0 0.010549631428518136 0.00149213723444699 0 0.010327426903088082 0.0013144484908154883 0 0.010143306934300888 0.0011705827644597577 0 0.010458615400722824 0.0011273680926852021 0 0.010174678763173321 0.0014590694970780349 0 0.010327426903088082 0.0013144484908154883 0 0.010143306934300888 0.0011705827644597577 0 0.010327426903088082 0.0013144484908154883 0 0.010549631428518136 0.00149213723444699 0 0.010458615400722824 0.0011273680926852021 0 0.023315117801104537 -0.00074945775006750109 0 0.021196779752259722 -0.00018952378351414591 0 0.022599871916957236 -0.0011837789268186706 0 0.016456042776176918 0.00042485191481276185 0 0.016690413615421656 0.0010662931499758222 0 0.023315117801104537 -0.00074945775006750109 0 0.022599871916957236 -0.0011837789268186706 0 0.022572473595522967 0.00061951688598532403 0 0.020501546258768242 -0.00026634999551263059 0 0.022633275905259591 -0.00071138955352797941 0 0.022572473595522967 0.00061951688598532403 0 0.022633275905259591 -0.00071138955352797941 0 0.023315117801104537 -0.00074945775006750109 0 0.022572473595522967 0.00061951688598532403 0 0.011280970583403917 0.0013463467538387943 0 0.010991224879199261 0.0015860408528874832 0 0.010820808519986897 0.0011101791975734413 0 0.010549631428518136 0.00149213723444699 0 0.010991224879199261 0.0015860408528874832 0 0.010820808519986897 0.0011101791975734413 0 0.010549631428518136 0.00149213723444699 0 0.010820808519986897 0.0011101791975734413 0 0.010458615400722824 0.0011273680926852021 0 0.010820808519986897 0.0011101791975734413 0 0.010576016819252295 0.000792050874535428 0 0.010458615400722824 0.0011273680926852021 0 0.01126360373186624 0.00092170148317995235 0 0.010820808519986897 0.0011101791975734413 0 0.010860538866862274 0.00067527279315911834 0 0.010820808519986897 0.0011101791975734413 0 0.010860538866862274 0.00067527279315911834 0 0.010576016819252295 0.000792050874535428 0 0.010369688982658255 0.00057845864839739958 0 0.010576016819252295 0.000792050874535428 0 0.010339964405846334 0.00088034487324682351 0 0.010576016819252295 0.000792050874535428 0 0.010339964405846334 0.00088034487324682351 0 0.010458615400722824 0.0011273680926852021 0 0.011596916657777128 -3.8251783380434926e-08 0 0.013317712429523466 5.525527983450792e-06 0 0.014602678501134737 5.4532368767147774e-08 0 0.010369688982658255 0.00057845864839739958 0 0.010339964405846334 0.00088034487324682351 0 0.010121087418399266 0.00082499434162050316 0 0.013317712429523466 5.525527983450792e-06 0 0.014602678501134737 5.4532368767147774e-08 0 0.015465775606827032 -6.2520330649888175e-07 0 0.011753508599512057 0.00049013728769520596 0 0.012758446510027201 0.0010333733715873316 0 0.010339964405846334 0.00088034487324682351 0 0.010121087418399266 0.00082499434162050316 0 0.010143306934300888 0.0011705827644597577 0 0.010339964405846334 0.00088034487324682351 0 0.010143306934300888 0.0011705827644597577 0 0.010458615400722824 0.0011273680926852021 0 0.035577165942169683 0.00038117579629338489 0 0.034638587204026162 0.00055069561774861054 0 0.03412010275516307 0.00035704772523414123 0 0.036012384534223271 7.1825195498195403e-07 0 0.035577165942169683 0.00038117579629338489 0 0.03412010275516307 0.00035704772523414123 0 0.036012384534223271 7.1825195498195403e-07 0 0.03412010275516307 0.00035704772523414123 0 0.03316091938846305 4.1571378483897282e-07 0 0.036012384534223271 7.1825195498195403e-07 0 0.037011145719644811 0.0003159790671054072 0 0.038864656864839885 7.0527334087546203e-07 0 0.036012384534223271 7.1825195498195403e-07 0 0.035577165942169683 0.00038117579629338489 0 0.037011145719644811 0.0003159790671054072 0 0.035577165942169683 0.00038117579629338489 0 0.03606627502315559 0.00052856226538993886 0 0.037011145719644811 0.0003159790671054072 0 0.035577165942169683 0.00038117579629338489 0 0.03606627502315559 0.00052856226538993886 0 0.034638587204026162 0.00055069561774861054 0 0.03606627502315559 0.00052856226538993886 0 0.035818785968176892 0.00056994670834895316 0 0.034760903504078761 0.00065903324935190724 0 0.035818785968176892 0.00056994670834895316 0 0.034760903504078761 0.00065903324935190724 0 0.034831414527159578 0.00062569293891840913 0 0.035818785968176892 0.00056994670834895316 0 0.034831414527159578 0.00062569293891840913 0 0.036177067728195643 0.00046956294808886032 0 0.034760903504078761 0.00065903324935190724 0 0.034638587204026162 0.00055069561774861054 0 0.03381162696164048 0.00063550566236113206 0 0.03606627502315559 0.00052856226538993886 0 0.034760903504078761 0.00065903324935190724 0 0.034638587204026162 0.00055069561774861054 0 0.033382880937589267 0.00052754976459319202 0 0.03381162696164048 0.00063550566236113206 0 0.032990776333741215 0.00058979551205493085 0 0.034638587204026162 0.00055069561774861054 0 0.033382880937589267 0.00052754976459319202 0 0.03381162696164048 0.00063550566236113206 0 0.034760903504078761 0.00065903324935190724 0 0.03381162696164048 0.00063550566236113206 0 0.033585647003320625 0.00068642140938381818 0 0.03381162696164048 0.00063550566236113206 0 0.032990776333741215 0.00058979551205493085 0 0.033585647003320625 0.00068642140938381818 0 0.032990776333741215 0.00058979551205493085 0 0.031998522141081724 0.00040985557867064952 0 0.032881421882286238 0.00064152929942602548 0 0.033382880937589267 0.00052754976459319202 0 0.032990776333741215 0.00058979551205493085 0 0.032195250429115814 0.00039366685512479919 0 0.033382880937589267 0.00052754976459319202 0 0.032490518754888335 0.00029156969861035185 0 0.032195250429115814 0.00039366685512479919 0 0.032490518754888335 0.00029156969861035185 0 0.030307252781351608 1.4053114085145456e-06 0 0.032195250429115814 0.00039366685512479919 0 0.033382880937589267 0.00052754976459319202 0 0.032490518754888335 0.00029156969861035185 0 0.03412010275516307 0.00035704772523414123 0 0.034638587204026162 0.00055069561774861054 0 0.033382880937589267 0.00052754976459319202 0 0.03412010275516307 0.00035704772523414123 0 0.032490518754888335 0.00029156969861035185 0 0.03412010275516307 0.00035704772523414123 0 0.03316091938846305 4.1571378483897282e-07 0 0.032490518754888335 0.00029156969861035185 0 0.03316091938846305 4.1571378483897282e-07 0 0.030307252781351608 1.4053114085145456e-06 0 0.030307252781351608 1.4053114085145456e-06 0 0.031066874793449138 0.0001568426475305038 0 0.032195250429115814 0.00039366685512479919 0 0.030307252781351608 1.4053114085145456e-06 0 0.029838207812272158 -3.071373738596887e-05 0 0.031066874793449138 0.0001568426475305038 0 0.030307252781351608 1.4053114085145456e-06 0 0.027462047493938838 -2.2236049029258637e-06 0 0.029838207812272158 -3.071373738596887e-05 0 0.027455067778677757 1.5576065349639511e-07 0 0.026744230305474494 -0.00030527929234815175 0 0.027462047493938838 -2.2236049029258637e-06 0 0.029838207812272158 -3.071373738596887e-05 0 0.0292026293603708 -0.00089421722124072376 0 0.029838207812272158 -3.071373738596887e-05 0 0.0292026293603708 -0.00089421722124072376 0 0.029646013054670468 -0.0005644891673365288 0 0.028774453288378719 -0.00057456364830510247 0 0.0292026293603708 -0.00089421722124072376 0 0.029646013054670468 -0.0005644891673365288 0 0.024994222162307997 1.0264628845511585e-06 0 0.027453043405025294 -1.5785561111235213e-06 0 0.024368242896121377 -7.6268798127065789e-05 0 0.030032270930025941 -0.00034325935037840896 0 0.029420878804049769 -0.00046857984283716557 0 0.030253096726546743 -0.00031217487619009739 0 0.030032270930025941 -0.00034325935037840896 0 0.029420878804049769 -0.00046857984283716557 0 0.029188570504235331 -0.00057653023709683946 0 0.030032270930025941 -0.00034325935037840896 0 0.029646013054670468 -0.0005644891673365288 0 0.029188570504235331 -0.00057653023709683946 0 0.028774453288378719 -0.00057456364830510247 0 0.029646013054670468 -0.0005644891673365288 0 0.029188570504235331 -0.00057653023709683946 0 0.029838207812272158 -3.071373738596887e-05 0 0.029646013054670468 -0.0005644891673365288 0 0.030915608232252343 4.4183902197663677e-05 0 0.030032270930025941 -0.00034325935037840896 0 0.029646013054670468 -0.0005644891673365288 0 0.030915608232252343 4.4183902197663677e-05 0 0.030032270930025941 -0.00034325935037840896 0 0.031129282336667927 7.0374226205396876e-05 0 0.030253096726546743 -0.00031217487619009739 0 0.030032270930025941 -0.00034325935037840896 0 0.030915608232252343 4.4183902197663677e-05 0 0.031129282336667927 7.0374226205396876e-05 0 0.030915608232252343 4.4183902197663677e-05 0 0.031998522141081724 0.00040985557867064952 0 0.031129282336667927 7.0374226205396876e-05 0 0.031066874793449138 0.0001568426475305038 0 0.030915608232252343 4.4183902197663677e-05 0 0.031998522141081724 0.00040985557867064952 0 0.029838207812272158 -3.071373738596887e-05 0 0.031066874793449138 0.0001568426475305038 0 0.030915608232252343 4.4183902197663677e-05 0 0.031066874793449138 0.0001568426475305038 0 0.032195250429115814 0.00039366685512479919 0 0.031998522141081724 0.00040985557867064952 0 0.032990776333741215 0.00058979551205493085 0 0.032195250429115814 0.00039366685512479919 0 0.031998522141081724 0.00040985557867064952 0 0.031998522141081724 0.00040985557867064952 0 0.032094768393119699 0.00041500803607528753 0 0.032881421882286238 0.00064152929942602548 0 0.032618752012899141 0.00057748223146942797 0 0.032094768393119699 0.00041500803607528753 0 0.032881421882286238 0.00064152929942602548 0 0.032618752012899141 0.00057748223146942797 0 0.032094768393119699 0.00041500803607528753 0 0.032791328296040492 0.00056125952005851648 0 0.032618752012899141 0.00057748223146942797 0 0.032791328296040492 0.00056125952005851648 0 0.032958320383203746 0.00065658916752125345 0 0.032398294525236751 0.00091762005974919958 0 0.032626339724686766 0.00072585260335783703 0 0.032094768393119699 0.00041500803607528753 0 0.031862167306986627 6.9128337357913489e-05 0 0.032791328296040492 0.00056125952005851648 0 0.032094768393119699 0.00041500803607528753 0 0.031514832440854242 0.00012176497263848967 0 0.031862167306986627 6.9128337357913489e-05 0 0.031998522141081724 0.00040985557867064952 0 0.032094768393119699 0.00041500803607528753 0 0.031129282336667927 7.0374226205396876e-05 0 0.032094768393119699 0.00041500803607528753 0 0.031129282336667927 7.0374226205396876e-05 0 0.031514832440854242 0.00012176497263848967 0 0.031129282336667927 7.0374226205396876e-05 0 0.031043750506044566 -7.7398359448054038e-05 0 0.030253096726546743 -0.00031217487619009739 0 0.031043750506044566 -7.7398359448054038e-05 0 0.030253096726546743 -0.00031217487619009739 0 0.030776288402802131 -0.00029159748389969526 0 0.031129282336667927 7.0374226205396876e-05 0 0.031043750506044566 -7.7398359448054038e-05 0 0.031514832440854242 0.00012176497263848967 0 0.031043750506044566 -7.7398359448054038e-05 0 0.031514832440854242 0.00012176497263848967 0 0.031862167306986627 6.9128337357913489e-05 0 0.031043750506044566 -7.7398359448054038e-05 0 0.031862167306986627 6.9128337357913489e-05 0 0.030776288402802131 -0.00029159748389969526 0 0.031862167306986627 6.9128337357913489e-05 0 0.030746454265238993 -0.00066853788725948406 0 0.030776288402802131 -0.00029159748389969526 0 0.032426064738276764 0.0012882630834231698 0 0.032343772277403357 0.0013978933929367262 0 0.032353747101944906 0.0014488183691154992 0 0.032398294525236751 0.00091762005974919958 0 0.029673982034748286 -0.00028965307253170169 0 0.032343772277403357 0.0013978933929367262 0 0.0323268078317063 0.0014330448168209484 0 0.032353747101944906 0.0014488183691154992 0 0.026480408555026688 -0.0018517560162274933 0 0.029673982034748286 -0.00028965307253170169 0 0.029673982034748286 -0.00028965307253170169 0 0.029958476357675387 -0.00043717503635709517 0 0.030746454265238993 -0.00066853788725948406 0 0.029816423086986323 -0.00057562334008969408 0 0.030776288402802131 -0.00029159748389969526 0 0.029420878804049769 -0.00046857984283716557 0 0.029816423086986323 -0.00057562334008969408 0 0.030253096726546743 -0.00031217487619009739 0 0.029816423086986323 -0.00057562334008969408 0 0.030253096726546743 -0.00031217487619009739 0 0.030776288402802131 -0.00029159748389969526 0 0.023742357078920827 -0.0026801158566224473 0 0.024220035217709459 -0.0023616527907503993 0 0.032059683037790207 0.0015943185380081798 0 0.031946054818240928 0.0013022735909646815 0 0.031498546260385736 0.0016717460542956084 0 0.016799366838441444 -0.0062243247949374855 0 0.017800165321111248 -0.0068596619901960905 0 0.016287535934210891 -0.0067294166883814753 0 0.026480408555026688 -0.0018517560162274933 0 0.023742357078920827 -0.0026801158566224473 0 0.032307509919877166 0.001525994893141519 0 0.032059683037790207 0.0015943185380081798 0 0.032250910966736698 0.0014096711240977639 0 0.032343772277403357 0.0013978933929367262 0 0.0323268078317063 0.0014330448168209484 0 0.032250910966736698 0.0014096711240977639 0 0.026480408555026688 -0.0018517560162274933 0 0.033690891189544464 0.0030020124758808587 0 0.032426064738276764 0.0012882630834231698 0 0.032250910966736698 0.0014096711240977639 0 0.032314754569111662 0.0011944231508822882 0 0.032250910966736698 0.0014096711240977639 0 0.031946054818240928 0.0013022735909646815 0 0.032314754569111662 0.0011944231508822882 0 0.032426064738276764 0.0012882630834231698 0 0.032343772277403357 0.0013978933929367262 0 0.032250910966736698 0.0014096711240977639 0 0.032059683037790207 0.0015943185380081798 0 0.032250910966736698 0.0014096711240977639 0 0.031946054818240928 0.0013022735909646815 0 0.031946054818240928 0.0013022735909646815 0 0.032314754569111662 0.0011944231508822882 0 0.032321540131011857 0.0010144462344529616 0 0.031946054818240928 0.0013022735909646815 0 0.032321540131011857 0.0010144462344529616 0 0.031471779377239155 0.00097779742923685166 0 0.032426064738276764 0.0012882630834231698 0 0.032314754569111662 0.0011944231508822882 0 0.032543604629709233 0.0010004846205193768 0 0.032314754569111662 0.0011944231508822882 0 0.032543604629709233 0.0010004846205193768 0 0.032321540131011857 0.0010144462344529616 0 0.032543604629709233 0.0010004846205193768 0 0.032567570168325559 0.00085636355452734956 0 0.032321540131011857 0.0010144462344529616 0 0.032567570168325559 0.00085636355452734956 0 0.032321540131011857 0.0010144462344529616 0 0.032307139799315723 0.00075864193541449836 0 0.032321540131011857 0.0010144462344529616 0 0.032307139799315723 0.00075864193541449836 0 0.031883501351712244 0.00094657309840008239 0 0.032307139799315723 0.00075864193541449836 0 0.032614563024291575 0.00062815398508977484 0 0.032384771393456475 0.00031935470248502527 0 0.032567570168325559 0.00085636355452734956 0 0.032307139799315723 0.00075864193541449836 0 0.032614563024291575 0.00062815398508977484 0 0.032384771393456475 0.00031935470248502527 0 0.032801175422788237 0.00042809628082243924 0 0.032649532360120179 -0.00029840892026611701 0 0.032614563024291575 0.00062815398508977484 0 0.032384771393456475 0.00031935470248502527 0 0.032801175422788237 0.00042809628082243924 0 0.033422080587006478 0.00056404156973088719 0 0.033206253777211661 0.00016126213009395545 0 0.032801175422788237 0.00042809628082243924 0 0.033364945353476831 0.00055279581678364714 0 0.032649532360120179 -0.00029840892026611701 0 0.032801175422788237 0.00042809628082243924 0 0.033364945353476831 0.00055279581678364714 0 0.032999002394438821 0.00066066633635108681 0 0.032543604629709233 0.0010004846205193768 0 0.032567570168325559 0.00085636355452734956 0 0.032999002394438821 0.00066066633635108681 0 0.032626339724686766 0.00072585260335783703 0 0.032940689009031986 0.00068099096277482614 0 0.033364945353476831 0.00055279581678364714 0 0.032999002394438821 0.00066066633635108681 0 0.033094745279842457 0.00066097214955719357 0 0.032791328296040492 0.00056125952005851648 0 0.032999002394438821 0.00066066633635108681 0 0.033094745279842457 0.00066097214955719357 0 0.032614563024291575 0.00062815398508977484 0 0.032801175422788237 0.00042809628082243924 0 0.032999002394438821 0.00066066633635108681 0 0.032567570168325559 0.00085636355452734956 0 0.032614563024291575 0.00062815398508977484 0 0.032999002394438821 0.00066066633635108681 0 0.032791328296040492 0.00056125952005851648 0 0.032958320383203746 0.00065658916752125345 0 0.033094745279842457 0.00066097214955719357 0 0.032618752012899141 0.00057748223146942797 0 0.032958320383203746 0.00065658916752125345 0 0.032881421882286238 0.00064152929942602548 0 0.032958320383203746 0.00065658916752125345 0 0.032881421882286238 0.00064152929942602548 0 0.03345580366359676 0.00066992295477856609 0 0.032958320383203746 0.00065658916752125345 0 0.033094745279842457 0.00066097214955719357 0 0.03345580366359676 0.00066992295477856609 0 0.032990776333741215 0.00058979551205493085 0 0.032881421882286238 0.00064152929942602548 0 0.033585647003320625 0.00068642140938381818 0 0.032881421882286238 0.00064152929942602548 0 0.033585647003320625 0.00068642140938381818 0 0.03345580366359676 0.00066992295477856609 0 0.033585647003320625 0.00068642140938381818 0 0.03345580366359676 0.00066992295477856609 0 0.034104343616228966 0.00070228472661610015 0 0.03345580366359676 0.00066992295477856609 0 0.033987178781315082 0.00070087757708713039 0 0.034104343616228966 0.00070228472661610015 0 0.033364945353476831 0.00055279581678364714 0 0.03345580366359676 0.00066992295477856609 0 0.033987178781315082 0.00070087757708713039 0 0.033364945353476831 0.00055279581678364714 0 0.033094745279842457 0.00066097214955719357 0 0.03345580366359676 0.00066992295477856609 0 0.033987178781315082 0.00070087757708713039 0 0.034104343616228966 0.00070228472661610015 0 0.034831414527159578 0.00062569293891840913 0 0.034760903504078761 0.00065903324935190724 0 0.034104343616228966 0.00070228472661610015 0 0.034831414527159578 0.00062569293891840913 0 0.034760903504078761 0.00065903324935190724 0 0.033585647003320625 0.00068642140938381818 0 0.034104343616228966 0.00070228472661610015 0 0.033987178781315082 0.00070087757708713039 0 0.034287382379172428 0.00045830767441947207 0 0.035082276820988752 0.00045207315696677507 0 0.033987178781315082 0.00070087757708713039 0 0.034831414527159578 0.00062569293891840913 0 0.035082276820988752 0.00045207315696677507 0 0.033987178781315082 0.00070087757708713039 0 0.034287382379172428 0.00045830767441947207 0 0.034020089035286083 0.00053337082550251836 0 0.034287382379172428 0.00045830767441947207 0 0.034020089035286083 0.00053337082550251836 0 0.033957100823100259 0.00017883669443652535 0 0.033206253777211661 0.00016126213009395545 0 0.0333506928616744 -7.011378409595884e-05 0 0.034020089035286083 0.00053337082550251836 0 0.033674794667698973 0.00039525999959913601 0 0.033957100823100259 0.00017883669443652535 0 0.034020089035286083 0.00053337082550251836 0 0.033925700329700791 0.00068684654167220911 0 0.033674794667698973 0.00039525999959913601 0 0.032649532360120179 -0.00029840892026611701 0 0.032047693553273908 -0.00021715082142851434 0 0.032206639327187814 -0.00084511097763035974 0 0.032384771393456475 0.00031935470248502527 0 0.032649532360120179 -0.00029840892026611701 0 0.032047693553273908 -0.00021715082142851434 0 0.033364945353476831 0.00055279581678364714 0 0.033987178781315082 0.00070087757708713039 0 0.033925700329700791 0.00068684654167220911 0 0.033987178781315082 0.00070087757708713039 0 0.034020089035286083 0.00053337082550251836 0 0.033925700329700791 0.00068684654167220911 0 0.032047693553273908 -0.00021715082142851434 0 0.031582873913791838 -0.00047621763801768851 0 0.03144165768731829 0.00012541155581771409 0 0.0333506928616744 -7.011378409595884e-05 0 0.032718947276366664 -0.0001969571939868972 0 0.032047693553273908 -0.00021715082142851434 0 0.032206639327187814 -0.00084511097763035974 0 0.031582873913791838 -0.00047621763801768851 0 0.034082075897229079 8.2759645764517636e-05 0 0.034058370467583456 7.6038438882065015e-05 0 0.034075469703647651 6.0387689237090493e-05 0 0.034074880310912443 6.0788499183791567e-05 0 0.034082075897229079 8.2759645764517636e-05 0 0.034075469703647651 6.0387689237090493e-05 0 0.034058370467583456 7.6038438882065015e-05 0 0.034067478309759737 4.4538230685898999e-05 0 0.034075469703647651 6.0387689237090493e-05 0 0.034058370467583456 7.6038438882065015e-05 0 0.034038197487014588 3.1655078986230751e-05 0 0.034067478309759737 4.4538230685898999e-05 0 0.033978667722596216 1.717215971235462e-05 0 0.033998276705029688 9.8015625653642829e-05 0 0.034038197487014588 3.1655078986230751e-05 0 0.034058370467583456 7.6038438882065015e-05 0 0.033998276705029688 9.8015625653642829e-05 0 0.034038197487014588 3.1655078986230751e-05 0 0.033978667722596216 1.717215971235462e-05 0 0.033998276705029688 9.8015625653642829e-05 0 0.033892419720376848 0.00010993594917952488 0 0.033998276705029688 9.8015625653642829e-05 0 0.033884817074378459 0.00023146226441715819 0 0.033892419720376848 0.00010993594917952488 0 0.033998276705029688 9.8015625653642829e-05 0 0.033884817074378459 0.00023146226441715819 0 0.034044866283009116 0.00018868433730123707 0 0.034058370467583456 7.6038438882065015e-05 0 0.033998276705029688 9.8015625653642829e-05 0 0.034044866283009116 0.00018868433730123707 0 0.032718947276366664 -0.0001969571939868972 0 0.032993611076720122 -2.8284152433056397e-05 0 0.034082075897229079 8.2759645764517636e-05 0 0.034058370467583456 7.6038438882065015e-05 0 0.034044866283009116 0.00018868433730123707 0 0.031582873913791838 -0.00047621763801768851 0 0.030997769099675651 -0.00013547699463353343 0 0.03144165768731829 0.00012541155581771409 0 0.030997769099675651 -0.00013547699463353343 0 0.030891999117686676 0.00030390714807068811 0 0.03144165768731829 0.00012541155581771409 0 0.032993611076720122 -2.8284152433056397e-05 0 0.029443918067295991 -0.0002243926235905515 0 0.030997769099675651 -0.00013547699463353343 0 0.030891999117686676 0.00030390714807068811 0 0.030414607091676302 0.00018229362040463664 0 0.033884817074378459 0.00023146226441715819 0 0.034044866283009116 0.00018868433730123707 0 0.033792605701372873 0.00040295495528187424 0 0.030891999117686676 0.00030390714807068811 0 0.030684215422053667 0.00071089686470565303 0 0.030414607091676302 0.00018229362040463664 0 0.027075689163027716 0.00043328251447265822 0 0.029443918067295991 -0.0002243926235905515 0 0.030891999117686676 0.00030390714807068811 0 0.031291701030954244 0.00074807859532699679 0 0.03144165768731829 0.00012541155581771409 0 0.030891999117686676 0.00030390714807068811 0 0.030684215422053667 0.00071089686470565303 0 0.031291701030954244 0.00074807859532699679 0 0.031291701030954244 0.00074807859532699679 0 0.03188689859672441 0.00047148641139319356 0 0.031883501351712244 0.00094657309840008239 0 0.031291701030954244 0.00074807859532699679 0 0.03144165768731829 0.00012541155581771409 0 0.03188689859672441 0.00047148641139319356 0 0.032047693553273908 -0.00021715082142851434 0 0.03144165768731829 0.00012541155581771409 0 0.03188689859672441 0.00047148641139319356 0 0.032384771393456475 0.00031935470248502527 0 0.032047693553273908 -0.00021715082142851434 0 0.03188689859672441 0.00047148641139319356 0 0.032307139799315723 0.00075864193541449836 0 0.03188689859672441 0.00047148641139319356 0 0.031883501351712244 0.00094657309840008239 0 0.032307139799315723 0.00075864193541449836 0 0.032384771393456475 0.00031935470248502527 0 0.03188689859672441 0.00047148641139319356 0 0.032321540131011857 0.0010144462344529616 0 0.031883501351712244 0.00094657309840008239 0 0.031841164754253908 0.0013874188661057651 0 0.031291701030954244 0.00074807859532699679 0 0.031883501351712244 0.00094657309840008239 0 0.031435330813816387 0.0012006688804552085 0 0.031435330813816387 0.0012006688804552085 0 0.031841164754253908 0.0013874188661057651 0 0.031182057186590229 0.0017083747920417888 0 0.031883501351712244 0.00094657309840008239 0 0.031435330813816387 0.0012006688804552085 0 0.031841164754253908 0.0013874188661057651 0 0.031797876120597687 0.0011066006113527418 0 0.032824786558615399 0.001197152901077357 0 0.031946054818240928 0.0013022735909646815 0 0.031252582884937756 0.0013608007918564 0 0.031498546260385736 0.0016717460542956084 0 0.031946054818240928 0.0013022735909646815 0 0.031471779377239155 0.00097779742923685166 0 0.031252582884937756 0.0013608007918564 0 0.032824786558615399 0.001197152901077357 0 0.024838697741048861 -0.00038960612106342553 0 0.031252582884937756 0.0013608007918564 0 0.030678616525575662 0.001611798649256228 0 0.030502415456094369 0.0012486409259822818 0 0.031252582884937756 0.0013608007918564 0 0.030678616525575662 0.001611798649256228 0 0.031498546260385736 0.0016717460542956084 0 0.031471779377239155 0.00097779742923685166 0 0.031252582884937756 0.0013608007918564 0 0.030502415456094369 0.0012486409259822818 0 0.019023959286187983 -0.0030110275714490347 0 0.024220035217709459 -0.0023616527907503993 0 0.014652608368287282 -0.0066205991938805379 0 0.01500801315778179 -0.0063511305181906839 0 0.015327468293826963 -0.0066145744333664909 0 0.014061784439336518 -0.0032317450884721123 0 0.013809581667576568 -0.0036173582181185928 0 0.013832887596795363 -0.0034482761935988415 0 0.014895592672728195 -0.0059739783295021855 0 0.014652608368287282 -0.0066205991938805379 0 0.01500801315778179 -0.0063511305181906839 0 0.013628308569172749 -0.0048065884707762475 0 0.019023959286187983 -0.0030110275714490347 0 0.014061784439336518 -0.0032317450884721123 0 0.013832887596795363 -0.0034482761935988415 0 0.013778191284328854 -0.0033858804219845319 0 0.01547201608060088 -0.0060091866292144493 0 0.016287535934210891 -0.0067294166883814753 0 0.015327468293826963 -0.0066145744333664909 0 0.01547201608060088 -0.0060091866292144493 0 0.015173634623405569 -0.0062101549037695712 0 0.015327468293826963 -0.0066145744333664909 0 0.01500801315778179 -0.0063511305181906839 0 0.015173634623405569 -0.0062101549037695712 0 0.015327468293826963 -0.0066145744333664909 0 0.01326322803496751 -0.0035254758800944072 0 0.013384685093458089 -0.0035339471273981883 0 0.013314364033082064 -0.0036154982169819961 0 0.01326322803496751 -0.0035254758800944072 0 0.013314364033082064 -0.0036154982169819961 0 0.013696489005698125 -0.0033868076955122402 0 0.016120680329323758 -0.0029134705245019198 0 0.013131989111493011 -0.0030399630189049233 0 0.013384685093458089 -0.0035339471273981883 0 0.013314364033082064 -0.0036154982169819961 0 0.013226342160271749 -0.0037743126033547986 0 0.013384685093458089 -0.0035339471273981883 0 0.013226342160271749 -0.0037743126033547986 0 0.013187928103728239 -0.0038649454244114602 0 0.013380008778129698 -0.0035946820611709933 0 0.013624749341596605 -0.0035594446561369934 0 0.013832887596795363 -0.0034482761935988415 0 0.013778191284328854 -0.0033858804219845319 0 0.013678525058836528 -0.0035749596128615961 0 0.013809581667576568 -0.0036173582181185928 0 0.013678525058836528 -0.0035749596128615961 0 0.013630414824032877 -0.0036232489606395756 0 0.013809581667576568 -0.0036173582181185928 0 0.013832887596795363 -0.0034482761935988415 0 0.013678525058836528 -0.0035749596128615961 0 0.013384685093458089 -0.0035339471273981883 0 0.013778191284328854 -0.0033858804219845319 0 0.013678525058836528 -0.0035749596128615961 0 0.016120680329323758 -0.0029134705245019198 0 0.012806587711910679 -0.0037623329815732647 0 0.013466103450211892 -0.0035675131239589447 0 0.013678525058836528 -0.0035749596128615961 0 0.013630414824032877 -0.0036232489606395756 0 0.01326322803496751 -0.0035254758800944072 0 0.013384685093458089 -0.0035339471273981883 0 0.013678525058836528 -0.0035749596128615961 0 0.013466103450211892 -0.0035675131239589447 0 0.013630414824032877 -0.0036232489606395756 0 0.013930434957360014 -0.0038088133853092015 0 0.016120680329323758 -0.0029134705245019198 0 0.024838697741048861 -0.00038960612106342553 0 0.014117174013622308 -0.003513455383557699 0 0.013630414824032877 -0.0036232489606395756 0 0.013930434957360014 -0.0038088133853092015 0 0.019023959286187983 -0.0030110275714490347 0 0.012228055028291808 -0.0038630136034750275 0 0.019023959286187983 -0.0030110275714490347 0 0.024838697741048861 -0.00038960612106342553 0 0.023731801621514583 -0.001314961139799603 0 0.023909499938860275 -0.00082059397358078012 0 0.024305961462422754 -0.001174742625020795 0 0.023731801621514583 -0.001314961139799603 0 0.023220354136714964 -0.001031815349025445 0 0.023909499938860275 -0.00082059397358078012 0 0.023909499938860275 -0.00082059397358078012 0 0.023562192998858089 -0.00040621875971578119 0 0.02404876736871742 -0.00024226457184138632 0 0.023220354136714964 -0.001031815349025445 0 0.023909499938860275 -0.00082059397358078012 0 0.023562192998858089 -0.00040621875971578119 0 0.031435330813816387 0.0012006688804552085 0 0.031182057186590229 0.0017083747920417888 0 0.030947567766336555 0.0012093993654757479 0 0.024838697741048861 -0.00038960612106342553 0 0.027560126576240695 0.00065652527501177879 0 0.030684215422053667 0.00071089686470565303 0 0.031291701030954244 0.00074807859532699679 0 0.030947567766336555 0.0012093993654757479 0 0.031291701030954244 0.00074807859532699679 0 0.031435330813816387 0.0012006688804552085 0 0.030947567766336555 0.0012093993654757479 0 0.027075689163027716 0.00043328251447265822 0 0.027560126576240695 0.00065652527501177879 0 0.023922722276759519 0.00022296787122029108 0 0.023562192998858089 -0.00040621875971578119 0 0.02404876736871742 -0.00024226457184138632 0 0.023922722276759519 0.00022296787122029108 0 0.02404876736871742 -0.00024226457184138632 0 0.024409576158056057 0.00011076708844647847 0 0.024506760735205114 -0.00036773710839214257 0 0.024954552252291561 -0.0010129725509835648 0 0.02404876736871742 -0.00024226457184138632 0 0.024409576158056057 0.00011076708844647847 0 0.024358203586817007 -0.00053503383985135163 0 0.025039755878032005 -0.00083283347772336938 0 0.025289991352521378 -0.0011587537713032918 0 0.024987996161546684 -0.0016019910780916882 0 0.02582072731924669 -0.0010694503384567158 0 0.025580390093291671 -0.00087205836399695312 0 0.025996899935410232 -0.00069672280388576534 0 0.025039755878032005 -0.00083283347772336938 0 0.025493926484943221 -0.00081876277017939585 0 0.025289991352521378 -0.0011587537713032918 0 0.025493926484943221 -0.00081876277017939585 0 0.025289991352521378 -0.0011587537713032918 0 0.025640786462784594 -0.0013920133389120676 0 0.02582072731924669 -0.0010694503384567158 0 0.025580390093291671 -0.00087205836399695312 0 0.025640786462784594 -0.0013920133389120676 0 0.025628737181059812 -0.00069799710115977956 0 0.025656805693398659 -0.0013577775057248618 0 0.025640786462784594 -0.0013920133389120676 0 0.024987996161546684 -0.0016019910780916882 0 0.025714707506224909 -0.0021897751295951043 0 0.025289991352521378 -0.0011587537713032918 0 0.025640786462784594 -0.0013920133389120676 0 0.024987996161546684 -0.0016019910780916882 0 0.023909499938860275 -0.00082059397358078012 0 0.02404876736871742 -0.00024226457184138632 0 0.024358203586817007 -0.00053503383985135163 0 0.024954552252291561 -0.0010129725509835648 0 0.019698344855234209 -0.0020995405747252778 0 0.023909499938860275 -0.00082059397358078012 0 0.024358203586817007 -0.00053503383985135163 0 0.024305961462422754 -0.001174742625020795 0 0.016120680329323758 -0.0029134705245019198 0 0.019698344855234209 -0.0020995405747252778 0 0.024987996161546684 -0.0016019910780916882 0 0.024941452972126025 -0.0023858726595871026 0 0.025714707506224909 -0.0021897751295951043 0 0.013871328481161944 -0.0018318880558533365 0 0.015573693086060821 -0.0013720361586327162 0 0.014839380852626545 -0.0026066765340822359 0 0.019698344855234209 -0.0020995405747252778 0 0.02079276729654865 -0.0017571716833134667 0 0.015573693086060821 -0.0013720361586327162 0 0.014839380852626545 -0.0026066765340822359 0 0.016058912660862925 -0.0027296237274334863 0 0.015115216460150722 -0.0035215258149041309 0 0.014839380852626545 -0.0026066765340822359 0 0.016058912660862925 -0.0027296237274334863 0 0.015115216460150722 -0.0035215258149041309 0 0.014839380852626545 -0.0026066765340822359 0 0.013873683761886199 -0.0034714521751064106 0 0.019698344855234209 -0.0020995405747252778 0 0.013627507181438993 -0.0035163860431874521 0 0.013559072290945929 -0.0032904416327538028 0 0.013779478782498472 -0.0032028756983384582 0 0.013696489005698125 -0.0033868076955122402 0 0.013779478782498472 -0.0032028756983384582 0 0.013873683761886199 -0.0034714521751064106 0 0.013696489005698125 -0.0033868076955122402 0 0.013871328481161944 -0.0018318880558533365 0 0.014839380852626545 -0.0026066765340822359 0 0.013873683761886199 -0.0034714521751064106 0 0.013571314069526854 -0.0036773934896740506 0 0.013314364033082064 -0.0036154982169819961 0 0.013696489005698125 -0.0033868076955122402 0 0.013571314069526854 -0.0036773934896740506 0 0.013873683761886199 -0.0034714521751064106 0 0.013696489005698125 -0.0033868076955122402 0 0.016516988911501579 -0.004420021647123803 0 0.017783232457196256 -0.0025814636343774082 0 0.016058912660862925 -0.0027296237274334863 0 0.02079276729654865 -0.0017571716833134667 0 0.020784967654024298 -0.0014276929636036632 0 0.015238018247952869 -0.0027878434483668605 0 0.020784967654024298 -0.0014276929636036632 0 0.015573693086060821 -0.0013720361586327162 0 0.016058912660862925 -0.0027296237274334863 0 0.017346488813872511 -0.000917749133509157 0 0.017783232457196256 -0.0025814636343774082 0 0.016058912660862925 -0.0027296237274334863 0 0.0172434424738705 -0.00097254973749868101 0 0.017783232457196256 -0.0025814636343774082 0 0.0172434424738705 -0.00097254973749868101 0 0.01863415470011829 -0.00062339111248250209 0 0.020784967654024298 -0.0014276929636036632 0 0.028811001105283573 -0.00047353949617115162 0 0.023325806835502699 -0.0017357175104356331 0 0.02482417831949146 0.00051548789363105307 0 0.025759375787461472 -0.0011118915226271235 0 0.026451216241130185 -0.0019973124063897207 0 0.026844061262228172 -0.0014346179388682861 0 0.026190419541551036 -0.0014479193290351487 0 0.020784967654024298 -0.0014276929636036632 0 0.024327064646290697 -0.00022262413252118669 0 0.025640786462784594 -0.0013920133389120676 0 0.025714707506224909 -0.0021897751295951043 0 0.026190419541551036 -0.0014479193290351487 0 0.025714707506224909 -0.0021897751295951043 0 0.026451216241130185 -0.0019973124063897207 0 0.026190419541551036 -0.0014479193290351487 0 0.032743135605876078 0.00027101583969322521 0 0.029339430203109803 6.7768594350301606e-05 0 0.026151773423303475 -0.0010550174761888489 0 0.026606366403706116 -0.0010147090062031657 0 0.025996899935410232 -0.00069672280388576534 0 0.02582072731924669 -0.0010694503384567158 0 0.025640786462784594 -0.0013920133389120676 0 0.026190419541551036 -0.0014479193290351487 0 0.02582072731924669 -0.0010694503384567158 0 0.026190419541551036 -0.0014479193290351487 0 0.026151773423303475 -0.0010550174761888489 0 0.026190419541551036 -0.0014479193290351487 0 0.026151773423303475 -0.0010550174761888489 0 0.026606366403706116 -0.0010147090062031657 0 0.02582072731924669 -0.0010694503384567158 0 0.026151773423303475 -0.0010550174761888489 0 0.025996899935410232 -0.00069672280388576534 0 0.038787385849270786 0.0014693240895255733 0 0.038619766305590546 0.00084024316332438089 0 0.038430754508865135 0.0016690673129897114 0 0.026844061262228172 -0.0014346179388682861 0 0.026190419541551036 -0.0014479193290351487 0 0.026606366403706116 -0.0010147090062031657 0 0.031633622398188836 0.00056433963330716893 0 0.032033268618847727 -0.00010723566671984234 0 0.031426195505971748 0.00023775327577545778 0 0.032743135605876078 0.00027101583969322521 0 0.034945587049112908 0.0011180624312151363 0 0.028811001105283573 -0.00047353949617115162 0 0.032743135605876078 0.00027101583969322521 0 0.028811001105283573 -0.00047353949617115162 0 0.034945587049112908 0.0011180624312151363 0 0.038787385849270786 0.0014693240895255733 0 0.038619766305590546 0.00084024316332438089 0 0.039285734211109279 0.00069086570766860734 0 0.038619766305590546 0.00084024316332438089 0 0.039099212110589344 5.1401846655998312e-05 0 0.038144682291311495 0.00028815525160475511 0 0.038619766305590546 0.00084024316332438089 0 0.039285734211109279 0.00069086570766860734 0 0.039099212110589344 5.1401846655998312e-05 0 0.036871873925968655 0.00054348811684943655 0 0.036661834486387858 5.1043824556130317e-05 0 0.033504639939186995 0.00036020044750982339 0 0.033611743461834695 0.00039808512121721894 0 0.03366878123507297 0.0002855734863667841 0 0.032743135605876078 0.00027101583969322521 0 0.036871873925968655 0.00054348811684943655 0 0.033504639939186995 0.00036020044750982339 0 0.033528537010805083 0.00053834384425154296 0 0.033611743461834695 0.00039808512121721894 0 0.033300113100351511 0.00066298173697721091 0 0.033504639939186995 0.00036020044750982339 0 0.033528537010805083 0.00053834384425154296 0 0.029339430203109803 6.7768594350301606e-05 0 0.029820553366326386 -2.1247802456311684e-05 0 0.025580390093291671 -0.00087205836399695312 0 0.025996899935410232 -0.00069672280388576534 0 0.025494467217854425 -0.00040901757411332547 0 0.033528537010805083 0.00053834384425154296 0 0.033741542657516235 0.00041166239264530004 0 0.033611743461834695 0.00039808512121721894 0 0.025628737181059812 -0.00069799710115977956 0 0.029820553366326386 -2.1247802456311684e-05 0 0.025493926484943221 -0.00081876277017939585 0 0.025370821368738132 -0.0002889639933224796 0 0.025246491575008922 -0.00051370476436904465 0 0.025039755878032005 -0.00083283347772336938 0 0.025493926484943221 -0.00081876277017939585 0 0.025246491575008922 -0.00051370476436904465 0 0.024506760735205114 -0.00036773710839214257 0 0.02846303257525452 0.00031705405211681834 0 0.024409576158056057 0.00011076708844647847 0 0.02425959935235808 0.00045923046304358501 0 0.024457981689880729 0.00075485295286920615 0 0.023922722276759519 0.00022296787122029108 0 0.024409576158056057 0.00011076708844647847 0 0.02425959935235808 0.00045923046304358501 0 0.025039755878032005 -0.00083283347772336938 0 0.025246491575008922 -0.00051370476436904465 0 0.025086795153249169 -0.00011806176229836414 0 0.023922722276759519 0.00022296787122029108 0 0.02425959935235808 0.00045923046304358501 0 0.024296377580707497 0.00084979385914186686 0 0.025370821368738132 -0.0002889639933224796 0 0.025246491575008922 -0.00051370476436904465 0 0.025086795153249169 -0.00011806176229836414 0 0.029820553366326386 -2.1247802456311684e-05 0 0.034301230291166988 0.00014775351540194991 0 0.033533341356293413 0.00051688330718068463 0 0.033702224546989117 0.00038438259923152449 0 0.033740256250472549 0.00016257542550639277 0 0.02425959935235808 0.00045923046304358501 0 0.024296377580707497 0.00084979385914186686 0 0.024457981689880729 0.00075485295286920615 0 0.033792605701372873 0.00040295495528187424 0 0.033688300790570357 0.00046457753097048056 0 0.033702224546989117 0.00038438259923152449 0 0.029443918067295991 -0.0002243926235905515 0 0.02846303257525452 0.00031705405211681834 0 0.029820553366326386 -2.1247802456311684e-05 0 0.02846303257525452 0.00031705405211681834 0 0.033533341356293413 0.00051688330718068463 0 0.033687539532351443 0.00045314734829976575 0 0.033702224546989117 0.00038438259923152449 0 0.02846303257525452 0.00031705405211681834 0 0.029451596387838373 0.00035082833880570032 0 0.033884817074378459 0.00023146226441715819 0 0.033792605701372873 0.00040295495528187424 0 0.033789863252357111 0.00025498868771841113 0 0.033792605701372873 0.00040295495528187424 0 0.033702224546989117 0.00038438259923152449 0 0.033789863252357111 0.00025498868771841113 0 0.033504639939186995 0.00036020044750982339 0 0.03366878123507297 0.0002855734863667841 0 0.033710801004349186 9.1678865830613313e-05 0 0.033741542657516235 0.00041166239264530004 0 0.033742480474601787 0.00022514283389808758 0 0.03366878123507297 0.0002855734863667841 0 0.033741542657516235 0.00041166239264530004 0 0.033742480474601787 0.00022514283389808758 0 0.033851532609747353 0.00011452035365488554 0 0.033741542657516235 0.00041166239264530004 0 0.033611743461834695 0.00039808512121721894 0 0.03366878123507297 0.0002855734863667841 0 0.033742480474601787 0.00022514283389808758 0 0.03366878123507297 0.0002855734863667841 0 0.033710801004349186 9.1678865830613313e-05 0 0.033742480474601787 0.00022514283389808758 0 0.033710801004349186 9.1678865830613313e-05 0 0.033851532609747353 0.00011452035365488554 0 0.033702224546989117 0.00038438259923152449 0 0.033789863252357111 0.00025498868771841113 0 0.033740256250472549 0.00016257542550639277 0 0.033884817074378459 0.00023146226441715819 0 0.033789863252357111 0.00025498868771841113 0 0.033892419720376848 0.00010993594917952488 0 0.033789863252357111 0.00025498868771841113 0 0.033740256250472549 0.00016257542550639277 0 0.033892419720376848 0.00010993594917952488 0 0.034301230291166988 0.00014775351540194991 0 0.033796484524071108 -8.6984034865164486e-05 0 0.033740256250472549 0.00016257542550639277 0 0.033892419720376848 0.00010993594917952488 0 0.033945256199948246 -0.00012257851637249899 0 0.033978667722596216 1.717215971235462e-05 0 0.033892419720376848 0.00010993594917952488 0 0.033945256199948246 -0.00012257851637249899 0 0.033851532609747353 0.00011452035365488554 0 0.033945256199948246 -0.00012257851637249899 0 0.033867521646383097 -0.00012221695990920084 0 0.033710801004349186 9.1678865830613313e-05 0 0.033851532609747353 0.00011452035365488554 0 0.033867521646383097 -0.00012221695990920084 0 0.036661834486387858 5.1043824556130317e-05 0 0.03709409478999335 -0.00056927333388837704 0 0.039773117444339659 -6.2400538735969164e-05 0 0.039319497901513456 -0.00079529796327549381 0 0.040255755569330386 -0.00080545512248910735 0 0.039773117444339659 -6.2400538735969164e-05 0 0.039099212110589344 5.1401846655998312e-05 0 0.039319497901513456 -0.00079529796327549381 0 0.039319497901513456 -0.00079529796327549381 0 0.038557376773715998 -0.00033750540179623809 0 0.038610031182701045 -0.00095558001462414687 0 0.039099212110589344 5.1401846655998312e-05 0 0.039319497901513456 -0.00079529796327549381 0 0.038557376773715998 -0.00033750540179623809 0 0.039099212110589344 5.1401846655998312e-05 0 0.038144682291311495 0.00028815525160475511 0 0.038557376773715998 -0.00033750540179623809 0 0.039285734211109279 0.00069086570766860734 0 0.039773117444339659 -6.2400538735969164e-05 0 0.039099212110589344 5.1401846655998312e-05 0 0.039319497901513456 -0.00079529796327549381 0 0.039842515553437902 -0.0013325249382696489 0 0.039017617077632537 -0.001712546615847757 0 0.039319497901513456 -0.00079529796327549381 0 0.039017617077632537 -0.001712546615847757 0 0.038610031182701045 -0.00095558001462414687 0 0.039319497901513456 -0.00079529796327549381 0 0.040255755569330386 -0.00080545512248910735 0 0.039842515553437902 -0.0013325249382696489 0 0.033867521646383097 -0.00012221695990920084 0 0.034072328311039048 -0.00041704362541897163 0 0.034036886983858684 -0.00020351084737364695 0 0.033945256199948246 -0.00012257851637249899 0 0.033867521646383097 -0.00012221695990920084 0 0.034036886983858684 -0.00020351084737364695 0 0.03709409478999335 -0.00056927333388837704 0 0.037407411447150561 -0.00049364910672080068 0 0.040255755569330386 -0.00080545512248910735 0 0.039842515553437902 -0.0013325249382696489 0 0.040735549747537139 -0.0015427157748232787 0 0.039842515553437902 -0.0013325249382696489 0 0.039906798123463691 -0.0020112254821302395 0 0.040735549747537139 -0.0015427157748232787 0 0.039906798123463691 -0.0020112254821302395 0 0.040796325738121947 -0.0023113229305756502 0 0.040735549747537139 -0.0015427157748232787 0 0.049753798382704738 -1.7567110537518957e-05 0 0.049763117876894414 3.1988430779369151e-06 0 0.049673400200087627 -3.9317520108186415e-05 0 0.044765229818210218 -0.0010506144241599652 0 0.045494820830538449 -0.00085259945857830304 0 0.049753798382704738 -1.7567110537518957e-05 0 0.049815014009727009 2.3438202815683715e-06 0 0.049763117876894414 3.1988430779369151e-06 0 0.044765229818210218 -0.0010506144241599652 0 0.044451893444262078 -0.00082853822623891083 0 0.049753798382704738 -1.7567110537518957e-05 0 0.049815014009727009 2.3438202815683715e-06 0 0.049759124848775801 6.0669113601855094e-05 0 0.039842515553437902 -0.0013325249382696489 0 0.039906798123463691 -0.0020112254821302395 0 0.039017617077632537 -0.001712546615847757 0 0.049815014009727009 2.3438202815683715e-06 0 0.049759124848775801 6.0669113601855094e-05 0 0.049722723517293892 5.2159985739723347e-05 0 0.049815014009727009 2.3438202815683715e-06 0 0.049791014934812354 -3.4622819555720557e-06 0 0.049722723517293892 5.2159985739723347e-05 0 0.049815014009727009 2.3438202815683715e-06 0 0.049854704935589196 -2.9554684138779717e-06 0 0.049791014934812354 -3.4622819555720557e-06 0 0.049854704935589196 -2.9554684138779717e-06 0 0.049912022445818501 9.0215475675116683e-06 0 0.049870819510258228 4.0641632260052811e-05 0 0.049815014009727009 2.3438202815683715e-06 0 0.049854704935589196 -2.9554684138779717e-06 0 0.049870819510258228 4.0641632260052811e-05 0 0.049912022445818501 9.0215475675116683e-06 0 0.049999905838878672 8.3565881012709161e-09 0 0.049930546243513133 3.8669463545763682e-06 0 0.049912022445818501 9.0215475675116683e-06 0 0.049944217401920912 6.6956263267672771e-06 0 0.049870819510258228 4.0641632260052811e-05 0 0.049944217401920912 6.6956263267672771e-06 0 0.049999905838878672 8.3565881012709161e-09 0 0.049999917584574734 -7.3175942313552922e-09 0 0.049912022445818501 9.0215475675116683e-06 0 0.049944217401920912 6.6956263267672771e-06 0 0.049999905838878672 8.3565881012709161e-09 0 0.049985614437235641 -1.2234354881582761e-06 0 0.049999917584574734 -7.3175942313552922e-09 0 0.050000000028317178 -1.0415092988002211e-08 0 0.049944217401920912 6.6956263267672771e-06 0 0.049999917584574734 -7.3175942313552922e-09 0 0.049950619988824996 5.4571981040953606e-06 0 0.049985614437235641 -1.2234354881582761e-06 0 0.049999917584574734 -7.3175942313552922e-09 0 0.049950619988824996 5.4571981040953606e-06 0 0.049944217401920912 6.6956263267672771e-06 0 0.049950619988824996 5.4571981040953606e-06 0 0.049870819510258228 4.0641632260052811e-05 0 0.049950619988824996 5.4571981040953606e-06 0 0.049994365612091599 2.1173631106088086e-05 0 0.049870819510258228 4.0641632260052811e-05 0 0.049985614437235641 -1.2234354881582761e-06 0 0.049950619988824996 5.4571981040953606e-06 0 0.049994365612091599 2.1173631106088086e-05 0 0.049985614437235641 -1.2234354881582761e-06 0 0.049994365612091599 2.1173631106088086e-05 0 0.049999435258514233 -1.1917854305147492e-06 0 0.049692882277028429 8.4941368277933321e-05 0 0.049757965522221607 4.3467714506248102e-05 0 0.049870819510258228 4.0641632260052811e-05 0 0.049692882277028429 8.4941368277933321e-05 0 0.049757965522221607 4.3467714506248102e-05 0 0.04968199604892283 5.9971190336737391e-05 0 0.049845167204578676 4.7374954090298863e-05 0 0.04987059077187616 4.2647452340619626e-05 0 0.049757965522221607 4.3467714506248102e-05 0 0.049870819510258228 4.0641632260052811e-05 0 0.049763117876894414 3.1988430779369151e-06 0 0.049815014009727009 2.3438202815683715e-06 0 0.049870819510258228 4.0641632260052811e-05 0 0.049763117876894414 3.1988430779369151e-06 0 0.049763117876894414 3.1988430779369151e-06 0 0.04968199604892283 5.9971190336737391e-05 0 0.049673400200087627 -3.9317520108186415e-05 0 0.049757965522221607 4.3467714506248102e-05 0 0.049763117876894414 3.1988430779369151e-06 0 0.04968199604892283 5.9971190336737391e-05 0 0.049677952202936519 9.1182839904310105e-05 0 0.04968199604892283 5.9971190336737391e-05 0 0.049602198930013691 0.00013799335299545596 0 0.050844093462055664 0.00045230294835530365 0 0.045494820830538449 -0.00085259945857830304 0 0.049909180425958419 4.8163570654061004e-06 0 0.045733771408145579 -0.00055664634801997172 0 0.049677952202936519 9.1182839904310105e-05 0 0.049731462154619169 9.1049896764783567e-05 0 0.049674482763129475 0.00012604094254989396 0 0.049731462154619169 9.1049896764783567e-05 0 0.049697239383627488 6.1598459712553007e-05 0 0.049796035721696393 5.4934470208453201e-05 0 0.049677952202936519 9.1182839904310105e-05 0 0.049731462154619169 9.1049896764783567e-05 0 0.049697239383627488 6.1598459712553007e-05 0 0.049677952202936519 9.1182839904310105e-05 0 0.049697239383627488 6.1598459712553007e-05 0 0.04968199604892283 5.9971190336737391e-05 0 0.049692882277028429 8.4941368277933321e-05 0 0.049697239383627488 6.1598459712553007e-05 0 0.04968199604892283 5.9971190336737391e-05 0 0.049845167204578676 4.7374954090298863e-05 0 0.049860540553850717 6.1613878665537984e-06 0 0.049692882277028429 8.4941368277933321e-05 0 0.049697239383627488 6.1598459712553007e-05 0 0.049714624490543757 1.4858912874925336e-05 0 0.049994365612091599 2.1173631106088086e-05 0 0.049999435258514233 -1.1917854305147492e-06 0 0.049999974056687109 -1.1603337057161511e-05 0 0.049697239383627488 6.1598459712553007e-05 0 0.049714624490543757 1.4858912874925336e-05 0 0.049796035721696393 5.4934470208453201e-05 0 0.049999435258514233 -1.1917854305147492e-06 0 0.049999974056687109 -1.1603337057161511e-05 0 0.050000001025146262 2.0957045014562122e-08 0 0.049999435258514233 -1.1917854305147492e-06 0 0.050000001025146262 2.0957045014562122e-08 0 0.050000000028317178 -1.0415092988002211e-08 0 0.049985614437235641 -1.2234354881582761e-06 0 0.049999435258514233 -1.1917854305147492e-06 0 0.050000000028317178 -1.0415092988002211e-08 0 0.04994493373798238 -1.8436745206338895e-05 0 0.04999988210605652 -4.3858183031425634e-08 0 0.049960575325387967 -3.8229224369392163e-06 0 0.04999988210605652 -4.3858183031425634e-08 0 0.049960575325387967 -3.8229224369392163e-06 0 0.049979982802667459 -1.0781175499009772e-06 0 0.049999974056687109 -1.1603337057161511e-05 0 0.050000001025146262 2.0957045014562122e-08 0 0.04994493373798238 -1.8436745206338895e-05 0 0.050000001025146262 2.0957045014562122e-08 0 0.04994493373798238 -1.8436745206338895e-05 0 0.04999988210605652 -4.3858183031425634e-08 0 0.049714624490543757 1.4858912874925336e-05 0 0.04994493373798238 -1.8436745206338895e-05 0 0.049796035721696393 5.4934470208453201e-05 0 0.049860540553850717 6.1613878665537984e-06 0 0.049935593395856577 -1.8144673998817876e-05 0 0.04994493373798238 -1.8436745206338895e-05 0 0.049960575325387967 -3.8229224369392163e-06 0 0.049935650128087802 2.2334293262261511e-05 0 0.04994493373798238 -1.8436745206338895e-05 0 0.049935650128087802 2.2334293262261511e-05 0 0.049796035721696393 5.4934470208453201e-05 0 0.049935650128087802 2.2334293262261511e-05 0 0.049856120917444034 0.0001249183599239902 0 0.050002206808711314 0.00014580493157305134 0 0.049935650128087802 2.2334293262261511e-05 0 0.049856120917444034 0.0001249183599239902 0 0.049796035721696393 5.4934470208453201e-05 0 0.049909180425958419 4.8163570654061004e-06 0 0.049719673628567738 0.00012967675335476294 0 0.049611399736053684 0.00018809177530850748 0 0.049856120917444034 0.0001249183599239902 0 0.049796035721696393 5.4934470208453201e-05 0 0.045480527195677821 -0.00028611084420484753 0 0.045733771408145579 -0.00055664634801997172 0 0.049611399736053684 0.00018809177530850748 0 0.049856120917444034 0.0001249183599239902 0 0.049800336261779758 0.00025927366614621504 0 0.049611399736053684 0.00018809177530850748 0 0.049800336261779758 0.00025927366614621504 0 0.04944555575859038 0.00039408273731034469 0 0.041471270165009982 -0.00099975788864144167 0 0.041761742341807066 -0.00077890527431241207 0 0.042175878412472292 -0.0012847028693500054 0 0.045480527195677821 -0.00028611084420484753 0 0.046390877973379548 -0.00064809346620076525 0 0.049856120917444034 0.0001249183599239902 0 0.049800336261779758 0.00025927366614621504 0 0.050002206808711314 0.00014580493157305134 0 0.040500730831236224 -0.00040011964819323037 0 0.040710694771921366 -0.00087190038527433262 0 0.041202645335491124 -0.00071957363268508579 0 0.040500730831236224 -0.00040011964819323037 0 0.040710694771921366 -0.00087190038527433262 0 0.040077294205536587 -0.00086872193369450228 0 0.041197469527954382 -0.00049922306578030636 0 0.041184101996561688 -0.00072119331456690222 0 0.041471270165009982 -0.00099975788864144167 0 0.041761742341807066 -0.00077890527431241207 0 0.041202645335491124 -0.00071957363268508579 0 0.040710694771921366 -0.00087190038527433262 0 0.04054340426137161 -0.0013452523990581237 0 0.040077294205536587 -0.00086872193369450228 0 0.040710694771921366 -0.00087190038527433262 0 0.041142228759790643 -0.0010036315173976721 0 0.04054340426137161 -0.0013452523990581237 0 0.040710694771921366 -0.00087190038527433262 0 0.041142228759790643 -0.0010036315173976721 0 0.041202645335491124 -0.00071957363268508579 0 0.041471270165009982 -0.00099975788864144167 0 0.041202645335491124 -0.00071957363268508579 0 0.041182431996666734 -0.00076872953220304444 0 0.041202645335491124 -0.00071957363268508579 0 0.041182431996666734 -0.00076872953220304444 0 0.041274654070049932 -0.00079411500118226389 0 0.045733771408145579 -0.00055664634801997172 0 0.038802565296502979 -0.00011751940990813872 0 0.045733771408145579 -0.00055664634801997172 0 0.045494820830538449 -0.00085259945857830304 0 0.049677952202936519 9.1182839904310105e-05 0 0.049674482763129475 0.00012604094254989396 0 0.049602198930013691 0.00013799335299545596 0 0.042602602973137157 -0.0017117936953175595 0 0.041175131733869837 -0.0011874292472188329 0 0.041620448937379373 -0.00073537183008256417 0 0.042602602973137157 -0.0017117936953175595 0 0.041620448937379373 -0.00073537183008256417 0 0.041921242034204866 -0.00059101393732136109 0 0.045494820830538449 -0.00085259945857830304 0 0.037407411447150561 -0.00049364910672080068 0 0.038802565296502979 -0.00011751940990813872 0 0.037407411447150561 -0.00049364910672080068 0 0.041620448937379373 -0.00073537183008256417 0 0.04190513223955962 -0.00059781499726827014 0 0.04110795284383284 0.00071442254336768617 0 0.041175131733869837 -0.0011874292472188329 0 0.041620448937379373 -0.00073537183008256417 0 0.04110795284383284 0.00071442254336768617 0 0.034139903424043876 8.4106544767809013e-05 0 0.034110118843830715 6.7723680704499646e-05 0 0.034119105233438835 5.6620118298095878e-05 0 0.03995587992757902 0.00012045502015701142 0 0.038802565296502979 -0.00011751940990813872 0 0.037507145976524534 -0.00052818277015072204 0 0.038802565296502979 -0.00011751940990813872 0 0.034088303329251245 9.0522008897339745e-05 0 0.034139903424043876 8.4106544767809013e-05 0 0.034110118843830715 6.7723680704499646e-05 0 0.041142228759790643 -0.0010036315173976721 0 0.041202645335491124 -0.00071957363268508579 0 0.041274654070049932 -0.00079411500118226389 0 0.034088303329251245 9.0522008897339745e-05 0 0.034110118843830715 6.7723680704499646e-05 0 0.0340871690295345 5.6970012885012845e-05 0 0.034088303329251245 9.0522008897339745e-05 0 0.0340871690295345 5.6970012885012845e-05 0 0.034074732158669956 6.041915710704768e-05 0 0.034110118843830715 6.7723680704499646e-05 0 0.0340871690295345 5.6970012885012845e-05 0 0.034077866888968661 4.4386786860322733e-05 0 0.0340871690295345 5.6970012885012845e-05 0 0.034067478309759737 4.4538230685898999e-05 0 0.034074732158669956 6.041915710704768e-05 0 0.034119105233438835 5.6620118298095878e-05 0 0.034077866888968661 4.4386786860322733e-05 0 0.034068210906063927 3.4892833189330217e-05 0 0.037407411447150561 -0.00049364910672080068 0 0.03406177145934218 -1.8695828670918577e-05 0 0.034110118843830715 6.7723680704499646e-05 0 0.034119105233438835 5.6620118298095878e-05 0 0.034077866888968661 4.4386786860322733e-05 0 0.033978667722596216 1.717215971235462e-05 0 0.034068210906063927 3.4892833189330217e-05 0 0.034038197487014588 3.1655078986230751e-05 0 0.033978667722596216 1.717215971235462e-05 0 0.033945256199948246 -0.00012257851637249899 0 0.034036886983858684 -0.00020351084737364695 0 0.034003779450456462 -1.245551583560453e-05 0 0.03406177145934218 -1.8695828670918577e-05 0 0.034077866888968661 4.4386786860322733e-05 0 0.034068210906063927 3.4892833189330217e-05 0 0.034038197487014588 3.1655078986230751e-05 0 0.0340871690295345 5.6970012885012845e-05 0 0.034077866888968661 4.4386786860322733e-05 0 0.034067478309759737 4.4538230685898999e-05 0 0.034077866888968661 4.4386786860322733e-05 0 0.034038197487014588 3.1655078986230751e-05 0 0.034067478309759737 4.4538230685898999e-05 0 0.034067478309759737 4.4538230685898999e-05 0 0.034069910642704634 5.4755361609075725e-05 0 0.034075469703647651 6.0387689237090493e-05 0 0.034067478309759737 4.4538230685898999e-05 0 0.034069910642704634 5.4755361609075725e-05 0 0.034074732158669956 6.041915710704768e-05 0 0.034069910642704634 5.4755361609075725e-05 0 0.034070844435906508 5.6840639246978523e-05 0 0.034056751085043004 7.3596585535543396e-05 0 0.034069910642704634 5.4755361609075725e-05 0 0.034075469703647651 6.0387689237090493e-05 0 0.034070844435906508 5.6840639246978523e-05 0 0.034074880310912443 6.0788499183791567e-05 0 0.034075469703647651 6.0387689237090493e-05 0 0.034070844435906508 5.6840639246978523e-05 0 0.0333506928616744 -7.011378409595884e-05 0 0.03408406302305611 0.00015343384679277635 0 0.033955044093002332 0.00012191983703358998 0 0.033981425726639231 9.026173286591869e-05 0 0.033957734075257359 0.00011225177278084379 0 0.033981425726639231 9.026173286591869e-05 0 0.033974625278092217 9.5228002007529888e-05 0 0.033957734075257359 0.00011225177278084379 0 0.033981425726639231 9.026173286591869e-05 0 0.033986112656999808 9.2132909198312617e-05 0 0.034056751085043004 7.3596585535543396e-05 0 0.033986112656999808 9.2132909198312617e-05 0 0.03398220825472812 0.00010053142548298763 0 0.034056751085043004 7.3596585535543396e-05 0 0.033981425726639231 9.026173286591869e-05 0 0.033974625278092217 9.5228002007529888e-05 0 0.033986112656999808 9.2132909198312617e-05 0 0.033974625278092217 9.5228002007529888e-05 0 0.033971928133115205 8.7726084293531024e-05 0 0.033957734075257359 0.00011225177278084379 0 0.033974625278092217 9.5228002007529888e-05 0 0.033986112656999808 9.2132909198312617e-05 0 0.033971928133115205 8.7726084293531024e-05 0 0.035995447857266001 -2.9255736444044344e-05 0 0.036555321261653201 -0.00042271439839933433 0 0.037507145976524534 -0.00052818277015072204 0 0.036555321261653201 -0.00042271439839933433 0 0.034088303329251245 9.0522008897339745e-05 0 0.03398220825472812 0.00010053142548298763 0 0.034056751085043004 7.3596585535543396e-05 0 0.034088303329251245 9.0522008897339745e-05 0 0.034056751085043004 7.3596585535543396e-05 0 0.034074732158669956 6.041915710704768e-05 0 0.034069910642704634 5.4755361609075725e-05 0 0.034056751085043004 7.3596585535543396e-05 0 0.034074732158669956 6.041915710704768e-05 0 0.03408406302305611 0.00015343384679277635 0 0.03403477582618214 5.7863893966433552e-05 0 0.035494974288296816 0.00019294516266158248 0 0.035304605133229576 0.00019835414218605352 0 0.035478343809888527 0.00040371731333540531 0 0.035494974288296816 0.00019294516266158248 0 0.035478343809888527 0.00040371731333540531 0 0.035555322818956688 0.00039775289656239965 0 0.035494974288296816 0.00019294516266158248 0 0.035555322818956688 0.00039775289656239965 0 0.035666448814139079 0.00018091162733521447 0 0.035032145106774798 0.00024091339767470999 0 0.035304605133229576 0.00019835414218605352 0 0.035478343809888527 0.00040371731333540531 0 0.033971928133115205 8.7726084293531024e-05 0 0.033957734075257359 0.00011225177278084379 0 0.034041602854729985 2.7341933223994475e-05 0 0.035032145106774798 0.00024091339767470999 0 0.035304605133229576 0.00019835414218605352 0 0.035287001789701622 -0.00012331650539562219 0 0.036555321261653201 -0.00042271439839933433 0 0.034352117264498383 0.0002334036060662867 0 0.033957734075257359 0.00011225177278084379 0 0.033957100823100259 0.00017883669443652535 0 0.034041602854729985 2.7341933223994475e-05 0 0.0333506928616744 -7.011378409595884e-05 0 0.033998956157431669 0.00012302562474815349 0 0.033955044093002332 0.00012191983703358998 0 0.033957734075257359 0.00011225177278084379 0 0.033957100823100259 0.00017883669443652535 0 0.034287382379172428 0.00045830767441947207 0 0.033957100823100259 0.00017883669443652535 0 0.034041602854729985 2.7341933223994475e-05 0 0.034287382379172428 0.00045830767441947207 0 0.034041602854729985 2.7341933223994475e-05 0 0.035082276820988752 0.00045207315696677507 0 0.035082276820988752 0.00045207315696677507 0 0.035832193944938487 0.00040499630580643982 0 0.035555322818956688 0.00039775289656239965 0 0.034352117264498383 0.0002334036060662867 0 0.035245712399802551 0.00046355766204417482 0 0.035478343809888527 0.00040371731333540531 0 0.035082276820988752 0.00045207315696677507 0 0.035555322818956688 0.00039775289656239965 0 0.035082276820988752 0.00045207315696677507 0 0.035832193944938487 0.00040499630580643982 0 0.036177067728195643 0.00046956294808886032 0 0.034831414527159578 0.00062569293891840913 0 0.035082276820988752 0.00045207315696677507 0 0.036177067728195643 0.00046956294808886032 0 0.035832193944938487 0.00040499630580643982 0 0.036524739658945059 0.0003091506242072369 0 0.036177067728195643 0.00046956294808886032 0 0.035832193944938487 0.00040499630580643982 0 0.036524739658945059 0.0003091506242072369 0 0.036070685691732891 0.00025485806027882848 0 0.036524739658945059 0.0003091506242072369 0 0.036070685691732891 0.00025485806027882848 0 0.036705302101236514 0.00015876849901191908 0 0.035832193944938487 0.00040499630580643982 0 0.035555322818956688 0.00039775289656239965 0 0.036070685691732891 0.00025485806027882848 0 0.035555322818956688 0.00039775289656239965 0 0.036070685691732891 0.00025485806027882848 0 0.035666448814139079 0.00018091162733521447 0 0.035666448814139079 0.00018091162733521447 0 0.035929237032531661 -6.9203558287111893e-06 0 0.035620147084431876 -0.00012199633896462639 0 0.036070685691732891 0.00025485806027882848 0 0.035666448814139079 0.00018091162733521447 0 0.035929237032531661 -6.9203558287111893e-06 0 0.036070685691732891 0.00025485806027882848 0 0.035929237032531661 -6.9203558287111893e-06 0 0.036567315701935728 2.7024703905998872e-05 0 0.036594802595638014 3.1637757945385263e-05 0 0.036186997810017531 -0.00046800761858236414 0 0.035929237032531661 -6.9203558287111893e-06 0 0.036567315701935728 2.7024703905998872e-05 0 0.035941920502647932 -0.0003803150852967247 0 0.035929237032531661 -6.9203558287111893e-06 0 0.035941920502647932 -0.0003803150852967247 0 0.035620147084431876 -0.00012199633896462639 0 0.037016808627795543 0.00018055503497640379 0 0.036920482003226146 7.6092360381599711e-06 0 0.037400557677036102 0.00011799006242056714 0 0.036524739658945059 0.0003091506242072369 0 0.037016808627795543 0.00018055503497640379 0 0.036705302101236514 0.00015876849901191908 0 0.037016808627795543 0.00018055503497640379 0 0.036705302101236514 0.00015876849901191908 0 0.036920482003226146 7.6092360381599711e-06 0 0.036070685691732891 0.00025485806027882848 0 0.036705302101236514 0.00015876849901191908 0 0.036567315701935728 2.7024703905998872e-05 0 0.036705302101236514 0.00015876849901191908 0 0.036567315701935728 2.7024703905998872e-05 0 0.036920482003226146 7.6092360381599711e-06 0 0.036567315701935728 2.7024703905998872e-05 0 0.036732769878779756 -0.0002697800701503834 0 0.036578072883670092 -0.00035478877658228511 0 0.036567315701935728 2.7024703905998872e-05 0 0.036732769878779756 -0.0002697800701503834 0 0.036920482003226146 7.6092360381599711e-06 0 0.036732769878779756 -0.0002697800701503834 0 0.036920482003226146 7.6092360381599711e-06 0 0.036893557819486479 -0.000509510278568164 0 0.036920482003226146 7.6092360381599711e-06 0 0.036893557819486479 -0.000509510278568164 0 0.037282874123908079 -0.00084992526308627842 0 0.037046697557075563 4.7121917526663294e-05 0 0.037714606231938924 -0.00057201479979507514 0 0.036732769878779756 -0.0002697800701503834 0 0.036893557819486479 -0.000509510278568164 0 0.036578072883670092 -0.00035478877658228511 0 0.036893557819486479 -0.000509510278568164 0 0.036773708859020954 -0.00072623735442553213 0 0.037282874123908079 -0.00084992526308627842 0 0.036578072883670092 -0.00035478877658228511 0 0.036773708859020954 -0.00072623735442553213 0 0.036284256495501162 -0.000706266941275219 0 0.035941920502647932 -0.0003803150852967247 0 0.035651476844409266 -0.00063330974154107613 0 0.035620147084431876 -0.00012199633896462639 0 0.036893557819486479 -0.000509510278568164 0 0.036578072883670092 -0.00035478877658228511 0 0.036773708859020954 -0.00072623735442553213 0 0.036186997810017531 -0.00046800761858236414 0 0.037473740309389617 -0.00076778349836388582 0 0.035651476844409266 -0.00063330974154107613 0 0.035620147084431876 -0.00012199633896462639 0 0.035287001789701622 -0.00012331650539562219 0 0.039588528443923555 -0.00036171852229620864 0 0.040077294205536587 -0.00086872193369450228 0 0.040078282133236248 -0.00045916163426165939 0 0.037473740309389617 -0.00076778349836388582 0 0.037889322881738789 -0.00054791753990578304 0 0.039588528443923555 -0.00036171852229620864 0 0.040078282133236248 -0.00045916163426165939 0 0.03978230947224505 -0.0001608929606592307 0 0.035494974288296816 0.00019294516266158248 0 0.035304605133229576 0.00019835414218605352 0 0.035287001789701622 -0.00012331650539562219 0 0.035494974288296816 0.00019294516266158248 0 0.035620147084431876 -0.00012199633896462639 0 0.035287001789701622 -0.00012331650539562219 0 0.035494974288296816 0.00019294516266158248 0 0.035666448814139079 0.00018091162733521447 0 0.035620147084431876 -0.00012199633896462639 0 0.036555321261653201 -0.00042271439839933433 0 0.037889322881738789 -0.00054791753990578304 0 0.040500730831236224 -0.00040011964819323037 0 0.040078282133236248 -0.00045916163426165939 0 0.03978230947224505 -0.0001608929606592307 0 0.040500730831236224 -0.00040011964819323037 0 0.040077294205536587 -0.00086872193369450228 0 0.040078282133236248 -0.00045916163426165939 0 0.041761742341807066 -0.00077890527431241207 0 0.042443107577743555 -0.00099199379478714608 0 0.042175878412472292 -0.0012847028693500054 0 0.041197469527954382 -0.00049922306578030636 0 0.040687291183518666 -0.0014545878681245556 0 0.038798910379118652 -0.0015681135713758352 0 0.038998752354774256 -0.0013605691487264717 0 0.038431161930899883 -0.0011771890920105165 0 0.042087291878870489 -0.0033237194494094677 0 0.041019544854937966 -0.00072126780268470412 0 0.04366504188475142 -0.0016627164922430361 0 0.037473740309389617 -0.00076778349836388582 0 0.040687291183518666 -0.0014545878681245556 0 0.040687291183518666 -0.0014545878681245556 0 0.046390877973379548 -0.00064809346620076525 0 0.045741893913310086 -0.0004413524235854001 0 0.046390877973379548 -0.00064809346620076525 0 0.049884945714344708 -4.7486716796867263e-05 0 0.049924100708068637 -2.1542069513680915e-05 0 0.049916744991009274 -3.628762666564822e-05 0 0.049884945714344708 -4.7486716796867263e-05 0 0.049924100708068637 -2.1542069513680915e-05 0 0.049915767850199647 -1.5218863040714383e-05 0 0.049935650128087802 2.2334293262261511e-05 0 0.049924100708068637 -2.1542069513680915e-05 0 0.049916744991009274 -3.628762666564822e-05 0 0.050984569459139699 0.00064572659467916757 0 0.046390877973379548 -0.00064809346620076525 0 0.049935650128087802 2.2334293262261511e-05 0 0.049924100708068637 -2.1542069513680915e-05 0 0.049952452594748238 -6.3448608314132919e-06 0 0.049960575325387967 -3.8229224369392163e-06 0 0.049935650128087802 2.2334293262261511e-05 0 0.049952452594748238 -6.3448608314132919e-06 0 0.049924100708068637 -2.1542069513680915e-05 0 0.049952452594748238 -6.3448608314132919e-06 0 0.049915767850199647 -1.5218863040714383e-05 0 0.049952452594748238 -6.3448608314132919e-06 0 0.049970888293470121 2.3866437668824443e-06 0 0.049915767850199647 -1.5218863040714383e-05 0 0.049970888293470121 2.3866437668824443e-06 0 0.049979384644685994 1.4008039336532357e-05 0 0.049915767850199647 -1.5218863040714383e-05 0 0.049970888293470121 2.3866437668824443e-06 0 0.049979384644685994 1.4008039336532357e-05 0 0.049999897730777107 3.8699393004015145e-08 0 0.049970888293470121 2.3866437668824443e-06 0 0.049999897730777107 3.8699393004015145e-08 0 0.049979982802667459 -1.0781175499009772e-06 0 0.049960575325387967 -3.8229224369392163e-06 0 0.049952452594748238 -6.3448608314132919e-06 0 0.049979982802667459 -1.0781175499009772e-06 0 0.04999988210605652 -4.3858183031425634e-08 0 0.049999897730777107 3.8699393004015145e-08 0 0.049979982802667459 -1.0781175499009772e-06 0 0.049952452594748238 -6.3448608314132919e-06 0 0.049970888293470121 2.3866437668824443e-06 0 0.049979982802667459 -1.0781175499009772e-06 0 0.04661334811326423 0.00079988708751784583 0 0.043810360817035245 -0.0010718071621005293 0 0.049984420138035147 -8.4958785599557455e-07 0 0.049999973351141133 4.0833284314840671e-09 0 0.049999918889429874 -8.8998021408167658e-09 0 0.038414461880939138 0.00016919288853023954 0 0.03806724814161818 -0.00051496487836212178 0 0.037447070691281822 -2.0600613663842705e-05 0 0.04661334811326423 0.00079988708751784583 0 0.049996947238841842 -1.7414687847812999e-08 0 0.049979384644685994 1.4008039336532357e-05 0 0.049999897730777107 3.8699393004015145e-08 0 0.049999968224132878 1.8841019984857678e-08 0 0.049979384644685994 1.4008039336532357e-05 0 0.049991978881672824 1.5468906760806979e-05 0 0.049999968224132878 1.8841019984857678e-08 0 0.051008736221411694 0.00020716169077113377 0 0.04661334811326423 0.00079988708751784583 0 0.049979384644685994 1.4008039336532357e-05 0 0.049840083631906659 2.8730588051914015e-05 0 0.049915767850199647 -1.5218863040714383e-05 0 0.049840083631906659 2.8730588051914015e-05 0 0.049915767850199647 -1.5218863040714383e-05 0 0.049809450685479734 -5.4821951453358417e-05 0 0.049884945714344708 -4.7486716796867263e-05 0 0.049915767850199647 -1.5218863040714383e-05 0 0.049809450685479734 -5.4821951453358417e-05 0 0.03806724814161818 -0.00051496487836212178 0 0.038055147783746905 -0.00078673634983637624 0 0.038309654310887842 -0.00083112198495969008 0 0.038414461880939138 0.00016919288853023954 0 0.03806724814161818 -0.00051496487836212178 0 0.038309654310887842 -0.00083112198495969008 0 0.03806724814161818 -0.00051496487836212178 0 0.037815690082343659 -0.00073375592485208359 0 0.037447070691281822 -2.0600613663842705e-05 0 0.04661334811326423 0.00079988708751784583 0 0.042375118928397709 -0.0012573228161829068 0 0.03806724814161818 -0.00051496487836212178 0 0.037815690082343659 -0.00073375592485208359 0 0.038055147783746905 -0.00078673634983637624 0 0.037815690082343659 -0.00073375592485208359 0 0.037726876255505935 -0.0010599199026132436 0 0.037590331967983254 -0.0011678486189967421 0 0.037815690082343659 -0.00073375592485208359 0 0.037726876255505935 -0.0010599199026132436 0 0.03792315492802182 -0.00090272598531258364 0 0.038456325029570075 -0.0014928642545613978 0 0.037475519788852885 -0.0011517802111124539 0 0.038846719001629143 -0.0020455967617708393 0 0.037899725458175132 -0.0010103235288275582 0 0.038063381912139448 -0.0010205975407726591 0 0.037822096050674971 -0.0010805928059347283 0 0.037726876255505935 -0.0010599199026132436 0 0.037899725458175132 -0.0010103235288275582 0 0.037822096050674971 -0.0010805928059347283 0 0.037726876255505935 -0.0010599199026132436 0 0.037899725458175132 -0.0010103235288275582 0 0.03792315492802182 -0.00090272598531258364 0 0.037899725458175132 -0.0010103235288275582 0 0.03792315492802182 -0.00090272598531258364 0 0.038063242662543205 -0.00092092089434277192 0 0.037815690082343659 -0.00073375592485208359 0 0.03792315492802182 -0.00090272598531258364 0 0.038055147783746905 -0.00078673634983637624 0 0.042375118928397709 -0.0012573228161829068 0 0.040468985435136585 -0.00081099627114317977 0 0.038309654310887842 -0.00083112198495969008 0 0.038216922762920352 -0.00095228378973010808 0 0.038417482843408325 -0.0010595470453663078 0 0.038055147783746905 -0.00078673634983637624 0 0.038192363546317602 -0.00086815427348372329 0 0.038063242662543205 -0.00092092089434277192 0 0.03792315492802182 -0.00090272598531258364 0 0.038055147783746905 -0.00078673634983637624 0 0.038063242662543205 -0.00092092089434277192 0 0.038055147783746905 -0.00078673634983637624 0 0.038309654310887842 -0.00083112198495969008 0 0.038192363546317602 -0.00086815427348372329 0 0.038309654310887842 -0.00083112198495969008 0 0.038192363546317602 -0.00086815427348372329 0 0.038216922762920352 -0.00095228378973010808 0 0.038192363546317602 -0.00086815427348372329 0 0.038216922762920352 -0.00095228378973010808 0 0.038063242662543205 -0.00092092089434277192 0 0.038216922762920352 -0.00095228378973010808 0 0.038063242662543205 -0.00092092089434277192 0 0.038063381912139448 -0.0010205975407726591 0 0.038216922762920352 -0.00095228378973010808 0 0.038063381912139448 -0.0010205975407726591 0 0.038188720877282992 -0.0010458319512486852 0 0.037899725458175132 -0.0010103235288275582 0 0.038063242662543205 -0.00092092089434277192 0 0.038063381912139448 -0.0010205975407726591 0 0.038063381912139448 -0.0010205975407726591 0 0.038054258643360941 -0.0011670431329947949 0 0.037822096050674971 -0.0010805928059347283 0 0.038054258643360941 -0.0011670431329947949 0 0.038456325029570075 -0.0014928642545613978 0 0.037475519788852885 -0.0011517802111124539 0 0.038063381912139448 -0.0010205975407726591 0 0.038054258643360941 -0.0011670431329947949 0 0.038188720877282992 -0.0010458319512486852 0 0.038054258643360941 -0.0011670431329947949 0 0.038417482843408325 -0.0010595470453663078 0 0.038188720877282992 -0.0010458319512486852 0 0.038054258643360941 -0.0011670431329947949 0 0.038417482843408325 -0.0010595470453663078 0 0.038456325029570075 -0.0014928642545613978 0 0.038216922762920352 -0.00095228378973010808 0 0.038417482843408325 -0.0010595470453663078 0 0.038188720877282992 -0.0010458319512486852 0 0.038054258643360941 -0.0011670431329947949 0 0.037475519788852885 -0.0011517802111124539 0 0.037822096050674971 -0.0010805928059347283 0 0.037726876255505935 -0.0010599199026132436 0 0.037475519788852885 -0.0011517802111124539 0 0.037822096050674971 -0.0010805928059347283 0 0.037726876255505935 -0.0010599199026132436 0 0.037475519788852885 -0.0011517802111124539 0 0.037590331967983254 -0.0011678486189967421 0 0.045741893913310086 -0.0004413524235854001 0 0.042375118928397709 -0.0012573228161829068 0 0.041019544854937966 -0.00072126780268470412 0 0.038417482843408325 -0.0010595470453663078 0 0.038456325029570075 -0.0014928642545613978 0 0.041019544854937966 -0.00072126780268470412 0 0.038414132328087026 0.00017110682954808306 0 0.038417482843408325 -0.0010595470453663078 0 0.041019544854937966 -0.00072126780268470412 0 0.038456325029570075 -0.0014928642545613978 0 0.039264929495889431 -0.0023756830595106069 0 0.042087291878870489 -0.0033237194494094677 0 0.041019544854937966 -0.00072126780268470412 0 0.039264929495889431 -0.0023756830595106069 0 0.036773708859020954 -0.00072623735442553213 0 0.036284256495501162 -0.000706266941275219 0 0.036698698302391891 -0.0011292945669462001 0 0.040687291183518666 -0.0014545878681245556 0 0.03829695517253108 -0.0015606422666432738 0 0.038574022339524019 -0.0017633570993928723 0 0.03829695517253108 -0.0015606422666432738 0 0.036773708859020954 -0.00072623735442553213 0 0.036698698302391891 -0.0011292945669462001 0 0.037069744520297244 -0.00096607725176402019 0 0.037473740309389617 -0.00076778349836388582 0 0.03829695517253108 -0.0015606422666432738 0 0.037475519788852885 -0.0011517802111124539 0 0.036698698302391891 -0.0011292945669462001 0 0.037069744520297244 -0.00096607725176402019 0 0.037475519788852885 -0.0011517802111124539 0 0.037069744520297244 -0.00096607725176402019 0 0.037282874123908079 -0.00084992526308627842 0 0.037475519788852885 -0.0011517802111124539 0 0.037282874123908079 -0.00084992526308627842 0 0.037590331967983254 -0.0011678486189967421 0 0.037319325680736454 -0.0012092602146997159 0 0.03829695517253108 -0.0015606422666432738 0 0.036773708859020954 -0.00072623735442553213 0 0.037069744520297244 -0.00096607725176402019 0 0.037282874123908079 -0.00084992526308627842 0 0.037714606231938924 -0.00057201479979507514 0 0.037526561681534142 -0.0013992245542024603 0 0.038141314779036088 -0.00033872902462450124 0 0.039062505713339558 -0.0007273177623406471 0 0.038649057092620287 -0.00149340144004163 0 0.038141314779036088 -0.00033872902462450124 0 0.03901830948834107 -0.00026727360516360206 0 0.039062505713339558 -0.0007273177623406471 0 0.040265713156783053 -0.00048636376971067949 0 0.04140272143242673 6.205975509775129e-05 0 0.03972086775845371 -6.4305235939626209e-05 0 0.03901830948834107 -0.00026727360516360206 0 0.039062505713339558 -0.0007273177623406471 0 0.040265713156783053 -0.00048636376971067949 0 0.03901830948834107 -0.00026727360516360206 0 0.040265713156783053 -0.00048636376971067949 0 0.03972086775845371 -6.4305235939626209e-05 0 0.039062505713339558 -0.0007273177623406471 0 0.040265713156783053 -0.00048636376971067949 0 0.039590507108613164 -0.0012396211590944789 0 0.040265713156783053 -0.00048636376971067949 0 0.040718399023990666 -0.0014373607980012421 0 0.042861443188009926 -0.00046213069075137683 0 0.040265713156783053 -0.00048636376971067949 0 0.040718399023990666 -0.0014373607980012421 0 0.039590507108613164 -0.0012396211590944789 0 0.040718399023990666 -0.0014373607980012421 0 0.039590507108613164 -0.0012396211590944789 0 0.039660413016533523 -0.002193105213242617 0 0.039062505713339558 -0.0007273177623406471 0 0.039590507108613164 -0.0012396211590944789 0 0.038649057092620287 -0.00149340144004163 0 0.039590507108613164 -0.0012396211590944789 0 0.038649057092620287 -0.00149340144004163 0 0.039660413016533523 -0.002193105213242617 0 0.038649057092620287 -0.00149340144004163 0 0.039660413016533523 -0.002193105213242617 0 0.038995605420363288 -0.0037907689812268059 0 0.037815690082343659 -0.00073375592485208359 0 0.037590331967983254 -0.0011678486189967421 0 0.037447070691281822 -2.0600613663842705e-05 0 0.037526561681534142 -0.0013992245542024603 0 0.043810360817035245 -0.0010718071621005293 0 0.043810360817035245 -0.0010718071621005293 0 0.04593976161814458 -0.0016091720630010506 0 0.040718399023990666 -0.0014373607980012421 0 0.039660413016533523 -0.002193105213242617 0 0.042022835673023388 -0.0031405057250241597 0 0.039660413016533523 -0.002193105213242617 0 0.038995605420363288 -0.0037907689812268059 0 0.042022835673023388 -0.0031405057250241597 0 0.05000140245260068 -6.023063290262051e-07 0 0.049966739379689463 -8.1136875464962423e-05 0 0.049697592736475192 -3.2395342182344543e-05 0 0.049984420138035147 -8.4958785599557455e-07 0 0.049999918889429874 -8.8998021408167658e-09 0 0.049967045374104284 -7.8068838498787458e-06 0 0.048896224669922647 -0.00020259945561270946 0 0.043810360817035245 -0.0010718071621005293 0 0.05000140245260068 -6.023063290262051e-07 0 0.049995630749317468 1.2177599708261818e-06 0 0.049697592736475192 -3.2395342182344543e-05 0 0.049995630749317468 1.2177599708261818e-06 0 0.049697592736475192 -3.2395342182344543e-05 0 0.047429361689448779 -1.8848674095886889e-06 0 0.042022835673023388 -0.0031405057250241597 0 0.047415934539417261 -7.1756488040946796e-06 0 0.042861443188009926 -0.00046213069075137683 0 0.04593976161814458 -0.0016091720630010506 0 0.047421519207771927 -5.7300302326641708e-07 0 0.047415934539417261 -7.1756488040946796e-06 0 0.042861443188009926 -0.00046213069075137683 0 0.044569374563724645 1.7261756025664828e-06 0 0.040718399023990666 -0.0014373607980012421 0 0.042022835673023388 -0.0031405057250241597 0 0.042861443188009926 -0.00046213069075137683 0 0.040265713156783053 -0.00048636376971067949 0 0.042861443188009926 -0.00046213069075137683 0 0.04140272143242673 6.205975509775129e-05 0 0.042861443188009926 -0.00046213069075137683 0 0.044569374563724645 1.7261756025664828e-06 0 0.04140272143242673 6.205975509775129e-05 0 0.044569374563724645 1.7261756025664828e-06 0 0.041716175512277617 3.1047658261782525e-08 0 0.04140272143242673 6.205975509775129e-05 0 0.041716175512277617 3.1047658261782525e-08 0 0.039700032805066558 0.00023207147899626603 0 0.04140272143242673 6.205975509775129e-05 0 0.039700032805066558 0.00023207147899626603 0 0.03934007147083083 0.00016080474441120468 0 0.038220563528501596 0.00032035412453123213 0 0.039700032805066558 0.00023207147899626603 0 0.04140272143242673 6.205975509775129e-05 0 0.03934007147083083 0.00016080474441120468 0 0.04140272143242673 6.205975509775129e-05 0 0.03972086775845371 -6.4305235939626209e-05 0 0.03934007147083083 0.00016080474441120468 0 0.03972086775845371 -6.4305235939626209e-05 0 0.038214180347462948 1.5014711439128156e-06 0 0.03934007147083083 0.00016080474441120468 0 0.03901830948834107 -0.00026727360516360206 0 0.03972086775845371 -6.4305235939626209e-05 0 0.038214180347462948 1.5014711439128156e-06 0 0.036920482003226146 7.6092360381599711e-06 0 0.038141314779036088 -0.00033872902462450124 0 0.038214180347462948 1.5014711439128156e-06 0 0.038141314779036088 -0.00033872902462450124 0 0.03901830948834107 -0.00026727360516360206 0 0.038214180347462948 1.5014711439128156e-06 0 0.038214180347462948 1.5014711439128156e-06 0 0.03740097386451198 0.00026824101232479782 0 0.037400557677036102 0.00011799006242056714 0 0.038214180347462948 1.5014711439128156e-06 0 0.03740097386451198 0.00026824101232479782 0 0.038220563528501596 0.00032035412453123213 0 0.036920482003226146 7.6092360381599711e-06 0 0.038214180347462948 1.5014711439128156e-06 0 0.037400557677036102 0.00011799006242056714 0 0.037016808627795543 0.00018055503497640379 0 0.03740097386451198 0.00026824101232479782 0 0.037400557677036102 0.00011799006242056714 0 0.038214180347462948 1.5014711439128156e-06 0 0.03934007147083083 0.00016080474441120468 0 0.038220563528501596 0.00032035412453123213 0 0.03740097386451198 0.00026824101232479782 0 0.038220563528501596 0.00032035412453123213 0 0.036937176944998124 0.00046424912087728471 0 0.038220563528501596 0.00032035412453123213 0 0.036937176944998124 0.00046424912087728471 0 0.037853645311885932 0.00036877368839790463 0 0.03740097386451198 0.00026824101232479782 0 0.036177067728195643 0.00046956294808886032 0 0.036937176944998124 0.00046424912087728471 0 0.036524739658945059 0.0003091506242072369 0 0.03740097386451198 0.00026824101232479782 0 0.036177067728195643 0.00046956294808886032 0 0.036524739658945059 0.0003091506242072369 0 0.037016808627795543 0.00018055503497640379 0 0.03740097386451198 0.00026824101232479782 0 0.035818785968176892 0.00056994670834895316 0 0.036177067728195643 0.00046956294808886032 0 0.036937176944998124 0.00046424912087728471 0 0.03606627502315559 0.00052856226538993886 0 0.035818785968176892 0.00056994670834895316 0 0.036937176944998124 0.00046424912087728471 0 0.03606627502315559 0.00052856226538993886 0 0.036937176944998124 0.00046424912087728471 0 0.037853645311885932 0.00036877368839790463 0 0.03606627502315559 0.00052856226538993886 0 0.037011145719644811 0.0003159790671054072 0 0.037853645311885932 0.00036877368839790463 0 0.037011145719644811 0.0003159790671054072 0 0.038864656864839885 7.0527334087546203e-07 0 0.037853645311885932 0.00036877368839790463 0 0.041716175512277617 3.1047658261782525e-08 0 0.039700032805066558 0.00023207147899626603 0 0.038864656864839885 7.0527334087546203e-07 0 0.039700032805066558 0.00023207147899626603 0 0.038220563528501596 0.00032035412453123213 0 0.037853645311885932 0.00036877368839790463 0 0.039700032805066558 0.00023207147899626603 0 0.038864656864839885 7.0527334087546203e-07 0 0.037853645311885932 0.00036877368839790463 0 0.034702653580842575 0.002146042607958424 0 0.033566832329146284 0.001477186362863811 0 0.033573828817394603 0.0025403432632932128 0 0.034702653580842575 0.002146042607958424 0 0.034360729333321231 0.0010262511491753305 0 0.033566832329146284 0.001477186362863811 0 0.042022994285953887 0.0018681488838738335 0 0.039545918790300262 0.00021386860216284639 0 0.034702653580842575 0.002146042607958424 0 0.034360729333321231 0.0010262511491753305 0 0.035850278984820953 0.0017212138044163257 0 0.048541677992046825 0.0014272539312127246 0 0.04825377237276391 0.0011497187367102916 0 0.047971658926729138 0.0016226807282973461 0 0.034360729333321231 0.0010262511491753305 0 0.035850278984820953 0.0017212138044163257 0 0.035277751577660735 0.00058551049282600236 0 0.033566832329146284 0.001477186362863811 0 0.032917166470445312 0.00088306726664762799 0 0.033547336062856183 0.00040032146329986519 0 0.034360729333321231 0.0010262511491753305 0 0.033566832329146284 0.001477186362863811 0 0.033547336062856183 0.00040032146329986519 0 0.032917166470445312 0.00088306726664762799 0 0.032827115918650472 0.0018779613610573904 0 0.03225167167238057 0.0012543322382863322 0 0.033566832329146284 0.001477186362863811 0 0.032917166470445312 0.00088306726664762799 0 0.032827115918650472 0.0018779613610573904 0 0.032917166470445312 0.00088306726664762799 0 0.032240271720123996 0.00035981577797963577 0 0.03225167167238057 0.0012543322382863322 0 0.032827115918650472 0.0018779613610573904 0 0.03207177181907659 0.0020181296780046576 0 0.03225167167238057 0.0012543322382863322 0 0.032827115918650472 0.0018779613610573904 0 0.032485819650460594 0.0029102408818009913 0 0.03207177181907659 0.0020181296780046576 0 0.033566832329146284 0.001477186362863811 0 0.032827115918650472 0.0018779613610573904 0 0.033573828817394603 0.0025403432632932128 0 0.049049054566717945 0.0011779726593629915 0 0.049439817519507455 0.00093455385262313558 0 0.049137405040561438 0.00074462372662852116 0 0.032827115918650472 0.0018779613610573904 0 0.033573828817394603 0.0025403432632932128 0 0.032485819650460594 0.0029102408818009913 0 0.041316811950942368 0.0018241169722140347 0 0.040563087871754867 0.0021503170089827617 0 0.049439817519507455 0.00093455385262313558 0 0.049423009706040903 0.00062966233394426147 0 0.049137405040561438 0.00074462372662852116 0 0.049049054566717945 0.0011779726593629915 0 0.049137405040561438 0.00074462372662852116 0 0.048725202072129936 0.0008941111229888711 0 0.049137405040561438 0.00074462372662852116 0 0.048725202072129936 0.0008941111229888711 0 0.048857449181044267 0.00051046172070557067 0 0.042022994285953887 0.0018681488838738335 0 0.041316811950942368 0.0018241169722140347 0 0.048541677992046825 0.0014272539312127246 0 0.049049054566717945 0.0011779726593629915 0 0.048725202072129936 0.0008941111229888711 0 0.048541677992046825 0.0014272539312127246 0 0.048725202072129936 0.0008941111229888711 0 0.04825377237276391 0.0011497187367102916 0 0.048725202072129936 0.0008941111229888711 0 0.04825377237276391 0.0011497187367102916 0 0.048239478394115555 0.00070808624712452302 0 0.048725202072129936 0.0008941111229888711 0 0.048239478394115555 0.00070808624712452302 0 0.048857449181044267 0.00051046172070557067 0 0.04825377237276391 0.0011497187367102916 0 0.048239478394115555 0.00070808624712452302 0 0.047798217460515581 0.0011070683011377876 0 0.042134634348392694 -0.00012047524158235189 0 0.04194849115558056 6.9202696047200175e-05 0 0.035963284530240586 -0.0012993550078964123 0 0.036989920808280431 -0.0010045933593763226 0 0.036395500537817697 -0.00049233521887406492 0 0.048239478394115555 0.00070808624712452302 0 0.047798217460515581 0.0011070683011377876 0 0.04755474383071772 0.00061526909693173282 0 0.035963284530240586 -0.0012993550078964123 0 0.036989920808280431 -0.0010045933593763226 0 0.03613120773640411 -0.0018373000643422408 0 0.04825377237276391 0.0011497187367102916 0 0.047798217460515581 0.0011070683011377876 0 0.047971658926729138 0.0016226807282973461 0 0.037526468318014233 -0.0016805491659118476 0 0.036700110298862665 -0.0016126230081799217 0 0.037651613661654822 -0.001080714978563282 0 0.036989920808280431 -0.0010045933593763226 0 0.036701177913315973 -0.0020480787663543902 0 0.03613120773640411 -0.0018373000643422408 0 0.036857449958577392 -0.0012988320950837087 0 0.0365215926777228 -0.0024545595315128041 0 0.036700110298862665 -0.0016126230081799217 0 0.036951189435149495 -0.0026051698854702918 0 0.036342312976357719 -0.002858622431924827 0 0.036700110298862665 -0.0016126230081799217 0 0.037387054142149885 -0.0022213898971546577 0 0.036951189435149495 -0.0026051698854702918 0 0.037526468318014233 -0.0016805491659118476 0 0.036700110298862665 -0.0016126230081799217 0 0.037387054142149885 -0.0022213898971546577 0 0.036951189435149495 -0.0026051698854702918 0 0.03675830133748377 -0.0033790952520551887 0 0.037515366828801175 -0.0028321938380701911 0 0.037387054142149885 -0.0022213898971546577 0 0.036951189435149495 -0.0026051698854702918 0 0.037515366828801175 -0.0028321938380701911 0 0.036951189435149495 -0.0026051698854702918 0 0.036342312976357719 -0.002858622431924827 0 0.03675830133748377 -0.0033790952520551887 0 0.0365215926777228 -0.0024545595315128041 0 0.036179764630319869 -0.0036206716185132283 0 0.03675830133748377 -0.0033790952520551887 0 0.036057605608838604 -0.0038985921867295912 0 0.036864735861905716 -0.004014912317399439 0 0.036342312976357719 -0.002858622431924827 0 0.03675830133748377 -0.0033790952520551887 0 0.036057605608838604 -0.0038985921867295912 0 0.03675830133748377 -0.0033790952520551887 0 0.036864735861905716 -0.004014912317399439 0 0.03745817178433012 -0.003497969660621646 0 0.03675830133748377 -0.0033790952520551887 0 0.037515366828801175 -0.0028321938380701911 0 0.03745817178433012 -0.003497969660621646 0 0.035727527295069866 -0.0023466912241479868 0 0.035448883286799668 -0.0022179528180999077 0 0.03613120773640411 -0.0018373000643422408 0 0.042134634348392694 -0.00012047524158235189 0 0.039545918790300262 0.00021386860216284639 0 0.03643179112828307 -0.00045134253625281139 0 0.039545918790300262 0.00021386860216284639 0 0.035963284530240586 -0.0012993550078964123 0 0.035448883286799668 -0.0022179528180999077 0 0.03613120773640411 -0.0018373000643422408 0 0.036701177913315973 -0.0020480787663543902 0 0.035727527295069866 -0.0023466912241479868 0 0.03613120773640411 -0.0018373000643422408 0 0.035727527295069866 -0.0023466912241479868 0 0.035491324664162577 -0.0030568738637095625 0 0.036327595385210978 -0.003333151557663856 0 0.036701177913315973 -0.0020480787663543902 0 0.035727527295069866 -0.0023466912241479868 0 0.036327595385210978 -0.003333151557663856 0 0.035333461409176287 -0.002190762747348458 0 0.035491324664162577 -0.0030568738637095625 0 0.034759455196228313 -0.0033509485262312355 0 0.039545918790300262 0.00021386860216284639 0 0.03451378944618734 -0.0016240632837048634 0 0.035727527295069866 -0.0023466912241479868 0 0.035333461409176287 -0.002190762747348458 0 0.035491324664162577 -0.0030568738637095625 0 0.035491324664162577 -0.0030568738637095625 0 0.035226179771265173 -0.0040639802404872647 0 0.034759455196228313 -0.0033509485262312355 0 0.035491324664162577 -0.0030568738637095625 0 0.036327595385210978 -0.003333151557663856 0 0.035226179771265173 -0.0040639802404872647 0 0.036057605608838604 -0.0038985921867295912 0 0.036416362553601853 -0.0044218165314866224 0 0.035770364088042808 -0.0047023307715031689 0 0.036327595385210978 -0.003333151557663856 0 0.035226179771265173 -0.0040639802404872647 0 0.035770364088042808 -0.0047023307715031689 0 0.036179764630319869 -0.0036206716185132283 0 0.035804555122527705 -0.0046496813736397373 0 0.036864735861905716 -0.004014912317399439 0 0.037085375087373702 -0.0046729617084698147 0 0.037537087911897776 -0.0042178107650875808 0 0.036057605608838604 -0.0038985921867295912 0 0.036864735861905716 -0.004014912317399439 0 0.036416362553601853 -0.0044218165314866224 0 0.036416362553601853 -0.0044218165314866224 0 0.036495904602563335 -0.0049356786300849484 0 0.035770364088042808 -0.0047023307715031689 0 0.036864735861905716 -0.004014912317399439 0 0.036416362553601853 -0.0044218165314866224 0 0.037085375087373702 -0.0046729617084698147 0 0.036416362553601853 -0.0044218165314866224 0 0.037085375087373702 -0.0046729617084698147 0 0.036495904602563335 -0.0049356786300849484 0 0.036987515635722855 -0.0052691841152680838 0 0.036495904602563335 -0.0049356786300849484 0 0.036605549519817725 -0.0055114036137533231 0 0.037085375087373702 -0.0046729617084698147 0 0.036987515635722855 -0.0052691841152680838 0 0.036495904602563335 -0.0049356786300849484 0 0.037085375087373702 -0.0046729617084698147 0 0.036987515635722855 -0.0052691841152680838 0 0.03736989748952553 -0.0050549894110458798 0 0.036495904602563335 -0.0049356786300849484 0 0.036150279769717159 -0.0053872086543012496 0 0.035770364088042808 -0.0047023307715031689 0 0.036495904602563335 -0.0049356786300849484 0 0.036150279769717159 -0.0053872086543012496 0 0.036605549519817725 -0.0055114036137533231 0 0.036150279769717159 -0.0053872086543012496 0 0.036344818318479293 -0.005773189351565006 0 0.035940480590412244 -0.005801708598294774 0 0.036150279769717159 -0.0053872086543012496 0 0.036344818318479293 -0.005773189351565006 0 0.036605549519817725 -0.0055114036137533231 0 0.036987515635722855 -0.0052691841152680838 0 0.036605549519817725 -0.0055114036137533231 0 0.036893468421759328 -0.0055676424729816818 0 0.036804371532094426 -0.0058768753932962109 0 0.036344818318479293 -0.005773189351565006 0 0.036605549519817725 -0.0055114036137533231 0 0.036804371532094426 -0.0058768753932962109 0 0.036605549519817725 -0.0055114036137533231 0 0.036893468421759328 -0.0055676424729816818 0 0.036804371532094426 -0.0058768753932962109 0 0.037177388293106475 -0.0056191822875266313 0 0.0371539691053204 -0.0060682030652372335 0 0.036804371532094426 -0.0058768753932962109 0 0.036893468421759328 -0.0055676424729816818 0 0.037177388293106475 -0.0056191822875266313 0 0.036987515635722855 -0.0052691841152680838 0 0.036893468421759328 -0.0055676424729816818 0 0.037177388293106475 -0.0056191822875266313 0 0.034872397618110729 -0.0052476360352095523 0 0.035770364088042808 -0.0047023307715031689 0 0.035612969509449123 -0.0054601642659827219 0 0.035226179771265173 -0.0040639802404872647 0 0.034872397618110729 -0.0052476360352095523 0 0.035770364088042808 -0.0047023307715031689 0 0.036150279769717159 -0.0053872086543012496 0 0.035770364088042808 -0.0047023307715031689 0 0.035612969509449123 -0.0054601642659827219 0 0.035423991566635962 -0.006115224443773189 0 0.035612969509449123 -0.0054601642659827219 0 0.035940480590412244 -0.005801708598294774 0 0.036150279769717159 -0.0053872086543012496 0 0.035612969509449123 -0.0054601642659827219 0 0.035940480590412244 -0.005801708598294774 0 0.035423991566635962 -0.006115224443773189 0 0.034872397618110729 -0.0052476360352095523 0 0.035612969509449123 -0.0054601642659827219 0 0.034493467116472311 -0.006121313996086313 0 0.035423991566635962 -0.006115224443773189 0 0.034872397618110729 -0.0052476360352095523 0 0.034493467116472311 -0.006121313996086313 0 0.034872397618110729 -0.0052476360352095523 0 0.033922504390361832 -0.0053368625243736725 0 0.031724733239465133 -0.0047894643441012087 0 0.03426125010706884 -0.0033952904959157291 0 0.03426125010706884 -0.0033952904959157291 0 0.034554758016228322 -0.0024295508050954299 0 0.034145055523083757 -0.0016730635963038904 0 0.034709148488403112 -0.00053340416195543888 0 0.033358393129929401 -0.00074508055472034959 0 0.034872397618110729 -0.0052476360352095523 0 0.033922504390361832 -0.0053368625243736725 0 0.034315746890621432 -0.0044102696391188842 0 0.035226179771265173 -0.0040639802404872647 0 0.034315746890621432 -0.0044102696391188842 0 0.034759455196228313 -0.0033509485262312355 0 0.034360729333321231 0.0010262511491753305 0 0.034709148488403112 -0.00053340416195543888 0 0.033547336062856183 0.00040032146329986519 0 0.035226179771265173 -0.0040639802404872647 0 0.034872397618110729 -0.0052476360352095523 0 0.034315746890621432 -0.0044102696391188842 0 0.034360729333321231 0.0010262511491753305 0 0.034709148488403112 -0.00053340416195543888 0 0.035277751577660735 0.00058551049282600236 0 0.034709148488403112 -0.00053340416195543888 0 0.033547336062856183 0.00040032146329986519 0 0.033358393129929401 -0.00074508055472034959 0 0.034554758016228322 -0.0024295508050954299 0 0.03451378944618734 -0.0016240632837048634 0 0.032917166470445312 0.00088306726664762799 0 0.032914504484970845 -7.7113315991941169e-05 0 0.032240271720123996 0.00035981577797963577 0 0.032917166470445312 0.00088306726664762799 0 0.033547336062856183 0.00040032146329986519 0 0.032914504484970845 -7.7113315991941169e-05 0 0.033547336062856183 0.00040032146329986519 0 0.032914504484970845 -7.7113315991941169e-05 0 0.033358393129929401 -0.00074508055472034959 0 0.032914504484970845 -7.7113315991941169e-05 0 0.032292578592726433 -0.00047539474264987906 0 0.032240271720123996 0.00035981577797963577 0 0.032914504484970845 -7.7113315991941169e-05 0 0.032292578592726433 -0.00047539474264987906 0 0.033358393129929401 -0.00074508055472034959 0 0.032292578592726433 -0.00047539474264987906 0 0.032533099801475653 -0.0013108156558757286 0 0.033358393129929401 -0.00074508055472034959 0 0.032292578592726433 -0.00047539474264987906 0 0.032533099801475653 -0.0013108156558757286 0 0.031804145926446974 -0.0011198719099958447 0 0.034145055523083757 -0.0016730635963038904 0 0.033358393129929401 -0.00074508055472034959 0 0.033305716581159876 -0.0015937708922109165 0 0.032533099801475653 -0.0013108156558757286 0 0.033358393129929401 -0.00074508055472034959 0 0.033305716581159876 -0.0015937708922109165 0 0.033567322635507275 -0.0028914482916485369 0 0.034145055523083757 -0.0016730635963038904 0 0.033101161629898526 -0.002324067238573264 0 0.034145055523083757 -0.0016730635963038904 0 0.033305716581159876 -0.0015937708922109165 0 0.033101161629898526 -0.002324067238573264 0 0.033305716581159876 -0.0015937708922109165 0 0.033101161629898526 -0.002324067238573264 0 0.03248077116634189 -0.0019920806881372692 0 0.032533099801475653 -0.0013108156558757286 0 0.03248077116634189 -0.0019920806881372692 0 0.031742247685326505 -0.0017081010219282685 0 0.032533099801475653 -0.0013108156558757286 0 0.033305716581159876 -0.0015937708922109165 0 0.03248077116634189 -0.0019920806881372692 0 0.032360142038301676 -0.0025985030688704834 0 0.033101161629898526 -0.002324067238573264 0 0.03248077116634189 -0.0019920806881372692 0 0.032360142038301676 -0.0025985030688704834 0 0.03248077116634189 -0.0019920806881372692 0 0.031848373927460615 -0.0022789538701511597 0 0.03248077116634189 -0.0019920806881372692 0 0.031848373927460615 -0.0022789538701511597 0 0.031742247685326505 -0.0017081010219282685 0 0.031742247685326505 -0.0017081010219282685 0 0.03104612182479043 -0.0013205413214188221 0 0.031068598345055366 -0.0022097940959390325 0 0.031848373927460615 -0.0022789538701511597 0 0.031742247685326505 -0.0017081010219282685 0 0.031068598345055366 -0.0022097940959390325 0 0.032533099801475653 -0.0013108156558757286 0 0.031742247685326505 -0.0017081010219282685 0 0.031804145926446974 -0.0011198719099958447 0 0.032292578592726433 -0.00047539474264987906 0 0.031804145926446974 -0.0011198719099958447 0 0.031453504647153706 -0.00070164622498178038 0 0.031742247685326505 -0.0017081010219282685 0 0.031804145926446974 -0.0011198719099958447 0 0.03104612182479043 -0.0013205413214188221 0 0.031804145926446974 -0.0011198719099958447 0 0.031453504647153706 -0.00070164622498178038 0 0.03104612182479043 -0.0013205413214188221 0 0.03104612182479043 -0.0013205413214188221 0 0.030359436397711145 -0.0017901175487288379 0 0.03016435490018252 -0.00090606139480917071 0 0.031453504647153706 -0.00070164622498178038 0 0.03104612182479043 -0.0013205413214188221 0 0.030867508782947712 -0.00052068519508184402 0 0.03104612182479043 -0.0013205413214188221 0 0.03016435490018252 -0.00090606139480917071 0 0.030867508782947712 -0.00052068519508184402 0 0.03104612182479043 -0.0013205413214188221 0 0.031068598345055366 -0.0022097940959390325 0 0.030359436397711145 -0.0017901175487288379 0 0.029939992989803144 -0.0024983233012083467 0 0.031068598345055366 -0.0022097940959390325 0 0.030359436397711145 -0.0017901175487288379 0 0.029939992989803144 -0.0024983233012083467 0 0.030359436397711145 -0.0017901175487288379 0 0.029730811235371083 -0.0014325762479527285 0 0.029939992989803144 -0.0024983233012083467 0 0.028968548601755073 -0.0017952855158377423 0 0.029730811235371083 -0.0014325762479527285 0 0.028968548601755073 -0.0017952855158377423 0 0.029268532974150999 -0.00065839387108528047 0 0.029730811235371083 -0.0014325762479527285 0 0.028968548601755073 -0.0017952855158377423 0 0.029268532974150999 -0.00065839387108528047 0 0.028474799431658416 -0.0011469400791819717 0 0.029268532974150999 -0.00065839387108528047 0 0.029730811235371083 -0.0014325762479527285 0 0.03016435490018252 -0.00090606139480917071 0 0.030359436397711145 -0.0017901175487288379 0 0.029730811235371083 -0.0014325762479527285 0 0.03016435490018252 -0.00090606139480917071 0 0.029268532974150999 -0.00065839387108528047 0 0.03016435490018252 -0.00090606139480917071 0 0.030238090391738814 -0.00022611149166486133 0 0.030238090391738814 -0.00022611149166486133 0 0.03001776757908519 0.00050032537081287772 0 0.030802159277599137 9.490766561978591e-05 0 0.03016435490018252 -0.00090606139480917071 0 0.030238090391738814 -0.00022611149166486133 0 0.030867508782947712 -0.00052068519508184402 0 0.030238090391738814 -0.00022611149166486133 0 0.029565073163977437 -3.3954177007465042e-05 0 0.029877563646751194 0.00056363107594015996 0 0.029268532974150999 -0.00065839387108528047 0 0.030238090391738814 -0.00022611149166486133 0 0.029565073163977437 -3.3954177007465042e-05 0 0.029268532974150999 -0.00065839387108528047 0 0.029565073163977437 -3.3954177007465042e-05 0 0.028848607241708724 0.00024617699203085852 0 0.029565073163977437 -3.3954177007465042e-05 0 0.029877563646751194 0.00056363107594015996 0 0.028848607241708724 0.00024617699203085852 0 0.031435791368834821 0.0012056157684062832 0 0.03289770911765625 0.00096525500291015382 0 0.035858450015995545 0.0014929736267431924 0 0.036524604152493187 0.0016347439069577924 0 0.036327108206046843 0.0011576887711413867 0 0.03001776757908519 0.00050032537081287772 0 0.030721860806770522 0.00064699210578924942 0 0.030802159277599137 9.490766561978591e-05 0 0.030272837210694944 0.00052673873125619526 0 0.030721860806770522 0.00064699210578924942 0 0.030637866545800349 0.0013036964246150554 0 0.03031589407525459 -9.47843934039731e-05 0 0.031435791368834821 0.0012056157684062832 0 0.031435791368834821 0.0012056157684062832 0 0.03028766870030869 0.00062179739233062458 0 0.030721860806770522 0.00064699210578924942 0 0.031501180667387919 0.00065017822316845849 0 0.030802159277599137 9.490766561978591e-05 0 0.031501180667387919 0.00065017822316845849 0 0.031498472454684158 -0.0001066666603193041 0 0.030802159277599137 9.490766561978591e-05 0 0.031501180667387919 0.00065017822316845849 0 0.032240271720123996 0.00035981577797963577 0 0.03225167167238057 0.0012543322382863322 0 0.031501180667387919 0.00065017822316845849 0 0.032240271720123996 0.00035981577797963577 0 0.031498472454684158 -0.0001066666603193041 0 0.032292578592726433 -0.00047539474264987906 0 0.031453504647153706 -0.00070164622498178038 0 0.031498472454684158 -0.0001066666603193041 0 0.032292578592726433 -0.00047539474264987906 0 0.032240271720123996 0.00035981577797963577 0 0.031498472454684158 -0.0001066666603193041 0 0.031453504647153706 -0.00070164622498178038 0 0.031498472454684158 -0.0001066666603193041 0 0.030867508782947712 -0.00052068519508184402 0 0.030238090391738814 -0.00022611149166486133 0 0.030867508782947712 -0.00052068519508184402 0 0.030802159277599137 9.490766561978591e-05 0 0.031498472454684158 -0.0001066666603193041 0 0.030867508782947712 -0.00052068519508184402 0 0.030802159277599137 9.490766561978591e-05 0 0.026169499131411266 -0.0015383253825224969 0 0.02660771681505077 -0.00083225347312440004 0 0.025463022927754413 -0.00030393666832009548 0 0.023055049756438621 -0.002158538742270824 0 0.024327064646290697 -0.00022262413252118669 0 0.017783232457196256 -0.0025814636343774082 0 0.019639258902736483 -0.0024245076309994448 0 0.01863415470011829 -0.00062339111248250209 0 0.018596703120965972 -0.0043176070925991326 0 0.017783232457196256 -0.0025814636343774082 0 0.019639258902736483 -0.0024245076309994448 0 0.026866189880166428 -0.0027460717358582941 0 0.026169499131411266 -0.0015383253825224969 0 0.027356654448332567 -0.0017198455443248335 0 0.020590052931628876 -0.0029494014933834764 0 0.023055049756438621 -0.002158538742270824 0 0.026169499131411266 -0.0015383253825224969 0 0.02660771681505077 -0.00083225347312440004 0 0.027356654448332567 -0.0017198455443248335 0 0.027491578685818262 -0.00057199659762174426 0 0.027356654448332567 -0.0017198455443248335 0 0.028474799431658416 -0.0011469400791819717 0 0.02660771681505077 -0.00083225347312440004 0 0.027491578685818262 -0.00057199659762174426 0 0.027356654448332567 -0.0017198455443248335 0 0.027907890290704989 -0.0026827065773068924 0 0.027356654448332567 -0.0017198455443248335 0 0.028276147452219038 -0.0019813698313700667 0 0.028795776299935797 -0.0026082848832673141 0 0.028968548601755073 -0.0017952855158377423 0 0.028276147452219038 -0.0019813698313700667 0 0.027356654448332567 -0.0017198455443248335 0 0.028276147452219038 -0.0019813698313700667 0 0.028474799431658416 -0.0011469400791819717 0 0.028968548601755073 -0.0017952855158377423 0 0.028276147452219038 -0.0019813698313700667 0 0.028474799431658416 -0.0011469400791819717 0 0.029268532974150999 -0.00065839387108528047 0 0.028474799431658416 -0.0011469400791819717 0 0.028458592220745569 -0.00045502023760515402 0 0.027104025120873339 -0.00038218006474145138 0 0.028614266035784226 -0.0011932731324249917 0 0.027872559045518202 -0.00064267857492118221 0 0.028474799431658416 -0.0011469400791819717 0 0.028458592220745569 -0.00045502023760515402 0 0.029268532974150999 -0.00065839387108528047 0 0.028458592220745569 -0.00045502023760515402 0 0.028848607241708724 0.00024617699203085852 0 0.03289770911765625 0.00096525500291015382 0 0.032795451887506204 0.00091486801038814639 0 0.028458592220745569 -0.00045502023760515402 0 0.028848607241708724 0.00024617699203085852 0 0.027995327994527568 -6.9094685272258046e-05 0 0.036524604152493187 0.0016347439069577924 0 0.036900889459462453 0.0012801911818917367 0 0.037120621543714483 0.00176051465666741 0 0.036524604152493187 0.0016347439069577924 0 0.036900889459462453 0.0012801911818917367 0 0.036327108206046843 0.0011576887711413867 0 0.036900889459462453 0.0012801911818917367 0 0.037120621543714483 0.00176051465666741 0 0.037513733378604676 0.0013278404173903383 0 0.037120621543714483 0.00176051465666741 0 0.037676227402192959 0.0018835527114719058 0 0.037513733378604676 0.0013278404173903383 0 0.027872559045518202 -0.00064267857492118221 0 0.027995327994527568 -6.9094685272258046e-05 0 0.027323746180580512 -0.0002761671397690516 0 0.032795451887506204 0.00091486801038814639 0 0.031060581620855312 0.00038916349421495389 0 0.027872559045518202 -0.00064267857492118221 0 0.028458592220745569 -0.00045502023760515402 0 0.027995327994527568 -6.9094685272258046e-05 0 0.02660771681505077 -0.00083225347312440004 0 0.026549728265858167 -2.8606860545796213e-05 0 0.025463022927754413 -0.00030393666832009548 0 0.027104025120873339 -0.00038218006474145138 0 0.031060581620855312 0.00038916349421495389 0 0.02660771681505077 -0.00083225347312440004 0 0.027491578685818262 -0.00057199659762174426 0 0.026549728265858167 -2.8606860545796213e-05 0 0.037676227402192959 0.0018835527114719058 0 0.037513733378604676 0.0013278404173903383 0 0.037858403467577226 0.001418661564922006 0 0.037858403467577226 0.001418661564922006 0 0.038267601696382679 0.0015421609495066453 0 0.037969340643036975 0.00091224829719237406 0 0.037676227402192959 0.0018835527114719058 0 0.037858403467577226 0.001418661564922006 0 0.038267601696382679 0.0015421609495066453 0 0.031060581620855312 0.00038916349421495389 0 0.024327064646290697 -0.00022262413252118669 0 0.029987237065479854 0.00039215736299002375 0 0.030036455600464876 0.00045396606413754183 0 0.03003729550344238 0.00027820281241762023 0 0.031060581620855312 0.00038916349421495389 0 0.034945587049112908 0.0011180624312151363 0 0.030248125232050713 0.00033365655419714612 0 0.030036455600464876 0.00045396606413754183 0 0.03003729550344238 0.00027820281241762023 0 0.028811001105283573 -0.00047353949617115162 0 0.024327064646290697 -0.00022262413252118669 0 0.038619766305590546 0.00084024316332438089 0 0.038144682291311495 0.00028815525160475511 0 0.037969340643036975 0.00091224829719237406 0 0.038619766305590546 0.00084024316332438089 0 0.038430754508865135 0.0016690673129897114 0 0.037969340643036975 0.00091224829719237406 0 0.034945587049112908 0.0011180624312151363 0 0.039035846397860882 0.0014129264911793345 0 0.037513733378604676 0.0013278404173903383 0 0.037858403467577226 0.001418661564922006 0 0.037969340643036975 0.00091224829719237406 0 0.037513733378604676 0.0013278404173903383 0 0.037969340643036975 0.00091224829719237406 0 0.03755257685265629 0.00067593157485590068 0 0.038144682291311495 0.00028815525160475511 0 0.037969340643036975 0.00091224829719237406 0 0.03755257685265629 0.00067593157485590068 0 0.038144682291311495 0.00028815525160475511 0 0.03755257685265629 0.00067593157485590068 0 0.0374994580162765 8.5440916683578188e-05 0 0.03755257685265629 0.00067593157485590068 0 0.037045841127874644 0.00039625492213014055 0 0.0374994580162765 8.5440916683578188e-05 0 0.03755257685265629 0.00067593157485590068 0 0.03714323895545478 0.00091178212916443314 0 0.037045841127874644 0.00039625492213014055 0 0.036900889459462453 0.0012801911818917367 0 0.037513733378604676 0.0013278404173903383 0 0.03714323895545478 0.00091178212916443314 0 0.037513733378604676 0.0013278404173903383 0 0.03755257685265629 0.00067593157485590068 0 0.03714323895545478 0.00091178212916443314 0 0.036900889459462453 0.0012801911818917367 0 0.036680507809362606 0.0008310145595297121 0 0.036327108206046843 0.0011576887711413867 0 0.036900889459462453 0.0012801911818917367 0 0.03714323895545478 0.00091178212916443314 0 0.036680507809362606 0.0008310145595297121 0 0.036680507809362606 0.0008310145595297121 0 0.037045841127874644 0.00039625492213014055 0 0.036526492360060316 0.00026757400115217197 0 0.03714323895545478 0.00091178212916443314 0 0.036680507809362606 0.0008310145595297121 0 0.037045841127874644 0.00039625492213014055 0 0.038763903862706034 -0.00028338955938033962 0 0.039231613453751708 0.00019169710686280905 0 0.037045841127874644 0.00039625492213014055 0 0.036872775609780174 -0.00040848544397726824 0 0.036526492360060316 0.00026757400115217197 0 0.036872775609780174 -0.00040848544397726824 0 0.037851837512364421 -0.00056367525485900329 0 0.037231703560985117 -0.0010943662402510379 0 0.036872775609780174 -0.00040848544397726824 0 0.0374994580162765 8.5440916683578188e-05 0 0.037851837512364421 -0.00056367525485900329 0 0.037045841127874644 0.00039625492213014055 0 0.036872775609780174 -0.00040848544397726824 0 0.0374994580162765 8.5440916683578188e-05 0 0.038144682291311495 0.00028815525160475511 0 0.0374994580162765 8.5440916683578188e-05 0 0.037851837512364421 -0.00056367525485900329 0 0.037851837512364421 -0.00056367525485900329 0 0.038557376773715998 -0.00033750540179623809 0 0.038610031182701045 -0.00095558001462414687 0 0.038144682291311495 0.00028815525160475511 0 0.037851837512364421 -0.00056367525485900329 0 0.038557376773715998 -0.00033750540179623809 0 0.031344136465162133 0.0015384516218365572 0 0.030637866545800349 0.0013036964246150554 0 0.030661088497986558 0.0022680865787072244 0 0.031344136465162133 0.0015384516218365572 0 0.030661088497986558 0.0022680865787072244 0 0.031510887397810085 0.0024643863936321142 0 0.03207177181907659 0.0020181296780046576 0 0.031344136465162133 0.0015384516218365572 0 0.031510887397810085 0.0024643863936321142 0 0.03207177181907659 0.0020181296780046576 0 0.03225167167238057 0.0012543322382863322 0 0.031344136465162133 0.0015384516218365572 0 0.031501180667387919 0.00065017822316845849 0 0.03225167167238057 0.0012543322382863322 0 0.031344136465162133 0.0015384516218365572 0 0.030721860806770522 0.00064699210578924942 0 0.031501180667387919 0.00065017822316845849 0 0.031344136465162133 0.0015384516218365572 0 0.030721860806770522 0.00064699210578924942 0 0.031344136465162133 0.0015384516218365572 0 0.030637866545800349 0.0013036964246150554 0 0.030272837210694944 0.00052673873125619526 0 0.030637866545800349 0.0013036964246150554 0 0.029980168259726322 0.0012736252053513893 0 0.035858450015995545 0.0014929736267431924 0 0.036327108206046843 0.0011576887711413867 0 0.036144411143514223 0.00088990390045551901 0 0.031435791368834821 0.0012056157684062832 0 0.036618137833405028 0.00094214351572436132 0 0.036409734031115672 0.0009821082579800273 0 0.036618137833405028 0.00094214351572436132 0 0.036680507809362606 0.0008310145595297121 0 0.036327108206046843 0.0011576887711413867 0 0.036190706649688056 0.0009298955641547363 0 0.036618137833405028 0.00094214351572436132 0 0.039231613453751708 0.00019169710686280905 0 0.041036897211256633 0.0009990328472784507 0 0.041376001290700723 0.00034543144379123791 0 0.040632845325201991 0.00033385302344544367 0 0.036680507809362606 0.0008310145595297121 0 0.036190706649688056 0.0009298955641547363 0 0.036526492360060316 0.00026757400115217197 0 0.030637866545800349 0.0013036964246150554 0 0.029980168259726322 0.0012736252053513893 0 0.030661088497986558 0.0022680865787072244 0 0.036618137833405028 0.00094214351572436132 0 0.034571025465433509 0.0011551975558400495 0 0.040632845325201991 0.00033385302344544367 0 0.04117684106875065 -0.00015298692249869164 0 0.040823666730442867 -0.00055336572856284417 0 0.041376001290700723 0.00034543144379123791 0 0.040632845325201991 0.00033385302344544367 0 0.04117684106875065 -0.00015298692249869164 0 0.041725310974024814 -0.00032153479354201926 0 0.041376001290700723 0.00034543144379123791 0 0.04117684106875065 -0.00015298692249869164 0 0.041725310974024814 -0.00032153479354201926 0 0.04117684106875065 -0.00015298692249869164 0 0.041434742021509929 -0.00078889618683837277 0 0.04117684106875065 -0.00015298692249869164 0 0.040823666730442867 -0.00055336572856284417 0 0.041434742021509929 -0.00078889618683837277 0 0.045612519369874135 -0.00034738956892853599 0 0.042393708238320706 0.00062302814066748978 0 0.040632845325201991 0.00033385302344544367 0 0.040823666730442867 -0.00055336572856284417 0 0.04023408260764412 -0.00032764141533365954 0 0.049553545295471818 0.00015185215984156735 0 0.0494403262243533 0.00016889763500887067 0 0.049507881523944162 8.1009936658545996e-05 0 0.030661088497986558 0.0022680865787072244 0 0.031448257084033482 0.0032854893381879988 0 0.031510887397810085 0.0024643863936321142 0 0.034571025465433509 0.0011551975558400495 0 0.042393708238320706 0.00062302814066748978 0 0.032485819650460594 0.0029102408818009913 0 0.031448257084033482 0.0032854893381879988 0 0.031510887397810085 0.0024643863936321142 0 0.032485819650460594 0.0029102408818009913 0 0.03207177181907659 0.0020181296780046576 0 0.031510887397810085 0.0024643863936321142 0 0.040563087871754867 0.0021503170089827617 0 0.042393708238320706 0.00062302814066748978 0 0.049439817519507455 0.00093455385262313558 0 0.049423009706040903 0.00062966233394426147 0 0.049752532263026575 0.00076808440999175738 0 0.049423009706040903 0.00062966233394426147 0 0.049752532263026575 0.00076808440999175738 0 0.049633755861888319 0.00041034495739449136 0 0.042393708238320706 0.00062302814066748978 0 0.050618803335508958 0.00058783951423979446 0 0.049451477535011668 6.4531387980711221e-05 0 0.049488542065565203 -3.8855084057660511e-05 0 0.049530829192020745 -2.6259456966480163e-05 0 0.049451477535011668 6.4531387980711221e-05 0 0.049488542065565203 -3.8855084057660511e-05 0 0.049465726455318715 -5.7052962997514805e-06 0 0.050618803335508958 0.00058783951423979446 0 0.049121500069076098 -0.00021331768054024794 0 0.049451477535011668 6.4531387980711221e-05 0 0.049507881523944162 8.1009936658545996e-05 0 0.049530829192020745 -2.6259456966480163e-05 0 0.0494403262243533 0.00016889763500887067 0 0.049451477535011668 6.4531387980711221e-05 0 0.049507881523944162 8.1009936658545996e-05 0 0.049553545295471818 0.00015185215984156735 0 0.049507881523944162 8.1009936658545996e-05 0 0.049601793682796436 4.396713660473346e-05 0 0.045612519369874135 -0.00034738956892853599 0 0.045740517457592056 -0.00038346018236689228 0 0.04969471951296791 0.0001225670651936229 0 0.049601793682796436 4.396713660473346e-05 0 0.049750249541719388 1.9398799643817517e-05 0 0.049553545295471818 0.00015185215984156735 0 0.04969471951296791 0.0001225670651936229 0 0.049601793682796436 4.396713660473346e-05 0 0.049601793682796436 4.396713660473346e-05 0 0.049632021171491028 -6.5822811836535112e-05 0 0.049750249541719388 1.9398799643817517e-05 0 0.049507881523944162 8.1009936658545996e-05 0 0.049601793682796436 4.396713660473346e-05 0 0.049530829192020745 -2.6259456966480163e-05 0 0.049632021171491028 -6.5822811836535112e-05 0 0.049575493211698525 -0.0001176589226093874 0 0.049530829192020745 -2.6259456966480163e-05 0 0.049601793682796436 4.396713660473346e-05 0 0.049632021171491028 -6.5822811836535112e-05 0 0.049530829192020745 -2.6259456966480163e-05 0 0.049746724863555435 -4.0184636337852603e-05 0 0.049759242654920342 1.9363974844945514e-05 0 0.049855234508228326 -3.0208573852769902e-05 0 0.049750249541719388 1.9398799643817517e-05 0 0.049822268208613879 -1.6715212191657046e-05 0 0.049855234508228326 -3.0208573852769902e-05 0 0.049863360731611149 -2.8338536922637243e-05 0 0.049898693534631111 -2.24540733752778e-05 0 0.049746724863555435 -4.0184636337852603e-05 0 0.049754068093175757 -6.7303218214693334e-05 0 0.049855234508228326 -3.0208573852769902e-05 0 0.049928177499152085 -2.6525631387526823e-05 0 0.049898693534631111 -2.24540733752778e-05 0 0.049575493211698525 -0.0001176589226093874 0 0.049504752261867117 -0.00010582338261836418 0 0.049530829192020745 -2.6259456966480163e-05 0 0.049504752261867117 -0.00010582338261836418 0 0.049488542065565203 -3.8855084057660511e-05 0 0.049466627160863981 -8.8125369339893034e-05 0 0.049504752261867117 -0.00010582338261836418 0 0.049488542065565203 -3.8855084057660511e-05 0 0.049530829192020745 -2.6259456966480163e-05 0 0.039017617077632537 -0.001712546615847757 0 0.038610031182701045 -0.00095558001462414687 0 0.038121775349467986 -0.0014067563907748002 0 0.044451893444262078 -0.00082853822623891083 0 0.043595960577592574 -0.00059301766920572744 0 0.037851837512364421 -0.00056367525485900329 0 0.038610031182701045 -0.00095558001462414687 0 0.038121775349467986 -0.0014067563907748002 0 0.037851837512364421 -0.00056367525485900329 0 0.038121775349467986 -0.0014067563907748002 0 0.037231703560985117 -0.0010943662402510379 0 0.043595960577592574 -0.00059301766920572744 0 0.044516590894514076 -0.0002549304168182925 0 0.049800142285217314 6.9647561529382081e-05 0 0.049822268208613879 -1.6715212191657046e-05 0 0.049855129727293668 -1.0021992572849927e-05 0 0.049621827929260412 0.00019266658074799063 0 0.04931641236255091 0.00031648167059853755 0 0.049482526691139742 0.00010879877053559874 0 0.044516590894514076 -0.0002549304168182925 0 0.050171610572471992 -8.9963171246741579e-05 0 0.038763903862706034 -0.00028338955938033962 0 0.044516590894514076 -0.0002549304168182925 0 0.041725310974024814 -0.00032153479354201926 0 0.041434742021509929 -0.00078889618683837277 0 0.042076865478082995 -0.0010196685443958425 0 0.045740517457592056 -0.00038346018236689228 0 0.044516590894514076 -0.0002549304168182925 0 0.04969471951296791 0.0001225670651936229 0 0.049800142285217314 6.9647561529382081e-05 0 0.049750249541719388 1.9398799643817517e-05 0 0.049800142285217314 6.9647561529382081e-05 0 0.049750249541719388 1.9398799643817517e-05 0 0.049822268208613879 -1.6715212191657046e-05 0 0.049855234508228326 -3.0208573852769902e-05 0 0.049822268208613879 -1.6715212191657046e-05 0 0.049863360731611149 -2.8338536922637243e-05 0 0.049863360731611149 -2.8338536922637243e-05 0 0.049855129727293668 -1.0021992572849927e-05 0 0.049873474477740161 -3.1435596856327863e-05 0 0.049863360731611149 -2.8338536922637243e-05 0 0.049873474477740161 -3.1435596856327863e-05 0 0.049892428305261603 -2.1328933926897938e-05 0 0.049822268208613879 -1.6715212191657046e-05 0 0.049863360731611149 -2.8338536922637243e-05 0 0.049855129727293668 -1.0021992572849927e-05 0 0.049482526691139742 0.00010879877053559874 0 0.049654182144558787 -1.6492387600679606e-07 0 0.049722723517293892 5.2159985739723347e-05 0 0.049621827929260412 0.00019266658074799063 0 0.049482526691139742 0.00010879877053559874 0 0.049722723517293892 5.2159985739723347e-05 0 0.050171610572471992 -8.9963171246741579e-05 0 0.049702385640911451 4.7267260297756819e-05 0 0.049654182144558787 -1.6492387600679606e-07 0 0.049791014934812354 -3.4622819555720557e-06 0 0.049722723517293892 5.2159985739723347e-05 0 0.049759124848775801 6.0669113601855094e-05 0 0.049621827929260412 0.00019266658074799063 0 0.049722723517293892 5.2159985739723347e-05 0 0.049854704935589196 -2.9554684138779717e-06 0 0.049847311759784338 -1.6012975918729538e-05 0 0.049930546243513133 3.8669463545763682e-06 0 0.049854704935589196 -2.9554684138779717e-06 0 0.049912022445818501 9.0215475675116683e-06 0 0.049930546243513133 3.8669463545763682e-06 0 0.049854704935589196 -2.9554684138779717e-06 0 0.049791014934812354 -3.4622819555720557e-06 0 0.049847311759784338 -1.6012975918729538e-05 0 0.049702385640911451 4.7267260297756819e-05 0 0.049843036447421808 -3.5681698504241704e-05 0 0.049654182144558787 -1.6492387600679606e-07 0 0.049791014934812354 -3.4622819555720557e-06 0 0.049847311759784338 -1.6012975918729538e-05 0 0.049873474477740161 -3.1435596856327863e-05 0 0.049847311759784338 -1.6012975918729538e-05 0 0.049892428305261603 -2.1328933926897938e-05 0 0.049847311759784338 -1.6012975918729538e-05 0 0.049892428305261603 -2.1328933926897938e-05 0 0.049938055127348106 2.4799999653344308e-06 0 0.049847311759784338 -1.6012975918729538e-05 0 0.049938055127348106 2.4799999653344308e-06 0 0.049930546243513133 3.8669463545763682e-06 0 0.049892428305261603 -2.1328933926897938e-05 0 0.049920994578997548 -1.1911978337362825e-05 0 0.049938055127348106 2.4799999653344308e-06 0 0.049863360731611149 -2.8338536922637243e-05 0 0.049892428305261603 -2.1328933926897938e-05 0 0.049920994578997548 -1.1911978337362825e-05 0 0.049863360731611149 -2.8338536922637243e-05 0 0.049920994578997548 -1.1911978337362825e-05 0 0.049898693534631111 -2.24540733752778e-05 0 0.049920994578997548 -1.1911978337362825e-05 0 0.049964449013797457 9.3037460585785222e-07 0 0.049938055127348106 2.4799999653344308e-06 0 0.049964449013797457 9.3037460585785222e-07 0 0.049999945346753297 2.3920652708874691e-09 0 0.049999963343687115 5.4794227205601057e-09 0 0.049999945346753297 2.3920652708874691e-09 0 0.049938055127348106 2.4799999653344308e-06 0 0.049999921395361434 7.659304155351772e-09 0 0.049964449013797457 9.3037460585785222e-07 0 0.049999945346753297 2.3920652708874691e-09 0 0.049938055127348106 2.4799999653344308e-06 0 0.049938055127348106 2.4799999653344308e-06 0 0.049999921395361434 7.659304155351772e-09 0 0.049930546243513133 3.8669463545763682e-06 0 0.049999905838878672 8.3565881012709161e-09 0 0.049999921395361434 7.659304155351772e-09 0 0.049930546243513133 3.8669463545763682e-06 0 0.04974063810707751 -9.5307766756086033e-05 0 0.049812741304706108 -6.5715438031451744e-05 0 0.049812741304706108 -6.5715438031451744e-05 0 0.049612762995165267 -0.00014103829109877888 0 0.049537282612134144 -0.00016103735734608062 0 0.049506388122794981 -0.00020499684097757858 0 0.049479570984252708 -0.00016274868284172714 0 0.049504752261867117 -0.00010582338261836418 0 0.049537282612134144 -0.00016103735734608062 0 0.049479570984252708 -0.00016274868284172714 0 0.049504752261867117 -0.00010582338261836418 0 0.049479570984252708 -0.00016274868284172714 0 0.049455367409096139 -0.00011933308623511365 0 0.049754068093175757 -6.7303218214693334e-05 0 0.04974063810707751 -9.5307766756086033e-05 0 0.049575493211698525 -0.0001176589226093874 0 0.049504752261867117 -0.00010582338261836418 0 0.049537282612134144 -0.00016103735734608062 0 0.049928177499152085 -2.6525631387526823e-05 0 0.049933529457451067 -1.287082323018356e-05 0 0.049898693534631111 -2.24540733752778e-05 0 0.049928177499152085 -2.6525631387526823e-05 0 0.049966026228207734 -1.007103959155599e-05 0 0.049933529457451067 -1.287082323018356e-05 0 0.049920994578997548 -1.1911978337362825e-05 0 0.049933529457451067 -1.287082323018356e-05 0 0.049898693534631111 -2.24540733752778e-05 0 0.049920994578997548 -1.1911978337362825e-05 0 0.049933529457451067 -1.287082323018356e-05 0 0.049960749665954575 -1.643905207188353e-06 0 0.049966026228207734 -1.007103959155599e-05 0 0.049933529457451067 -1.287082323018356e-05 0 0.049960749665954575 -1.643905207188353e-06 0 0.049960749665954575 -1.643905207188353e-06 0 0.049999963343687115 5.4794227205601057e-09 0 0.049980838065932925 -3.0729802493005984e-07 0 0.049966026228207734 -1.007103959155599e-05 0 0.049960749665954575 -1.643905207188353e-06 0 0.049980838065932925 -3.0729802493005984e-07 0 0.049964449013797457 9.3037460585785222e-07 0 0.049960749665954575 -1.643905207188353e-06 0 0.049999963343687115 5.4794227205601057e-09 0 0.049920994578997548 -1.1911978337362825e-05 0 0.049964449013797457 9.3037460585785222e-07 0 0.049960749665954575 -1.643905207188353e-06 0 0.049999963343687115 5.4794227205601057e-09 0 0.049999958271060796 7.8051463158997977e-10 0 0.049980838065932925 -3.0729802493005984e-07 0 0.049999958271060796 7.8051463158997977e-10 0 0.049980838065932925 -3.0729802493005984e-07 0 0.049980520166973311 -2.6644537338528129e-06 0 0.050000117668735404 1.1630992862145204e-08 0 0.049812741304706108 -6.5715438031451744e-05 0 0.049966026228207734 -1.007103959155599e-05 0 0.049980838065932925 -3.0729802493005984e-07 0 0.049980520166973311 -2.6644537338528129e-06 0 0.049798149935404469 -7.0389039899010385e-05 0 0.049831125536288594 -7.0456105750803301e-05 0 0.049766035599305973 -0.00010647599153237162 0 0.049798149935404469 -7.0389039899010385e-05 0 0.049853138574360183 -3.4439607997855851e-05 0 0.049831125536288594 -7.0456105750803301e-05 0 0.049812741304706108 -6.5715438031451744e-05 0 0.049933832763199751 -1.5662567569512015e-05 0 0.049999998520880634 1.7265497571650731e-11 0 0.049998207656863532 -1.4868404928370278e-06 0 0.04999999910553389 -4.4439585591276576e-10 0 0.049998207656863532 -1.4868404928370278e-06 0 0.04999951770687875 -7.0860239554870242e-07 0 0.04999999910553389 -4.4439585591276576e-10 0 0.04999951770687875 -7.0860239554870242e-07 0 0.04999999910553389 -4.4439585591276576e-10 0 0.05000000037221717 -1.133062237855444e-10 0 0.049933832763199751 -1.5662567569512015e-05 0 0.049999946079743139 -2.0860540566047534e-08 0 0.049853138574360183 -3.4439607997855851e-05 0 0.049913391283271186 -3.333091946344386e-05 0 0.049999678046147113 1.1388885568256309e-08 0 0.049913391283271186 -3.333091946344386e-05 0 0.049999920942146003 -2.9858944049437692e-08 0 0.049930175364653849 -2.9172027510747926e-05 0 0.049913391283271186 -3.333091946344386e-05 0 0.049999678046147113 1.1388885568256309e-08 0 0.049999920942146003 -2.9858944049437692e-08 0 0.049913391283271186 -3.333091946344386e-05 0 0.049826380196526521 -7.6009871067062959e-05 0 0.049930175364653849 -2.9172027510747926e-05 0 0.049853138574360183 -3.4439607997855851e-05 0 0.049913391283271186 -3.333091946344386e-05 0 0.049831125536288594 -7.0456105750803301e-05 0 0.049913391283271186 -3.333091946344386e-05 0 0.049826380196526521 -7.6009871067062959e-05 0 0.049831125536288594 -7.0456105750803301e-05 0 0.049999927681317224 -2.8048320106972019e-08 0 0.04978942257510708 -5.3553140179277427e-05 0 0.049999985296533454 2.1960351968302562e-09 0 0.049930175364653849 -2.9172027510747926e-05 0 0.049889285032928256 -6.5733485998361132e-05 0 0.049999920942146003 -2.9858944049437692e-08 0 0.049999985296533454 2.1960351968302562e-09 0 0.049930175364653849 -2.9172027510747926e-05 0 0.049826380196526521 -7.6009871067062959e-05 0 0.049930175364653849 -2.9172027510747926e-05 0 0.049889285032928256 -6.5733485998361132e-05 0 0.049999666400792148 6.8631243837184981e-08 0 0.049697307219383438 -1.7940266912090267e-05 0 0.04989173093871533 -2.8751049127896196e-06 0 0.049697307219383438 -1.7940266912090267e-05 0 0.049800536801307589 -6.1881113663798858e-05 0 0.04989173093871533 -2.8751049127896196e-06 0 0.049697307219383438 -1.7940266912090267e-05 0 0.049386430321677735 -0.00023154440646552408 0 0.049650176984960472 -0.00014699304524570323 0 0.049697307219383438 -1.7940266912090267e-05 0 0.049650176984960472 -0.00014699304524570323 0 0.049800536801307589 -6.1881113663798858e-05 0 0.04978942257510708 -5.3553140179277427e-05 0 0.049523220963104526 -0.00017030944974536343 0 0.049889285032928256 -6.5733485998361132e-05 0 0.049673616471854747 -0.0001300236489531158 0 0.049719990335534522 -0.00011254475615142508 0 0.049386430321677735 -0.00023154440646552408 0 0.049650176984960472 -0.00014699304524570323 0 0.049482092153119911 -0.00024608405747441584 0 0.049650176984960472 -0.00014699304524570323 0 0.049482092153119911 -0.00024608405747441584 0 0.049687121609153805 -0.000234441637320528 0 0.049826380196526521 -7.6009871067062959e-05 0 0.049766035599305973 -0.00010647599153237162 0 0.049719990335534522 -0.00011254475615142508 0 0.049826380196526521 -7.6009871067062959e-05 0 0.049831125536288594 -7.0456105750803301e-05 0 0.049766035599305973 -0.00010647599153237162 0 0.049826380196526521 -7.6009871067062959e-05 0 0.049889285032928256 -6.5733485998361132e-05 0 0.049719990335534522 -0.00011254475615142508 0 0.049673616471854747 -0.0001300236489531158 0 0.049719990335534522 -0.00011254475615142508 0 0.049550563185094619 -0.00013671165708818771 0 0.049719990335534522 -0.00011254475615142508 0 0.049662101980614923 -0.00012416296157688491 0 0.049550563185094619 -0.00013671165708818771 0 0.049612762995165267 -0.00014103829109877888 0 0.049555129208032622 -0.00013243879109128492 0 0.049766035599305973 -0.00010647599153237162 0 0.049719990335534522 -0.00011254475615142508 0 0.049662101980614923 -0.00012416296157688491 0 0.049555129208032622 -0.00013243879109128492 0 0.049470562556878435 -0.00012144116876452879 0 0.049455367409096139 -0.00011933308623511365 0 0.049466627160863981 -8.8125369339893034e-05 0 0.049436872722834611 -0.00012040266137236286 0 0.049504752261867117 -0.00010582338261836418 0 0.049455367409096139 -0.00011933308623511365 0 0.049466627160863981 -8.8125369339893034e-05 0 0.049466627160863981 -8.8125369339893034e-05 0 0.049465726455318715 -5.7052962997514805e-06 0 0.049436872722834611 -0.00012040266137236286 0 0.049488542065565203 -3.8855084057660511e-05 0 0.049466627160863981 -8.8125369339893034e-05 0 0.049465726455318715 -5.7052962997514805e-06 0 0.049465726455318715 -5.7052962997514805e-06 0 0.049436872722834611 -0.00012040266137236286 0 0.049320103511323578 4.5318285940616131e-05 0 0.049436872722834611 -0.00012040266137236286 0 0.049256954058233472 -0.0001604195117193282 0 0.049320103511323578 4.5318285940616131e-05 0 0.049662101980614923 -0.00012416296157688491 0 0.049436872722834611 -0.00012040266137236286 0 0.049550563185094619 -0.00013671165708818771 0 0.049436872722834611 -0.00012040266137236286 0 0.049550563185094619 -0.00013671165708818771 0 0.049256954058233472 -0.0001604195117193282 0 0.049673616471854747 -0.0001300236489531158 0 0.049550563185094619 -0.00013671165708818771 0 0.049256954058233472 -0.0001604195117193282 0 0.049386430321677735 -0.00023154440646552408 0 0.049185165473332584 -0.00031596965316951732 0 0.049256954058233472 -0.0001604195117193282 0 0.049523220963104526 -0.00017030944974536343 0 0.049301570929453906 -0.00015518796477729049 0 0.049386430321677735 -0.00023154440646552408 0 0.049482092153119911 -0.00024608405747441584 0 0.049185165473332584 -0.00031596965316951732 0 0.049482092153119911 -0.00024608405747441584 0 0.049185165473332584 -0.00031596965316951732 0 0.049599168228269042 -0.00040045368673328975 0 0.048562436897920794 -0.00042980404040041001 0 0.049185165473332584 -0.00031596965316951732 0 0.048273632864187878 -0.00063328904154995704 0 0.049209171764930851 -0.00038191801312676635 0 0.048748721733479557 -0.00017068632472593481 0 0.048510606993357068 -0.00034250636273338897 0 0.048748721733479557 -0.00017068632472593481 0 0.048562436897920794 -0.00042980404040041001 0 0.048864951991878756 -0.00019260792363680657 0 0.049185165473332584 -0.00031596965316951732 0 0.048864951991878756 -0.00019260792363680657 0 0.049185165473332584 -0.00031596965316951732 0 0.049078571060955374 -0.0001214768089425134 0 0.048864951991878756 -0.00019260792363680657 0 0.049078571060955374 -0.0001214768089425134 0 0.048789933500902695 -2.4011545971561338e-05 0 0.048864951991878756 -0.00019260792363680657 0 0.048586510320579243 -0.00014932754964873537 0 0.048789933500902695 -2.4011545971561338e-05 0 0.048586510320579243 -0.00014932754964873537 0 0.04842252896322357 5.9582689066273834e-05 0 0.048295442630071406 -0.00019798054175932159 0 0.048562436897920794 -0.00042980404040041001 0 0.048586510320579243 -0.00014932754964873537 0 0.048295442630071406 -0.00019798054175932159 0 0.048562436897920794 -0.00042980404040041001 0 0.048864951991878756 -0.00019260792363680657 0 0.048586510320579243 -0.00014932754964873537 0 0.049185165473332584 -0.00031596965316951732 0 0.049078571060955374 -0.0001214768089425134 0 0.049256954058233472 -0.0001604195117193282 0 0.049078571060955374 -0.0001214768089425134 0 0.049256954058233472 -0.0001604195117193282 0 0.049043531370651414 9.5981669612838269e-05 0 0.049256954058233472 -0.0001604195117193282 0 0.049043531370651414 9.5981669612838269e-05 0 0.049320103511323578 4.5318285940616131e-05 0 0.049043531370651414 9.5981669612838269e-05 0 0.048687163794794604 0.00026949429827833503 0 0.048857449181044267 0.00051046172070557067 0 0.049078571060955374 -0.0001214768089425134 0 0.049043531370651414 9.5981669612838269e-05 0 0.048789933500902695 -2.4011545971561338e-05 0 0.04842252896322357 5.9582689066273834e-05 0 0.048687163794794604 0.00026949429827833503 0 0.048114910843179752 0.00032977701776018564 0 0.048586510320579243 -0.00014932754964873537 0 0.04842252896322357 5.9582689066273834e-05 0 0.048789933500902695 -2.4011545971561338e-05 0 0.04842252896322357 5.9582689066273834e-05 0 0.048789933500902695 -2.4011545971561338e-05 0 0.048687163794794604 0.00026949429827833503 0 0.049043531370651414 9.5981669612838269e-05 0 0.048789933500902695 -2.4011545971561338e-05 0 0.048687163794794604 0.00026949429827833503 0 0.048239478394115555 0.00070808624712452302 0 0.048687163794794604 0.00026949429827833503 0 0.048114910843179752 0.00032977701776018564 0 0.048239478394115555 0.00070808624712452302 0 0.048687163794794604 0.00026949429827833503 0 0.048857449181044267 0.00051046172070557067 0 0.049043531370651414 9.5981669612838269e-05 0 0.048857449181044267 0.00051046172070557067 0 0.049199765500231425 0.00035749995701043374 0 0.049423009706040903 0.00062966233394426147 0 0.049137405040561438 0.00074462372662852116 0 0.049199765500231425 0.00035749995701043374 0 0.049137405040561438 0.00074462372662852116 0 0.048857449181044267 0.00051046172070557067 0 0.049199765500231425 0.00035749995701043374 0 0.049423009706040903 0.00062966233394426147 0 0.049633755861888319 0.00041034495739449136 0 0.049424492696909697 0.00029551071647640318 0 0.049423009706040903 0.00062966233394426147 0 0.049199765500231425 0.00035749995701043374 0 0.049424492696909697 0.00029551071647640318 0 0.049633755861888319 0.00041034495739449136 0 0.049465726455318715 -5.7052962997514805e-06 0 0.049424492696909697 0.00029551071647640318 0 0.049465726455318715 -5.7052962997514805e-06 0 0.049424492696909697 0.00029551071647640318 0 0.049320103511323578 4.5318285940616131e-05 0 0.049043531370651414 9.5981669612838269e-05 0 0.049199765500231425 0.00035749995701043374 0 0.049320103511323578 4.5318285940616131e-05 0 0.049199765500231425 0.00035749995701043374 0 0.049424492696909697 0.00029551071647640318 0 0.049320103511323578 4.5318285940616131e-05 0 0.041840447777419458 0.0001285907475361433 0 0.04194849115558056 6.9202696047200175e-05 0 0.036714339595882696 0.00035234780225505485 0 0.037279369714950689 -0.00011879397313716419 0 0.036395500537817697 -0.00049233521887406492 0 0.036714339595882696 0.00035234780225505485 0 0.037279369714950689 -0.00011879397313716419 0 0.037754546543346951 0.00070273433982114637 0 0.036857449958577392 -0.0012988320950837087 0 0.037246287138092068 -0.00017897819101003105 0 0.037279369714950689 -0.00011879397313716419 0 0.038107024904947565 -0.00049030236616405109 0 0.037651613661654822 -0.001080714978563282 0 0.036700110298862665 -0.0016126230081799217 0 0.037279369714950689 -0.00011879397313716419 0 0.037651613661654822 -0.001080714978563282 0 0.036989920808280431 -0.0010045933593763226 0 0.037279369714950689 -0.00011879397313716419 0 0.036395500537817697 -0.00049233521887406492 0 0.04755474383071772 0.00061526909693173282 0 0.048114910843179752 0.00032977701776018564 0 0.047719950051665017 0.00019165925067781827 0 0.048239478394115555 0.00070808624712452302 0 0.04755474383071772 0.00061526909693173282 0 0.048114910843179752 0.00032977701776018564 0 0.04842252896322357 5.9582689066273834e-05 0 0.048114910843179752 0.00032977701776018564 0 0.048041587945427372 6.0682768027818941e-05 0 0.048114910843179752 0.00032977701776018564 0 0.048041587945427372 6.0682768027818941e-05 0 0.047719950051665017 0.00019165925067781827 0 0.04842252896322357 5.9582689066273834e-05 0 0.048041587945427372 6.0682768027818941e-05 0 0.048295442630071406 -0.00019798054175932159 0 0.047182103835592015 1.7361541443459487e-05 0 0.047719950051665017 0.00019165925067781827 0 0.047826338631413542 -0.0002490174224143969 0 0.047182103835592015 1.7361541443459487e-05 0 0.04755474383071772 0.00061526909693173282 0 0.047719950051665017 0.00019165925067781827 0 0.048041587945427372 6.0682768027818941e-05 0 0.047719950051665017 0.00019165925067781827 0 0.047826338631413542 -0.0002490174224143969 0 0.047182103835592015 1.7361541443459487e-05 0 0.047826338631413542 -0.0002490174224143969 0 0.047584510316654505 -0.00065146771373425863 0 0.047826338631413542 -0.0002490174224143969 0 0.048350949432697778 -0.00054450306517451889 0 0.047584510316654505 -0.00065146771373425863 0 0.047826338631413542 -0.0002490174224143969 0 0.048295442630071406 -0.00019798054175932159 0 0.048350949432697778 -0.00054450306517451889 0 0.048041587945427372 6.0682768027818941e-05 0 0.047826338631413542 -0.0002490174224143969 0 0.048295442630071406 -0.00019798054175932159 0 0.048562436897920794 -0.00042980404040041001 0 0.048295442630071406 -0.00019798054175932159 0 0.048350949432697778 -0.00054450306517451889 0 0.049599168228269042 -0.00040045368673328975 0 0.049687121609153805 -0.000234441637320528 0 0.049828308237889134 -0.00028302729593540274 0 0.048748721733479557 -0.00017068632472593481 0 0.049002705874040813 -7.9898520106457454e-05 0 0.048748721733479557 -0.00017068632472593481 0 0.048435195577971352 -0.00014306239756515103 0 0.049482092153119911 -0.00024608405747441584 0 0.049599168228269042 -0.00040045368673328975 0 0.049687121609153805 -0.000234441637320528 0 0.049002852462620199 0.00048917925597041648 0 0.047793097325663975 0.00038662823444699201 0 0.048029072567386144 4.7666007577142487e-05 0 0.049002705874040813 -7.9898520106457454e-05 0 0.048644000957744168 -0.00029063270198783942 0 0.047793097325663975 0.00038662823444699201 0 0.048029072567386144 4.7666007577142487e-05 0 0.047048031467353084 -0.00039578925389212668 0 0.048435195577971352 -0.00014306239756515103 0 0.042833010466490733 0.00051952140812997697 0 0.047793097325663975 0.00038662823444699201 0 0.046571811806361052 0.00027437504913068069 0 0.047048031467353084 -0.00039578925389212668 0 0.047182103835592015 1.7361541443459487e-05 0 0.047584510316654505 -0.00065146771373425863 0 0.04678592723429794 -0.00073179656193140142 0 0.041840447777419458 0.0001285907475361433 0 0.042833010466490733 0.00051952140812997697 0 0.036714339595882696 0.00035234780225505485 0 0.037754546543346951 0.00070273433982114637 0 0.037181182586567288 0.0015162667365991335 0 0.037754546543346951 0.00070273433982114637 0 0.037181182586567288 0.0015162667365991335 0 0.038221740836557765 0.0016879362234742791 0 0.041030365362294562 0.0019964527661827007 0 0.041006109112443727 0.0019862926007316044 0 0.040972667602465741 0.0020000601684566155 0 0.042833010466490733 0.00051952140812997697 0 0.04684168059856935 0.0001559333578423492 0 0.042833010466490733 0.00051952140812997697 0 0.038877454178503905 0.0018725365356510159 0 0.04684168059856935 0.0001559333578423492 0 0.048644000957744168 -0.00029063270198783942 0 0.046571811806361052 0.00027437504913068069 0 0.046090155807850745 -0.00083111216245607339 0 0.047048031467353084 -0.00039578925389212668 0 0.049998999912707454 -0.00013135317864309084 0 0.049941473117034993 -0.00019365686381901946 0 0.049941724222617119 -0.00011118711461500658 0 0.049941473117034993 -0.00019365686381901946 0 0.049941724222617119 -0.00011118711461500658 0 0.049837316142305056 -0.00014264563685181122 0 0.049941724222617119 -0.00011118711461500658 0 0.049976808638047918 -6.2056980604800204e-05 0 0.049919877418504816 -4.387279457300354e-05 0 0.049998999912707454 -0.00013135317864309084 0 0.049976808638047918 -6.2056980604800204e-05 0 0.0500190390559591 -3.3477927031470548e-05 0 0.049998999912707454 -0.00013135317864309084 0 0.049941724222617119 -0.00011118711461500658 0 0.049976808638047918 -6.2056980604800204e-05 0 0.049650176984960472 -0.00014699304524570323 0 0.049687121609153805 -0.000234441637320528 0 0.049837316142305056 -0.00014264563685181122 0 0.049828308237889134 -0.00028302729593540274 0 0.049941473117034993 -0.00019365686381901946 0 0.049837316142305056 -0.00014264563685181122 0 0.049687121609153805 -0.000234441637320528 0 0.049828308237889134 -0.00028302729593540274 0 0.049837316142305056 -0.00014264563685181122 0 0.049941724222617119 -0.00011118711461500658 0 0.049837316142305056 -0.00014264563685181122 0 0.049919877418504816 -4.387279457300354e-05 0 0.049837316142305056 -0.00014264563685181122 0 0.049800536801307589 -6.1881113663798858e-05 0 0.049919877418504816 -4.387279457300354e-05 0 0.049650176984960472 -0.00014699304524570323 0 0.049837316142305056 -0.00014264563685181122 0 0.049800536801307589 -6.1881113663798858e-05 0 0.049800536801307589 -6.1881113663798858e-05 0 0.04989173093871533 -2.8751049127896196e-06 0 0.049919877418504816 -4.387279457300354e-05 0 0.04989173093871533 -2.8751049127896196e-06 0 0.049919877418504816 -4.387279457300354e-05 0 0.049959556331919203 -4.3907149712070228e-06 0 0.049959556331919203 -4.3907149712070228e-06 0 0.04999992140160392 -8.0097880652653615e-09 0 0.049999944342937974 3.9500347886531807e-09 0 0.04989173093871533 -2.8751049127896196e-06 0 0.049959556331919203 -4.3907149712070228e-06 0 0.04999992140160392 -8.0097880652653615e-09 0 0.049999666400792148 6.8631243837184981e-08 0 0.04989173093871533 -2.8751049127896196e-06 0 0.04999992140160392 -8.0097880652653615e-09 0 0.049976808638047918 -6.2056980604800204e-05 0 0.049984702224023174 -1.3750187094607336e-05 0 0.0500190390559591 -3.3477927031470548e-05 0 0.049919877418504816 -4.387279457300354e-05 0 0.049959556331919203 -4.3907149712070228e-06 0 0.049984702224023174 -1.3750187094607336e-05 0 0.049976808638047918 -6.2056980604800204e-05 0 0.049919877418504816 -4.387279457300354e-05 0 0.049984702224023174 -1.3750187094607336e-05 0 0.049959556331919203 -4.3907149712070228e-06 0 0.049984702224023174 -1.3750187094607336e-05 0 0.049999944342937974 3.9500347886531807e-09 0 0.049984702224023174 -1.3750187094607336e-05 0 0.049999944342937974 3.9500347886531807e-09 0 0.049999996684533921 -3.7633214835698143e-09 0 0.049984702224023174 -1.3750187094607336e-05 0 0.049999996684533921 -3.7633214835698143e-09 0 0.0500190390559591 -3.3477927031470548e-05 0 0.050353199453744793 -2.3951199275021484e-05 0 0.049999613167111427 -2.4606686023523627e-07 0 0.049999996684533921 -3.7633214835698143e-09 0 0.0500190390559591 -3.3477927031470548e-05 0 0.050000040944102112 -9.1417417984959595e-09 0 0.049825717011681314 -4.5514893723996364e-05 0 0.049947309612927426 -2.7289049032016934e-05 0 0.049888240811414727 -0.00011843448911220385 0 0.049825717011681314 -4.5514893723996364e-05 0 0.049947309612927426 -2.7289049032016934e-05 0 0.0499997716308778 3.4734843696620495e-08 0 0.049947309612927426 -2.7289049032016934e-05 0 0.0499997716308778 3.4734843696620495e-08 0 0.050000006844349978 -1.6626464821805529e-08 0 0.049947309612927426 -2.7289049032016934e-05 0 0.050000006844349978 -1.6626464821805529e-08 0 0.049966828938823475 -3.5911236715022091e-05 0 0.050000006844349978 -1.6626464821805529e-08 0 0.049988731808777775 -9.5520030443515676e-06 0 0.049966828938823475 -3.5911236715022091e-05 0 0.050000006844349978 -1.6626464821805529e-08 0 0.049988731808777775 -9.5520030443515676e-06 0 0.049999953126920786 -4.4078607375142388e-09 0 0.049988731808777775 -9.5520030443515676e-06 0 0.049966828938823475 -3.5911236715022091e-05 0 0.049982831283706494 -4.2479476861924518e-06 0 0.0454254274682949 0.0011776578478837631 0 0.046998494272654401 0.0010220389998562185 0 0.049947309612927426 -2.7289049032016934e-05 0 0.049966828938823475 -3.5911236715022091e-05 0 0.049888240811414727 -0.00011843448911220385 0 0.041223085317188574 0.0023856695343125751 0 0.041044508371511891 0.0020428457041369494 0 0.040969630022222467 0.0020921757665218043 0 0.0454254274682949 0.0011776578478837631 0 0.045186565890686967 0.0010641565724825873 0 0.041223085317188574 0.0023856695343125751 0 0.04132859511247873 0.0021201121807028537 0 0.041044508371511891 0.0020428457041369494 0 0.041223085317188574 0.0023856695343125751 0 0.04132859511247873 0.0021201121807028537 0 0.04155307598946209 0.0023556171019300178 0 0.04132859511247873 0.0021201121807028537 0 0.041624779387019972 0.0018950934686365671 0 0.040955446103929816 0.0018391069376569975 0 0.04132859511247873 0.0021201121807028537 0 0.041044508371511891 0.0020428457041369494 0 0.040955446103929816 0.0018391069376569975 0 0.041044508371511891 0.0020428457041369494 0 0.040969581645794222 0.0020101973049615196 0 0.040969630022222467 0.0020921757665218043 0 0.041044508371511891 0.0020428457041369494 0 0.040969581645794222 0.0020101973049615196 0 0.040978855691034009 0.0019539320985428594 0 0.041006109112443727 0.0019862926007316044 0 0.040969581645794222 0.0020101973049615196 0 0.040972667602465741 0.0020000601684566155 0 0.041006109112443727 0.0019862926007316044 0 0.040969581645794222 0.0020101973049615196 0 0.040969630022222467 0.0020921757665218043 0 0.049675797045172214 -0.00021474330380138906 0 0.049825717011681314 -4.5514893723996364e-05 0 0.049888240811414727 -0.00011843448911220385 0 0.04684168059856935 0.0001559333578423492 0 0.045186565890686967 0.0010641565724825873 0 0.04684168059856935 0.0001559333578423492 0 0.050353199453744793 -2.3951199275021484e-05 0 0.049923265804879401 -6.4128587766317566e-06 0 0.049923561225149793 -7.7992817682537344e-07 0 0.049886237549377342 -3.0626920730253241e-07 0 0.049923265804879401 -6.4128587766317566e-06 0 0.04995836416562098 -2.5933163053827352e-06 0 0.049923561225149793 -7.7992817682537344e-07 0 0.049923265804879401 -6.4128587766317566e-06 0 0.049886237549377342 -3.0626920730253241e-07 0 0.049869442026141027 -1.3868740880943707e-05 0 0.04995836416562098 -2.5933163053827352e-06 0 0.049999897545357337 1.7675890870294205e-09 0 0.049999882468358257 -1.1854937720068969e-08 0 0.049923265804879401 -6.4128587766317566e-06 0 0.04995836416562098 -2.5933163053827352e-06 0 0.049999882468358257 -1.1854937720068969e-08 0 0.04995836416562098 -2.5933163053827352e-06 0 0.049999897545357337 1.7675890870294205e-09 0 0.049952914651904448 9.3296049878362763e-07 0 0.049952914651904448 9.3296049878362763e-07 0 0.049923561225149793 -7.7992817682537344e-07 0 0.04992526125865946 -2.2064765499409112e-06 0 0.04995836416562098 -2.5933163053827352e-06 0 0.049952914651904448 9.3296049878362763e-07 0 0.049923561225149793 -7.7992817682537344e-07 0 0.049923561225149793 -7.7992817682537344e-07 0 0.04988784997060388 6.8150693699175878e-06 0 0.049886237549377342 -3.0626920730253241e-07 0 0.049923561225149793 -7.7992817682537344e-07 0 0.04992526125865946 -2.2064765499409112e-06 0 0.04988784997060388 6.8150693699175878e-06 0 0.046998494272654401 0.0010220389998562185 0 0.045825033867389932 0.001257320946258793 0 0.04992526125865946 -2.2064765499409112e-06 0 0.04993020866463712 6.2594107717328571e-06 0 0.049918696829408207 -1.2066606541760577e-06 0 0.04992526125865946 -2.2064765499409112e-06 0 0.049945374856353975 3.6604499704877973e-06 0 0.04993020866463712 6.2594107717328571e-06 0 0.049952914651904448 9.3296049878362763e-07 0 0.04992526125865946 -2.2064765499409112e-06 0 0.049945374856353975 3.6604499704877973e-06 0 0.049952914651904448 9.3296049878362763e-07 0 0.049945374856353975 3.6604499704877973e-06 0 0.049961315600284058 8.5042512158909378e-06 0 0.049999897545357337 1.7675890870294205e-09 0 0.049952914651904448 9.3296049878362763e-07 0 0.049961315600284058 8.5042512158909378e-06 0 0.049999897545357337 1.7675890870294205e-09 0 0.049961315600284058 8.5042512158909378e-06 0 0.049999936886747164 6.3681574465363244e-09 0 0.049945374856353975 3.6604499704877973e-06 0 0.049961315600284058 8.5042512158909378e-06 0 0.04993020866463712 6.2594107717328571e-06 0 0.049363467351208314 0.0010353271442574358 0 0.046998494272654401 0.0010220389998562185 0 0.049988731808777775 -9.5520030443515676e-06 0 0.049982831283706494 -4.2479476861924518e-06 0 0.049999953126920786 -4.4078607375142388e-09 0 0.049961315600284058 8.5042512158909378e-06 0 0.049969449624381837 1.9684872857358599e-05 0 0.049999936886747164 6.3681574465363244e-09 0 0.046998494272654401 0.0010220389998562185 0 0.049999802730407605 -1.1469489407518962e-06 0 0.041734054408712487 0.0026441788508261136 0 0.04155307598946209 0.0023556171019300178 0 0.041787330095691834 0.0022278187334970933 0 0.041223085317188574 0.0023856695343125751 0 0.041734054408712487 0.0026441788508261136 0 0.04155307598946209 0.0023556171019300178 0 0.04155307598946209 0.0023556171019300178 0 0.041611521030810929 0.0021113871399977883 0 0.041787330095691834 0.0022278187334970933 0 0.04132859511247873 0.0021201121807028537 0 0.04155307598946209 0.0023556171019300178 0 0.041611521030810929 0.0021113871399977883 0 0.041725447374688827 0.002016318283506062 0 0.041611521030810929 0.0021113871399977883 0 0.041787330095691834 0.0022278187334970933 0 0.04132859511247873 0.0021201121807028537 0 0.041624779387019972 0.0018950934686365671 0 0.041611521030810929 0.0021113871399977883 0 0.041624779387019972 0.0018950934686365671 0 0.041725447374688827 0.002016318283506062 0 0.041882883895361302 0.0018402721692051328 0 0.041624779387019972 0.0018950934686365671 0 0.041725447374688827 0.002016318283506062 0 0.041611521030810929 0.0021113871399977883 0 0.045825033867389932 0.001257320946258793 0 0.044866059004322362 0.00071105536439704773 0 0.049839111790351769 4.0256805285158823e-05 0 0.049918696829408207 -1.2066606541760577e-06 0 0.04986994822988805 0.00030228288804135043 0 0.041725447374688827 0.002016318283506062 0 0.041787330095691834 0.0022278187334970933 0 0.041882883895361302 0.0018402721692051328 0 0.049839111790351769 4.0256805285158823e-05 0 0.049892661130280971 5.4123400617401562e-06 0 0.04988784997060388 6.8150693699175878e-06 0 0.049839111790351769 4.0256805285158823e-05 0 0.049918696829408207 -1.2066606541760577e-06 0 0.049892661130280971 5.4123400617401562e-06 0 0.04992526125865946 -2.2064765499409112e-06 0 0.049918696829408207 -1.2066606541760577e-06 0 0.049892661130280971 5.4123400617401562e-06 0 0.04992526125865946 -2.2064765499409112e-06 0 0.049892661130280971 5.4123400617401562e-06 0 0.04988784997060388 6.8150693699175878e-06 0 0.04988784997060388 6.8150693699175878e-06 0 0.049864816578169942 1.2790257400487895e-05 0 0.049886237549377342 -3.0626920730253241e-07 0 0.049839111790351769 4.0256805285158823e-05 0 0.04988784997060388 6.8150693699175878e-06 0 0.049864816578169942 1.2790257400487895e-05 0 0.049839111790351769 4.0256805285158823e-05 0 0.049853757467210706 8.615582986987737e-06 0 0.049843803960609057 7.3010881095489343e-06 0 0.049839111790351769 4.0256805285158823e-05 0 0.049864816578169942 1.2790257400487895e-05 0 0.049853757467210706 8.615582986987737e-06 0 0.049839111790351769 4.0256805285158823e-05 0 0.049467024056121439 0.00037473975830976228 0 0.04986994822988805 0.00030228288804135043 0 0.050632564870840141 -0.00031087472247640855 0 0.047333518091120283 0.000639395718366667 0 0.049853757467210706 8.615582986987737e-06 0 0.049825918459809389 -8.1450342340766796e-06 0 0.049854512126100571 -4.3257937213937887e-06 0 0.049864816578169942 1.2790257400487895e-05 0 0.049853757467210706 8.615582986987737e-06 0 0.049854512126100571 -4.3257937213937887e-06 0 0.049853757467210706 8.615582986987737e-06 0 0.049825918459809389 -8.1450342340766796e-06 0 0.049843803960609057 7.3010881095489343e-06 0 0.049825918459809389 -8.1450342340766796e-06 0 0.049854512126100571 -4.3257937213937887e-06 0 0.049820139983187628 -2.4568488712604361e-05 0 0.049854512126100571 -4.3257937213937887e-06 0 0.049869442026141027 -1.3868740880943707e-05 0 0.049820139983187628 -2.4568488712604361e-05 0 0.049864816578169942 1.2790257400487895e-05 0 0.049854512126100571 -4.3257937213937887e-06 0 0.049886237549377342 -3.0626920730253241e-07 0 0.049854512126100571 -4.3257937213937887e-06 0 0.049886237549377342 -3.0626920730253241e-07 0 0.049869442026141027 -1.3868740880943707e-05 0 0.04380466532243181 0.00072506790630576549 0 0.043752797814811666 0.0017392620512939046 0 0.04487427795003926 0.00052240071897554502 0 0.04380466532243181 0.00072506790630576549 0 0.044293640217819737 -8.3780608292018197e-05 0 0.04487427795003926 0.00052240071897554502 0 0.047333518091120283 0.000639395718366667 0 0.045250791480921849 0.00016120765691785967 0 0.047333518091120283 0.000639395718366667 0 0.048808021238211687 7.2509350334941063e-05 0 0.046423006682857093 -9.8995880462982589e-05 0 0.046087181917112502 0.00011790471017798511 0 0.046505153494462582 -0.0004996216243548996 0 0.049825918459809389 -8.1450342340766796e-06 0 0.049843803960609057 7.3010881095489343e-06 0 0.049784042645396348 2.8143339014151819e-05 0 0.046423006682857093 -9.8995880462982589e-05 0 0.046087181917112502 0.00011790471017798511 0 0.047478314546704051 0.00032508625286198399 0 0.043752797814811666 0.0017392620512939046 0 0.043288099544896257 0.0011192700815835419 0 0.042629845242025843 0.0017613517945305568 0 0.04380466532243181 0.00072506790630576549 0 0.043752797814811666 0.0017392620512939046 0 0.043288099544896257 0.0011192700815835419 0 0.043752797814811666 0.0017392620512939046 0 0.042629845242025843 0.0017613517945305568 0 0.04236944497294487 0.0018960595854324528 0 0.047333518091120283 0.000639395718366667 0 0.044866059004322362 0.00071105536439704773 0 0.04380466532243181 0.00072506790630576549 0 0.042967619240220779 0.00024465206220073148 0 0.044293640217819737 -8.3780608292018197e-05 0 0.043288099544896257 0.0011192700815835419 0 0.042967619240220779 0.00024465206220073148 0 0.042629845242025843 0.0017613517945305568 0 0.04380466532243181 0.00072506790630576549 0 0.043288099544896257 0.0011192700815835419 0 0.042967619240220779 0.00024465206220073148 0 0.042853097243079549 0.00050783909338804854 0 0.042070549873242796 0.00094626787610374357 0 0.042629845242025843 0.0017613517945305568 0 0.042903490043799793 0.00039204770222132039 0 0.042640283556296801 0.0016895879564604085 0 0.042070549873242796 0.00094626787610374357 0 0.042629845242025843 0.0017613517945305568 0 0.042044224828581125 0.0016372664267234841 0 0.042629845242025843 0.0017613517945305568 0 0.042044224828581125 0.0016372664267234841 0 0.04236944497294487 0.0018960595854324528 0 0.041624779387019972 0.0018950934686365671 0 0.042044224828581125 0.0016372664267234841 0 0.04236944497294487 0.0018960595854324528 0 0.042070549873242796 0.00094626787610374357 0 0.042044224828581125 0.0016372664267234841 0 0.041377377064172438 0.0015015021571515436 0 0.041624779387019972 0.0018950934686365671 0 0.042044224828581125 0.0016372664267234841 0 0.041377377064172438 0.0015015021571515436 0 0.04085048221565666 0.0019687044314332901 0 0.044866059004322362 0.00071105536439704773 0 0.042070549873242796 0.00094626787610374357 0 0.041377377064172438 0.0015015021571515436 0 0.041080153895284979 0.00078829180839892689 0 0.042070549873242796 0.00094626787610374357 0 0.041541729011659749 -0.0001865319364482502 0 0.041080153895284979 0.00078829180839892689 0 0.042070549873242796 0.00094626787610374357 0 0.041541729011659749 -0.0001865319364482502 0 0.042328118638608012 -0.00023977416040772776 0 0.041541729011659749 -0.0001865319364482502 0 0.041453029684304289 -0.0012734957956321261 0 0.042173013192947979 -0.0010288853973192574 0 0.041541729011659749 -0.0001865319364482502 0 0.042328118638608012 -0.00023977416040772776 0 0.042173013192947979 -0.0010288853973192574 0 0.042579320913878789 -0.00070459076217697805 0 0.042815028795399133 -0.00082141799402358888 0 0.042173013192947979 -0.0010288853973192574 0 0.042709122263087207 -0.00085211262157367342 0 0.042040506967843096 -0.0010550717416254849 0 0.042579320913878789 -0.00070459076217697805 0 0.042328118638608012 -0.00023977416040772776 0 0.042173013192947979 -0.0010288853973192574 0 0.042579320913878789 -0.00070459076217697805 0 0.042328118638608012 -0.00023977416040772776 0 0.043034365786382957 -0.00071097629761176357 0 0.042853097243079549 0.00050783909338804854 0 0.042070549873242796 0.00094626787610374357 0 0.042328118638608012 -0.00023977416040772776 0 0.042903490043799793 0.00039204770222132039 0 0.043171918823049313 -0.0010749327885854227 0 0.042853097243079549 0.00050783909338804854 0 0.042328118638608012 -0.00023977416040772776 0 0.043034365786382957 -0.00071097629761176357 0 0.042967619240220779 0.00024465206220073148 0 0.043747313467009247 -0.00069422260061331872 0 0.044293640217819737 -8.3780608292018197e-05 0 0.042967619240220779 0.00024465206220073148 0 0.04329998003913791 -0.0014419578392106272 0 0.043747313467009247 -0.00069422260061331872 0 0.042579320913878789 -0.00070459076217697805 0 0.042815028795399133 -0.00082141799402358888 0 0.043034365786382957 -0.00071097629761176357 0 0.042815028795399133 -0.00082141799402358888 0 0.043034365786382957 -0.00071097629761176357 0 0.042803226070367129 -0.0013869304504238577 0 0.04329998003913791 -0.0014419578392106272 0 0.043782363832413115 -0.0012352926229256529 0 0.043811491944957752 -0.0016589066626137938 0 0.04329998003913791 -0.0014419578392106272 0 0.043811491944957752 -0.0016589066626137938 0 0.043753472989268169 -0.0021208311627326183 0 0.04329998003913791 -0.0014419578392106272 0 0.043782363832413115 -0.0012352926229256529 0 0.043747313467009247 -0.00069422260061331872 0 0.043782363832413115 -0.0012352926229256529 0 0.044107840469689914 -0.0014931580333325061 0 0.044486502522853577 -0.00097830931532818383 0 0.043782363832413115 -0.0012352926229256529 0 0.044486502522853577 -0.00097830931532818383 0 0.043747313467009247 -0.00069422260061331872 0 0.043782363832413115 -0.0012352926229256529 0 0.044107840469689914 -0.0014931580333325061 0 0.043811491944957752 -0.0016589066626137938 0 0.044107840469689914 -0.0014931580333325061 0 0.043811491944957752 -0.0016589066626137938 0 0.044117485823140561 -0.0019884471262506965 0 0.044107840469689914 -0.0014931580333325061 0 0.044509962445207191 -0.0016551313690698643 0 0.044486502522853577 -0.00097830931532818383 0 0.044107840469689914 -0.0014931580333325061 0 0.044509962445207191 -0.0016551313690698643 0 0.044117485823140561 -0.0019884471262506965 0 0.044486502522853577 -0.00097830931532818383 0 0.044293640217819737 -8.3780608292018197e-05 0 0.044992196030006495 -0.00041860643510766964 0 0.044486502522853577 -0.00097830931532818383 0 0.043747313467009247 -0.00069422260061331872 0 0.044293640217819737 -8.3780608292018197e-05 0 0.044293640217819737 -8.3780608292018197e-05 0 0.044992196030006495 -0.00041860643510766964 0 0.04487427795003926 0.00052240071897554502 0 0.039018479452556654 0.0006317959180885687 0 0.039479357808126565 0.0018503581995030834 0 0.040153747073234172 0.00094396587135694662 0 0.037754546543346951 0.00070273433982114637 0 0.039018479452556654 0.0006317959180885687 0 0.038221740836557765 0.0016879362234742791 0 0.040969581645794222 0.0020101973049615196 0 0.040972667602465741 0.0020000601684566155 0 0.040978855691034009 0.0019539320985428594 0 0.038877454178503905 0.0018725365356510159 0 0.040396791907158759 0.0018937645219187663 0 0.039018479452556654 0.0006317959180885687 0 0.038221740836557765 0.0016879362234742791 0 0.039479357808126565 0.0018503581995030834 0 0.039479357808126565 0.0018503581995030834 0 0.040955446103929816 0.0018391069376569975 0 0.040153747073234172 0.00094396587135694662 0 0.041044508371511891 0.0020428457041369494 0 0.040978855691034009 0.0019539320985428594 0 0.040955446103929816 0.0018391069376569975 0 0.040396791907158759 0.0018937645219187663 0 0.040830345506267018 0.0018633043597576025 0 0.041624779387019972 0.0018950934686365671 0 0.041377377064172438 0.0015015021571515436 0 0.040955446103929816 0.0018391069376569975 0 0.041377377064172438 0.0015015021571515436 0 0.040955446103929816 0.0018391069376569975 0 0.041080153895284979 0.00078829180839892689 0 0.040955446103929816 0.0018391069376569975 0 0.041080153895284979 0.00078829180839892689 0 0.040153747073234172 0.00094396587135694662 0 0.039018479452556654 0.0006317959180885687 0 0.040153747073234172 0.00094396587135694662 0 0.04041422667906526 -0.00041584489364952727 0 0.039059976548748633 0.00059671318857405168 0 0.040177785577296898 -0.000347759326286016 0 0.041080153895284979 0.00078829180839892689 0 0.040153747073234172 0.00094396587135694662 0 0.04041422667906526 -0.00041584489364952727 0 0.041541729011659749 -0.0001865319364482502 0 0.041080153895284979 0.00078829180839892689 0 0.04041422667906526 -0.00041584489364952727 0 0.040177785577296898 -0.000347759326286016 0 0.041147400630995597 -0.001375870666575244 0 0.039941849276058226 -0.00032573682493817666 0 0.039631367306021813 -0.00099794369040335823 0 0.041062997787156462 -0.0013428844151817429 0 0.041541729011659749 -0.0001865319364482502 0 0.04041422667906526 -0.00041584489364952727 0 0.041453029684304289 -0.0012734957956321261 0 0.039941849276058226 -0.00032573682493817666 0 0.039631367306021813 -0.00099794369040335823 0 0.038841244257720946 -0.00038557824910335163 0 0.039631367306021813 -0.00099794369040335823 0 0.038925786333805411 -0.00096772869480430096 0 0.038841244257720946 -0.00038557824910335163 0 0.038925786333805411 -0.00096772869480430096 0 0.038841244257720946 -0.00038557824910335163 0 0.038351753109074023 -0.0010816406259083094 0 0.039018479452556654 0.0006317959180885687 0 0.038841244257720946 -0.00038557824910335163 0 0.038348336351041276 0.00015871623434523881 0 0.039018479452556654 0.0006317959180885687 0 0.039941849276058226 -0.00032573682493817666 0 0.038841244257720946 -0.00038557824910335163 0 0.037279369714950689 -0.00011879397313716419 0 0.037754546543346951 0.00070273433982114637 0 0.038348336351041276 0.00015871623434523881 0 0.037279369714950689 -0.00011879397313716419 0 0.038348336351041276 0.00015871623434523881 0 0.038107024904947565 -0.00049030236616405109 0 0.037754546543346951 0.00070273433982114637 0 0.039018479452556654 0.0006317959180885687 0 0.038348336351041276 0.00015871623434523881 0 0.038841244257720946 -0.00038557824910335163 0 0.038348336351041276 0.00015871623434523881 0 0.038107024904947565 -0.00049030236616405109 0 0.038841244257720946 -0.00038557824910335163 0 0.038107024904947565 -0.00049030236616405109 0 0.038351753109074023 -0.0010816406259083094 0 0.038107024904947565 -0.00049030236616405109 0 0.037651613661654822 -0.001080714978563282 0 0.038351753109074023 -0.0010816406259083094 0 0.037651613661654822 -0.001080714978563282 0 0.038351753109074023 -0.0010816406259083094 0 0.038008496319868322 -0.0015940549394410424 0 0.038008496319868322 -0.0015940549394410424 0 0.037811373310741754 -0.0020096728157455728 0 0.038136094616134382 -0.0018979191809624734 0 0.038008496319868322 -0.0015940549394410424 0 0.038441227156681829 -0.0016376692022045992 0 0.038136094616134382 -0.0018979191809624734 0 0.038351753109074023 -0.0010816406259083094 0 0.038008496319868322 -0.0015940549394410424 0 0.038441227156681829 -0.0016376692022045992 0 0.038441227156681829 -0.0016376692022045992 0 0.038383251951138175 -0.0018795304876025613 0 0.038136094616134382 -0.0018979191809624734 0 0.037526468318014233 -0.0016805491659118476 0 0.037651613661654822 -0.001080714978563282 0 0.038008496319868322 -0.0015940549394410424 0 0.037526468318014233 -0.0016805491659118476 0 0.038008496319868322 -0.0015940549394410424 0 0.037811373310741754 -0.0020096728157455728 0 0.038925786333805411 -0.00096772869480430096 0 0.03918165273692558 -0.0013036505982954492 0 0.038748893703149066 -0.001338586041298442 0 0.039631367306021813 -0.00099794369040335823 0 0.038925786333805411 -0.00096772869480430096 0 0.03918165273692558 -0.0013036505982954492 0 0.038925786333805411 -0.00096772869480430096 0 0.038351753109074023 -0.0010816406259083094 0 0.038748893703149066 -0.001338586041298442 0 0.038351753109074023 -0.0010816406259083094 0 0.038748893703149066 -0.001338586041298442 0 0.038441227156681829 -0.0016376692022045992 0 0.038441227156681829 -0.0016376692022045992 0 0.038607686270798573 -0.0018044591471362071 0 0.038383251951138175 -0.0018795304876025613 0 0.038441227156681829 -0.0016376692022045992 0 0.038607686270798573 -0.0018044591471362071 0 0.0388419452209861 -0.0017248010207499456 0 0.038607686270798573 -0.0018044591471362071 0 0.0388419452209861 -0.0017248010207499456 0 0.038645592169163537 -0.0019155097328712092 0 0.038748893703149066 -0.001338586041298442 0 0.038441227156681829 -0.0016376692022045992 0 0.0388419452209861 -0.0017248010207499456 0 0.03918165273692558 -0.0013036505982954492 0 0.038748893703149066 -0.001338586041298442 0 0.0388419452209861 -0.0017248010207499456 0 0.038214339544113608 -0.0021533226301447051 0 0.038073568698012032 -0.0025354467288575544 0 0.03882451187269443 -0.002588235573023239 0 0.038553427266894959 -0.0021311270652309314 0 0.039226379720630089 -0.0027193272353769377 0 0.0388419452209861 -0.0017248010207499456 0 0.03862062690867607 -0.0021052712201906818 0 0.039884427080611663 -0.0017051332931213475 0 0.0388419452209861 -0.0017248010207499456 0 0.03862062690867607 -0.0021052712201906818 0 0.038645592169163537 -0.0019155097328712092 0 0.03862062690867607 -0.0021052712201906818 0 0.038645592169163537 -0.0019155097328712092 0 0.038499586814862582 -0.002030900471142935 0 0.038629964209945966 -0.0021357489804899855 0 0.038499586814862582 -0.002030900471142935 0 0.03833024886894864 -0.0020218780787864023 0 0.038607686270798573 -0.0018044591471362071 0 0.038499586814862582 -0.002030900471142935 0 0.038383251951138175 -0.0018795304876025613 0 0.038607686270798573 -0.0018044591471362071 0 0.038645592169163537 -0.0019155097328712092 0 0.038499586814862582 -0.002030900471142935 0 0.038499586814862582 -0.002030900471142935 0 0.038383251951138175 -0.0018795304876025613 0 0.03833024886894864 -0.0020218780787864023 0 0.038629964209945966 -0.0021357489804899855 0 0.03833024886894864 -0.0020218780787864023 0 0.03806523298242246 -0.0022142336908503712 0 0.038553427266894959 -0.0021311270652309314 0 0.038254747430691231 -0.0022015376343819935 0 0.038553427266894959 -0.0021311270652309314 0 0.038546450420788282 -0.0021229898364926057 0 0.038214339544113608 -0.0021533226301447051 0 0.03806523298242246 -0.0022142336908503712 0 0.038073568698012032 -0.0025354467288575544 0 0.037526468318014233 -0.0016805491659118476 0 0.037387054142149885 -0.0022213898971546577 0 0.037811373310741754 -0.0020096728157455728 0 0.037387054142149885 -0.0022213898971546577 0 0.037811373310741754 -0.0020096728157455728 0 0.037783155790714097 -0.002373420565551081 0 0.037811373310741754 -0.0020096728157455728 0 0.038136094616134382 -0.0018979191809624734 0 0.03806523298242246 -0.0022142336908503712 0 0.037811373310741754 -0.0020096728157455728 0 0.03806523298242246 -0.0022142336908503712 0 0.037783155790714097 -0.002373420565551081 0 0.038383251951138175 -0.0018795304876025613 0 0.03833024886894864 -0.0020218780787864023 0 0.038136094616134382 -0.0018979191809624734 0 0.03833024886894864 -0.0020218780787864023 0 0.038136094616134382 -0.0018979191809624734 0 0.03806523298242246 -0.0022142336908503712 0 0.03806523298242246 -0.0022142336908503712 0 0.037783155790714097 -0.002373420565551081 0 0.038073568698012032 -0.0025354467288575544 0 0.037387054142149885 -0.0022213898971546577 0 0.037783155790714097 -0.002373420565551081 0 0.037515366828801175 -0.0028321938380701911 0 0.037515366828801175 -0.0028321938380701911 0 0.038084728253771231 -0.0030823155516469065 0 0.03745817178433012 -0.003497969660621646 0 0.037515366828801175 -0.0028321938380701911 0 0.038073568698012032 -0.0025354467288575544 0 0.038084728253771231 -0.0030823155516469065 0 0.037783155790714097 -0.002373420565551081 0 0.037515366828801175 -0.0028321938380701911 0 0.038073568698012032 -0.0025354467288575544 0 0.038084728253771231 -0.0030823155516469065 0 0.038614882333478436 -0.0034629203820466694 0 0.03882451187269443 -0.002588235573023239 0 0.038073568698012032 -0.0025354467288575544 0 0.038084728253771231 -0.0030823155516469065 0 0.03882451187269443 -0.002588235573023239 0 0.038084728253771231 -0.0030823155516469065 0 0.037985057567394176 -0.0037444192682152084 0 0.038614882333478436 -0.0034629203820466694 0 0.038084728253771231 -0.0030823155516469065 0 0.037985057567394176 -0.0037444192682152084 0 0.03745817178433012 -0.003497969660621646 0 0.03973672939267945 -0.003112538936004338 0 0.038614882333478436 -0.0034629203820466694 0 0.039524580225942234 -0.0040699433640903025 0 0.03973672939267945 -0.003112538936004338 0 0.040913468838054037 -0.0038370474171789694 0 0.039524580225942234 -0.0040699433640903025 0 0.03973672939267945 -0.003112538936004338 0 0.038614882333478436 -0.0034629203820466694 0 0.03882451187269443 -0.002588235573023239 0 0.040142828646112204 -0.0033304136774663915 0 0.039226379720630089 -0.0027193272353769377 0 0.040529947376467652 -0.0035379090025492513 0 0.0396279965671094 -0.0028521218675340207 0 0.040717060894342239 -0.0024847161685576003 0 0.038729770430047911 -0.0021642393782151646 0 0.0396279965671094 -0.0028521218675340207 0 0.039885748759800631 -0.0018173429835698165 0 0.0396279965671094 -0.0028521218675340207 0 0.040717060894342239 -0.0024847161685576003 0 0.039885748759800631 -0.0018173429835698165 0 0.038553427266894959 -0.0021311270652309314 0 0.039887075699595917 -0.001765208524456701 0 0.03918165273692558 -0.0013036505982954492 0 0.0388419452209861 -0.0017248010207499456 0 0.039884427080611663 -0.0017051332931213475 0 0.039631367306021813 -0.00099794369040335823 0 0.03918165273692558 -0.0013036505982954492 0 0.039884427080611663 -0.0017051332931213475 0 0.040717060894342239 -0.0024847161685576003 0 0.039885748759800631 -0.0018173429835698165 0 0.041040624043055814 -0.0014692310596329501 0 0.039631367306021813 -0.00099794369040335823 0 0.039884427080611663 -0.0017051332931213475 0 0.041062997787156462 -0.0013428844151817429 0 0.039887075699595917 -0.001765208524456701 0 0.041147400630995597 -0.001375870666575244 0 0.040969038069943592 -0.0013599441860910123 0 0.041853655097848594 -0.0010903991211478506 0 0.041698626366209968 -0.0020352804204807925 0 0.041147400630995597 -0.001375870666575244 0 0.042040506967843096 -0.0010550717416254849 0 0.041147400630995597 -0.001375870666575244 0 0.041701192011430563 -0.0020612208909087559 0 0.042815028795399133 -0.00082141799402358888 0 0.041853655097848594 -0.0010903991211478506 0 0.042362422421625065 -0.0013714719887279352 0 0.041853655097848594 -0.0010903991211478506 0 0.042362422421625065 -0.0013714719887279352 0 0.041698626366209968 -0.0020352804204807925 0 0.042362422421625065 -0.0013714719887279352 0 0.041698626366209968 -0.0020352804204807925 0 0.042525235882605109 -0.001884370949585249 0 0.041702620337619144 -0.0020781495438743792 0 0.042379788807740328 -0.0026940899139534518 0 0.041649649004524884 -0.003238008934320451 0 0.041698626366209968 -0.0020352804204807925 0 0.042379788807740328 -0.0026940899139534518 0 0.042525235882605109 -0.001884370949585249 0 0.041701192011430563 -0.0020612208909087559 0 0.042311992374597908 -0.0026278063332297926 0 0.040717060894342239 -0.0024847161685576003 0 0.041702620337619144 -0.0020781495438743792 0 0.041649649004524884 -0.003238008934320451 0 0.040717060894342239 -0.0024847161685576003 0 0.041040624043055814 -0.0014692310596329501 0 0.041702620337619144 -0.0020781495438743792 0 0.044093564797298757 -0.0025345001625049057 0 0.044503145467391557 -0.0022775708890202294 0 0.044117485823140561 -0.0019884471262506965 0 0.044093564797298757 -0.0025345001625049057 0 0.044503145467391557 -0.0022775708890202294 0 0.044670181718207413 -0.0027758560404956413 0 0.044509962445207191 -0.0016551313690698643 0 0.044503145467391557 -0.0022775708890202294 0 0.044117485823140561 -0.0019884471262506965 0 0.044093564797298757 -0.0025345001625049057 0 0.044117485823140561 -0.0019884471262506965 0 0.043753472989268169 -0.0021208311627326183 0 0.043811491944957752 -0.0016589066626137938 0 0.044117485823140561 -0.0019884471262506965 0 0.043753472989268169 -0.0021208311627326183 0 0.044093564797298757 -0.0025345001625049057 0 0.043753472989268169 -0.0021208311627326183 0 0.043652677796790801 -0.0029499866706706301 0 0.043171918823049313 -0.0010749327885854227 0 0.043441788393526359 -0.0025534474363517658 0 0.04329998003913791 -0.0014419578392106272 0 0.043753472989268169 -0.0021208311627326183 0 0.043652677796790801 -0.0029499866706706301 0 0.043034365786382957 -0.00071097629761176357 0 0.042803226070367129 -0.0013869304504238577 0 0.043264614730980214 -0.0021494680102146146 0 0.042815028795399133 -0.00082141799402358888 0 0.042362422421625065 -0.0013714719887279352 0 0.042803226070367129 -0.0013869304504238577 0 0.042362422421625065 -0.0013714719887279352 0 0.042803226070367129 -0.0013869304504238577 0 0.042525235882605109 -0.001884370949585249 0 0.042803226070367129 -0.0013869304504238577 0 0.042525235882605109 -0.001884370949585249 0 0.043264614730980214 -0.0021494680102146146 0 0.042379788807740328 -0.0026940899139534518 0 0.043264614730980214 -0.0021494680102146146 0 0.042946448704640122 -0.0029991736058657226 0 0.042379788807740328 -0.0026940899139534518 0 0.042525235882605109 -0.001884370949585249 0 0.043264614730980214 -0.0021494680102146146 0 0.044093564797298757 -0.0025345001625049057 0 0.043652677796790801 -0.0029499866706706301 0 0.044005103728929129 -0.0028995277582437697 0 0.043652677796790801 -0.0029499866706706301 0 0.043705538926137849 -0.0033080676351027807 0 0.04372217983858788 -0.0032749471212460256 0 0.043652677796790801 -0.0029499866706706301 0 0.044005103728929129 -0.0028995277582437697 0 0.04372217983858788 -0.0032749471212460256 0 0.043873700482169056 -0.0032703967940048771 0 0.04367848239047252 -0.0027289849031635321 0 0.044005103728929129 -0.0028995277582437697 0 0.04372217983858788 -0.0032749471212460256 0 0.044670181718207413 -0.0027758560404956413 0 0.04372217983858788 -0.0032749471212460256 0 0.043675403230591707 -0.0033245126487621061 0 0.043689786792076434 -0.0032912327249272383 0 0.044093564797298757 -0.0025345001625049057 0 0.044005103728929129 -0.0028995277582437697 0 0.044670181718207413 -0.0027758560404956413 0 0.043652677796790801 -0.0029499866706706301 0 0.043705538926137849 -0.0033080676351027807 0 0.043505207249787368 -0.0036017571708130743 0 0.043441788393526359 -0.0025534474363517658 0 0.043532729251357732 -0.0035572259494300374 0 0.043705538926137849 -0.0033080676351027807 0 0.043505207249787368 -0.0036017571708130743 0 0.043903429387122203 -0.0035199638610707825 0 0.043705538926137849 -0.0033080676351027807 0 0.04372217983858788 -0.0032749471212460256 0 0.043689786792076434 -0.0032912327249272383 0 0.042379788807740328 -0.0026940899139534518 0 0.042946448704640122 -0.0029991736058657226 0 0.042660222770330797 -0.0035346443022530594 0 0.043264614730980214 -0.0021494680102146146 0 0.042946448704640122 -0.0029991736058657226 0 0.043505207249787368 -0.0036017571708130743 0 0.042946448704640122 -0.0029991736058657226 0 0.042660222770330797 -0.0035346443022530594 0 0.043505207249787368 -0.0036017571708130743 0 0.042660222770330797 -0.0035346443022530594 0 0.043505207249787368 -0.0036017571708130743 0 0.043278973658474669 -0.0039916480037704592 0 0.042660222770330797 -0.0035346443022530594 0 0.042728227304879275 -0.0042149415584093091 0 0.042133381049153242 -0.004057312649210644 0 0.042660222770330797 -0.0035346443022530594 0 0.042728227304879275 -0.0042149415584093091 0 0.043278973658474669 -0.0039916480037704592 0 0.043505207249787368 -0.0036017571708130743 0 0.043278973658474669 -0.0039916480037704592 0 0.04377254766768289 -0.003811176631806034 0 0.043278973658474669 -0.0039916480037704592 0 0.043680992467822484 -0.0041491560894898255 0 0.04377254766768289 -0.003811176631806034 0 0.043505207249787368 -0.0036017571708130743 0 0.04377254766768289 -0.003811176631806034 0 0.043903429387122203 -0.0035199638610707825 0 0.040529947376467652 -0.0035379090025492513 0 0.040717060894342239 -0.0024847161685576003 0 0.041649649004524884 -0.003238008934320451 0 0.042379788807740328 -0.0026940899139534518 0 0.042660222770330797 -0.0035346443022530594 0 0.041649649004524884 -0.003238008934320451 0 0.042660222770330797 -0.0035346443022530594 0 0.041649649004524884 -0.003238008934320451 0 0.042133381049153242 -0.004057312649210644 0 0.041649649004524884 -0.003238008934320451 0 0.042133381049153242 -0.004057312649210644 0 0.041424786559747087 -0.0042012130952978595 0 0.040529947376467652 -0.0035379090025492513 0 0.041649649004524884 -0.003238008934320451 0 0.041424786559747087 -0.0042012130952978595 0 0.040142828646112204 -0.0033304136774663915 0 0.041181397242697371 -0.0040415693834858222 0 0.040913468838054037 -0.0038370474171789694 0 0.040681325288010779 -0.0047719715700991396 0 0.039524580225942234 -0.0040699433640903025 0 0.042133381049153242 -0.004057312649210644 0 0.041424786559747087 -0.0042012130952978595 0 0.042176959319247406 -0.0048021617429439348 0 0.041181397242697371 -0.0040415693834858222 0 0.042103963624920478 -0.0047419896110263747 0 0.040913468838054037 -0.0038370474171789694 0 0.040681325288010779 -0.0047719715700991396 0 0.042176959319247406 -0.0048021617429439348 0 0.041271846960405194 -0.0056644111512039706 0 0.042530774434880028 -0.0053296877095779498 0 0.042680711317705677 -0.006071167973339558 0 0.040846551357218229 -0.005385545840881422 0 0.038020602279985022 -0.0058170542500161487 0 0.042176959319247406 -0.0048021617429439348 0 0.041271846960405194 -0.0056644111512039706 0 0.042530774434880028 -0.0053296877095779498 0 0.040681325288010779 -0.0047719715700991396 0 0.042176959319247406 -0.0048021617429439348 0 0.041271846960405194 -0.0056644111512039706 0 0.039156465152325258 -0.0049477267122510259 0 0.038808218264236499 -0.0050272655039975515 0 0.038589979740918892 -0.0047126816517164462 0 0.040681325288010779 -0.0047719715700991396 0 0.041271846960405194 -0.0056644111512039706 0 0.039719373094151758 -0.0050965152994875756 0 0.040846551357218229 -0.005385545840881422 0 0.039017346178782011 -0.0048535866350664274 0 0.042445298928498222 -0.0038413950244154298 0 0.03842946609859417 -0.0053730169971803266 0 0.043680992467822484 -0.0041491560894898255 0 0.043638426369554326 -0.004748704093151525 0 0.043066716926603917 -0.0046467246192992426 0 0.043278973658474669 -0.0039916480037704592 0 0.043680992467822484 -0.0041491560894898255 0 0.043066716926603917 -0.0046467246192992426 0 0.043638426369554326 -0.004748704093151525 0 0.043066716926603917 -0.0046467246192992426 0 0.043195807322545021 -0.0053695802641880912 0 0.042728227304879275 -0.0042149415584093091 0 0.042133381049153242 -0.004057312649210644 0 0.042176959319247406 -0.0048021617429439348 0 0.042728227304879275 -0.0042149415584093091 0 0.042176959319247406 -0.0048021617429439348 0 0.043066716926603917 -0.0046467246192992426 0 0.042176959319247406 -0.0048021617429439348 0 0.043066716926603917 -0.0046467246192992426 0 0.042530774434880028 -0.0053296877095779498 0 0.042728227304879275 -0.0042149415584093091 0 0.043278973658474669 -0.0039916480037704592 0 0.043066716926603917 -0.0046467246192992426 0 0.042530774434880028 -0.0053296877095779498 0 0.043195807322545021 -0.0053695802641880912 0 0.042680711317705677 -0.006071167973339558 0 0.040185847665698181 -0.0050532392876713903 0 0.038020602279985022 -0.0058170542500161487 0 0.043066716926603917 -0.0046467246192992426 0 0.042530774434880028 -0.0053296877095779498 0 0.043195807322545021 -0.0053695802641880912 0 0.03842946609859417 -0.0053730169971803266 0 0.032670608140464547 -0.0059913323286490353 0 0.037007855043800622 -0.0052980301800700019 0 0.036884369478469618 -0.0054377085188077566 0 0.036931534161873912 -0.0056375816645966928 0 0.03074484712840311 -0.0057513555527924842 0 0.030579626795025218 -0.0063989012958451949 0 0.030794794949308649 -0.0062494330683114099 0 0.03842946609859417 -0.0053730169971803266 0 0.040185847665698181 -0.0050532392876713903 0 0.032670608140464547 -0.0059913323286490353 0 0.038020602279985022 -0.0058170542500161487 0 0.036884369478469618 -0.0054377085188077566 0 0.036931534161873912 -0.0056375816645966928 0 0.036771929476892749 -0.0055766796978157342 0 0.030633234053197816 -0.0065659808240385795 0 0.030796532143835577 -0.006644270767989722 0 0.030792219949962299 -0.0064448329306162422 0 0.030633234053197816 -0.0065659808240385795 0 0.030548059027172472 -0.0063898216498056524 0 0.030617253958550573 -0.0064147859952852319 0 0.030579626795025218 -0.0063989012958451949 0 0.030617253958550573 -0.0064147859952852319 0 0.030701775371819041 -0.0063703056334530311 0 0.032670608140464547 -0.0059913323286490353 0 0.032325012254457809 -0.0059347167144126701 0 0.030633234053197816 -0.0065659808240385795 0 0.030617253958550573 -0.0064147859952852319 0 0.030792219949962299 -0.0064448329306162422 0 0.030617253958550573 -0.0064147859952852319 0 0.030701775371819041 -0.0063703056334530311 0 0.030792219949962299 -0.0064448329306162422 0 0.030579626795025218 -0.0063989012958451949 0 0.030701775371819041 -0.0063703056334530311 0 0.030794794949308649 -0.0062494330683114099 0 0.030701775371819041 -0.0063703056334530311 0 0.030794794949308649 -0.0062494330683114099 0 0.030792219949962299 -0.0064448329306162422 0 0.032986797418097846 -0.0062232397541277943 0 0.031978291641446201 -0.0058836250042441944 0 0.032159524823505897 -0.0067766213123196068 0 0.031978291641446201 -0.0058836250042441944 0 0.032159524823505897 -0.0067766213123196068 0 0.031262372518586268 -0.006741604409175905 0 0.038020602279985022 -0.0058170542500161487 0 0.035257173696037925 -0.0062177829833021166 0 0.031750335537104761 -0.0076281656336966179 0 0.032159524823505897 -0.0067766213123196068 0 0.032817670198476048 -0.007413016605372272 0 0.031750335537104761 -0.0076281656336966179 0 0.032159524823505897 -0.0067766213123196068 0 0.031262372518586268 -0.006741604409175905 0 0.032986797418097846 -0.0062232397541277943 0 0.032159524823505897 -0.0067766213123196068 0 0.032817670198476048 -0.007413016605372272 0 0.030633234053197816 -0.0065659808240385795 0 0.030548059027172472 -0.0063898216498056524 0 0.030389393320977995 -0.0069523442413945728 0 0.032670608140464547 -0.0059913323286490353 0 0.031706220733303453 -0.0068783610263535378 0 0.030389393320977995 -0.0069523442413945728 0 0.030796532143835577 -0.006644270767989722 0 0.030904863348811203 -0.0069492733920221541 0 0.030633234053197816 -0.0065659808240385795 0 0.030389393320977995 -0.0069523442413945728 0 0.030796532143835577 -0.006644270767989722 0 0.039156465152325258 -0.0049477267122510259 0 0.038808218264236499 -0.0050272655039975515 0 0.039008045390090632 -0.0053608252270642186 0 0.039156465152325258 -0.0049477267122510259 0 0.039008045390090632 -0.0053608252270642186 0 0.039247599147866567 -0.0052758142142740614 0 0.038808218264236499 -0.0050272655039975515 0 0.039008045390090632 -0.0053608252270642186 0 0.038480247716607512 -0.0051551291864579884 0 0.039156465152325258 -0.0049477267122510259 0 0.039647278414575063 -0.0051695682353687152 0 0.039247599147866567 -0.0052758142142740614 0 0.039647278414575063 -0.0051695682353687152 0 0.039247599147866567 -0.0052758142142740614 0 0.039408121558246682 -0.0054524166955768859 0 0.039247599147866567 -0.0052758142142740614 0 0.039408121558246682 -0.0054524166955768859 0 0.039162851050554837 -0.0057374125389720526 0 0.031750335537104761 -0.0076281656336966179 0 0.031262372518586268 -0.006741604409175905 0 0.030557180179129784 -0.0076022772921338034 0 0.035257173696037925 -0.0062177829833021166 0 0.03471195964892191 -0.0069243281876322635 0 0.039707682811307349 -0.0056705368181519328 0 0.03471195964892191 -0.0069243281876322635 0 0.039008045390090632 -0.0053608252270642186 0 0.03953746955603319 -0.0062795609152123399 0 0.038523382387513766 -0.006123608554278394 0 0.039008045390090632 -0.0053608252270642186 0 0.039247599147866567 -0.0052758142142740614 0 0.039162851050554837 -0.0057374125389720526 0 0.038419954245787126 -0.0052026460997684713 0 0.037858866115041377 -0.005784936203616543 0 0.039008045390090632 -0.0053608252270642186 0 0.038523382387513766 -0.006123608554278394 0 0.038480247716607512 -0.0051551291864579884 0 0.038523382387513766 -0.006123608554278394 0 0.038480247716607512 -0.0051551291864579884 0 0.037427978214384504 -0.0059532284299551649 0 0.038480247716607512 -0.0051551291864579884 0 0.038191691611284648 -0.0050796201591919027 0 0.038589979740918892 -0.0047126816517164462 0 0.038480247716607512 -0.0051551291864579884 0 0.038191691611284648 -0.0050796201591919027 0 0.038335078890275966 -0.0055455757101637833 0 0.038191691611284648 -0.0050796201591919027 0 0.038335078890275966 -0.0055455757101637833 0 0.037937857326926415 -0.0055875427811664432 0 0.038335078890275966 -0.0055455757101637833 0 0.037937857326926415 -0.0055875427811664432 0 0.037956071754825613 -0.006159688393703202 0 0.037937857326926415 -0.0055875427811664432 0 0.037628402284896723 -0.0053387316946709564 0 0.037527159367491687 -0.0059215838194025946 0 0.037177388293106475 -0.0056191822875266313 0 0.037628402284896723 -0.0053387316946709564 0 0.037527159367491687 -0.0059215838194025946 0 0.036987515635722855 -0.0052691841152680838 0 0.037177388293106475 -0.0056191822875266313 0 0.03736989748952553 -0.0050549894110458798 0 0.037628402284896723 -0.0053387316946709564 0 0.03736989748952553 -0.0050549894110458798 0 0.037710845049320568 -0.0048158127930001465 0 0.037177388293106475 -0.0056191822875266313 0 0.037628402284896723 -0.0053387316946709564 0 0.03736989748952553 -0.0050549894110458798 0 0.038191691611284648 -0.0050796201591919027 0 0.037937857326926415 -0.0055875427811664432 0 0.037628402284896723 -0.0053387316946709564 0 0.038191691611284648 -0.0050796201591919027 0 0.037628402284896723 -0.0053387316946709564 0 0.037710845049320568 -0.0048158127930001465 0 0.038191691611284648 -0.0050796201591919027 0 0.037710845049320568 -0.0048158127930001465 0 0.038325952044475177 -0.0044316736706592206 0 0.037710845049320568 -0.0048158127930001465 0 0.037537087911897776 -0.0042178107650875808 0 0.038325952044475177 -0.0044316736706592206 0 0.037085375087373702 -0.0046729617084698147 0 0.037710845049320568 -0.0048158127930001465 0 0.037537087911897776 -0.0042178107650875808 0 0.037085375087373702 -0.0046729617084698147 0 0.03736989748952553 -0.0050549894110458798 0 0.037710845049320568 -0.0048158127930001465 0 0.036864735861905716 -0.004014912317399439 0 0.03745817178433012 -0.003497969660621646 0 0.037537087911897776 -0.0042178107650875808 0 0.037985057567394176 -0.0037444192682152084 0 0.03745817178433012 -0.003497969660621646 0 0.037537087911897776 -0.0042178107650875808 0 0.037985057567394176 -0.0037444192682152084 0 0.037537087911897776 -0.0042178107650875808 0 0.038325952044475177 -0.0044316736706592206 0 0.037985057567394176 -0.0037444192682152084 0 0.038614882333478436 -0.0034629203820466694 0 0.038325952044475177 -0.0044316736706592206 0 0.038614882333478436 -0.0034629203820466694 0 0.038325952044475177 -0.0044316736706592206 0 0.039524580225942234 -0.0040699433640903025 0 0.038325952044475177 -0.0044316736706592206 0 0.039524580225942234 -0.0040699433640903025 0 0.039719373094151758 -0.0050965152994875756 0 0.040681325288010779 -0.0047719715700991396 0 0.039524580225942234 -0.0040699433640903025 0 0.039719373094151758 -0.0050965152994875756 0 0.038808218264236499 -0.0050272655039975515 0 0.038480247716607512 -0.0051551291864579884 0 0.038589979740918892 -0.0047126816517164462 0 0.038423818720191426 -0.004504879844289743 0 0.039017346178782011 -0.0048535866350664274 0 0.038191691611284648 -0.0050796201591919027 0 0.038325952044475177 -0.0044316736706592206 0 0.038589979740918892 -0.0047126816517164462 0 0.03468107646781509 -0.0064881716934372686 0 0.033720068382758824 -0.0063440989552321792 0 0.03369805259694468 -0.006885185192663134 0 0.033720068382758824 -0.0063440989552321792 0 0.03369805259694468 -0.006885185192663134 0 0.032327602252152393 -0.006749618517564315 0 0.03468107646781509 -0.0064881716934372686 0 0.033720068382758824 -0.0063440989552321792 0 0.035078170060691458 -0.0058987654328857371 0 0.033720068382758824 -0.0063440989552321792 0 0.035078170060691458 -0.0058987654328857371 0 0.033024634643841866 -0.0057023906783841821 0 0.036232819627235971 -0.0075494911632535489 0 0.03510385836956792 -0.0059697033995002972 0 0.037823625204638354 -0.0088183579304623536 0 0.035078170060691458 -0.0058987654328857371 0 0.03882147445359882 -0.0060909602196601549 0 0.03882147445359882 -0.0060909602196601549 0 0.039671962953190039 -0.0075066673001641156 0 0.041191576008814811 -0.0062974004590376021 0 0.037823625204638354 -0.0088183579304623536 0 0.03882147445359882 -0.0060909602196601549 0 0.039671962953190039 -0.0075066673001641156 0 0.039671962953190039 -0.0075066673001641156 0 0.041191576008814811 -0.0062974004590376021 0 0.041622848319124321 -0.0080813182602162293 0 0.039803052631437429 -0.0090473280120941541 0 0.040780824816203806 -0.0095116596070414141 0 0.039671962953190039 -0.0075066673001641156 0 0.039841395132727352 -0.0090195699191323708 0 0.041622848319124321 -0.0080813182602162293 0 0.039841395132727352 -0.0090195699191323708 0 0.041622848319124321 -0.0080813182602162293 0 0.042655683195180483 -0.0097747957637093971 0 0.037823625204638354 -0.0088183579304623536 0 0.039841395132727352 -0.0090195699191323708 0 0.039180097974168229 -0.0095425123021272394 0 0.037823625204638354 -0.0088183579304623536 0 0.039671962953190039 -0.0075066673001641156 0 0.039841395132727352 -0.0090195699191323708 0 0.036232819627235971 -0.0075494911632535489 0 0.03724901303863265 -0.0085497863867611788 0 0.039841395132727352 -0.0090195699191323708 0 0.039180097974168229 -0.0095425123021272394 0 0.038865961923616403 -0.0093455245064322338 0 0.039841395132727352 -0.0090195699191323708 0 0.038865961923616403 -0.0093455245064322338 0 0.038859310093033832 -0.0094146513158735439 0 0.03724901303863265 -0.0085497863867611788 0 0.037489567434071738 -0.0089511937980071496 0 0.039180097974168229 -0.0095425123021272394 0 0.038865961923616403 -0.0093455245064322338 0 0.038723820196469146 -0.0092000107359310745 0 0.038865961923616403 -0.0093455245064322338 0 0.03852472306441853 -0.0092632133171388267 0 0.038723820196469146 -0.0092000107359310745 0 0.035430691327540391 -0.0075771690459032447 0 0.03456408943492921 -0.0089415534774495656 0 0.036198889965563683 -0.0085530485177919714 0 0.035430691327540391 -0.0075771690459032447 0 0.034357911880920723 -0.0074645468001916732 0 0.03456408943492921 -0.0089415534774495656 0 0.034357911880920723 -0.0074645468001916732 0 0.033546483806256314 -0.0085351515153230129 0 0.03456408943492921 -0.0089415534774495656 0 0.03468107646781509 -0.0064881716934372686 0 0.034357911880920723 -0.0074645468001916732 0 0.03369805259694468 -0.006885185192663134 0 0.03468107646781509 -0.0064881716934372686 0 0.035430691327540391 -0.0075771690459032447 0 0.034357911880920723 -0.0074645468001916732 0 0.03369805259694468 -0.006885185192663134 0 0.032980212726953312 -0.0076077389934509059 0 0.032327602252152393 -0.006749618517564315 0 0.034357911880920723 -0.0074645468001916732 0 0.03369805259694468 -0.006885185192663134 0 0.032980212726953312 -0.0076077389934509059 0 0.034357911880920723 -0.0074645468001916732 0 0.032980212726953312 -0.0076077389934509059 0 0.033546483806256314 -0.0085351515153230129 0 0.032980212726953312 -0.0076077389934509059 0 0.033546483806256314 -0.0085351515153230129 0 0.032151371136049968 -0.0088336890164036914 0 0.032151371136049968 -0.0088336890164036914 0 0.030913386721967494 -0.0075577536985710746 0 0.030199390794665628 -0.0097476719813262488 0 0.032980212726953312 -0.0076077389934509059 0 0.032151371136049968 -0.0088336890164036914 0 0.030913386721967494 -0.0075577536985710746 0 0.030913386721967494 -0.0075577536985710746 0 0.028134823419357552 -0.0088253912243007691 0 0.030199390794665628 -0.0097476719813262488 0 0.029758645271558949 -0.0066946905480855705 0 0.031209192256930147 -0.0060672033918258853 0 0.030913386721967494 -0.0075577536985710746 0 0.028253496639556234 -0.0068187606867734854 0 0.031459517168538759 -0.0060516367151673871 0 0.030913386721967494 -0.0075577536985710746 0 0.032327602252152393 -0.006749618517564315 0 0.031459517168538759 -0.0060516367151673871 0 0.032980212726953312 -0.0076077389934509059 0 0.030913386721967494 -0.0075577536985710746 0 0.032327602252152393 -0.006749618517564315 0 0.027884630363148019 -0.0077247506557906144 0 0.029758645271558949 -0.0066946905480855705 0 0.030796532143835577 -0.006644270767989722 0 0.030904863348811203 -0.0069492733920221541 0 0.030977756300102896 -0.0064081955393154449 0 0.030913386721967494 -0.0075577536985710746 0 0.028134823419357552 -0.0088253912243007691 0 0.028253496639556234 -0.0068187606867734854 0 0.024990862479880208 -0.0085272167172840644 0 0.028134823419357552 -0.0088253912243007691 0 0.028253496639556234 -0.0068187606867734854 0 0.031296637323632276 -0.006387075884493899 0 0.030977756300102896 -0.0064081955393154449 0 0.031230858484756593 -0.0060713984795208757 0 0.030904863348811203 -0.0069492733920221541 0 0.031296637323632276 -0.006387075884493899 0 0.030977756300102896 -0.0064081955393154449 0 0.030977756300102896 -0.0064081955393154449 0 0.030794794949308649 -0.0062494330683114099 0 0.030792219949962299 -0.0064448329306162422 0 0.030977756300102896 -0.0064081955393154449 0 0.030794794949308649 -0.0062494330683114099 0 0.030942391027405952 -0.0060816118187847516 0 0.030796532143835577 -0.006644270767989722 0 0.030977756300102896 -0.0064081955393154449 0 0.030792219949962299 -0.0064448329306162422 0 0.03074484712840311 -0.0057513555527924842 0 0.030794794949308649 -0.0062494330683114099 0 0.030942391027405952 -0.0060816118187847516 0 0.030977756300102896 -0.0064081955393154449 0 0.030942391027405952 -0.0060816118187847516 0 0.031230858484756593 -0.0060713984795208757 0 0.03074484712840311 -0.0057513555527924842 0 0.030942391027405952 -0.0060816118187847516 0 0.030983226761598488 -0.0058302290668932012 0 0.030942391027405952 -0.0060816118187847516 0 0.031230858484756593 -0.0060713984795208757 0 0.030983226761598488 -0.0058302290668932012 0 0.031230858484756593 -0.0060713984795208757 0 0.031434755285938046 -0.005891712091285254 0 0.031459517168538759 -0.0060516367151673871 0 0.031296637323632276 -0.006387075884493899 0 0.031230858484756593 -0.0060713984795208757 0 0.031459517168538759 -0.0060516367151673871 0 0.031230858484756593 -0.0060713984795208757 0 0.031434755285938046 -0.005891712091285254 0 0.031228900772218699 -0.005855121554094643 0 0.031230858484756593 -0.0060713984795208757 0 0.031228900772218699 -0.005855121554094643 0 0.030983226761598488 -0.0058302290668932012 0 0.031434755285938046 -0.005891712091285254 0 0.031251486156994704 -0.0055684416767404167 0 0.031535494428453534 -0.0053805157744919851 0 0.031251486156994704 -0.0055684416767404167 0 0.031228900772218699 -0.005855121554094643 0 0.031051710203652064 -0.0056492577004380535 0 0.031434755285938046 -0.005891712091285254 0 0.031251486156994704 -0.0055684416767404167 0 0.031228900772218699 -0.005855121554094643 0 0.043680992467822484 -0.0041491560894898255 0 0.043605243687294702 -0.0045789338594769569 0 0.044019656805758922 -0.0039813200556223019 0 0.03074484712840311 -0.0057513555527924842 0 0.031051710203652064 -0.0056492577004380535 0 0.031022723981678251 -0.0053925816747582627 0 0.03842946609859417 -0.0053730169971803266 0 0.037582931523304872 -0.0047010249849585815 0 0.031228900772218699 -0.005855121554094643 0 0.031051710203652064 -0.0056492577004380535 0 0.030983226761598488 -0.0058302290668932012 0 0.031251486156994704 -0.0055684416767404167 0 0.031051710203652064 -0.0056492577004380535 0 0.031022723981678251 -0.0053925816747582627 0 0.03074484712840311 -0.0057513555527924842 0 0.031051710203652064 -0.0056492577004380535 0 0.030983226761598488 -0.0058302290668932012 0 0.033720068382758824 -0.0063440989552321792 0 0.032327602252152393 -0.006749618517564315 0 0.032417208624135364 -0.0061198999116273498 0 0.032327602252152393 -0.006749618517564315 0 0.032417208624135364 -0.0061198999116273498 0 0.031459517168538759 -0.0060516367151673871 0 0.031434755285938046 -0.005891712091285254 0 0.031459517168538759 -0.0060516367151673871 0 0.031856941593128865 -0.0058269274659039257 0 0.032417208624135364 -0.0061198999116273498 0 0.031459517168538759 -0.0060516367151673871 0 0.031856941593128865 -0.0058269274659039257 0 0.031894463296107234 -0.0058680633844405868 0 0.031044187803780453 -0.0048330342239873451 0 0.031434755285938046 -0.005891712091285254 0 0.031856941593128865 -0.0058269274659039257 0 0.031535494428453534 -0.0053805157744919851 0 0.031856941593128865 -0.0058269274659039257 0 0.03218446323194727 -0.0048415076016697792 0 0.031188549651770241 -0.0047669566194027194 0 0.031856941593128865 -0.0058269274659039257 0 0.033024634643841866 -0.0057023906783841821 0 0.03218446323194727 -0.0048415076016697792 0 0.035078170060691458 -0.0058987654328857371 0 0.033024634643841866 -0.0057023906783841821 0 0.033214540661270595 -0.0046380795901512827 0 0.032417208624135364 -0.0061198999116273498 0 0.031856941593128865 -0.0058269274659039257 0 0.033024634643841866 -0.0057023906783841821 0 0.033720068382758824 -0.0063440989552321792 0 0.032417208624135364 -0.0061198999116273498 0 0.033024634643841866 -0.0057023906783841821 0 0.033214540661270595 -0.0046380795901512827 0 0.032560930957323334 -0.0035106438372432256 0 0.034503945049248322 -0.0035680276298628169 0 0.033214540661270595 -0.0046380795901512827 0 0.03218446323194727 -0.0048415076016697792 0 0.032560930957323334 -0.0035106438372432256 0 0.033024634643841866 -0.0057023906783841821 0 0.033214540661270595 -0.0046380795901512827 0 0.03218446323194727 -0.0048415076016697792 0 0.03218446323194727 -0.0048415076016697792 0 0.031188549651770241 -0.0047669566194027194 0 0.031413258032401234 -0.0037074843423037431 0 0.03218446323194727 -0.0048415076016697792 0 0.031413258032401234 -0.0037074843423037431 0 0.032560930957323334 -0.0035106438372432256 0 0.031413258032401234 -0.0037074843423037431 0 0.032560930957323334 -0.0035106438372432256 0 0.030907361112971279 -0.0024088720567317545 0 0.032560930957323334 -0.0035106438372432256 0 0.030907361112971279 -0.0024088720567317545 0 0.033368856852350498 -0.0021085189432359448 0 0.03569085126084233 -0.002491076395454241 0 0.033846862469718221 -0.0019918998202013826 0 0.032560930957323334 -0.0035106438372432256 0 0.033368856852350498 -0.0021085189432359448 0 0.034503945049248322 -0.0035680276298628169 0 0.044019656805758922 -0.0039813200556223019 0 0.044013060136209155 -0.0036670422396636645 0 0.044244105856133031 -0.0035239865078914869 0 0.037582931523304872 -0.0047010249849585815 0 0.0354650004373325 -0.0034586494309707034 0 0.04377254766768289 -0.003811176631806034 0 0.044019656805758922 -0.0039813200556223019 0 0.044013060136209155 -0.0036670422396636645 0 0.04377254766768289 -0.003811176631806034 0 0.044013060136209155 -0.0036670422396636645 0 0.043903429387122203 -0.0035199638610707825 0 0.043680992467822484 -0.0041491560894898255 0 0.04377254766768289 -0.003811176631806034 0 0.044019656805758922 -0.0039813200556223019 0 0.031188549651770241 -0.0047669566194027194 0 0.031413258032401234 -0.0037074843423037431 0 0.03020874000490353 -0.0033433478811634482 0 0.031022723981678251 -0.0053925816747582627 0 0.031282822243959174 -0.0053366171049443623 0 0.031327408389991478 -0.0050107876142377822 0 0.031044187803780453 -0.0048330342239873451 0 0.0354650004373325 -0.0034586494309707034 0 0.031535494428453534 -0.0053805157744919851 0 0.031282822243959174 -0.0053366171049443623 0 0.031327408389991478 -0.0050107876142377822 0 0.031251486156994704 -0.0055684416767404167 0 0.031022723981678251 -0.0053925816747582627 0 0.031282822243959174 -0.0053366171049443623 0 0.031251486156994704 -0.0055684416767404167 0 0.031535494428453534 -0.0053805157744919851 0 0.031282822243959174 -0.0053366171049443623 0 0.031413258032401234 -0.0037074843423037431 0 0.030907361112971279 -0.0024088720567317545 0 0.03020874000490353 -0.0033433478811634482 0 0.03569085126084233 -0.002491076395454241 0 0.0354650004373325 -0.0034586494309707034 0 0.03569085126084233 -0.002491076395454241 0 0.042000838149607707 -0.0034692339378073062 0 0.0354650004373325 -0.0034586494309707034 0 0.042000838149607707 -0.0034692339378073062 0 0.044244105856133031 -0.0035239865078914869 0 0.044073700033644338 -0.0035150552382928781 0 0.044114987249858711 -0.0033507419202740245 0 0.036505392601035871 -0.0034801324342367043 0 0.037698514122959416 -0.0020188352552681175 0 0.038603598419874395 -0.0033695517984294989 0 0.043705538926137849 -0.0033080676351027807 0 0.043653661441035045 -0.0032737928708697077 0 0.043689786792076434 -0.0032912327249272383 0 0.043705538926137849 -0.0033080676351027807 0 0.044114987249858711 -0.0033507419202740245 0 0.043903429387122203 -0.0035199638610707825 0 0.044476952323466275 -0.0032582532458266711 0 0.042000838149607707 -0.0034692339378073062 0 0.044013060136209155 -0.0036670422396636645 0 0.044244105856133031 -0.0035239865078914869 0 0.044073700033644338 -0.0035150552382928781 0 0.044013060136209155 -0.0036670422396636645 0 0.044073700033644338 -0.0035150552382928781 0 0.043903429387122203 -0.0035199638610707825 0 0.044073700033644338 -0.0035150552382928781 0 0.044114987249858711 -0.0033507419202740245 0 0.043903429387122203 -0.0035199638610707825 0 0.041267389993309422 -0.0027443936864964525 0 0.041009136069624828 -0.0023256217062631339 0 0.041446368540457836 -0.0023416384047781126 0 0.043653661441035045 -0.0032737928708697077 0 0.043675403230591707 -0.0033245126487621061 0 0.043689786792076434 -0.0032912327249272383 0 0.042000838149607707 -0.0034692339378073062 0 0.04367848239047252 -0.0027289849031635321 0 0.04162673975525618 -0.0027254383361715053 0 0.041267389993309422 -0.0027443936864964525 0 0.041446368540457836 -0.0023416384047781126 0 0.041009136069624828 -0.0023256217062631339 0 0.041446368540457836 -0.0023416384047781126 0 0.041415831168822713 -0.0018605189413859284 0 0.041446368540457836 -0.0023416384047781126 0 0.041415831168822713 -0.0018605189413859284 0 0.042069204363192413 -0.0022041099800040567 0 0.045018547526021441 -0.0030244033011042649 0 0.046189923742599517 -0.0017921959272417859 0 0.045203907261143025 -0.0015921069072889684 0 0.044503145467391557 -0.0022775708890202294 0 0.045018547526021441 -0.0030244033011042649 0 0.045203907261143025 -0.0015921069072889684 0 0.04367848239047252 -0.0027289849031635321 0 0.043738540373019739 -0.0018285528533043259 0 0.044509962445207191 -0.0016551313690698643 0 0.044503145467391557 -0.0022775708890202294 0 0.045203907261143025 -0.0015921069072889684 0 0.044435582246991651 -0.0026531588284604748 0 0.04367848239047252 -0.0027289849031635321 0 0.035617215262904511 -0.001866936027569921 0 0.035840705214001171 -0.00097935758094488241 0 0.0362843280450914 -0.001353006712890422 0 0.035617215262904511 -0.001866936027569921 0 0.035104045856441231 -0.00098454484081598342 0 0.035840705214001171 -0.00097935758094488241 0 0.04162673975525618 -0.0027254383361715053 0 0.041446368540457836 -0.0023416384047781126 0 0.042069204363192413 -0.0022041099800040567 0 0.034364178930077947 -0.0019325081124883122 0 0.035617215262904511 -0.001866936027569921 0 0.035104045856441231 -0.00098454484081598342 0 0.03569085126084233 -0.002491076395454241 0 0.038977164314318351 -0.0014086111446866899 0 0.035104045856441231 -0.00098454484081598342 0 0.035840705214001171 -0.00097935758094488241 0 0.035913998929623728 7.3569816079947705e-05 0 0.038977164314318351 -0.0014086111446866899 0 0.038848431743165102 -0.00088313368893829034 0 0.035840705214001171 -0.00097935758094488241 0 0.036464414678246855 -0.00070669434924394529 0 0.035913998929623728 7.3569816079947705e-05 0 0.036464414678246855 -0.00070669434924394529 0 0.03714099495079734 -0.00073149815834652862 0 0.037038047177536011 4.9472461163578431e-05 0 0.036464414678246855 -0.00070669434924394529 0 0.03714099495079734 -0.00073149815834652862 0 0.036808199618343689 -0.0012245220871347194 0 0.035840705214001171 -0.00097935758094488241 0 0.036464414678246855 -0.00070669434924394529 0 0.0362843280450914 -0.001353006712890422 0 0.038142238309939389 -0.0020219642985375929 0 0.038942469889693909 -0.00086118889828274271 0 0.03714099495079734 -0.00073149815834652862 0 0.037499711418373514 -0.0013885375359165484 0 0.037876205113787087 -0.00040733516630883301 0 0.03714099495079734 -0.00073149815834652862 0 0.037876205113787087 -0.00040733516630883301 0 0.037038047177536011 4.9472461163578431e-05 0 0.03714099495079734 -0.00073149815834652862 0 0.037499711418373514 -0.0013885375359165484 0 0.036808199618343689 -0.0012245220871347194 0 0.037499711418373514 -0.0013885375359165484 0 0.0368515447817706 -0.0020004944065274079 0 0.036808199618343689 -0.0012245220871347194 0 0.038951502153264483 -0.0024153663336523041 0 0.038763063503312267 -0.0030831804297195547 0 0.039990340093512204 -0.0028079175919725097 0 0.035617215262904511 -0.001866936027569921 0 0.0368515447817706 -0.0020004944065274079 0 0.0362843280450914 -0.001353006712890422 0 0.033846862469718221 -0.0019918998202013826 0 0.037002879987140788 -0.001972483626302889 0 0.0368515447817706 -0.0020004944065274079 0 0.0362843280450914 -0.001353006712890422 0 0.036808199618343689 -0.0012245220871347194 0 0.036464414678246855 -0.00070669434924394529 0 0.0362843280450914 -0.001353006712890422 0 0.036808199618343689 -0.0012245220871347194 0 0.033368856852350498 -0.0021085189432359448 0 0.0368515447817706 -0.0020004944065274079 0 0.034503945049248322 -0.0035680276298628169 0 0.0368515447817706 -0.0020004944065274079 0 0.034503945049248322 -0.0035680276298628169 0 0.036817028573143229 -0.0035829424821676174 0 0.037499711418373514 -0.0013885375359165484 0 0.0368515447817706 -0.0020004944065274079 0 0.036817028573143229 -0.0035829424821676174 0 0.038951502153264483 -0.0024153663336523041 0 0.038763063503312267 -0.0030831804297195547 0 0.036817028573143229 -0.0035829424821676174 0 0.038142238309939389 -0.0020219642985375929 0 0.037021170048228434 -0.0035783126319939361 0 0.038763063503312267 -0.0030831804297195547 0 0.036817028573143229 -0.0035829424821676174 0 0.039153705442977832 -0.0036055501691304101 0 0.036817028573143229 -0.0035829424821676174 0 0.037994344182229384 -0.004698910099804561 0 0.039153705442977832 -0.0036055501691304101 0 0.035078170060691458 -0.0058987654328857371 0 0.03882147445359882 -0.0060909602196601549 0 0.037994344182229384 -0.004698910099804561 0 0.035078170060691458 -0.0058987654328857371 0 0.036817028573143229 -0.0035829424821676174 0 0.037994344182229384 -0.004698910099804561 0 0.035078170060691458 -0.0058987654328857371 0 0.034503945049248322 -0.0035680276298628169 0 0.036817028573143229 -0.0035829424821676174 0 0.035078170060691458 -0.0058987654328857371 0 0.033214540661270595 -0.0046380795901512827 0 0.034503945049248322 -0.0035680276298628169 0 0.041191576008814811 -0.0062974004590376021 0 0.041673103604294361 -0.0044749673741051729 0 0.042958044799325794 -0.0056414438821074881 0 0.041191576008814811 -0.0062974004590376021 0 0.039981770348626412 -0.0047536567888823858 0 0.041673103604294361 -0.0044749673741051729 0 0.03882147445359882 -0.0060909602196601549 0 0.041191576008814811 -0.0062974004590376021 0 0.039981770348626412 -0.0047536567888823858 0 0.03882147445359882 -0.0060909602196601549 0 0.037994344182229384 -0.004698910099804561 0 0.039981770348626412 -0.0047536567888823858 0 0.039981770348626412 -0.0047536567888823858 0 0.039153705442977832 -0.0036055501691304101 0 0.040756874254787599 -0.0035286638289151896 0 0.037994344182229384 -0.004698910099804561 0 0.039981770348626412 -0.0047536567888823858 0 0.039153705442977832 -0.0036055501691304101 0 0.039153705442977832 -0.0036055501691304101 0 0.040756874254787599 -0.0035286638289151896 0 0.039990340093512204 -0.0028079175919725097 0 0.038763063503312267 -0.0030831804297195547 0 0.039153705442977832 -0.0036055501691304101 0 0.039990340093512204 -0.0028079175919725097 0 0.040756874254787599 -0.0035286638289151896 0 0.041673103604294361 -0.0044749673741051729 0 0.042135028619183314 -0.0034183731905090193 0 0.039981770348626412 -0.0047536567888823858 0 0.040756874254787599 -0.0035286638289151896 0 0.041673103604294361 -0.0044749673741051729 0 0.041673103604294361 -0.0044749673741051729 0 0.042135028619183314 -0.0034183731905090193 0 0.043191886911499541 -0.0039785101812454884 0 0.042135028619183314 -0.0034183731905090193 0 0.041630504317234786 -0.0026167769242286128 0 0.043367428274574994 -0.0025704581803430988 0 0.041630504317234786 -0.0026167769242286128 0 0.042793038365335052 -0.0016665362842457157 0 0.043367428274574994 -0.0025704581803430988 0 0.040756874254787599 -0.0035286638289151896 0 0.042135028619183314 -0.0034183731905090193 0 0.041630504317234786 -0.0026167769242286128 0 0.040756874254787599 -0.0035286638289151896 0 0.041630504317234786 -0.0026167769242286128 0 0.039990340093512204 -0.0028079175919725097 0 0.041630504317234786 -0.0026167769242286128 0 0.039990340093512204 -0.0028079175919725097 0 0.040911433652877138 -0.0019756168104601325 0 0.038951502153264483 -0.0024153663336523041 0 0.039990340093512204 -0.0028079175919725097 0 0.040911433652877138 -0.0019756168104601325 0 0.038951502153264483 -0.0024153663336523041 0 0.040911433652877138 -0.0019756168104601325 0 0.040362074911653091 -0.0012921052571696523 0 0.040911433652877138 -0.0019756168104601325 0 0.040362074911653091 -0.0012921052571696523 0 0.04191329263116237 -0.00092699165968812558 0 0.041630504317234786 -0.0026167769242286128 0 0.040911433652877138 -0.0019756168104601325 0 0.042793038365335052 -0.0016665362842457157 0 0.040911433652877138 -0.0019756168104601325 0 0.042793038365335052 -0.0016665362842457157 0 0.04191329263116237 -0.00092699165968812558 0 0.042793038365335052 -0.0016665362842457157 0 0.043946980454930243 -0.00047611263405633711 0 0.044300063533688303 -0.0014044142604751769 0 0.042793038365335052 -0.0016665362842457157 0 0.043946980454930243 -0.00047611263405633711 0 0.04191329263116237 -0.00092699165968812558 0 0.043946980454930243 -0.00047611263405633711 0 0.041371158078321688 0.00066795563980258734 0 0.04191329263116237 -0.00092699165968812558 0 0.044176028093618765 -0.00044273444307751155 0 0.042066961544887413 0.00020722695309265428 0 0.043946980454930243 -0.00047611263405633711 0 0.044851388009491115 -0.000614747860277163 0 0.044713492302069183 -0.00040593049804819533 0 0.043946980454930243 -0.00047611263405633711 0 0.045061113128716086 -0.00054439239063034663 0 0.044851388009491115 -0.000614747860277163 0 0.045305879506834755 -0.00069092511036338499 0 0.045185127722389258 -0.00096375448751920962 0 0.044984029481526785 -0.00072649178884668232 0 0.044984929354082201 -0.00058690340241526057 0 0.042066961544887413 0.00020722695309265428 0 0.038942469889693909 -0.00086118889828274271 0 0.042066961544887413 0.00020722695309265428 0 0.040362074911653091 -0.0012921052571696523 0 0.041371158078321688 0.00066795563980258734 0 0.04191329263116237 -0.00092699165968812558 0 0.038338869416868128 0.00065558380260500367 0 0.037038047177536011 4.9472461163578431e-05 0 0.036820374440149468 0.0011388067453028099 0 0.037876205113787087 -0.00040733516630883301 0 0.038338869416868128 0.00065558380260500367 0 0.037038047177536011 4.9472461163578431e-05 0 0.037038047177536011 4.9472461163578431e-05 0 0.036820374440149468 0.0011388067453028099 0 0.035913998929623728 7.3569816079947705e-05 0 0.042278903307975145 -0.00055272064397812292 0 0.038848431743165102 -0.00088313368893829034 0 0.036464414678246855 -0.00070669434924394529 0 0.037038047177536011 4.9472461163578431e-05 0 0.035913998929623728 7.3569816079947705e-05 0 0.042278903307975145 -0.00055272064397812292 0 0.046574863440732847 -0.00083645368655211444 0 0.042066961544887413 0.00020722695309265428 0 0.042278903307975145 -0.00055272064397812292 0 0.045185127722389258 -0.00096375448751920962 0 0.044646253742142088 -0.00079773168557848296 0 0.044984029481526785 -0.00072649178884668232 0 0.046476403120097154 -0.0010558806130044906 0 0.04696114791001299 -0.00049694302354173845 0 0.046319129584323521 -0.00030155859334558968 0 0.042278903307975145 -0.00055272064397812292 0 0.046497736325985563 -0.00033865140193437015 0 0.044646253742142088 -0.00079773168557848296 0 0.044984029481526785 -0.00072649178884668232 0 0.045015451016980512 -0.00041327190032952572 0 0.046476403120097154 -0.0010558806130044906 0 0.046319129584323521 -0.00030155859334558968 0 0.045814896852026971 -0.00083674906037279554 0 0.048392462786414868 -0.00017625970579272419 0 0.048345356617714497 8.5603202106146936e-05 0 0.04696114791001299 -0.00049694302354173845 0 0.046319129584323521 -0.00030155859334558968 0 0.046834790127710864 0.00023305766317292773 0 0.046497736325985563 -0.00033865140193437015 0 0.046360907074672483 -0.00012513987414701773 0 0.04696114791001299 -0.00049694302354173845 0 0.047436839465180715 6.098843663795811e-05 0 0.046834790127710864 0.00023305766317292773 0 0.045015451016980512 -0.00041327190032952572 0 0.045422141026361162 -0.00043371824573298982 0 0.045550136070779797 -1.7548997693655873e-05 0 0.045422141026361162 -0.00043371824573298982 0 0.045893267107106998 -0.00038172011683947299 0 0.046199029960616457 -0.00014452422841995858 0 0.045422141026361162 -0.00043371824573298982 0 0.045550136070779797 -1.7548997693655873e-05 0 0.046199029960616457 -0.00014452422841995858 0 0.045061113128716086 -0.00054439239063034663 0 0.045422141026361162 -0.00043371824573298982 0 0.045893267107106998 -0.00038172011683947299 0 0.045061113128716086 -0.00054439239063034663 0 0.044851388009491115 -0.000614747860277163 0 0.045422141026361162 -0.00043371824573298982 0 0.044984929354082201 -0.00058690340241526057 0 0.045288063751700983 -0.00049083754887033432 0 0.045305879506834755 -0.00069092511036338499 0 0.044984029481526785 -0.00072649178884668232 0 0.045015451016980512 -0.00041327190032952572 0 0.045305879506834755 -0.00069092511036338499 0 0.045015451016980512 -0.00041327190032952572 0 0.045422141026361162 -0.00043371824573298982 0 0.046420514954222038 -0.00096024368574113028 0 0.045250791480921849 0.00016120765691785967 0 0.044992196030006495 -0.00041860643510766964 0 0.045215237257514772 -0.00094082574385743773 0 0.046250615808238395 -0.0008913398515498339 0 0.044992196030006495 -0.00041860643510766964 0 0.046250615808238395 -0.0008913398515498339 0 0.04487427795003926 0.00052240071897554502 0 0.044486502522853577 -0.00097830931532818383 0 0.044992196030006495 -0.00041860643510766964 0 0.045215237257514772 -0.00094082574385743773 0 0.044486502522853577 -0.00097830931532818383 0 0.045215237257514772 -0.00094082574385743773 0 0.045203907261143025 -0.0015921069072889684 0 0.044509962445207191 -0.0016551313690698643 0 0.044486502522853577 -0.00097830931532818383 0 0.045203907261143025 -0.0015921069072889684 0 0.045215237257514772 -0.00094082574385743773 0 0.045203907261143025 -0.0015921069072889684 0 0.046250615808238395 -0.0008913398515498339 0 0.046189923742599517 -0.0017921959272417859 0 0.046250615808238395 -0.0008913398515498339 0 0.046757267409585662 -0.00086057558713531046 0 0.043738540373019739 -0.0018285528533043259 0 0.044044028802079242 -0.0012482282108138554 0 0.046189923742599517 -0.0017921959272417859 0 0.045203907261143025 -0.0015921069072889684 0 0.046250615808238395 -0.0008913398515498339 0 0.046250615808238395 -0.0008913398515498339 0 0.046557858579201583 -0.00064348559497027266 0 0.046505153494462582 -0.0004996216243548996 0 0.046250615808238395 -0.0008913398515498339 0 0.046557858579201583 -0.00064348559497027266 0 0.046757267409585662 -0.00086057558713531046 0 0.046557858579201583 -0.00064348559497027266 0 0.046757267409585662 -0.00086057558713531046 0 0.046907426252320084 -0.00058351707665920923 0 0.044044028802079242 -0.0012482282108138554 0 0.046574863440732847 -0.00083645368655211444 0 0.041415831168822713 -0.0018605189413859284 0 0.042069204363192413 -0.0022041099800040567 0 0.041850912470513875 -0.0013851571477999736 0 0.042069204363192413 -0.0022041099800040567 0 0.041850912470513875 -0.0013851571477999736 0 0.042517647190840974 -0.0016655251337216181 0 0.041850912470513875 -0.0013851571477999736 0 0.042517647190840974 -0.0016655251337216181 0 0.042295468090516451 -0.00091757704710198902 0 0.042954848815246763 -0.0011335108267688831 0 0.042517647190840974 -0.0016655251337216181 0 0.042295468090516451 -0.00091757704710198902 0 0.048392462786414868 -0.00017625970579272419 0 0.046574863440732847 -0.00083645368655211444 0 0.050025577995950754 -0.00020308344625382608 0 0.049916641144946566 -0.00055658996681458978 0 0.049790509674295977 -0.00022145884715681053 0 0.050025577995950754 -0.00020308344625382608 0 0.049790509674295977 -0.00022145884715681053 0 0.049853600781009783 -8.4006389114231242e-05 0 0.050025577995950754 -0.00020308344625382608 0 0.049853600781009783 -8.4006389114231242e-05 0 0.049969556680008902 -8.789881892411105e-05 0 0.049790509674295977 -0.00022145884715681053 0 0.049695399865681153 -4.8757745876188315e-05 0 0.049853600781009783 -8.4006389114231242e-05 0 0.049790509674295977 -0.00022145884715681053 0 0.049480960114964535 -9.0059739377593506e-05 0 0.049695399865681153 -4.8757745876188315e-05 0 0.046574863440732847 -0.00083645368655211444 0 0.048252241161529465 -0.00055867275834965843 0 0.049916641144946566 -0.00055658996681458978 0 0.049790509674295977 -0.00022145884715681053 0 0.049177414950961687 -0.00065861969595812711 0 0.046557858579201583 -0.00064348559497027266 0 0.046907426252320084 -0.00058351707665920923 0 0.046581800517510569 -0.0005067407007636371 0 0.046557858579201583 -0.00064348559497027266 0 0.046581800517510569 -0.0005067407007636371 0 0.046505153494462582 -0.0004996216243548996 0 0.049352287312673292 -2.5959840893637748e-05 0 0.048808021238211687 7.2509350334941063e-05 0 0.049480960114964535 -9.0059739377593506e-05 0 0.049674271657376708 -5.3948653639447824e-05 0 0.049784042645396348 2.8143339014151819e-05 0 0.049177414950961687 -0.00065861969595812711 0 0.049480960114964535 -9.0059739377593506e-05 0 0.047478314546704051 0.00032508625286198399 0 0.049790509674295977 -0.00022145884715681053 0 0.049177414950961687 -0.00065861969595812711 0 0.049480960114964535 -9.0059739377593506e-05 0 0.049480960114964535 -9.0059739377593506e-05 0 0.049674271657376708 -5.3948653639447824e-05 0 0.049695399865681153 -4.8757745876188315e-05 0 0.046423006682857093 -9.8995880462982589e-05 0 0.049177414950961687 -0.00065861969595812711 0 0.047478314546704051 0.00032508625286198399 0 0.049674271657376708 -5.3948653639447824e-05 0 0.049784042645396348 2.8143339014151819e-05 0 0.049773784474296423 -2.9565474140399125e-05 0 0.049825918459809389 -8.1450342340766796e-06 0 0.049784042645396348 2.8143339014151819e-05 0 0.049773784474296423 -2.9565474140399125e-05 0 0.046423006682857093 -9.8995880462982589e-05 0 0.046581800517510569 -0.0005067407007636371 0 0.046505153494462582 -0.0004996216243548996 0 0.046285889030665731 -9.8963938629081572e-05 0 0.048252241161529465 -0.00055867275834965843 0 0.049843995184141843 -1.9044595676662086e-05 0 0.049820139983187628 -2.4568488712604361e-05 0 0.049760610841860856 -3.8077457125065375e-05 0 0.049869442026141027 -1.3868740880943707e-05 0 0.049843995184141843 -1.9044595676662086e-05 0 0.049820139983187628 -2.4568488712604361e-05 0 0.049825918459809389 -8.1450342340766796e-06 0 0.049820139983187628 -2.4568488712604361e-05 0 0.049773784474296423 -2.9565474140399125e-05 0 0.049674271657376708 -5.3948653639447824e-05 0 0.049773784474296423 -2.9565474140399125e-05 0 0.049760610841860856 -3.8077457125065375e-05 0 0.049820139983187628 -2.4568488712604361e-05 0 0.049773784474296423 -2.9565474140399125e-05 0 0.049760610841860856 -3.8077457125065375e-05 0 0.049760610841860856 -3.8077457125065375e-05 0 0.049695399865681153 -4.8757745876188315e-05 0 0.049851096859626035 -1.4480870728134519e-05 0 0.049674271657376708 -5.3948653639447824e-05 0 0.049760610841860856 -3.8077457125065375e-05 0 0.049695399865681153 -4.8757745876188315e-05 0 0.049843995184141843 -1.9044595676662086e-05 0 0.049851096859626035 -1.4480870728134519e-05 0 0.049914514441945002 -7.0707780410098065e-06 0 0.049843995184141843 -1.9044595676662086e-05 0 0.049760610841860856 -3.8077457125065375e-05 0 0.049851096859626035 -1.4480870728134519e-05 0 0.049695399865681153 -4.8757745876188315e-05 0 0.049851096859626035 -1.4480870728134519e-05 0 0.049853600781009783 -8.4006389114231242e-05 0 0.049853600781009783 -8.4006389114231242e-05 0 0.049969556680008902 -8.789881892411105e-05 0 0.049964099989815804 -2.685929036234568e-05 0 0.049851096859626035 -1.4480870728134519e-05 0 0.049853600781009783 -8.4006389114231242e-05 0 0.049964099989815804 -2.685929036234568e-05 0 0.049851096859626035 -1.4480870728134519e-05 0 0.049953100323814219 3.0404921894139821e-06 0 0.049964099989815804 -2.685929036234568e-05 0 0.049953100323814219 3.0404921894139821e-06 0 0.049999911333237189 3.5577723506919384e-09 0 0.049999919820071459 4.0900939182645477e-08 0 0.049953100323814219 3.0404921894139821e-06 0 0.049999911333237189 3.5577723506919384e-09 0 0.049914514441945002 -7.0707780410098065e-06 0 0.049851096859626035 -1.4480870728134519e-05 0 0.049953100323814219 3.0404921894139821e-06 0 0.049914514441945002 -7.0707780410098065e-06 0 0.049999911333237189 3.5577723506919384e-09 0 0.049914514441945002 -7.0707780410098065e-06 0 0.049999882468358257 -1.1854937720068969e-08 0 0.049923265804879401 -6.4128587766317566e-06 0 0.049914514441945002 -7.0707780410098065e-06 0 0.049999882468358257 -1.1854937720068969e-08 0 0.049923265804879401 -6.4128587766317566e-06 0 0.049869442026141027 -1.3868740880943707e-05 0 0.049914514441945002 -7.0707780410098065e-06 0 0.049869442026141027 -1.3868740880943707e-05 0 0.049843995184141843 -1.9044595676662086e-05 0 0.049914514441945002 -7.0707780410098065e-06 0 0.049071012402280866 3.2240483144998499e-05 0 0.048345356617714497 8.5603202106146936e-05 0 0.047344684261076062 0.00075883328411791354 0 0.047337407420622583 0.00036812407323779772 0 0.046834790127710864 0.00023305766317292773 0 0.047344684261076062 0.00075883328411791354 0 0.047734240813465466 0.00041640126610859208 0 0.047337407420622583 0.00036812407323779772 0 0.049986105486093405 7.0701449334492465e-06 0 0.049983254758460167 5.4037457706102079e-06 0 0.049986311489616658 4.4956748974032587e-06 0 0.049983254758460167 5.4037457706102079e-06 0 0.049978475480232668 6.5869764596369646e-06 0 0.049982665149412242 3.3839041279919952e-06 0 0.049986105486093405 7.0701449334492465e-06 0 0.049983254758460167 5.4037457706102079e-06 0 0.049978475480232668 6.5869764596369646e-06 0 0.049978475480232668 6.5869764596369646e-06 0 0.049974124465055357 5.6633887281301801e-06 0 0.049982665149412242 3.3839041279919952e-06 0 0.049978475480232668 6.5869764596369646e-06 0 0.049974124465055357 5.6633887281301801e-06 0 0.049970309787749079 1.1045380565181028e-05 0 0.048327209449514304 0.00018406985210414609 0 0.048131705144628681 0.00023094357628967942 0 0.049071012402280866 3.2240483144998499e-05 0 0.048131705144628681 0.00023094357628967942 0 0.049986105486093405 7.0701449334492465e-06 0 0.049978475480232668 6.5869764596369646e-06 0 0.049970309787749079 1.1045380565181028e-05 0 0.046230311858570301 0.00029367276695073846 0 0.045550136070779797 -1.7548997693655873e-05 0 0.046199029960616457 -0.00014452422841995858 0 0.047734240813465466 0.00041640126610859208 0 0.047436839465180715 6.098843663795811e-05 0 0.047337407420622583 0.00036812407323779772 0 0.046721431691426694 0.00043567988553189902 0 0.046230311858570301 0.00029367276695073846 0 0.046199029960616457 -0.00014452422841995858 0 0.048131705144628681 0.00023094357628967942 0 0.046360907074672483 -0.00012513987414701773 0 0.047436839465180715 6.098843663795811e-05 0 0.047337407420622583 0.00036812407323779772 0 0.046834790127710864 0.00023305766317292773 0 0.050025577995950754 -0.00020308344625382608 0 0.050025587140560747 -7.8686002807295708e-05 0 0.049969556680008902 -8.789881892411105e-05 0 0.050025587140560747 -7.8686002807295708e-05 0 0.049969556680008902 -8.789881892411105e-05 0 0.050008770342799172 -2.9666353427063471e-05 0 0.049969556680008902 -8.789881892411105e-05 0 0.049964099989815804 -2.685929036234568e-05 0 0.050008770342799172 -2.9666353427063471e-05 0 0.050040694340357378 -2.8490751272206178e-05 0 0.050025587140560747 -7.8686002807295708e-05 0 0.050008770342799172 -2.9666353427063471e-05 0 0.049953100323814219 3.0404921894139821e-06 0 0.049964099989815804 -2.685929036234568e-05 0 0.050007569389987717 5.1308723716316616e-07 0 0.050040694340357378 -2.8490751272206178e-05 0 0.050008770342799172 -2.9666353427063471e-05 0 0.050007569389987717 5.1308723716316616e-07 0 0.049953100323814219 3.0404921894139821e-06 0 0.050007569389987717 5.1308723716316616e-07 0 0.049999919820071459 4.0900939182645477e-08 0 0.049964099989815804 -2.685929036234568e-05 0 0.050008770342799172 -2.9666353427063471e-05 0 0.050007569389987717 5.1308723716316616e-07 0 0.05016934867178946 -4.9809270410420283e-05 0 0.049999786212983427 1.3784058017096403e-07 0 0.049999626091450658 9.439328412841644e-07 0 0.050000002753151251 2.7309471069888968e-10 0 0.049999997589216902 -7.7367558974369712e-10 0 0.049999626091450658 9.439328412841644e-07 0 0.049999997589216902 -7.7367558974369712e-10 0 0.049995928415867204 2.7458750092615748e-07 0 0.049999997589216902 -7.7367558974369712e-10 0 0.049995928415867204 2.7458750092615748e-07 0 0.049999988823703059 -5.4580166912593832e-10 0 0.049995928415867204 2.7458750092615748e-07 0 0.049992415522100167 1.1481912264634117e-06 0 0.049999988823703059 -5.4580166912593832e-10 0 0.049071012402280866 3.2240483144998499e-05 0 0.05016934867178946 -4.9809270410420283e-05 0 0.049986105486093405 7.0701449334492465e-06 0 0.049999626091450658 9.439328412841644e-07 0 0.049990044512584438 3.2497021602555293e-06 0 0.049999626091450658 9.439328412841644e-07 0 0.049995928415867204 2.7458750092615748e-07 0 0.049990044512584438 3.2497021602555293e-06 0 0.049995928415867204 2.7458750092615748e-07 0 0.049990044512584438 3.2497021602555293e-06 0 0.049992415522100167 1.1481912264634117e-06 0 0.049990044512584438 3.2497021602555293e-06 0 0.049986219885648407 3.2532764592952597e-06 0 0.049992415522100167 1.1481912264634117e-06 0 0.049986105486093405 7.0701449334492465e-06 0 0.049990044512584438 3.2497021602555293e-06 0 0.049986311489616658 4.4956748974032587e-06 0 0.049990044512584438 3.2497021602555293e-06 0 0.049986311489616658 4.4956748974032587e-06 0 0.049986219885648407 3.2532764592952597e-06 0 0.049982665149412242 3.3839041279919952e-06 0 0.049986219885648407 3.2532764592952597e-06 0 0.049990676882939754 1.1213769919487648e-06 0 0.049983254758460167 5.4037457706102079e-06 0 0.049982665149412242 3.3839041279919952e-06 0 0.049986219885648407 3.2532764592952597e-06 0 0.049983254758460167 5.4037457706102079e-06 0 0.049986311489616658 4.4956748974032587e-06 0 0.049986219885648407 3.2532764592952597e-06 0 0.049986219885648407 3.2532764592952597e-06 0 0.049992415522100167 1.1481912264634117e-06 0 0.049990676882939754 1.1213769919487648e-06 0 0.049992415522100167 1.1481912264634117e-06 0 0.049990676882939754 1.1213769919487648e-06 0 0.049999988823703059 -5.4580166912593832e-10 0 0.049990676882939754 1.1213769919487648e-06 0 0.049999988823703059 -5.4580166912593832e-10 0 0.049999984087423253 1.4607634557719527e-09 0 0.049990676882939754 1.1213769919487648e-06 0 0.049999984087423253 1.4607634557719527e-09 0 0.049989611353326677 5.2625898151948426e-07 0 0.049074815428235184 0.00017978585800320807 0 0.049999509859091254 -5.680450604489305e-08 0 0.049999984087423253 1.4607634557719527e-09 0 0.049989611353326677 5.2625898151948426e-07 0 0.049999998502210957 -5.8549264852874454e-10 0 0.048235440848157132 0.00053290679425619866 0 0.049198259252600338 0.00027311524787759892 0 0.049996805565735984 1.4257537439649306e-06 0 0.048235440848157132 0.00053290679425619866 0 0.047998625483667359 0.00019371284155700832 0 0.049198259252600338 0.00027311524787759892 0 0.049982665149412242 3.3839041279919952e-06 0 0.049990676882939754 1.1213769919487648e-06 0 0.049989611353326677 5.2625898151948426e-07 0 0.049974124465055357 5.6633887281301801e-06 0 0.049982665149412242 3.3839041279919952e-06 0 0.049989611353326677 5.2625898151948426e-07 0 0.048327209449514304 0.00018406985210414609 0 0.049074815428235184 0.00017978585800320807 0 0.046721431691426694 0.00043567988553189902 0 0.048235440848157132 0.00053290679425619866 0 0.047998625483667359 0.00019371284155700832 0 0.046721431691426694 0.00043567988553189902 0 0.047998625483667359 0.00019371284155700832 0 0.046992623266823658 8.2121913372153703e-05 0 0.047998625483667359 0.00019371284155700832 0 0.046992623266823658 8.2121913372153703e-05 0 0.046935047608949149 -0.00014649184865061645 0 0.047998625483667359 0.00019371284155700832 0 0.046935047608949149 -0.00014649184865061645 0 0.047769090719780201 -0.00015088061389856639 0 0.046721431691426694 0.00043567988553189902 0 0.046992623266823658 8.2121913372153703e-05 0 0.046199029960616457 -0.00014452422841995858 0 0.046992623266823658 8.2121913372153703e-05 0 0.046199029960616457 -0.00014452422841995858 0 0.046935047608949149 -0.00014649184865061645 0 0.048726986357019449 9.9918897394395571e-05 0 0.047769090719780201 -0.00015088061389856639 0 0.048440093155671528 -0.00026803913493567274 0 0.047998625483667359 0.00019371284155700832 0 0.048726986357019449 9.9918897394395571e-05 0 0.047769090719780201 -0.00015088061389856639 0 0.047998625483667359 0.00019371284155700832 0 0.048726986357019449 9.9918897394395571e-05 0 0.049198259252600338 0.00027311524787759892 0 0.048726986357019449 9.9918897394395571e-05 0 0.049198259252600338 0.00027311524787759892 0 0.049480630790981042 0.00014323181065493393 0 0.049198259252600338 0.00027311524787759892 0 0.04999959048776894 2.1527064126002468e-09 0 0.049480630790981042 0.00014323181065493393 0 0.049198259252600338 0.00027311524787759892 0 0.049996805565735984 1.4257537439649306e-06 0 0.04999959048776894 2.1527064126002468e-09 0 0.04999959048776894 2.1527064126002468e-09 0 0.049761113479142915 8.8826093366886047e-05 0 0.049480630790981042 0.00014323181065493393 0 0.04999959048776894 2.1527064126002468e-09 0 0.049761113479142915 8.8826093366886047e-05 0 0.049999252810391269 1.5640431001487209e-07 0 0.049761113479142915 8.8826093366886047e-05 0 0.049480630790981042 0.00014323181065493393 0 0.049671612121529152 2.9569827380077836e-05 0 0.049999252810391269 1.5640431001487209e-07 0 0.049885342186816208 4.5132557106101229e-05 0 0.049942341346545863 2.8183508319540236e-05 0 0.049761113479142915 8.8826093366886047e-05 0 0.049999252810391269 1.5640431001487209e-07 0 0.049885342186816208 4.5132557106101229e-05 0 0.049761113479142915 8.8826093366886047e-05 0 0.049885342186816208 4.5132557106101229e-05 0 0.049671612121529152 2.9569827380077836e-05 0 0.049676380077578158 2.0918614769046531e-05 0 0.049712222818490713 -5.4763951196769567e-05 0 0.049885342186816208 4.5132557106101229e-05 0 0.049671612121529152 2.9569827380077836e-05 0 0.049874226206057456 -1.4730222466494324e-05 0 0.049637878037015366 -0.0001483057036673468 0 0.049337978347442815 -0.00016974083873205108 0 0.049489751128752001 -0.00030550329951113279 0 0.049671612121529152 2.9569827380077836e-05 0 0.049637878037015366 -0.0001483057036673468 0 0.049337978347442815 -0.00016974083873205108 0 0.049637878037015366 -0.0001483057036673468 0 0.04959707658480187 -0.00042550714558148832 0 0.04974761040506756 -0.00039973504813781027 0 0.049637878037015366 -0.0001483057036673468 0 0.04959707658480187 -0.00042550714558148832 0 0.049489751128752001 -0.00030550329951113279 0 0.048726986357019449 9.9918897394395571e-05 0 0.049480630790981042 0.00014323181065493393 0 0.049154698059654008 -5.1362323018356999e-06 0 0.049480630790981042 0.00014323181065493393 0 0.049671612121529152 2.9569827380077836e-05 0 0.049154698059654008 -5.1362323018356999e-06 0 0.049671612121529152 2.9569827380077836e-05 0 0.049337978347442815 -0.00016974083873205108 0 0.049154698059654008 -5.1362323018356999e-06 0 0.049337978347442815 -0.00016974083873205108 0 0.049154698059654008 -5.1362323018356999e-06 0 0.048969526553499017 -0.00024302215280948985 0 0.049154698059654008 -5.1362323018356999e-06 0 0.048969526553499017 -0.00024302215280948985 0 0.048440093155671528 -0.00026803913493567274 0 0.048726986357019449 9.9918897394395571e-05 0 0.049154698059654008 -5.1362323018356999e-06 0 0.048440093155671528 -0.00026803913493567274 0 0.048969526553499017 -0.00024302215280948985 0 0.049006796818764513 -0.00055807119048798979 0 0.048440093155671528 -0.00026803913493567274 0 0.049337978347442815 -0.00016974083873205108 0 0.048969526553499017 -0.00024302215280948985 0 0.049006796818764513 -0.00055807119048798979 0 0.049006796818764513 -0.00055807119048798979 0 0.0484536510978721 -0.00086380878260149184 0 0.048925444101531254 -0.00095299763820933707 0 0.049006796818764513 -0.00055807119048798979 0 0.049238161547116112 -0.00084734690409228347 0 0.048925444101531254 -0.00095299763820933707 0 0.049006796818764513 -0.00055807119048798979 0 0.0484536510978721 -0.00086380878260149184 0 0.048440093155671528 -0.00026803913493567274 0 0.04959707658480187 -0.00042550714558148832 0 0.049574153672633001 -0.00062496692084406855 0 0.049661638686807522 -0.0005841951324148957 0 0.04959707658480187 -0.00042550714558148832 0 0.049405424410348862 -0.00051343880892771459 0 0.049489751128752001 -0.00030550329951113279 0 0.04959707658480187 -0.00042550714558148832 0 0.049405424410348862 -0.00051343880892771459 0 0.049574153672633001 -0.00062496692084406855 0 0.049337978347442815 -0.00016974083873205108 0 0.049006796818764513 -0.00055807119048798979 0 0.049405424410348862 -0.00051343880892771459 0 0.049337978347442815 -0.00016974083873205108 0 0.049405424410348862 -0.00051343880892771459 0 0.049489751128752001 -0.00030550329951113279 0 0.049405424410348862 -0.00051343880892771459 0 0.049238161547116112 -0.00084734690409228347 0 0.049463754940344412 -0.00078261768784836257 0 0.049006796818764513 -0.00055807119048798979 0 0.049405424410348862 -0.00051343880892771459 0 0.049238161547116112 -0.00084734690409228347 0 0.049405424410348862 -0.00051343880892771459 0 0.049574153672633001 -0.00062496692084406855 0 0.049463754940344412 -0.00078261768784836257 0 0.049574153672633001 -0.00062496692084406855 0 0.049463754940344412 -0.00078261768784836257 0 0.049672157840062556 -0.00084866450218837655 0 0.049574153672633001 -0.00062496692084406855 0 0.049672157840062556 -0.00084866450218837655 0 0.049661638686807522 -0.0005841951324148957 0 0.045887142582889631 -0.0013914784221323586 0 0.043029392603720601 -0.00080391004103512334 0 0.049519888925721095 -0.00058529222324941717 0 0.049547534979314321 -0.00050960624020768058 0 0.049382456610659743 -0.00046441985074371282 0 0.049672157840062556 -0.00084866450218837655 0 0.04953903683549115 -0.0012594614722914561 0 0.049414360667602977 -0.0010398041777429864 0 0.049742631418689259 -0.00037906927547072013 0 0.045887142582889631 -0.0013914784221323586 0 0.049463754940344412 -0.00078261768784836257 0 0.049672157840062556 -0.00084866450218837655 0 0.049414360667602977 -0.0010398041777429864 0 0.04953903683549115 -0.0012594614722914561 0 0.049414360667602977 -0.0010398041777429864 0 0.049390966117106902 -0.0013734835370037394 0 0.049414360667602977 -0.0010398041777429864 0 0.0491339298918144 -0.0011868634950309533 0 0.049390966117106902 -0.0013734835370037394 0 0.049238161547116112 -0.00084734690409228347 0 0.049463754940344412 -0.00078261768784836257 0 0.049414360667602977 -0.0010398041777429864 0 0.049238161547116112 -0.00084734690409228347 0 0.049414360667602977 -0.0010398041777429864 0 0.0491339298918144 -0.0011868634950309533 0 0.049238161547116112 -0.00084734690409228347 0 0.0491339298918144 -0.0011868634950309533 0 0.048925444101531254 -0.00095299763820933707 0 0.049557738984999711 -0.0012701427675711559 0 0.049390966117106902 -0.0013734835370037394 0 0.049201655461492112 -0.0019542689851133328 0 0.045887142582889631 -0.0013914784221323586 0 0.043240462785153741 -0.0012146547496965816 0 0.049051488674099475 -0.0015704427578573693 0 0.049390966117106902 -0.0013734835370037394 0 0.049201655461492112 -0.0019542689851133328 0 0.0491339298918144 -0.0011868634950309533 0 0.049051488674099475 -0.0015704427578573693 0 0.049390966117106902 -0.0013734835370037394 0 0.037476355935407268 -0.00083713906208983087 0 0.037033855946900077 -0.00052127364375814406 0 0.037828332740496219 -0.00033465210997312323 0 0.045887142582889631 -0.0013914784221323586 0 0.048479965604183647 -0.00065453986700546513 0 0.0484536510978721 -0.00086380878260149184 0 0.048730697909997789 -0.0013652134021536839 0 0.04797309720121503 -0.0016874100516301022 0 0.0484536510978721 -0.00086380878260149184 0 0.048925444101531254 -0.00095299763820933707 0 0.048730697909997789 -0.0013652134021536839 0 0.0491339298918144 -0.0011868634950309533 0 0.048925444101531254 -0.00095299763820933707 0 0.048730697909997789 -0.0013652134021536839 0 0.049051488674099475 -0.0015704427578573693 0 0.048730697909997789 -0.0013652134021536839 0 0.048676734565309403 -0.001947591306439694 0 0.0491339298918144 -0.0011868634950309533 0 0.049051488674099475 -0.0015704427578573693 0 0.048730697909997789 -0.0013652134021536839 0 0.048730697909997789 -0.0013652134021536839 0 0.04797309720121503 -0.0016874100516301022 0 0.048676734565309403 -0.001947591306439694 0 0.047605595958152905 -0.0014702906736936134 0 0.04750936049484826 -0.00074289499107791702 0 0.0484536510978721 -0.00086380878260149184 0 0.04797309720121503 -0.0016874100516301022 0 0.047511968239475115 -0.00069841437740015308 0 0.047316972352823963 -0.001415470342437831 0 0.046319675439878152 -0.00093900151029429431 0 0.047511968239475115 -0.00069841437740015308 0 0.046319675439878152 -0.00093900151029429431 0 0.046646061608297977 -0.00044690298102965351 0 0.047511968239475115 -0.00069841437740015308 0 0.047316972352823963 -0.001415470342437831 0 0.046319675439878152 -0.00093900151029429431 0 0.046189271823748386 -0.001778501993602157 0 0.045442714683013911 -0.0013305000323304982 0 0.046319675439878152 -0.00093900151029429431 0 0.046189271823748386 -0.001778501993602157 0 0.045442714683013911 -0.0013305000323304982 0 0.045096304854001006 -0.00077350625246712737 0 0.046319675439878152 -0.00093900151029429431 0 0.045442714683013911 -0.0013305000323304982 0 0.045096304854001006 -0.00077350625246712737 0 0.044300063533688303 -0.0014044142604751769 0 0.043946980454930243 -0.00047611263405633711 0 0.045096304854001006 -0.00077350625246712737 0 0.044300063533688303 -0.0014044142604751769 0 0.043946980454930243 -0.00047611263405633711 0 0.045061113128716086 -0.00054439239063034663 0 0.045096304854001006 -0.00077350625246712737 0 0.045061113128716086 -0.00054439239063034663 0 0.045096304854001006 -0.00077350625246712737 0 0.045726298417155142 -0.00056854028486137947 0 0.045726298417155142 -0.00056854028486137947 0 0.046319675439878152 -0.00093900151029429431 0 0.046646061608297977 -0.00044690298102965351 0 0.045096304854001006 -0.00077350625246712737 0 0.045726298417155142 -0.00056854028486137947 0 0.046319675439878152 -0.00093900151029429431 0 0.045726298417155142 -0.00056854028486137947 0 0.046646061608297977 -0.00044690298102965351 0 0.045893267107106998 -0.00038172011683947299 0 0.045061113128716086 -0.00054439239063034663 0 0.045726298417155142 -0.00056854028486137947 0 0.045893267107106998 -0.00038172011683947299 0 0.045893267107106998 -0.00038172011683947299 0 0.046199029960616457 -0.00014452422841995858 0 0.046935047608949149 -0.00014649184865061645 0 0.046646061608297977 -0.00044690298102965351 0 0.045893267107106998 -0.00038172011683947299 0 0.046935047608949149 -0.00014649184865061645 0 0.046646061608297977 -0.00044690298102965351 0 0.046935047608949149 -0.00014649184865061645 0 0.047769090719780201 -0.00015088061389856639 0 0.047769090719780201 -0.00015088061389856639 0 0.048440093155671528 -0.00026803913493567274 0 0.047511968239475115 -0.00069841437740015308 0 0.0484536510978721 -0.00086380878260149184 0 0.048440093155671528 -0.00026803913493567274 0 0.047511968239475115 -0.00069841437740015308 0 0.046646061608297977 -0.00044690298102965351 0 0.047769090719780201 -0.00015088061389856639 0 0.047511968239475115 -0.00069841437740015308 0 0.049994401298276141 -1.4572735644618018e-06 0 0.049641271684194091 -0.00012650173201805915 0 0.050000931417797559 2.2405572182402282e-07 0 0.048452827355561369 0.0011320959464248242 0 0.046616148369934218 2.3750002127843407e-06 0 0.049641271684194091 -0.00012650173201805915 0 0.044084810123323742 4.7740190211148634e-06 0 0.041191068150990738 0.0023524806638688931 0 0.040824201183681581 0.00086056768208302029 0 0.044086130234807126 1.876079025333335e-06 0 0.04596930272032268 0.00072279716156905009 0 0.04596930272032268 0.00072279716156905009 0 0.044738113849647133 0.00073163702415462084 0 0.041191068150990738 0.0023524806638688931 0 0.040010420507487821 0.0013431934033046021 0 0.040824201183681581 0.00086056768208302029 0 0.04596930272032268 0.00072279716156905009 0 0.046607743684797351 4.4210561458404939e-07 0 0.044096017143102545 1.4774625370420995e-08 0 0.045438487729295138 4.0569234830416933e-06 0 0.046600263642116765 -8.2700390324834685e-09 0 0.046616148369934218 2.3750002127843407e-06 0 0.049994401298276141 -1.4572735644618018e-06 0 0.049641271684194091 -0.00012650173201805915 0 0.04981920985934625 9.6539872106379197e-05 0 0.049641271684194091 -0.00012650173201805915 0 0.049908140939462477 2.6271614102181212e-05 0 0.049641271684194091 -0.00012650173201805915 0 0.049908140939462477 2.6271614102181212e-05 0 0.050000931417797559 2.2405572182402282e-07 0 0.04981920985934625 9.6539872106379197e-05 0 0.049827153593397067 8.3299367770158487e-05 0 0.049908140939462477 2.6271614102181212e-05 0 0.04981920985934625 9.6539872106379197e-05 0 0.049745932550821916 0.00012474549295011142 0 0.049827153593397067 8.3299367770158487e-05 0 0.049652735145258559 0.00010954749701193929 0 0.04981920985934625 9.6539872106379197e-05 0 0.049745932550821916 0.00012474549295011142 0 0.04596930272032268 0.00072279716156905009 0 0.050994979604187245 -0.00012449304707147561 0 0.048452827355561369 0.0011320959464248242 0 0.04981920985934625 9.6539872106379197e-05 0 0.049641271684194091 -0.00012650173201805915 0 0.049745932550821916 0.00012474549295011142 0 0.049827153593397067 8.3299367770158487e-05 0 0.049778629985135728 0.00010128967890073119 0 0.044738113849647133 0.00073163702415462084 0 0.045188365309421746 0.00068940246354194353 0 0.049827527498836836 7.2986607431699716e-05 0 0.04988570123209194 4.5751032218027328e-05 0 0.049827153593397067 8.3299367770158487e-05 0 0.049827527498836836 7.2986607431699716e-05 0 0.049827153593397067 8.3299367770158487e-05 0 0.049778629985135728 0.00010128967890073119 0 0.049827527498836836 7.2986607431699716e-05 0 0.04988570123209194 4.5751032218027328e-05 0 0.049868250451835842 4.9056846025564505e-05 0 0.049827527498836836 7.2986607431699716e-05 0 0.049868250451835842 4.9056846025564505e-05 0 0.049836898753832119 6.7850873599528948e-05 0 0.04988570123209194 4.5751032218027328e-05 0 0.049827153593397067 8.3299367770158487e-05 0 0.049908140939462477 2.6271614102181212e-05 0 0.049908140939462477 2.6271614102181212e-05 0 0.050000931417797559 2.2405572182402282e-07 0 0.049942341346545863 2.8183508319540236e-05 0 0.04988570123209194 4.5751032218027328e-05 0 0.049908140939462477 2.6271614102181212e-05 0 0.049942341346545863 2.8183508319540236e-05 0 0.049999252810391269 1.5640431001487209e-07 0 0.050000931417797559 2.2405572182402282e-07 0 0.049942341346545863 2.8183508319540236e-05 0 0.049885342186816208 4.5132557106101229e-05 0 0.049942341346545863 2.8183508319540236e-05 0 0.04990551384193638 2.2663942573794166e-05 0 0.049885342186816208 4.5132557106101229e-05 0 0.049874226206057456 -1.4730222466494324e-05 0 0.04990551384193638 2.2663942573794166e-05 0 0.04988570123209194 4.5751032218027328e-05 0 0.049942341346545863 2.8183508319540236e-05 0 0.04990551384193638 2.2663942573794166e-05 0 0.04988570123209194 4.5751032218027328e-05 0 0.04990551384193638 2.2663942573794166e-05 0 0.049868250451835842 4.9056846025564505e-05 0 0.04990551384193638 2.2663942573794166e-05 0 0.049868250451835842 4.9056846025564505e-05 0 0.049883587951643327 4.0589225465740757e-05 0 0.049868250451835842 4.9056846025564505e-05 0 0.049883587951643327 4.0589225465740757e-05 0 0.049866603309542762 5.4545507949661764e-05 0 0.049712222818490713 -5.4763951196769567e-05 0 0.050022573325029282 -0.00019907361932665823 0 0.04990551384193638 2.2663942573794166e-05 0 0.049883587951643327 4.0589225465740757e-05 0 0.049894056352905634 3.7456071838529722e-05 0 0.049874226206057456 -1.4730222466494324e-05 0 0.04990551384193638 2.2663942573794166e-05 0 0.049894056352905634 3.7456071838529722e-05 0 0.04959707658480187 -0.00042550714558148832 0 0.04974761040506756 -0.00039973504813781027 0 0.049661638686807522 -0.0005841951324148957 0 0.04974761040506756 -0.00039973504813781027 0 0.049894969183662367 -0.00060522949923060769 0 0.049661638686807522 -0.0005841951324148957 0 0.049883587951643327 4.0589225465740757e-05 0 0.049894056352905634 3.7456071838529722e-05 0 0.049866603309542762 5.4545507949661764e-05 0 0.050022573325029282 -0.00019907361932665823 0 0.048278658867701191 -0.00078720517349871618 0 0.049894056352905634 3.7456071838529722e-05 0 0.049866603309542762 5.4545507949661764e-05 0 0.049845376353198211 8.9542266804918251e-05 0 0.049868250451835842 4.9056846025564505e-05 0 0.049866603309542762 5.4545507949661764e-05 0 0.049836898753832119 6.7850873599528948e-05 0 0.049866603309542762 5.4545507949661764e-05 0 0.049845376353198211 8.9542266804918251e-05 0 0.049836898753832119 6.7850873599528948e-05 0 0.040719326317197525 0.00011609913492367233 0 0.043029392603720601 -0.00080391004103512334 0 0.048806763199150331 -0.0008811271628371756 0 0.048660779763841158 -0.00075657779911076403 0 0.049382456610659743 -0.00046441985074371282 0 0.048278658867701191 -0.00078720517349871618 0 0.040719326317197525 0.00011609913492367233 0 0.049894969183662367 -0.00060522949923060769 0 0.049661638686807522 -0.0005841951324148957 0 0.049587900693752129 -0.00061797638878010003 0 0.048278658867701191 -0.00078720517349871618 0 0.050009053703538392 -0.000573510578533501 0 0.048806763199150331 -0.0008811271628371756 0 0.049587900693752129 -0.00061797638878010003 0 0.049382456610659743 -0.00046441985074371282 0 0.049519888925721095 -0.00058529222324941717 0 0.049661638686807522 -0.0005841951324148957 0 0.049587900693752129 -0.00061797638878010003 0 0.049742631418689259 -0.00037906927547072013 0 0.049583373205464333 -0.00072476399142112392 0 0.049519888925721095 -0.00058529222324941717 0 0.049587900693752129 -0.00061797638878010003 0 0.049382456610659743 -0.00046441985074371282 0 0.036909394302432681 -0.0010110146150097462 0 0.037033855946900077 -0.00052127364375814406 0 0.036432688692118839 -0.00077568765350594516 0 0.037476355935407268 -0.00083713906208983087 0 0.036909394302432681 -0.0010110146150097462 0 0.037033855946900077 -0.00052127364375814406 0 0.037033855946900077 -0.00052127364375814406 0 0.036432688692118839 -0.00077568765350594516 0 0.036301755996609453 -0.00049288302932764139 0 0.036448714232222672 -0.0010922856657905296 0 0.036909394302432681 -0.0010110146150097462 0 0.036432688692118839 -0.00077568765350594516 0 0.036448714232222672 -0.0010922856657905296 0 0.036432688692118839 -0.00077568765350594516 0 0.036256171222518542 -0.00071217269131816109 0 0.036432688692118839 -0.00077568765350594516 0 0.03619384641168271 -0.0006506395448499134 0 0.036256171222518542 -0.00071217269131816109 0 0.036432688692118839 -0.00077568765350594516 0 0.03619384641168271 -0.0006506395448499134 0 0.036301755996609453 -0.00049288302932764139 0 0.03619384641168271 -0.0006506395448499134 0 0.036256171222518542 -0.00071217269131816109 0 0.036887251984550791 -0.00084520543107875117 0 0.036256171222518542 -0.00071217269131816109 0 0.03698593985346818 -5.7830545287545938e-05 0 0.036887251984550791 -0.00084520543107875117 0 0.036139926426782869 0.00051732212688956739 0 0.037839784054244631 0.0011199905822714279 0 0.03698593985346818 -5.7830545287545938e-05 0 0.036256171222518542 -0.00071217269131816109 0 0.036139926426782869 0.00051732212688956739 0 0.03698593985346818 -5.7830545287545938e-05 0 0.048278658867701191 -0.00078720517349871618 0 0.041542830864343738 0.00031481070205392466 0 0.035442298251189414 8.7846520445528361e-05 0 0.036256171222518542 -0.00071217269131816109 0 0.036139926426782869 0.00051732212688956739 0 0.044141951819770507 0.00016872221661572411 0 0.04367920736914762 0.0006092932314246221 0 0.04185862106310554 -0.00035383786608988809 0 0.040719326317197525 0.00011609913492367233 0 0.034907274162844552 -0.00034478774919672505 0 0.040719326317197525 0.00011609913492367233 0 0.041542830864343738 0.00031481070205392466 0 0.049827527498836836 7.2986607431699716e-05 0 0.049786038721414544 8.6296230816431318e-05 0 0.049836898753832119 6.7850873599528948e-05 0 0.049845376353198211 8.9542266804918251e-05 0 0.049786038721414544 8.6296230816431318e-05 0 0.049836898753832119 6.7850873599528948e-05 0 0.039303661273988495 0.00075639660004562289 0 0.039530393226843721 0.00089710561398904931 0 0.039663467407167925 0.00082695580658128612 0 0.049827527498836836 7.2986607431699716e-05 0 0.049786038721414544 8.6296230816431318e-05 0 0.049778629985135728 0.00010128967890073119 0 0.041542830864343738 0.00031481070205392466 0 0.045188365309421746 0.00068940246354194353 0 0.041542830864343738 0.00031481070205392466 0 0.03792020430730067 0.00087125350137784029 0 0.040010420507487821 0.0013431934033046021 0 0.039530393226843721 0.00089710561398904931 0 0.039663467407167925 0.00082695580658128612 0 0.037839784054244631 0.0011199905822714279 0 0.039396763548862852 0.00034802028232754702 0 0.037972831891411228 8.0801881057999508e-05 0 0.037839784054244631 0.0011199905822714279 0 0.039396763548862852 0.00034802028232754702 0 0.040824201183681581 0.00086056768208302029 0 0.03792020430730067 0.00087125350137784029 0 0.041027459633842835 0.00098096983751028892 0 0.040010420507487821 0.0013431934033046021 0 0.039663467407167925 0.00082695580658128612 0 0.040824201183681581 0.00086056768208302029 0 0.039396763548862852 0.00034802028232754702 0 0.039048977508494433 -0.00019896601485355642 0 0.037972831891411228 8.0801881057999508e-05 0 0.03698593985346818 -5.7830545287545938e-05 0 0.037972831891411228 8.0801881057999508e-05 0 0.036887251984550791 -0.00084520543107875117 0 0.039048977508494433 -0.00019896601485355642 0 0.037972831891411228 8.0801881057999508e-05 0 0.036887251984550791 -0.00084520543107875117 0 0.037839784054244631 0.0011199905822714279 0 0.03698593985346818 -5.7830545287545938e-05 0 0.037972831891411228 8.0801881057999508e-05 0 0.03619384641168271 -0.0006506395448499134 0 0.036887251984550791 -0.00084520543107875117 0 0.036114876506404332 -0.00050242128972628189 0 0.036887251984550791 -0.00084520543107875117 0 0.035916886407531504 -0.00010521980925776877 0 0.036114876506404332 -0.00050242128972628189 0 0.035916886407531504 -0.00010521980925776877 0 0.035671650828197954 -0.00049810399860378664 0 0.036114876506404332 -0.00050242128972628189 0 0.03695901356063349 -0.00078299552382069643 0 0.037810509978830877 -0.00053136887415633168 0 0.039048977508494433 -0.00019896601485355642 0 0.036887251984550791 -0.00084520543107875117 0 0.039736036368256303 -0.00097867236109950239 0 0.035916886407531504 -0.00010521980925776877 0 0.036459045270461135 -0.00036978428207811332 0 0.035671650828197954 -0.00049810399860378664 0 0.035916886407531504 -0.00010521980925776877 0 0.038597175294147086 1.6304815952293551e-06 0 0.036459045270461135 -0.00036978428207811332 0 0.037810509978830877 -0.00053136887415633168 0 0.03860205147395504 -2.1574762119929056e-07 0 0.039736036368256303 -0.00097867236109950239 0 0.03860716498125507 4.4251704444135043e-07 0 0.041344962848463687 -2.347802119941342e-06 0 0.039048977508494433 -0.00019896601485355642 0 0.039736036368256303 -0.00097867236109950239 0 0.04066037980972477 -1.2269596928777055e-05 0 0.039736036368256303 -0.00097867236109950239 0 0.041344962848463687 -2.347802119941342e-06 0 0.04066037980972477 -1.2269596928777055e-05 0 0.039396763548862852 0.00034802028232754702 0 0.039048977508494433 -0.00019896601485355642 0 0.04066037980972477 -1.2269596928777055e-05 0 0.039396763548862852 0.00034802028232754702 0 0.04066037980972477 -1.2269596928777055e-05 0 0.040824201183681581 0.00086056768208302029 0 0.044084810123323742 4.7740190211148634e-06 0 0.041344962848463687 -2.347802119941342e-06 0 0.04066037980972477 -1.2269596928777055e-05 0 0.044084810123323742 4.7740190211148634e-06 0 0.04066037980972477 -1.2269596928777055e-05 0 0.040824201183681581 0.00086056768208302029 0 0.031267969089675052 -1.6719306754628612e-06 0 0.033572597975687554 -0.00027083162722486826 0 0.033712844107525584 -1.752739501763447e-07 0 0.031267969089675052 -1.6719306754628612e-06 0 0.033572597975687554 -0.00027083162722486826 0 0.03216321135329181 3.8703492249390409e-06 0 0.033572597975687554 -0.00027083162722486826 0 0.03390920497366913 -0.00019840966844165921 0 0.03216321135329181 3.8703492249390409e-06 0 0.033572597975687554 -0.00027083162722486826 0 0.034916796737351707 -0.00034026401635247635 0 0.03520239425326728 -0.00041348738131929952 0 0.033572597975687554 -0.00027083162722486826 0 0.033712844107525584 -1.752739501763447e-07 0 0.034916796737351707 -0.00034026401635247635 0 0.033712844107525584 -1.752739501763447e-07 0 0.034916796737351707 -0.00034026401635247635 0 0.036158065742955874 -1.5925214446861364e-06 0 0.034916796737351707 -0.00034026401635247635 0 0.036459045270461135 -0.00036978428207811332 0 0.036158065742955874 -1.5925214446861364e-06 0 0.038597175294147086 1.6304815952293551e-06 0 0.036459045270461135 -0.00036978428207811332 0 0.036158065742955874 -1.5925214446861364e-06 0 0.034916796737351707 -0.00034026401635247635 0 0.036459045270461135 -0.00036978428207811332 0 0.035671650828197954 -0.00049810399860378664 0 0.034916796737351707 -0.00034026401635247635 0 0.035671650828197954 -0.00049810399860378664 0 0.03520239425326728 -0.00041348738131929952 0 0.035671650828197954 -0.00049810399860378664 0 0.035702090149531199 -0.00051021759109380941 0 0.03520239425326728 -0.00041348738131929952 0 0.035671650828197954 -0.00049810399860378664 0 0.036114876506404332 -0.00050242128972628189 0 0.035702090149531199 -0.00051021759109380941 0 0.036114876506404332 -0.00050242128972628189 0 0.035702090149531199 -0.00051021759109380941 0 0.035925863838014098 -0.00052669542293342785 0 0.035702090149531199 -0.00051021759109380941 0 0.03520239425326728 -0.00041348738131929952 0 0.035729488440901222 -0.00041885827450230493 0 0.035702090149531199 -0.00051021759109380941 0 0.035729488440901222 -0.00041885827450230493 0 0.035925863838014098 -0.00052669542293342785 0 0.03520239425326728 -0.00041348738131929952 0 0.03554816014705995 -0.0002376746988788255 0 0.035729488440901222 -0.00041885827450230493 0 0.035106318961816693 -0.00048932734824471975 0 0.034601711877611137 -0.00027636339095541692 0 0.033572597975687554 -0.00027083162722486826 0 0.03520239425326728 -0.00041348738131929952 0 0.03390920497366913 -0.00019840966844165921 0 0.03520239425326728 -0.00041348738131929952 0 0.035295245676030144 -0.00025522867081482597 0 0.03554816014705995 -0.0002376746988788255 0 0.03554816014705995 -0.0002376746988788255 0 0.035791450797423852 -0.00033548268113055686 0 0.035729488440901222 -0.00041885827450230493 0 0.03554816014705995 -0.0002376746988788255 0 0.035791450797423852 -0.00033548268113055686 0 0.035664586383278532 -0.000248335499583743 0 0.035791450797423852 -0.00033548268113055686 0 0.036022174308169688 -0.00044334655444814317 0 0.035883230577846946 -0.00037419435752221041 0 0.035791450797423852 -0.00033548268113055686 0 0.035729488440901222 -0.00041885827450230493 0 0.036022174308169688 -0.00044334655444814317 0 0.035729488440901222 -0.00041885827450230493 0 0.035925863838014098 -0.00052669542293342785 0 0.036022174308169688 -0.00044334655444814317 0 0.03619384641168271 -0.0006506395448499134 0 0.036114876506404332 -0.00050242128972628189 0 0.035925863838014098 -0.00052669542293342785 0 0.03619384641168271 -0.0006506395448499134 0 0.035925863838014098 -0.00052669542293342785 0 0.036022174308169688 -0.00044334655444814317 0 0.03619384641168271 -0.0006506395448499134 0 0.036022174308169688 -0.00044334655444814317 0 0.036301755996609453 -0.00049288302932764139 0 0.036022174308169688 -0.00044334655444814317 0 0.035962813813274416 -0.00039578010760666721 0 0.035883230577846946 -0.00037419435752221041 0 0.036022174308169688 -0.00044334655444814317 0 0.036301755996609453 -0.00049288302932764139 0 0.035962813813274416 -0.00039578010760666721 0 0.036280456124412122 -0.0004812068733890768 0 0.036423935358806094 -0.00019034694007390859 0 0.037033855946900077 -0.00052127364375814406 0 0.036301755996609453 -0.00049288302932764139 0 0.036888230840573112 4.3127623319812549e-05 0 0.037033855946900077 -0.00052127364375814406 0 0.036888230840573112 4.3127623319812549e-05 0 0.037464143850603815 -2.7482443295828517e-05 0 0.036423935358806094 -0.00019034694007390859 0 0.036597629798087207 -2.1686958240603337e-05 0 0.035962813813274416 -0.00039578010760666721 0 0.035883230577846946 -0.00037419435752221041 0 0.035809433051105934 -0.00034249721483158501 0 0.035883230577846946 -0.00037419435752221041 0 0.03577344830809915 -0.00032153805482178411 0 0.035809433051105934 -0.00034249721483158501 0 0.035791450797423852 -0.00033548268113055686 0 0.035883230577846946 -0.00037419435752221041 0 0.03577344830809915 -0.00032153805482178411 0 0.035791450797423852 -0.00033548268113055686 0 0.03577344830809915 -0.00032153805482178411 0 0.035664586383278532 -0.000248335499583743 0 0.03577344830809915 -0.00032153805482178411 0 0.035809433051105934 -0.00034249721483158501 0 0.035750336174991494 -0.00032296668267673616 0 0.03577344830809915 -0.00032153805482178411 0 0.035631592035673836 -0.00027326009026536554 0 0.035750336174991494 -0.00032296668267673616 0 0.03577344830809915 -0.00032153805482178411 0 0.035631592035673836 -0.00027326009026536554 0 0.035664586383278532 -0.000248335499583743 0 0.035631592035673836 -0.00027326009026536554 0 0.035595011850464396 -0.00019509887220149714 0 0.035664586383278532 -0.000248335499583743 0 0.035631592035673836 -0.00027326009026536554 0 0.035621832229085916 -0.00014107111674286249 0 0.035595011850464396 -0.00019509887220149714 0 0.035634629070260326 -0.00030495183856855653 0 0.035361884159897335 -6.9453099794036398e-05 0 0.035631592035673836 -0.00027326009026536554 0 0.035465474352252273 -0.00018898743621988999 0 0.035330856290462578 -0.00022469379878028837 0 0.035631592035673836 -0.00027326009026536554 0 0.035465474352252273 -0.00018898743621988999 0 0.03561703591553806 -0.0002472830145692186 0 0.035465474352252273 -0.00018898743621988999 0 0.035282896523571028 -0.00012489849440275341 0 0.035248197804359109 -3.0429692977972087e-05 0 0.035465474352252273 -0.00018898743621988999 0 0.035533701880426267 -7.5332883426516243e-05 0 0.035248197804359109 -3.0429692977972087e-05 0 0.035282896523571028 -0.00012489849440275341 0 0.035081790943383172 -5.5280176638847808e-05 0 0.035248197804359109 -3.0429692977972087e-05 0 0.035465474352252273 -0.00018898743621988999 0 0.035282896523571028 -0.00012489849440275341 0 0.035330856290462578 -0.00022469379878028837 0 0.035282896523571028 -0.00012489849440275341 0 0.035330856290462578 -0.00022469379878028837 0 0.035081790943383172 -5.5280176638847808e-05 0 0.035361884159897335 -6.9453099794036398e-05 0 0.03610793269050664 -0.00034230330897494141 0 0.035621832229085916 -0.00014107111674286249 0 0.035513892089318211 -0.00012548154146278112 0 0.035488097353812087 -7.0745496813341295e-05 0 0.035513892089318211 -0.00012548154146278112 0 0.035495390496983477 -0.00016387793051218086 0 0.035595011850464396 -0.00019509887220149714 0 0.035621832229085916 -0.00014107111674286249 0 0.035513892089318211 -0.00012548154146278112 0 0.035595011850464396 -0.00019509887220149714 0 0.035519334648684647 -2.229025841588629e-05 0 0.035488097353812087 -7.0745496813341295e-05 0 0.03540943228612238 -1.7905956780574841e-05 0 0.035621832229085916 -0.00014107111674286249 0 0.035519334648684647 -2.229025841588629e-05 0 0.035488097353812087 -7.0745496813341295e-05 0 0.03541451880837522 -7.7575132420284375e-05 0 0.035309746696297661 -1.5370977636825241e-05 0 0.03540943228612238 -1.7905956780574841e-05 0 0.035488097353812087 -7.0745496813341295e-05 0 0.03541451880837522 -7.7575132420284375e-05 0 0.03540943228612238 -1.7905956780574841e-05 0 0.03541451880837522 -7.7575132420284375e-05 0 0.035495390496983477 -0.00016387793051218086 0 0.035352911876399988 -0.00010532345344762714 0 0.035513892089318211 -0.00012548154146278112 0 0.03541451880837522 -7.7575132420284375e-05 0 0.035495390496983477 -0.00016387793051218086 0 0.035513892089318211 -0.00012548154146278112 0 0.035488097353812087 -7.0745496813341295e-05 0 0.03541451880837522 -7.7575132420284375e-05 0 0.035495390496983477 -0.00016387793051218086 0 0.035595011850464396 -0.00019509887220149714 0 0.035664586383278532 -0.000248335499583743 0 0.03554816014705995 -0.0002376746988788255 0 0.035495390496983477 -0.00016387793051218086 0 0.035664586383278532 -0.000248335499583743 0 0.035295245676030144 -0.00025522867081482597 0 0.03554816014705995 -0.0002376746988788255 0 0.035411794429659089 -0.00017208925849493815 0 0.03554816014705995 -0.0002376746988788255 0 0.035495390496983477 -0.00016387793051218086 0 0.035411794429659089 -0.00017208925849493815 0 0.035295245676030144 -0.00025522867081482597 0 0.035290682213202536 -0.00014954729037494667 0 0.035411794429659089 -0.00017208925849493815 0 0.034601711877611137 -0.00027636339095541692 0 0.034717828655337492 0.00044639646636423586 0 0.035290682213202536 -0.00014954729037494667 0 0.035411794429659089 -0.00017208925849493815 0 0.035352911876399988 -0.00010532345344762714 0 0.035495390496983477 -0.00016387793051218086 0 0.035411794429659089 -0.00017208925849493815 0 0.035352911876399988 -0.00010532345344762714 0 0.03541451880837522 -7.7575132420284375e-05 0 0.035352911876399988 -0.00010532345344762714 0 0.035309746696297661 -1.5370977636825241e-05 0 0.035352911876399988 -0.00010532345344762714 0 0.035225018738900229 -6.5117253658351085e-05 0 0.035309746696297661 -1.5370977636825241e-05 0 0.029767956995191643 0.00065651326196091179 0 0.028396158932416957 -0.00052151670251438409 0 0.0242531433925538 0.00010395691455107156 0 0.024278490331491105 -0.00017889891770052289 0 0.021561970913200054 -0.00086603371422508315 0 0.024278490331491105 -0.00017889891770052289 0 0.023003598671511697 -0.0013552492782288835 0 0.021561970913200054 -0.00086603371422508315 0 0.035290682213202536 -0.00014954729037494667 0 0.035352911876399988 -0.00010532345344762714 0 0.035225018738900229 -6.5117253658351085e-05 0 0.034717828655337492 0.00044639646636423586 0 0.029767956995191643 0.00065651326196091179 0 0.033225037635760658 0.00085250365684663861 0 0.032753556060182057 0.0029071676033733994 0 0.031375262669489916 0.0019135972834220529 0 0.029767956995191643 0.00065651326196091179 0 0.028651778870303065 0.00097761340827545121 0 0.024313246154927994 5.918907298295859e-05 0 0.025557444742071004 -0.0004852593671422067 0 0.026296190339053855 0.00036216832700075108 0 0.024313246154927994 5.918907298295859e-05 0 0.024278490331491105 -0.00017889891770052289 0 0.025557444742071004 -0.0004852593671422067 0 0.029767956995191643 0.00065651326196091179 0 0.029221706587869198 0.00060164659027235189 0 0.024278490331491105 -0.00017889891770052289 0 0.025557444742071004 -0.0004852593671422067 0 0.023003598671511697 -0.0013552492782288835 0 0.025039068034763901 -0.00012640354245571482 0 0.022546881175340636 -0.00084236969365187686 0 0.024521552265529555 0.00043014801555528182 0 0.025232289923942622 -2.2159050722621999e-06 0 0.024236937302791958 -0.00078935979375909448 0 0.024521552265529555 0.00043014801555528182 0 0.025232289923942622 -2.2159050722621999e-06 0 0.027932762017885304 2.6783049072251667e-06 0 0.025039068034763901 -0.00012640354245571482 0 0.027937642807959913 1.3392580283113218e-07 0 0.025557444742071004 -0.0004852593671422067 0 0.026296190339053855 0.00036216832700075108 0 0.02794172753349812 -6.8539955207665267e-07 0 0.028651778870303065 0.00097761340827545121 0 0.028822865837397009 3.9250601531490124e-07 0 0.026296190339053855 0.00036216832700075108 0 0.02794172753349812 -6.8539955207665267e-07 0 0.028819467630308106 1.3238658362612342e-06 0 0.031375262669489916 0.0019135972834220529 0 0.028828327025988611 4.4878233472416641e-06 0 0.03216321135329181 3.8703492249390409e-06 0 0.033225037635760658 0.00085250365684663861 0 0.031375262669489916 0.0019135972834220529 0 0.03216321135329181 3.8703492249390409e-06 0 0.03390920497366913 -0.00019840966844165921 0 0.033225037635760658 0.00085250365684663861 0 0.03216321135329181 3.8703492249390409e-06 0 0.031267969089675052 -1.6719306754628612e-06 0 0.028828327025988611 4.4878233472416641e-06 0 0.03216321135329181 3.8703492249390409e-06 0 0.046287843677136731 -0.0043324342166017171 0 0.04531468622482851 -0.0040174285389434333 0 0.045962999838385518 -0.0029934519791858165 0 0.046287843677136731 -0.0043324342166017171 0 0.047119578135477229 -0.0037851525229483213 0 0.045962999838385518 -0.0029934519791858165 0 0.046287843677136731 -0.0043324342166017171 0 0.04531468622482851 -0.0040174285389434333 0 0.045578706346817474 -0.0049238309837777716 0 0.046287843677136731 -0.0043324342166017171 0 0.047119578135477229 -0.0037851525229483213 0 0.047349857313511011 -0.0049269205852674278 0 0.046287843677136731 -0.0043324342166017171 0 0.047349857313511011 -0.0049269205852674278 0 0.046371098255597931 -0.0055836781038755843 0 0.047349857313511011 -0.0049269205852674278 0 0.047251284958694795 -0.0059479666650109723 0 0.046371098255597931 -0.0055836781038755843 0 0.047251284958694795 -0.0059479666650109723 0 0.046371098255597931 -0.0055836781038755843 0 0.046244014025457449 -0.0066728715146754268 0 0.046371098255597931 -0.0055836781038755843 0 0.045212246782888564 -0.0059571609034690318 0 0.046244014025457449 -0.0066728715146754268 0 0.046287843677136731 -0.0043324342166017171 0 0.046371098255597931 -0.0055836781038755843 0 0.045578706346817474 -0.0049238309837777716 0 0.046371098255597931 -0.0055836781038755843 0 0.045578706346817474 -0.0049238309837777716 0 0.045212246782888564 -0.0059571609034690318 0 0.045212246782888564 -0.0059571609034690318 0 0.044371648974446128 -0.0048531539459462916 0 0.044074582526282123 -0.0065488479197757955 0 0.044371648974446128 -0.0048531539459462916 0 0.042958044799325794 -0.0056414438821074881 0 0.044074582526282123 -0.0065488479197757955 0 0.045578706346817474 -0.0049238309837777716 0 0.045212246782888564 -0.0059571609034690318 0 0.044371648974446128 -0.0048531539459462916 0 0.044371648974446128 -0.0048531539459462916 0 0.042958044799325794 -0.0056414438821074881 0 0.043191886911499541 -0.0039785101812454884 0 0.041673103604294361 -0.0044749673741051729 0 0.042958044799325794 -0.0056414438821074881 0 0.043191886911499541 -0.0039785101812454884 0 0.044371648974446128 -0.0048531539459462916 0 0.043191886911499541 -0.0039785101812454884 0 0.044551294273581614 -0.0033253923262416161 0 0.04531468622482851 -0.0040174285389434333 0 0.044371648974446128 -0.0048531539459462916 0 0.044551294273581614 -0.0033253923262416161 0 0.04531468622482851 -0.0040174285389434333 0 0.045578706346817474 -0.0049238309837777716 0 0.044371648974446128 -0.0048531539459462916 0 0.044551294273581614 -0.0033253923262416161 0 0.044993606899558655 -0.0021865586230392876 0 0.045962999838385518 -0.0029934519791858165 0 0.04531468622482851 -0.0040174285389434333 0 0.044551294273581614 -0.0033253923262416161 0 0.045962999838385518 -0.0029934519791858165 0 0.042135028619183314 -0.0034183731905090193 0 0.043191886911499541 -0.0039785101812454884 0 0.043367428274574994 -0.0025704581803430988 0 0.044551294273581614 -0.0033253923262416161 0 0.043367428274574994 -0.0025704581803430988 0 0.044993606899558655 -0.0021865586230392876 0 0.043191886911499541 -0.0039785101812454884 0 0.044551294273581614 -0.0033253923262416161 0 0.043367428274574994 -0.0025704581803430988 0 0.043367428274574994 -0.0025704581803430988 0 0.044300063533688303 -0.0014044142604751769 0 0.044993606899558655 -0.0021865586230392876 0 0.042793038365335052 -0.0016665362842457157 0 0.043367428274574994 -0.0025704581803430988 0 0.044300063533688303 -0.0014044142604751769 0 0.045442714683013911 -0.0013305000323304982 0 0.044300063533688303 -0.0014044142604751769 0 0.044993606899558655 -0.0021865586230392876 0 0.045442714683013911 -0.0013305000323304982 0 0.044993606899558655 -0.0021865586230392876 0 0.046189271823748386 -0.001778501993602157 0 0.046189271823748386 -0.001778501993602157 0 0.045962999838385518 -0.0029934519791858165 0 0.046907191120562401 -0.0025301225051058583 0 0.044993606899558655 -0.0021865586230392876 0 0.046189271823748386 -0.001778501993602157 0 0.045962999838385518 -0.0029934519791858165 0 0.047119578135477229 -0.0037851525229483213 0 0.046907191120562401 -0.0025301225051058583 0 0.047882709637158676 -0.002993160775853417 0 0.047119578135477229 -0.0037851525229483213 0 0.045962999838385518 -0.0029934519791858165 0 0.046907191120562401 -0.0025301225051058583 0 0.047316972352823963 -0.001415470342437831 0 0.046189271823748386 -0.001778501993602157 0 0.046907191120562401 -0.0025301225051058583 0 0.047316972352823963 -0.001415470342437831 0 0.046907191120562401 -0.0025301225051058583 0 0.047882709637158676 -0.002993160775853417 0 0.047605595958152905 -0.0014702906736936134 0 0.048349306286687301 -0.0029799376948181112 0 0.04797309720121503 -0.0016874100516301022 0 0.048676734565309403 -0.001947591306439694 0 0.048220248346096228 -0.0024480424366273628 0 0.049051488674099475 -0.0015704427578573693 0 0.048676734565309403 -0.001947591306439694 0 0.049201655461492112 -0.0019542689851133328 0 0.048676734565309403 -0.001947591306439694 0 0.048805315195663786 -0.0026018595507923616 0 0.049201655461492112 -0.0019542689851133328 0 0.048676734565309403 -0.001947591306439694 0 0.048805315195663786 -0.0026018595507923616 0 0.048220248346096228 -0.0024480424366273628 0 0.037033855946900077 -0.00052127364375814406 0 0.037828332740496219 -0.00033465210997312323 0 0.037464143850603815 -2.7482443295828517e-05 0 0.038137247465205443 0.00014728455834187089 0 0.037828332740496219 -0.00033465210997312323 0 0.037464143850603815 -2.7482443295828517e-05 0 0.038137247465205443 0.00014728455834187089 0 0.037464143850603815 -2.7482443295828517e-05 0 0.037401453884712048 0.00042991851873058301 0 0.043176521797200572 -0.00097573898869151871 0 0.043240462785153741 -0.0012146547496965816 0 0.036888230840573112 4.3127623319812549e-05 0 0.037464143850603815 -2.7482443295828517e-05 0 0.037401453884712048 0.00042991851873058301 0 0.038137247465205443 0.00014728455834187089 0 0.037401453884712048 0.00042991851873058301 0 0.037840779454974389 0.00077405404440373659 0 0.036597629798087207 -2.1686958240603337e-05 0 0.036674922867833394 0.00058716713220082753 0 0.035809433051105934 -0.00034249721483158501 0 0.035734826869894563 -0.0003182607481423848 0 0.035750336174991494 -0.00032296668267673616 0 0.048805315195663786 -0.0026018595507923616 0 0.048220248346096228 -0.0024480424366273628 0 0.048426740532865921 -0.003221039256290692 0 0.048349306286687301 -0.0029799376948181112 0 0.046590723951610673 -0.0032954383803833242 0 0.047119578135477229 -0.0037851525229483213 0 0.047349857313511011 -0.0049269205852674278 0 0.048540262487828223 -0.0051512004632559005 0 0.047119578135477229 -0.0037851525229483213 0 0.047882709637158676 -0.002993160775853417 0 0.048540262487828223 -0.0051512004632559005 0 0.043176521797200572 -0.00097573898869151871 0 0.046590723951610673 -0.0032954383803833242 0 0.038137247465205443 0.00014728455834187089 0 0.037840779454974389 0.00077405404440373659 0 0.038417766782750121 0.00056081185142948565 0 0.037840779454974389 0.00077405404440373659 0 0.038417766782750121 0.00056081185142948565 0 0.038218801118642759 0.001098773258196813 0 0.047349857313511011 -0.0049269205852674278 0 0.048148586962703036 -0.0058353068444176879 0 0.048540262487828223 -0.0051512004632559005 0 0.048148586962703036 -0.0058353068444176879 0 0.048419548606571543 -0.0053537660275691365 0 0.048780578243794087 -0.0071225858109967687 0 0.047161897579996996 -0.0050417182515543587 0 0.046590723951610673 -0.0032954383803833242 0 0.047349857313511011 -0.0049269205852674278 0 0.047251284958694795 -0.0059479666650109723 0 0.048148586962703036 -0.0058353068444176879 0 0.047251284958694795 -0.0059479666650109723 0 0.048148586962703036 -0.0058353068444176879 0 0.047840268315580747 -0.0066500539315426967 0 0.050460401022943517 -0.0090891658812838859 0 0.036243402522991311 -0.0054029275040555613 0 0.047840268315580747 -0.0066500539315426967 0 0.048780578243794087 -0.0071225858109967687 0 0.048429188698802209 -0.0074777651735762679 0 0.048148586962703036 -0.0058353068444176879 0 0.047840268315580747 -0.0066500539315426967 0 0.048780578243794087 -0.0071225858109967687 0 0.047840268315580747 -0.0066500539315426967 0 0.047606465850326844 -0.0079207445386497675 0 0.047123772041766113 -0.0069248102022695067 0 0.036674922867833394 0.00058716713220082753 0 0.038506418118317239 -0.0021772731886758882 0 0.046590723951610673 -0.0032954383803833242 0 0.038506418118317239 -0.0021772731886758882 0 0.034256056437793059 -0.0050003536561100603 0 0.035339426835741615 -0.0037825572448330863 0 0.03269687833906558 -0.00029197755020866 0 0.038506418118317239 -0.0021772731886758882 0 0.036243402522991311 -0.0054029275040555613 0 0.035739504684868161 -0.00029755152736106162 0 0.035687078247990112 -0.00027479742132474714 0 0.035686336804457895 -0.00021503469394197134 0 0.038506418118317239 -0.0021772731886758882 0 0.028715424687905989 -0.0013141921313184644 0 0.036243402522991311 -0.0054029275040555613 0 0.034204653720451346 -0.0072148232830864609 0 0.047606465850326844 -0.0079207445386497675 0 0.048809309398104288 -0.0081292060680438014 0 0.047487952487951408 -0.0096243025965523608 0 0.047840268315580747 -0.0066500539315426967 0 0.047606465850326844 -0.0079207445386497675 0 0.048809309398104288 -0.0081292060680438014 0 0.035734826869894563 -0.0003182607481423848 0 0.035750336174991494 -0.00032296668267673616 0 0.035689352921676534 -0.00029377662662848271 0 0.035631592035673836 -0.00027326009026536554 0 0.035750336174991494 -0.00032296668267673616 0 0.035689352921676534 -0.00029377662662848271 0 0.035734826869894563 -0.0003182607481423848 0 0.035739504684868161 -0.00029755152736106162 0 0.035687078247990112 -0.00027479742132474714 0 0.035734826869894563 -0.0003182607481423848 0 0.035689352921676534 -0.00029377662662848271 0 0.035687078247990112 -0.00027479742132474714 0 0.035689352921676534 -0.00029377662662848271 0 0.035687078247990112 -0.00027479742132474714 0 0.03561703591553806 -0.0002472830145692186 0 0.035631592035673836 -0.00027326009026536554 0 0.035689352921676534 -0.00029377662662848271 0 0.03561703591553806 -0.0002472830145692186 0 0.035465474352252273 -0.00018898743621988999 0 0.03561703591553806 -0.0002472830145692186 0 0.035590518115055647 -0.00017150949461631647 0 0.03561703591553806 -0.0002472830145692186 0 0.035645619675034344 -0.00021423696978608014 0 0.035590518115055647 -0.00017150949461631647 0 0.035687078247990112 -0.00027479742132474714 0 0.03561703591553806 -0.0002472830145692186 0 0.035645619675034344 -0.00021423696978608014 0 0.035687078247990112 -0.00027479742132474714 0 0.035645619675034344 -0.00021423696978608014 0 0.035686336804457895 -0.00021503469394197134 0 0.035645619675034344 -0.00021423696978608014 0 0.035638416433435079 -0.00014016662262834997 0 0.035686336804457895 -0.00021503469394197134 0 0.022972699518312205 -0.0036533958904910358 0 0.020799221493306611 -0.0048191230120570062 0 0.020977756321812768 -0.0043622219290134689 0 0.021065331416719821 -0.0043938418110522548 0 0.021004642700569346 -0.0046824755421995233 0 0.027545797994089617 -0.0015257934806188497 0 0.027434971649056877 -0.0014876244921864408 0 0.027613641602714848 -0.0017365021420576426 0 0.028968328732239253 -0.0015336301555300734 0 0.028715424687905989 -0.0013141921313184644 0 0.022972699518312205 -0.0036533958904910358 0 0.028968328732239253 -0.0015336301555300734 0 0.035645619675034344 -0.00021423696978608014 0 0.035638416433435079 -0.00014016662262834997 0 0.035590518115055647 -0.00017150949461631647 0 0.035638416433435079 -0.00014016662262834997 0 0.035590518115055647 -0.00017150949461631647 0 0.035533701880426267 -7.5332883426516243e-05 0 0.028968328732239253 -0.0015336301555300734 0 0.034064500932917595 0.00034087722906234343 0 0.029649917181660587 0.0012586809773958278 0 0.031407582853809686 0.00075594521719465695 0 0.03072339534731626 -0.00016181645051338743 0 0.035465474352252273 -0.00018898743621988999 0 0.035590518115055647 -0.00017150949461631647 0 0.035533701880426267 -7.5332883426516243e-05 0 0.021137917715701927 -0.0042097030005478989 0 0.020833360696912478 -0.0044923522722425911 0 0.020981598250052861 -0.0046125337365362723 0 0.020833360696912478 -0.0044923522722425911 0 0.020981598250052861 -0.0046125337365362723 0 0.020797720455281252 -0.0046411031016597628 0 0.036243402522991311 -0.0054029275040555613 0 0.028715424687905989 -0.0013141921313184644 0 0.021378279448255499 -0.0047449513447680551 0 0.021285168667177234 -0.004487698441299883 0 0.020981598250052861 -0.0046125337365362723 0 0.021137917715701927 -0.0042097030005478989 0 0.021285168667177234 -0.004487698441299883 0 0.020981598250052861 -0.0046125337365362723 0 0.022972699518312205 -0.0036533958904910358 0 0.028715424687905989 -0.0013141921313184644 0 0.020922972170612557 -0.0046221551667978474 0 0.020981598250052861 -0.0046125337365362723 0 0.020904992750322111 -0.0046442397643944779 0 0.020981598250052861 -0.0046125337365362723 0 0.020904992750322111 -0.0046442397643944779 0 0.020819554904906574 -0.0046827228613178498 0 0.022972699518312205 -0.0036533958904910358 0 0.020576692289931163 -0.0044433578935225296 0 0.020922972170612557 -0.0046221551667978474 0 0.020904992750322111 -0.0046442397643944779 0 0.020903260823285676 -0.0046646348659116123 0 0.020904992750322111 -0.0046442397643944779 0 0.020819554904906574 -0.0046827228613178498 0 0.020811677899116983 -0.0047073547387780816 0 0.020981598250052861 -0.0046125337365362723 0 0.020819554904906574 -0.0046827228613178498 0 0.020797720455281252 -0.0046411031016597628 0 0.020819554904906574 -0.0046827228613178498 0 0.020797720455281252 -0.0046411031016597628 0 0.020709102181277701 -0.004735866101433144 0 0.020797720455281252 -0.0046411031016597628 0 0.020709102181277701 -0.004735866101433144 0 0.020707691613562704 -0.0046922086357499906 0 0.020833360696912478 -0.0044923522722425911 0 0.020797720455281252 -0.0046411031016597628 0 0.020707691613562704 -0.0046922086357499906 0 0.018427596842001924 -0.0032576890272931467 0 0.031092510947306359 -0.0070203310279572644 0 0.020709102181277701 -0.004735866101433144 0 0.020667165222522609 -0.004805821203368088 0 0.020614521232103191 -0.0048294793370607849 0 0.03253676753703303 -0.0084339632206665467 0 0.032466928411264313 -0.0084697800872541688 0 0.032492716749540081 -0.0084102261216718547 0 0.031092510947306359 -0.0070203310279572644 0 0.039216171105886877 -0.010388936558678731 0 0.046163771554348774 -0.011017382334175473 0 0.044906015552161331 -0.010421193838621211 0 0.045630552953915215 -0.0099252813944135723 0 0.046163771554348774 -0.011017382334175473 0 0.045630552953915215 -0.0099252813944135723 0 0.046413775580795846 -0.0096800921168089631 0 0.045630552953915215 -0.0099252813944135723 0 0.045045087198863146 -0.0094129295479672623 0 0.044560138745931316 -0.010290749069562054 0 0.044906015552161331 -0.010421193838621211 0 0.045630552953915215 -0.0099252813944135723 0 0.044560138745931316 -0.010290749069562054 0 0.045630552953915215 -0.0099252813944135723 0 0.046413775580795846 -0.0096800921168089631 0 0.045877426664013059 -0.0090331017008993836 0 0.045630552953915215 -0.0099252813944135723 0 0.045045087198863146 -0.0094129295479672623 0 0.045877426664013059 -0.0090331017008993836 0 0.047487952487951408 -0.0096243025965523608 0 0.046163771554348774 -0.011017382334175473 0 0.046413775580795846 -0.0096800921168089631 0 0.034204653720451346 -0.0072148232830864609 0 0.031092510947306359 -0.0070203310279572644 0 0.046413775580795846 -0.0096800921168089631 0 0.046723394911943134 -0.0086057175766623712 0 0.045877426664013059 -0.0090331017008993836 0 0.047487952487951408 -0.0096243025965523608 0 0.046413775580795846 -0.0096800921168089631 0 0.046723394911943134 -0.0086057175766623712 0 0.047606465850326844 -0.0079207445386497675 0 0.047487952487951408 -0.0096243025965523608 0 0.046723394911943134 -0.0086057175766623712 0 0.047606465850326844 -0.0079207445386497675 0 0.046723394911943134 -0.0086057175766623712 0 0.046700466745895564 -0.0075366527262516964 0 0.046723394911943134 -0.0086057175766623712 0 0.045953184621012777 -0.0078543784930541639 0 0.046700466745895564 -0.0075366527262516964 0 0.046723394911943134 -0.0086057175766623712 0 0.045877426664013059 -0.0090331017008993836 0 0.045953184621012777 -0.0078543784930541639 0 0.045877426664013059 -0.0090331017008993836 0 0.045179907601963137 -0.0083576111900940022 0 0.045953184621012777 -0.0078543784930541639 0 0.045045087198863146 -0.0094129295479672623 0 0.045179907601963137 -0.0083576111900940022 0 0.044467020268774679 -0.0088373230143177477 0 0.045045087198863146 -0.0094129295479672623 0 0.045877426664013059 -0.0090331017008993836 0 0.045179907601963137 -0.0083576111900940022 0 0.045179907601963137 -0.0083576111900940022 0 0.045953184621012777 -0.0078543784930541639 0 0.045154151038676163 -0.0072852617351452063 0 0.045953184621012777 -0.0078543784930541639 0 0.045154151038676163 -0.0072852617351452063 0 0.046244014025457449 -0.0066728715146754268 0 0.045212246782888564 -0.0059571609034690318 0 0.045154151038676163 -0.0072852617351452063 0 0.046244014025457449 -0.0066728715146754268 0 0.047251284958694795 -0.0059479666650109723 0 0.046244014025457449 -0.0066728715146754268 0 0.047123772041766113 -0.0069248102022695067 0 0.047251284958694795 -0.0059479666650109723 0 0.047840268315580747 -0.0066500539315426967 0 0.047123772041766113 -0.0069248102022695067 0 0.047606465850326844 -0.0079207445386497675 0 0.047123772041766113 -0.0069248102022695067 0 0.046700466745895564 -0.0075366527262516964 0 0.045953184621012777 -0.0078543784930541639 0 0.046244014025457449 -0.0066728715146754268 0 0.046700466745895564 -0.0075366527262516964 0 0.046244014025457449 -0.0066728715146754268 0 0.047123772041766113 -0.0069248102022695067 0 0.046700466745895564 -0.0075366527262516964 0 0.041191576008814811 -0.0062974004590376021 0 0.041622848319124321 -0.0080813182602162293 0 0.042951990452230041 -0.0072656234274033589 0 0.042958044799325794 -0.0056414438821074881 0 0.042951990452230041 -0.0072656234274033589 0 0.044074582526282123 -0.0065488479197757955 0 0.041191576008814811 -0.0062974004590376021 0 0.042958044799325794 -0.0056414438821074881 0 0.042951990452230041 -0.0072656234274033589 0 0.045212246782888564 -0.0059571609034690318 0 0.045154151038676163 -0.0072852617351452063 0 0.044074582526282123 -0.0065488479197757955 0 0.045154151038676163 -0.0072852617351452063 0 0.044074582526282123 -0.0065488479197757955 0 0.044178904989141711 -0.007823353060452936 0 0.042951990452230041 -0.0072656234274033589 0 0.044074582526282123 -0.0065488479197757955 0 0.044178904989141711 -0.007823353060452936 0 0.042951990452230041 -0.0072656234274033589 0 0.044178904989141711 -0.007823353060452936 0 0.04343421179598133 -0.0087411560605191573 0 0.045179907601963137 -0.0083576111900940022 0 0.044178904989141711 -0.007823353060452936 0 0.044467020268774679 -0.0088373230143177477 0 0.045179907601963137 -0.0083576111900940022 0 0.045154151038676163 -0.0072852617351452063 0 0.044178904989141711 -0.007823353060452936 0 0.044467020268774679 -0.0088373230143177477 0 0.04343421179598133 -0.0087411560605191573 0 0.044056627688608456 -0.0094261212752784432 0 0.044178904989141711 -0.007823353060452936 0 0.044467020268774679 -0.0088373230143177477 0 0.04343421179598133 -0.0087411560605191573 0 0.041622848319124321 -0.0080813182602162293 0 0.042951990452230041 -0.0072656234274033589 0 0.04343421179598133 -0.0087411560605191573 0 0.041622848319124321 -0.0080813182602162293 0 0.04343421179598133 -0.0087411560605191573 0 0.042655683195180483 -0.0097747957637093971 0 0.038865961923616403 -0.0093455245064322338 0 0.038859310093033832 -0.0094146513158735439 0 0.038582949301295001 -0.0093045672938283398 0 0.04343421179598133 -0.0087411560605191573 0 0.042655683195180483 -0.0097747957637093971 0 0.044056627688608456 -0.0094261212752784432 0 0.038859310093033832 -0.0094146513158735439 0 0.038458510501862483 -0.0093583607854459874 0 0.038582949301295001 -0.0093045672938283398 0 0.040780824816203806 -0.0095116596070414141 0 0.04095477652484223 -0.010295128559457934 0 0.042655683195180483 -0.0097747957637093971 0 0.044056627688608456 -0.0094261212752784432 0 0.044560138745931316 -0.010290749069562054 0 0.045045087198863146 -0.0094129295479672623 0 0.044056627688608456 -0.0094261212752784432 0 0.044560138745931316 -0.010290749069562054 0 0.045045087198863146 -0.0094129295479672623 0 0.044467020268774679 -0.0088373230143177477 0 0.044056627688608456 -0.0094261212752784432 0 0.039216171105886877 -0.010388936558678731 0 0.04095477652484223 -0.010295128559457934 0 0.038435773944299943 -0.0093159951661352033 0 0.038475781427009956 -0.0092782105172439528 0 0.038501702141409078 -0.00926422585137829 0 0.039216171105886877 -0.010388936558678731 0 0.035456462318373329 -0.008724218582895734 0 0.032466928411264313 -0.0084697800872541688 0 0.032492716749540081 -0.0084102261216718547 0 0.032398149178859172 -0.0085121584281691327 0 0.038435773944299943 -0.0093159951661352033 0 0.038476201304591395 -0.0093109239932182061 0 0.038475781427009956 -0.0092782105172439528 0 0.038435773944299943 -0.0093159951661352033 0 0.038458510501862483 -0.0093583607854459874 0 0.038476201304591395 -0.0093109239932182061 0 0.038458510501862483 -0.0093583607854459874 0 0.038476201304591395 -0.0093109239932182061 0 0.038582949301295001 -0.0093045672938283398 0 0.038476201304591395 -0.0093109239932182061 0 0.038582949301295001 -0.0093045672938283398 0 0.038475781427009956 -0.0092782105172439528 0 0.038582949301295001 -0.0093045672938283398 0 0.038450999710057908 -0.0092434068413127339 0 0.038475781427009956 -0.0092782105172439528 0 0.038865961923616403 -0.0093455245064322338 0 0.038582949301295001 -0.0093045672938283398 0 0.03852472306441853 -0.0092632133171388267 0 0.038582949301295001 -0.0093045672938283398 0 0.038450999710057908 -0.0092434068413127339 0 0.03852472306441853 -0.0092632133171388267 0 0.03852472306441853 -0.0092632133171388267 0 0.038181158130995145 -0.0093067901978449771 0 0.038723820196469146 -0.0092000107359310745 0 0.038181158130995145 -0.0093067901978449771 0 0.037673398023185922 -0.0096104362790400688 0 0.038723820196469146 -0.0092000107359310745 0 0.038450999710057908 -0.0092434068413127339 0 0.03852472306441853 -0.0092632133171388267 0 0.038181158130995145 -0.0093067901978449771 0 0.032398149178859172 -0.0085121584281691327 0 0.032308725957607899 -0.0086689862357705542 0 0.032439661595911065 -0.0085356999399649712 0 0.038181158130995145 -0.0093067901978449771 0 0.038501702141409078 -0.00926422585137829 0 0.038119513055391394 -0.0099751946315089005 0 0.032466928411264313 -0.0084697800872541688 0 0.032398149178859172 -0.0085121584281691327 0 0.032439661595911065 -0.0085356999399649712 0 0.038450999710057908 -0.0092434068413127339 0 0.038181158130995145 -0.0093067901978449771 0 0.038501702141409078 -0.00926422585137829 0 0.038450999710057908 -0.0092434068413127339 0 0.038475781427009956 -0.0092782105172439528 0 0.038501702141409078 -0.00926422585137829 0 0.02120865794994797 -0.0047183341293925533 0 0.020831591152809088 -0.0047109303165698028 0 0.020755693058412555 -0.0049234446365969435 0 0.031569723025287065 -0.0087417400512565906 0 0.025377820125895179 -0.0068202089511082333 0 0.035456462318373329 -0.008724218582895734 0 0.031569723025287065 -0.0087417400512565906 0 0.038181158130995145 -0.0093067901978449771 0 0.038119513055391394 -0.0099751946315089005 0 0.037673398023185922 -0.0096104362790400688 0 0.038119513055391394 -0.0099751946315089005 0 0.037673398023185922 -0.0096104362790400688 0 0.037018074312469701 -0.010345690666931808 0 0.037673398023185922 -0.0096104362790400688 0 0.037018074312469701 -0.010345690666931808 0 0.036594666458398685 -0.010045232082138377 0 0.038119513055391394 -0.0099751946315089005 0 0.037018074312469701 -0.010345690666931808 0 0.036625330189984609 -0.011297650938885524 0 0.033173764259896973 -0.011324542147177609 0 0.033100690595194486 -0.011694638163816483 0 0.032931291732748121 -0.01177575554245606 0 0.031569723025287065 -0.0087417400512565906 0 0.035307194073866753 -0.011583125215831961 0 0.031569723025287065 -0.0087417400512565906 0 0.02726304778025895 -0.0080945065288888837 0 0.02120865794994797 -0.0047183341293925533 0 0.020996566987449471 -0.0044181582559798763 0 0.020831591152809088 -0.0047109303165698028 0 0.02120865794994797 -0.0047183341293925533 0 0.021382056138091528 -0.0044169511896130628 0 0.020996566987449471 -0.0044181582559798763 0 0.019913842752475177 -0.0050154361942349414 0 0.019765025602424009 -0.0053516286065618405 0 0.020052912627967285 -0.0052396163960664807 0 0.019913842752475177 -0.0050154361942349414 0 0.019765025602424009 -0.0053516286065618405 0 0.019499552134256051 -0.0053556272325733937 0 0.021382056138091528 -0.0044169511896130628 0 0.020996566987449471 -0.0044181582559798763 0 0.021563357998664646 -0.0041309820243613776 0 0.02726304778025895 -0.0080945065288888837 0 0.026451716141091843 -0.00842809578894229 0 0.033100690595194486 -0.011694638163816483 0 0.032993632346027257 -0.011970661951390536 0 0.032931291732748121 -0.01177575554245606 0 0.01948598744387299 -0.0043904142934188348 0 0.026451716141091843 -0.00842809578894229 0 0.01985189538559895 -0.0053382005681853707 0 0.020034152980372567 -0.0054147720377483201 0 0.019813027319805849 -0.0053613254129498732 0 0.01985189538559895 -0.0053382005681853707 0 0.020179932566816366 -0.0051700813013384308 0 0.020034152980372567 -0.0054147720377483201 0 0.020034152980372567 -0.0054147720377483201 0 0.019755492511140095 -0.005374299950694484 0 0.019813027319805849 -0.0053613254129498732 0 0.020118959499913779 -0.0051614384447137198 0 0.019937933826880506 -0.0053561948875762077 0 0.020363671286353646 -0.0049850767236176334 0 0.020039498987908654 -0.0050300737410576635 0 0.020014546942774724 -0.0052346762287941414 0 0.020996566987449471 -0.0044181582559798763 0 0.020473209971346464 -0.0047633876388653669 0 0.020831591152809088 -0.0047109303165698028 0 0.01948598744387299 -0.0043904142934188348 0 0.020780205197631615 -0.0047899645929233283 0 0.019913842752475177 -0.0050154361942349414 0 0.020052912627967285 -0.0052396163960664807 0 0.020401395493631663 -0.0048490419399550861 0 0.020363671286353646 -0.0049850767236176334 0 0.020039498987908654 -0.0050300737410576635 0 0.020401395493631663 -0.0048490419399550861 0 0.019913842752475177 -0.0050154361942349414 0 0.020401395493631663 -0.0048490419399550861 0 0.020473209971346464 -0.0047633876388653669 0 0.020052225672853388 -0.0051392617187704295 0 0.020359858110051917 -0.0048600039878785384 0 0.01985189538559895 -0.0053382005681853707 0 0.020179932566816366 -0.0051700813013384308 0 0.020426617799399541 -0.0048455409380670951 0 0.020363671286353646 -0.0049850767236176334 0 0.020426617799399541 -0.0048455409380670951 0 0.020431886825931944 -0.004840477522620382 0 0.020363671286353646 -0.0049850767236176334 0 0.020401395493631663 -0.0048490419399550861 0 0.020431886825931944 -0.004840477522620382 0 0.020118959499913779 -0.0051614384447137198 0 0.020379599045485777 -0.0048742234819509744 0 0.020426617799399541 -0.0048455409380670951 0 0.020431886825931944 -0.004840477522620382 0 0.020519350643792015 -0.0048155562866393567 0 0.020431886825931944 -0.004840477522620382 0 0.020473209971346464 -0.0047633876388653669 0 0.020519350643792015 -0.0048155562866393567 0 0.020401395493631663 -0.0048490419399550861 0 0.020431886825931944 -0.004840477522620382 0 0.020473209971346464 -0.0047633876388653669 0 0.020473209971346464 -0.0047633876388653669 0 0.020519350643792015 -0.0048155562866393567 0 0.020593919114325406 -0.0048328264280104666 0 0.020426617799399541 -0.0048455409380670951 0 0.020519350643792015 -0.0048155562866393567 0 0.020635738829834101 -0.004782782909464765 0 0.020831591152809088 -0.0047109303165698028 0 0.020672342612272233 -0.0048033741505309445 0 0.020755693058412555 -0.0049234446365969435 0 0.020473209971346464 -0.0047633876388653669 0 0.020831591152809088 -0.0047109303165698028 0 0.020672342612272233 -0.0048033741505309445 0 0.020473209971346464 -0.0047633876388653669 0 0.020593919114325406 -0.0048328264280104666 0 0.020672342612272233 -0.0048033741505309445 0 0.020593919114325406 -0.0048328264280104666 0 0.020672342612272233 -0.0048033741505309445 0 0.020755693058412555 -0.0049234446365969435 0 0.020667165222522609 -0.004805821203368088 0 0.020755693058412555 -0.0049234446365969435 0 0.020614521232103191 -0.0048294793370607849 0 0.031092510947306359 -0.0070203310279572644 0 0.025377820125895179 -0.0068202089511082333 0 0.03253676753703303 -0.0084339632206665467 0 0.032466928411264313 -0.0084697800872541688 0 0.032439661595911065 -0.0085356999399649712 0 0.020593919114325406 -0.0048328264280104666 0 0.020755693058412555 -0.0049234446365969435 0 0.020614521232103191 -0.0048294793370607849 0 0.020519350643792015 -0.0048155562866393567 0 0.02061528320297977 -0.0047944001328453266 0 0.020635738829834101 -0.004782782909464765 0 0.020519350643792015 -0.0048155562866393567 0 0.02061528320297977 -0.0047944001328453266 0 0.020614521232103191 -0.0048294793370607849 0 0.020519350643792015 -0.0048155562866393567 0 0.020593919114325406 -0.0048328264280104666 0 0.020614521232103191 -0.0048294793370607849 0 0.020709102181277701 -0.004735866101433144 0 0.02061528320297977 -0.0047944001328453266 0 0.020614521232103191 -0.0048294793370607849 0 0.020819554904906574 -0.0046827228613178498 0 0.020709102181277701 -0.004735866101433144 0 0.020635738829834101 -0.004782782909464765 0 0.020709102181277701 -0.004735866101433144 0 0.02061528320297977 -0.0047944001328453266 0 0.020635738829834101 -0.004782782909464765 0 0.020635738829834101 -0.004782782909464765 0 0.020811677899116983 -0.0047073547387780816 0 0.020704678726635121 -0.0047916136100428488 0 0.020819554904906574 -0.0046827228613178498 0 0.020635738829834101 -0.004782782909464765 0 0.020811677899116983 -0.0047073547387780816 0 0.020904992750322111 -0.0046442397643944779 0 0.020811677899116983 -0.0047073547387780816 0 0.020903260823285676 -0.0046646348659116123 0 0.020811677899116983 -0.0047073547387780816 0 0.020903260823285676 -0.0046646348659116123 0 0.020853828990430597 -0.0047463327839721674 0 0.020811677899116983 -0.0047073547387780816 0 0.020853828990430597 -0.0047463327839721674 0 0.020704678726635121 -0.0047916136100428488 0 0.020853828990430597 -0.0047463327839721674 0 0.020704678726635121 -0.0047916136100428488 0 0.020688943212983143 -0.0049050250414388362 0 0.020688943212983143 -0.0049050250414388362 0 0.020905732696399105 -0.0048735882143459419 0 0.020893467690596076 -0.0051770954472011056 0 0.020853828990430597 -0.0047463327839721674 0 0.020688943212983143 -0.0049050250414388362 0 0.020905732696399105 -0.0048735882143459419 0 0.020688943212983143 -0.0049050250414388362 0 0.020565808027508369 -0.0048555705872232492 0 0.020413292420105377 -0.0050873617355250778 0 0.020426617799399541 -0.0048455409380670951 0 0.020565808027508369 -0.0048555705872232492 0 0.020413292420105377 -0.0050873617355250778 0 0.020426617799399541 -0.0048455409380670951 0 0.020635738829834101 -0.004782782909464765 0 0.020565808027508369 -0.0048555705872232492 0 0.020704678726635121 -0.0047916136100428488 0 0.020688943212983143 -0.0049050250414388362 0 0.020565808027508369 -0.0048555705872232492 0 0.020635738829834101 -0.004782782909464765 0 0.020704678726635121 -0.0047916136100428488 0 0.020565808027508369 -0.0048555705872232492 0 0.03072339534731626 -0.00016181645051338743 0 0.032025180385801821 -0.00035520221142557414 0 0.031804919534952396 -0.0016212716740670666 0 0.031407582853809686 0.00075594521719465695 0 0.03072339534731626 -0.00016181645051338743 0 0.032025180385801821 -0.00035520221142557414 0 0.021065331416719821 -0.0043938418110522548 0 0.021217619049181308 -0.0046487469296043913 0 0.021004642700569346 -0.0046824755421995233 0 0.020922972170612557 -0.0046221551667978474 0 0.020903260823285676 -0.0046646348659116123 0 0.021004642700569346 -0.0046824755421995233 0 0.028968328732239253 -0.0015336301555300734 0 0.025531722179069707 -0.0020874432237766526 0 0.021217619049181308 -0.0046487469296043913 0 0.021004642700569346 -0.0046824755421995233 0 0.02111578502418197 -0.0048932576782427005 0 0.020903260823285676 -0.0046646348659116123 0 0.020853828990430597 -0.0047463327839721674 0 0.021004642700569346 -0.0046824755421995233 0 0.020853828990430597 -0.0047463327839721674 0 0.021004642700569346 -0.0046824755421995233 0 0.020905732696399105 -0.0048735882143459419 0 0.020905732696399105 -0.0048735882143459419 0 0.02111578502418197 -0.0048932576782427005 0 0.020893467690596076 -0.0051770954472011056 0 0.021004642700569346 -0.0046824755421995233 0 0.020905732696399105 -0.0048735882143459419 0 0.02111578502418197 -0.0048932576782427005 0 0.021217619049181308 -0.0046487469296043913 0 0.02111578502418197 -0.0048932576782427005 0 0.021421722076766063 -0.0048826188887917668 0 0.025531722179069707 -0.0020874432237766526 0 0.02701665593439637 -0.0037046699034552952 0 0.02111578502418197 -0.0048932576782427005 0 0.021246660102411174 -0.0051128626837604399 0 0.021421722076766063 -0.0048826188887917668 0 0.021246660102411174 -0.0051128626837604399 0 0.020893467690596076 -0.0051770954472011056 0 0.021162373091651036 -0.0054758639335787387 0 0.021246660102411174 -0.0051128626837604399 0 0.021162373091651036 -0.0054758639335787387 0 0.021650115129181011 -0.005152687779274359 0 0.02111578502418197 -0.0048932576782427005 0 0.021246660102411174 -0.0051128626837604399 0 0.020893467690596076 -0.0051770954472011056 0 0.022563171318780242 -0.0064061816518345008 0 0.016040782023131191 -0.0033889908896822677 0 0.020893467690596076 -0.0051770954472011056 0 0.021091237958426701 -0.0055159762430414191 0 0.020802005236440754 -0.0057528640954984268 0 0.020179932566816366 -0.0051700813013384308 0 0.020426617799399541 -0.0048455409380670951 0 0.020413292420105377 -0.0050873617355250778 0 0.020179932566816366 -0.0051700813013384308 0 0.020413292420105377 -0.0050873617355250778 0 0.020034152980372567 -0.0054147720377483201 0 0.020688943212983143 -0.0049050250414388362 0 0.020893467690596076 -0.0051770954472011056 0 0.020413292420105377 -0.0050873617355250778 0 0.020893467690596076 -0.0051770954472011056 0 0.020413292420105377 -0.0050873617355250778 0 0.020529792422975573 -0.005483567263812327 0 0.020893467690596076 -0.0051770954472011056 0 0.020529792422975573 -0.005483567263812327 0 0.020802005236440754 -0.0057528640954984268 0 0.020413292420105377 -0.0050873617355250778 0 0.020529792422975573 -0.005483567263812327 0 0.020034152980372567 -0.0054147720377483201 0 0.020529792422975573 -0.005483567263812327 0 0.020034152980372567 -0.0054147720377483201 0 0.020303824371913828 -0.005731380389372499 0 0.019892354918020747 -0.0053339964254874427 0 0.020013956986553463 -0.0057940240613101384 0 0.020034152980372567 -0.0054147720377483201 0 0.019755492511140095 -0.005374299950694484 0 0.019421184816761156 -0.0053695703320387235 0 0.019755492511140095 -0.005374299950694484 0 0.019421184816761156 -0.0053695703320387235 0 0.019390511500907745 -0.0051776569876390375 0 0.019755492511140095 -0.005374299950694484 0 0.019390511500907745 -0.0051776569876390375 0 0.019665733747329418 -0.0052488730383464036 0 0.019421184816761156 -0.0053695703320387235 0 0.019011622716676505 -0.0051021721498352565 0 0.019390511500907745 -0.0051776569876390375 0 0.020529792422975573 -0.005483567263812327 0 0.020303824371913828 -0.005731380389372499 0 0.020554194257895123 -0.0057502445368159596 0 0.020554194257895123 -0.0057502445368159596 0 0.020479603770861145 -0.0059993246588164731 0 0.020802005236440754 -0.0057528640954984268 0 0.017323416402417066 -0.0048270808223548423 0 0.012301135684698497 -0.0053342736766363924 0 0.020529792422975573 -0.005483567263812327 0 0.020554194257895123 -0.0057502445368159596 0 0.020802005236440754 -0.0057528640954984268 0 0.020013956986553463 -0.0057940240613101384 0 0.017323416402417066 -0.0048270808223548423 0 0.020303824371913828 -0.005731380389372499 0 0.020554194257895123 -0.0057502445368159596 0 0.020479603770861145 -0.0059993246588164731 0 0.018792899108211501 -0.0051816398622988348 0 0.018986780877239658 -0.0047314142593064996 0 0.018673237992785727 -0.0044824314563640067 0 0.017323416402417066 -0.0048270808223548423 0 0.01863981970385073 -0.0045589807173028254 0 0.018792899108211501 -0.0051816398622988348 0 0.019098462161487563 -0.0050030515112891643 0 0.018986780877239658 -0.0047314142593064996 0 0.019098462161487563 -0.0050030515112891643 0 0.019283496071491536 -0.0047603108783056333 0 0.018986780877239658 -0.0047314142593064996 0 0.019098462161487563 -0.0050030515112891643 0 0.019320884280624118 -0.0050022492075959659 0 0.019283496071491536 -0.0047603108783056333 0 0.019320884280624118 -0.0050022492075959659 0 0.019283496071491536 -0.0047603108783056333 0 0.019504269888395275 -0.0050281856932657418 0 0.019390511500907745 -0.0051776569876390375 0 0.019665733747329418 -0.0052488730383464036 0 0.019504269888395275 -0.0050281856932657418 0 0.019320884280624118 -0.0050022492075959659 0 0.019390511500907745 -0.0051776569876390375 0 0.019504269888395275 -0.0050281856932657418 0 0.019098462161487563 -0.0050030515112891643 0 0.019320884280624118 -0.0050022492075959659 0 0.019390511500907745 -0.0051776569876390375 0 0.019011622716676505 -0.0051021721498352565 0 0.019098462161487563 -0.0050030515112891643 0 0.019390511500907745 -0.0051776569876390375 0 0.0040746278203797771 -0.0048451316491732914 0 0.0039921914154024485 -0.0030724678894159686 0 0.0023634266877788673 -0.00258152865427622 0 0.016040782023131191 -0.0033889908896822677 0 0.011149394748306127 -0.0010225828745311796 0 0.0040746278203797771 -0.0048451316491732914 0 0.0039921914154024485 -0.0030724678894159686 0 0.0057480659561107003 -0.0037834172697295346 0 0.016040782023131191 -0.0033889908896822677 0 0.012301135684698497 -0.0053342736766363924 0 0.0039921914154024485 -0.0030724678894159686 0 0.0057480659561107003 -0.0037834172697295346 0 0.0051207687074493512 -0.0022878960994634641 0 0.0075851838538634423 -0.0025959649490187456 0 0.0057480659561107003 -0.0037834172697295346 0 0.0051207687074493512 -0.0022878960994634641 0 0.0075851838538634423 -0.0025959649490187456 0 0.0051207687074493512 -0.0022878960994634641 0 0.0057656635216809761 0.00023212229318402117 0 0.0039921914154024485 -0.0030724678894159686 0 0.0051207687074493512 -0.0022878960994634641 0 0.0030039581959791133 -0.0018446622859269251 0 0.0039921914154024485 -0.0030724678894159686 0 0.0030039581959791133 -0.0018446622859269251 0 0.0023634266877788673 -0.00258152865427622 0 0.0030039581959791133 -0.0018446622859269251 0 0.0029321051512150075 -0.0011340703131346025 0 0.0024180016775748221 -0.0010139371866742211 0 0.0030039581959791133 -0.0018446622859269251 0 0.0034581010759177112 -0.0012065798631157856 0 0.0029321051512150075 -0.0011340703131346025 0 0.0024823218700224638 -0.0016500734965958052 0 0.0062769214402063284 -0.0012759259820291303 0 0.0051207687074493512 -0.0022878960994634641 0 0.0030039581959791133 -0.0018446622859269251 0 0.0057656635216809761 0.00023212229318402117 0 0.0018167626342475494 -0.00017156746693064562 0 0.0017552354303802295 -0.00012038634956534577 0 0.001768308010858662 -0.00014645777682619108 0 0.0062769214402063284 -0.0012759259820291303 0 0.0017120116751635161 -3.5211005218934177e-05 0 0.0034581010759177112 -0.0012065798631157856 0 0.0029321051512150075 -0.0011340703131346025 0 0.0028241422381379173 -0.00051640660231238786 0 0.0029321051512150075 -0.0011340703131346025 0 0.0024180016775748221 -0.0010139371866742211 0 0.0028241422381379173 -0.00051640660231238786 0 0.019047026677548342 -0.0044265977217608967 0 0.019326056724213701 -0.0044951012858313365 0 0.019327576589391774 -0.004201394947364709 0 0.019047026677548342 -0.0044265977217608967 0 0.019326056724213701 -0.0044951012858313365 0 0.019283496071491536 -0.0047603108783056333 0 0.019326056724213701 -0.0044951012858313365 0 0.019283496071491536 -0.0047603108783056333 0 0.019486956873880343 -0.004642754115817339 0 0.019047026677548342 -0.0044265977217608967 0 0.019283496071491536 -0.0047603108783056333 0 0.018986780877239658 -0.0047314142593064996 0 0.019047026677548342 -0.0044265977217608967 0 0.018986780877239658 -0.0047314142593064996 0 0.018673237992785727 -0.0044824314563640067 0 0.017323416402417066 -0.0048270808223548423 0 0.0062769214402063284 -0.0012759259820291303 0 0.018792899108211501 -0.0051816398622988348 0 0.018118648509868433 -0.0043312705418274977 0 0.018673237992785727 -0.0044824314563640067 0 0.019047026677548342 -0.0044265977217608967 0 0.018673237992785727 -0.0044824314563640067 0 0.018769994176958835 -0.0039837907569865673 0 0.0018167626342475494 -0.00017156746693064562 0 0.001814971973044206 -0.00015858591425552997 0 0.001768308010858662 -0.00014645777682619108 0 0.018118648509868433 -0.0043312705418274977 0 0.018673237992785727 -0.0044824314563640067 0 0.018769994176958835 -0.0039837907569865673 0 0.0062769214402063284 -0.0012759259820291303 0 0.010760693991363627 -0.0019989421301665352 0 0.019047026677548342 -0.0044265977217608967 0 0.018769994176958835 -0.0039837907569865673 0 0.019327576589391774 -0.004201394947364709 0 0.018769994176958835 -0.0039837907569865673 0 0.019327576589391774 -0.004201394947364709 0 0.019219537084747305 -0.0037011787855687111 0 0.019327576589391774 -0.004201394947364709 0 0.019540371528643349 -0.0044261065575403047 0 0.019708002247491609 -0.0041754674673973287 0 0.019327576589391774 -0.004201394947364709 0 0.019708002247491609 -0.0041754674673973287 0 0.019597758657993875 -0.0037940033443927962 0 0.019326056724213701 -0.0044951012858313365 0 0.019540371528643349 -0.0044261065575403047 0 0.019486956873880343 -0.004642754115817339 0 0.019326056724213701 -0.0044951012858313365 0 0.019327576589391774 -0.004201394947364709 0 0.019540371528643349 -0.0044261065575403047 0 0.019540371528643349 -0.0044261065575403047 0 0.019688154901492696 -0.0046696942035031174 0 0.019747569938058106 -0.0044688656812378602 0 0.019540371528643349 -0.0044261065575403047 0 0.019747569938058106 -0.0044688656812378602 0 0.019708002247491609 -0.0041754674673973287 0 0.019540371528643349 -0.0044261065575403047 0 0.019688154901492696 -0.0046696942035031174 0 0.019486956873880343 -0.004642754115817339 0 0.019688154901492696 -0.0046696942035031174 0 0.019839077621477463 -0.0046149443390166257 0 0.01979651756780797 -0.0048718995211576195 0 0.019283496071491536 -0.0047603108783056333 0 0.019486956873880343 -0.004642754115817339 0 0.019610310727097485 -0.0048722722531088043 0 0.019688154901492696 -0.0046696942035031174 0 0.019486956873880343 -0.004642754115817339 0 0.019610310727097485 -0.0048722722531088043 0 0.020018883399534965 -0.0046240335880356406 0 0.019839077621477463 -0.0046149443390166257 0 0.01979651756780797 -0.0048718995211576195 0 0.020018883399534965 -0.0046240335880356406 0 0.019839077621477463 -0.0046149443390166257 0 0.01989415308651056 -0.0044362221281531045 0 0.019688154901492696 -0.0046696942035031174 0 0.019839077621477463 -0.0046149443390166257 0 0.019747569938058106 -0.0044688656812378602 0 0.019747569938058106 -0.0044688656812378602 0 0.01989415308651056 -0.0044362221281531045 0 0.019708002247491609 -0.0041754674673973287 0 0.019839077621477463 -0.0046149443390166257 0 0.019747569938058106 -0.0044688656812378602 0 0.01989415308651056 -0.0044362221281531045 0 0.020018883399534965 -0.0046240335880356406 0 0.01989415308651056 -0.0044362221281531045 0 0.019998147465590681 -0.0042783236620885685 0 0.019998147465590681 -0.0042783236620885685 0 0.019708002247491609 -0.0041754674673973287 0 0.019907007655403687 -0.0040210665763868369 0 0.01989415308651056 -0.0044362221281531045 0 0.019998147465590681 -0.0042783236620885685 0 0.019708002247491609 -0.0041754674673973287 0 0.019708002247491609 -0.0041754674673973287 0 0.019907007655403687 -0.0040210665763868369 0 0.019597758657993875 -0.0037940033443927962 0 0.019998147465590681 -0.0042783236620885685 0 0.019907007655403687 -0.0040210665763868369 0 0.020254037173656217 -0.0041108165683277301 0 0.019907007655403687 -0.0040210665763868369 0 0.020254037173656217 -0.0041108165683277301 0 0.019951968915383179 -0.0037363042853709775 0 0.020018883399534965 -0.0046240335880356406 0 0.019998147465590681 -0.0042783236620885685 0 0.020254037173656217 -0.0041108165683277301 0 0.014401199269356953 -0.0046178391613901333 0 0.019649584986814947 -0.0064684075480939598 0 0.019598971322116982 -0.0060816004067228034 0 0.019477961174685979 -0.0059213772345848917 0 0.019638460408739268 -0.0058921027122220528 0 0.019114493298512156 -0.0058756540402532679 0 0.019146630650602108 -0.0058841091301082516 0 0.019181519183226026 -0.0058816380778772669 0 0.019146630650602108 -0.0058841091301082516 0 0.019212104930814072 -0.0058789239645497017 0 0.019181519183226026 -0.0058816380778772669 0 0.019212104930814072 -0.0058789239645497017 0 0.019181519183226026 -0.0058816380778772669 0 0.019318967081713594 -0.0058198087246858496 0 0.019477961174685979 -0.0059213772345848917 0 0.019504878110617539 -0.005850917046226348 0 0.019568476058200938 -0.0058542123093026878 0 0.019477961174685979 -0.0059213772345848917 0 0.019504878110617539 -0.005850917046226348 0 0.019393208553776714 -0.0058414328131889907 0 0.019504878110617539 -0.005850917046226348 0 0.019393208553776714 -0.0058414328131889907 0 0.019581704468240452 -0.0057570405244295178 0 0.019649584986814947 -0.0064684075480939598 0 0.019170509848646981 -0.0056808350939160767 0 0.019477961174685979 -0.0059213772345848917 0 0.019318967081713594 -0.0058198087246858496 0 0.019393208553776714 -0.0058414328131889907 0 0.019822495691237795 -0.0057510234706805441 0 0.019598971322116982 -0.0060816004067228034 0 0.019638460408739268 -0.0058921027122220528 0 0.020676528985220252 -0.0049680796353503628 0 0.014401199269356953 -0.0046178391613901333 0 0.019477961174685979 -0.0059213772345848917 0 0.019638460408739268 -0.0058921027122220528 0 0.019568476058200938 -0.0058542123093026878 0 0.019638460408739268 -0.0058921027122220528 0 0.019568476058200938 -0.0058542123093026878 0 0.019648277254106922 -0.005797513980446002 0 0.019568476058200938 -0.0058542123093026878 0 0.019648277254106922 -0.005797513980446002 0 0.019581704468240452 -0.0057570405244295178 0 0.019504878110617539 -0.005850917046226348 0 0.019568476058200938 -0.0058542123093026878 0 0.019581704468240452 -0.0057570405244295178 0 0.019648277254106922 -0.005797513980446002 0 0.019581704468240452 -0.0057570405244295178 0 0.019708514470313122 -0.005680160928189972 0 0.019648277254106922 -0.005797513980446002 0 0.019740887290222494 -0.0057762128630381498 0 0.019708514470313122 -0.005680160928189972 0 0.019822495691237795 -0.0057510234706805441 0 0.019638460408739268 -0.0058921027122220528 0 0.019740887290222494 -0.0057762128630381498 0 0.019638460408739268 -0.0058921027122220528 0 0.019648277254106922 -0.005797513980446002 0 0.019740887290222494 -0.0057762128630381498 0 0.019581704468240452 -0.0057570405244295178 0 0.019708514470313122 -0.005680160928189972 0 0.019659045922889241 -0.0054146093815149376 0 0.019740887290222494 -0.0057762128630381498 0 0.019708514470313122 -0.005680160928189972 0 0.019818609255440701 -0.0055418359148178397 0 0.019708514470313122 -0.005680160928189972 0 0.019818609255440701 -0.0055418359148178397 0 0.019659045922889241 -0.0054146093815149376 0 0.019318967081713594 -0.0058198087246858496 0 0.019717512625845889 -0.0056073834985865181 0 0.01929859104252624 -0.0057317593789726557 0 0.019423148160253065 -0.0058197421442471369 0 0.019688058298003838 -0.0055119441003515721 0 0.019318967081713594 -0.0058198087246858496 0 0.019393208553776714 -0.0058414328131889907 0 0.019717512625845889 -0.0056073834985865181 0 0.019393208553776714 -0.0058414328131889907 0 0.019581704468240452 -0.0057570405244295178 0 0.019659045922889241 -0.0054146093815149376 0 0.019499552134256051 -0.0053556272325733937 0 0.019717512625845889 -0.0056073834985865181 0 0.01929859104252624 -0.0057317593789726557 0 0.019765025602424009 -0.0053516286065618405 0 0.019499552134256051 -0.0053556272325733937 0 0.019717512625845889 -0.0056073834985865181 0 0.020039498987908654 -0.0050300737410576635 0 0.019659045922889241 -0.0054146093815149376 0 0.020014546942774724 -0.0052346762287941414 0 0.019765025602424009 -0.0053516286065618405 0 0.020052912627967285 -0.0052396163960664807 0 0.019717512625845889 -0.0056073834985865181 0 0.020052225672853388 -0.0051392617187704295 0 0.019688058298003838 -0.0055119441003515721 0 0.019888795715313115 -0.0053979688489399534 0 0.019659045922889241 -0.0054146093815149376 0 0.020014546942774724 -0.0052346762287941414 0 0.019818609255440701 -0.0055418359148178397 0 0.019888795715313115 -0.0053979688489399534 0 0.019659045922889241 -0.0054146093815149376 0 0.020363671286353646 -0.0049850767236176334 0 0.020014546942774724 -0.0052346762287941414 0 0.02008424610959357 -0.0054030348662728886 0 0.019818609255440701 -0.0055418359148178397 0 0.019888795715313115 -0.0053979688489399534 0 0.02008424610959357 -0.0054030348662728886 0 0.019888795715313115 -0.0053979688489399534 0 0.020014546942774724 -0.0052346762287941414 0 0.02008424610959357 -0.0054030348662728886 0 0.01985189538559895 -0.0053382005681853707 0 0.019785786032143954 -0.0052933133438983915 0 0.019813027319805849 -0.0053613254129498732 0 0.019755492511140095 -0.005374299950694484 0 0.019813027319805849 -0.0053613254129498732 0 0.019665733747329418 -0.0052488730383464036 0 0.019785786032143954 -0.0052933133438983915 0 0.019813027319805849 -0.0053613254129498732 0 0.019826107287408322 -0.0052740506200393607 0 0.019813027319805849 -0.0053613254129498732 0 0.019665733747329418 -0.0052488730383464036 0 0.019826107287408322 -0.0052740506200393607 0 0.019826107287408322 -0.0052740506200393607 0 0.019671599751838451 -0.0050715268255584539 0 0.01979651756780797 -0.0048718995211576195 0 0.019665733747329418 -0.0052488730383464036 0 0.019826107287408322 -0.0052740506200393607 0 0.019671599751838451 -0.0050715268255584539 0 0.019665733747329418 -0.0052488730383464036 0 0.019671599751838451 -0.0050715268255584539 0 0.019504269888395275 -0.0050281856932657418 0 0.019283496071491536 -0.0047603108783056333 0 0.019504269888395275 -0.0050281856932657418 0 0.019610310727097485 -0.0048722722531088043 0 0.019671599751838451 -0.0050715268255584539 0 0.019504269888395275 -0.0050281856932657418 0 0.019610310727097485 -0.0048722722531088043 0 0.019688154901492696 -0.0046696942035031174 0 0.019610310727097485 -0.0048722722531088043 0 0.01979651756780797 -0.0048718995211576195 0 0.019671599751838451 -0.0050715268255584539 0 0.019610310727097485 -0.0048722722531088043 0 0.01979651756780797 -0.0048718995211576195 0 0.019740887290222494 -0.0057762128630381498 0 0.019818609255440701 -0.0055418359148178397 0 0.02008424610959357 -0.0054030348662728886 0 0.019822495691237795 -0.0057510234706805441 0 0.019740887290222494 -0.0057762128630381498 0 0.019785786032143954 -0.0052933133438983915 0 0.020018883399534965 -0.0046240335880356406 0 0.019826107287408322 -0.0052740506200393607 0 0.01979651756780797 -0.0048718995211576195 0 0.019759718204237796 -0.0057318891565486998 0 0.019937933826880506 -0.0053561948875762077 0 0.020676528985220252 -0.0049680796353503628 0 0.019585045710595488 -0.0054500537514866427 0 0.019822495691237795 -0.0057510234706805441 0 0.019785786032143954 -0.0052933133438983915 0 0.019826107287408322 -0.0052740506200393607 0 0.019325927848361565 -7.4703489841249622e-07 0 0.019629712794157584 -0.00049225171876840978 0 0.018573462230601606 -0.00029895502766297337 0 0.019629712794157584 -0.00049225171876840978 0 0.019567016324926415 -0.00062748374473565506 0 0.018573462230601606 -0.00029895502766297337 0 0.019629712794157584 -0.00049225171876840978 0 0.020041661868154221 -0.00071459972126576229 0 0.019567016324926415 -0.00062748374473565506 0 0.019629712794157584 -0.00049225171876840978 0 0.020804216618159663 -0.00042926096040771852 0 0.020041661868154221 -0.00071459972126576229 0 0.020804216618159663 -0.00042926096040771852 0 0.020307942693894514 -0.00028564917166602478 0 0.020041661868154221 -0.00071459972126576229 0 0.019325927848361565 -7.4703489841249622e-07 0 0.020804216618159663 -0.00042926096040771852 0 0.022276418137095366 -1.3617545464150969e-06 0 0.019325927848361565 -7.4703489841249622e-07 0 0.019629712794157584 -0.00049225171876840978 0 0.020804216618159663 -0.00042926096040771852 0 0.020804216618159663 -0.00042926096040771852 0 0.022276418137095366 -1.3617545464150969e-06 0 0.0220906997587169 0.00030080819798205594 0 0.025226534002896327 -9.8032910569503151e-08 0 0.023108700472648663 -0.00036737342138105363 0 0.025223873189837116 2.5725939027049858e-06 0 0.022276418137095366 -1.3617545464150969e-06 0 0.0220906997587169 0.00030080819798205594 0 0.024521552265529555 0.00043014801555528182 0 0.024236937302791958 -0.00078935979375909448 0 0.02198339761145424 -0.00037216395971500452 0 0.024236937302791958 -0.00078935979375909448 0 0.022365818132567588 -0.0015174911751401707 0 0.02198339761145424 -0.00037216395971500452 0 0.020804216618159663 -0.00042926096040771852 0 0.0220906997587169 0.00030080819798205594 0 0.020307942693894514 -0.00028564917166602478 0 0.023108700472648663 -0.00036737342138105363 0 0.021444155907110258 -0.00084899589123397211 0 0.021368354893537059 -0.0012070273080559131 0 0.022365818132567588 -0.0015174911751401707 0 0.020443898468218334 -0.0011320967117153025 0 0.021368354893537059 -0.0012070273080559131 0 0.022365818132567588 -0.0015174911751401707 0 0.02198339761145424 -0.00037216395971500452 0 0.021444155907110258 -0.00084899589123397211 0 0.020676347021484041 -0.0010734321734204584 0 0.022546881175340636 -0.00084236969365187686 0 0.02114812889907413 -0.0013731435461611285 0 0.023003598671511697 -0.0013552492782288835 0 0.021561970913200054 -0.00086603371422508315 0 0.020962069041619933 -0.0013931498779026844 0 0.021368354893537059 -0.0012070273080559131 0 0.02198339761145424 -0.00037216395971500452 0 0.020962069041619933 -0.0013931498779026844 0 0.021368354893537059 -0.0012070273080559131 0 0.020962069041619933 -0.0013931498779026844 0 0.020443898468218334 -0.0011320967117153025 0 0.020962069041619933 -0.0013931498779026844 0 0.020657846166814157 -0.0011639035338644726 0 0.020443898468218334 -0.0011320967117153025 0 0.020443898468218334 -0.0011320967117153025 0 0.019567016324926415 -0.00062748374473565506 0 0.020355805070092905 -0.00079694373830577799 0 0.020657846166814157 -0.0011639035338644726 0 0.020443898468218334 -0.0011320967117153025 0 0.020355805070092905 -0.00079694373830577799 0 0.020443898468218334 -0.0011320967117153025 0 0.020041661868154221 -0.00071459972126576229 0 0.019567016324926415 -0.00062748374473565506 0 0.020307942693894514 -0.00028564917166602478 0 0.020443898468218334 -0.0011320967117153025 0 0.020041661868154221 -0.00071459972126576229 0 0.019567016324926415 -0.00062748374473565506 0 0.020355805070092905 -0.00079694373830577799 0 0.019832094658736216 -0.00043601002793321609 0 0.020355805070092905 -0.00079694373830577799 0 0.020274397793240972 -0.00046871821988264624 0 0.020543560288038207 -0.00073801329310239081 0 0.020355805070092905 -0.00079694373830577799 0 0.020274397793240972 -0.00046871821988264624 0 0.019832094658736216 -0.00043601002793321609 0 0.020274397793240972 -0.00046871821988264624 0 0.020543560288038207 -0.00073801329310239081 0 0.020752383942213119 -0.00038291822312707248 0 0.020543560288038207 -0.00073801329310239081 0 0.020812254550934661 -0.00074572839233046323 0 0.020752383942213119 -0.00038291822312707248 0 0.020543560288038207 -0.00073801329310239081 0 0.020436043470970788 -0.0009340125984185568 0 0.020824045738388593 -0.0010063142282944295 0 0.020543560288038207 -0.00073801329310239081 0 0.020824045738388593 -0.0010063142282944295 0 0.020812254550934661 -0.00074572839233046323 0 0.020355805070092905 -0.00079694373830577799 0 0.020543560288038207 -0.00073801329310239081 0 0.020436043470970788 -0.0009340125984185568 0 0.020523768360109537 -0.0010182443799668069 0 0.020347365216604758 -0.00055087331455939514 0 0.020657846166814157 -0.0011639035338644726 0 0.020355805070092905 -0.00079694373830577799 0 0.020872554623736224 -0.0012667775385411585 0 0.020962069041619933 -0.0013931498779026844 0 0.020657846166814157 -0.0011639035338644726 0 0.020872554623736224 -0.0012667775385411585 0 0.020962069041619933 -0.0013931498779026844 0 0.020872554623736224 -0.0012667775385411585 0 0.020764557499154231 -0.0012719755745381044 0 0.020347365216604758 -0.00055087331455939514 0 0.028229595793065561 -0.00093979832385079182 0 0.028396158932416957 -0.00052151670251438409 0 0.028229595793065561 -0.00093979832385079182 0 0.021561970913200054 -0.00086603371422508315 0 0.020962069041619933 -0.0013931498779026844 0 0.020764557499154231 -0.0012719755745381044 0 0.035309746696297661 -1.5370977636825241e-05 0 0.03540943228612238 -1.7905956780574841e-05 0 0.035388019038447509 6.1760053221775326e-05 0 0.03610793269050664 -0.00034230330897494141 0 0.028229595793065561 -0.00093979832385079182 0 0.035081790943383172 -5.5280176638847808e-05 0 0.035064897315132675 -0.00040019613430985839 0 0.035518007072433522 -0.00081720143464127136 0 0.035519334648684647 -2.229025841588629e-05 0 0.03540943228612238 -1.7905956780574841e-05 0 0.035388019038447509 6.1760053221775326e-05 0 0.028229595793065561 -0.00093979832385079182 0 0.027867833386065334 -0.0013217207449977054 0 0.020436043470970788 -0.0009340125984185568 0 0.020610333133671478 -0.0011624888971415307 0 0.020824045738388593 -0.0010063142282944295 0 0.035064897315132675 -0.00040019613430985839 0 0.035518007072433522 -0.00081720143464127136 0 0.034371739256996367 -0.0019846083903326851 0 0.034371739256996367 -0.0019846083903326851 0 0.03322548215863632 -0.001197581015122591 0 0.032864968467875975 -0.0030776028544858398 0 0.035064897315132675 -0.00040019613430985839 0 0.034371739256996367 -0.0019846083903326851 0 0.03322548215863632 -0.001197581015122591 0 0.035081790943383172 -5.5280176638847808e-05 0 0.035064897315132675 -0.00040019613430985839 0 0.035248197804359109 -3.0429692977972087e-05 0 0.035069893712724856 -0.00033564722707522571 0 0.034135486336716127 8.4859695885637249e-05 0 0.035064897315132675 -0.00040019613430985839 0 0.03322548215863632 -0.001197581015122591 0 0.033202448807714523 0.00023374833182558617 0 0.034064500932917595 0.00034087722906234343 0 0.034135486336716127 8.4859695885637249e-05 0 0.03322548215863632 -0.001197581015122591 0 0.033202448807714523 0.00023374833182558617 0 0.032025180385801821 -0.00035520221142557414 0 0.031407582853809686 0.00075594521719465695 0 0.033202448807714523 0.00023374833182558617 0 0.032025180385801821 -0.00035520221142557414 0 0.03322548215863632 -0.001197581015122591 0 0.031804919534952396 -0.0016212716740670666 0 0.032864968467875975 -0.0030776028544858398 0 0.03322548215863632 -0.001197581015122591 0 0.032025180385801821 -0.00035520221142557414 0 0.031804919534952396 -0.0016212716740670666 0 0.02701665593439637 -0.0037046699034552952 0 0.024992988410697293 -0.0024927636338999727 0 0.021246660102411174 -0.0051128626837604399 0 0.021421722076766063 -0.0048826188887917668 0 0.021650115129181011 -0.005152687779274359 0 0.027867833386065334 -0.0013217207449977054 0 0.024992988410697293 -0.0024927636338999727 0 0.020824045738388593 -0.0010063142282944295 0 0.021156687690720263 -0.00082116727492070516 0 0.020812254550934661 -0.00074572839233046323 0 0.021156687690720263 -0.00082116727492070516 0 0.020812254550934661 -0.00074572839233046323 0 0.020752383942213119 -0.00038291822312707248 0 0.021008377071890377 -0.00071306653261743187 0 0.020752383942213119 -0.00038291822312707248 0 0.021045186879029489 -0.0003797964922242812 0 0.024992988410697293 -0.0024927636338999727 0 0.01948366961699877 0.00056909579643298297 0 0.021351583096840016 -0.00043684460997251925 0 0.021008377071890377 -0.00071306653261743187 0 0.021045186879029489 -0.0003797964922242812 0 0.016040782023131191 -0.0033889908896822677 0 0.024992988410697293 -0.0024927636338999727 0 0.021351583096840016 -0.00043684460997251925 0 0.021045186879029489 -0.0003797964922242812 0 0.02108760624075242 -7.8167244520469386e-06 0 0.021045186879029489 -0.0003797964922242812 0 0.020746206112443561 -5.6705734940754623e-06 0 0.02108760624075242 -7.8167244520469386e-06 0 0.020752383942213119 -0.00038291822312707248 0 0.021045186879029489 -0.0003797964922242812 0 0.020746206112443561 -5.6705734940754623e-06 0 0.020746206112443561 -5.6705734940754623e-06 0 0.02108760624075242 -7.8167244520469386e-06 0 0.020725366316799006 0.00060887728630900913 0 0.011149394748306127 -0.0010225828745311796 0 0.011234977625451855 -0.00042426783194768851 0 0.0030039581959791133 -0.0018446622859269251 0 0.0023634266877788673 -0.00258152865427622 0 0.0016649285038577812 -0.0013566049901930521 0 0.0030039581959791133 -0.0018446622859269251 0 0.0024180016775748221 -0.0010139371866742211 0 0.0016649285038577812 -0.0013566049901930521 0 0.0024180016775748221 -0.0010139371866742211 0 0.0019352499759823477 -0.00041417904161336204 0 0.0028241422381379173 -0.00051640660231238786 0 0.0024180016775748221 -0.0010139371866742211 0 0.0016649285038577812 -0.0013566049901930521 0 0.0019352499759823477 -0.00041417904161336204 0 0.0016649285038577812 -0.0013566049901930521 0 0.0013025458772197515 -0.00066007267980882007 0 0.0019352499759823477 -0.00041417904161336204 0 0.020725366316799006 0.00060887728630900913 0 0.020106676945752633 0.00088299508199675197 0 0.020201150204828461 0.00038240002382524784 0 0.011234977625451855 -0.00042426783194768851 0 0.011123178223314927 0.0002414498416132943 0 0.020725366316799006 0.00060887728630900913 0 0.0201425302272428 0.0013668692243664509 0 0.020106676945752633 0.00088299508199675197 0 0.0201425302272428 0.0013668692243664509 0 0.019630090039815005 0.0013879236343205038 0 0.020106676945752633 0.00088299508199675197 0 0.019630090039815005 0.0013879236343205038 0 0.019643318084082591 0.00091989555942235349 0 0.020106676945752633 0.00088299508199675197 0 0.019643318084082591 0.00091989555942235349 0 0.020201150204828461 0.00038240002382524784 0 0.019626040734209448 0.00043581890788249871 0 0.019643318084082591 0.00091989555942235349 0 0.020106676945752633 0.00088299508199675197 0 0.020201150204828461 0.00038240002382524784 0 0.020201150204828461 0.00038240002382524784 0 0.019968129201132768 -2.2016357090163283e-05 0 0.020406208217760593 -9.5195816181742362e-05 0 0.020201150204828461 0.00038240002382524784 0 0.019968129201132768 -2.2016357090163283e-05 0 0.019626040734209448 0.00043581890788249871 0 0.020746206112443561 -5.6705734940754623e-06 0 0.020725366316799006 0.00060887728630900913 0 0.020201150204828461 0.00038240002382524784 0 0.020746206112443561 -5.6705734940754623e-06 0 0.020201150204828461 0.00038240002382524784 0 0.020406208217760593 -9.5195816181742362e-05 0 0.020274397793240972 -0.00046871821988264624 0 0.020752383942213119 -0.00038291822312707248 0 0.020406208217760593 -9.5195816181742362e-05 0 0.020752383942213119 -0.00038291822312707248 0 0.020746206112443561 -5.6705734940754623e-06 0 0.020406208217760593 -9.5195816181742362e-05 0 0.020274397793240972 -0.00046871821988264624 0 0.019968129201132768 -2.2016357090163283e-05 0 0.020406208217760593 -9.5195816181742362e-05 0 0.020274397793240972 -0.00046871821988264624 0 0.019968129201132768 -2.2016357090163283e-05 0 0.019832094658736216 -0.00043601002793321609 0 0.019968129201132768 -2.2016357090163283e-05 0 0.019832094658736216 -0.00043601002793321609 0 0.01938116227017736 9.1653771857704391e-05 0 0.019832094658736216 -0.00043601002793321609 0 0.01830541045175987 -0.00021774042727196638 0 0.01938116227017736 9.1653771857704391e-05 0 0.019567016324926415 -0.00062748374473565506 0 0.019832094658736216 -0.00043601002793321609 0 0.01830541045175987 -0.00021774042727196638 0 0.01830541045175987 -0.00021774042727196638 0 0.016781038665963841 -0.00023690443623634996 0 0.01651978101584119 -0.00020559444899847598 0 0.01830541045175987 -0.00021774042727196638 0 0.01938116227017736 9.1653771857704391e-05 0 0.019025382052860404 0.00072258543388833757 0 0.018014818347729156 -0.00036150296000125171 0 0.018492522169879143 0.00036435109145176278 0 0.01938116227017736 9.1653771857704391e-05 0 0.019626040734209448 0.00043581890788249871 0 0.019025382052860404 0.00072258543388833757 0 0.019968129201132768 -2.2016357090163283e-05 0 0.01938116227017736 9.1653771857704391e-05 0 0.019626040734209448 0.00043581890788249871 0 0.013366586381786033 0.00097397600540671348 0 0.018492522169879143 0.00036435109145176278 0 0.019643318084082591 0.00091989555942235349 0 0.019284383991294712 0.0012703664868300073 0 0.019025382052860404 0.00072258543388833757 0 0.019643318084082591 0.00091989555942235349 0 0.019626040734209448 0.00043581890788249871 0 0.019025382052860404 0.00072258543388833757 0 0.019630090039815005 0.0013879236343205038 0 0.019643318084082591 0.00091989555942235349 0 0.01909143570654807 0.0013206369280402259 0 0.020338145194174366 7.0622720790968042e-06 0 0.013366586381786033 0.00097397600540671348 0 0.016335893885252493 4.5761634742688048e-05 0 0.015252778442672869 0.00015923307936555281 0 0.016074928020821812 0.0012404516326412649 0 0.01685916966563315 0.00032792368588493884 0 0.016335893885252493 4.5761634742688048e-05 0 0.016781038665963841 -0.00023690443623634996 0 0.01685916966563315 0.00032792368588493884 0 0.016335893885252493 4.5761634742688048e-05 0 0.016074928020821812 0.0012404516326412649 0 0.016335893885252493 4.5761634742688048e-05 0 0.016781038665963841 -0.00023690443623634996 0 0.01651978101584119 -0.00020559444899847598 0 0.016335893885252493 4.5761634742688048e-05 0 0.01651978101584119 -0.00020559444899847598 0 0.015252778442672869 0.00015923307936555281 0 0.01651978101584119 -0.00020559444899847598 0 0.015252778442672869 0.00015923307936555281 0 0.013426643195005453 4.9161989448604776e-08 0 0.015252778442672869 0.00015923307936555281 0 0.013426643195005453 4.9161989448604776e-08 0 0.014238036855740105 0.00053170631904693347 0 0.01651978101584119 -0.00020559444899847598 0 0.013426643195005453 4.9161989448604776e-08 0 0.016375711944103605 -6.7591299097294298e-07 0 0.01651978101584119 -0.00020559444899847598 0 0.016375711944103605 -6.7591299097294298e-07 0 0.018573462230601606 -0.00029895502766297337 0 0.01830541045175987 -0.00021774042727196638 0 0.01651978101584119 -0.00020559444899847598 0 0.018573462230601606 -0.00029895502766297337 0 0.019567016324926415 -0.00062748374473565506 0 0.01830541045175987 -0.00021774042727196638 0 0.018573462230601606 -0.00029895502766297337 0 0.019325927848361565 -7.4703489841249622e-07 0 0.016375711944103605 -6.7591299097294298e-07 0 0.018573462230601606 -0.00029895502766297337 0 0.0075235547218663384 -3.6853445026720658e-07 0 0.0077176710380377263 1.2235484129215951e-05 0 0.0060518649777807736 2.2067452342753843e-06 0 0.0021325305239281345 0.00071193825520661784 0 0.001904184931530468 0.00075376872446070024 0 0.0022274006369415247 0.00082766219566757487 0 0.0077904142966103819 0.0016232656201308644 0 0.0042296981281154796 -0.0001019675608051462 0 0.0021325305239281345 0.00071193825520661784 0 0.0022274006369415247 0.00082766219566757487 0 0.002557476957130351 0.00067435029055439911 0 0.0075247874050642146 2.3223294766336382e-06 0 0.0077904142966103819 0.0016232656201308644 0 0.0021325305239281345 0.00071193825520661784 0 0.0016800052879538453 0.00060453119993839652 0 0.0021438792697457587 0.00051533296467783443 0 0.0016800052879538453 0.00060453119993839652 0 0.001904184931530468 0.00075376872446070024 0 0.0015988747341905637 0.00067976424052772579 0 0.0021325305239281345 0.00071193825520661784 0 0.0016800052879538453 0.00060453119993839652 0 0.001904184931530468 0.00075376872446070024 0 0.001904184931530468 0.00075376872446070024 0 0.0018729832454420429 0.00085819082578291893 0 0.0015988747341905637 0.00067976424052772579 0 0.0075238691104203134 -6.3129581748552496e-07 0 0.010474654281816332 1.2871070135515943e-06 0 0.0097993042086516931 -1.5949977449468203e-05 0 0.0077904142966103819 0.0016232656201308644 0 0.011304385115267577 0.0014385448882277606 0 0.001904184931530468 0.00075376872446070024 0 0.0022274006369415247 0.00082766219566757487 0 0.0018729832454420429 0.00085819082578291893 0 0.0075238691104203134 -6.3129581748552496e-07 0 0.0079351750898345244 4.8632308723697964e-06 0 0.0097993042086516931 -1.5949977449468203e-05 0 0.0077904142966103819 0.0016232656201308644 0 0.0080885439958951772 0.0021657877322443357 0 0.012422016102170291 0.0051558595550697858 0 0.012515475742637729 0.0029115212733833314 0 0.014393753946014784 0.0031439553619760268 0 0.011304385115267577 0.0014385448882277606 0 0.01203861131210315 0.00010559323625683676 0 0.012515475742637729 0.0029115212733833314 0 0.013771998062753928 0.0017444325636569963 0 0.014393753946014784 0.0031439553619760268 0 0.010474654281816332 1.2871070135515943e-06 0 0.0097993042086516931 -1.5949977449468203e-05 0 0.012382559727526755 0.00024045735286478027 0 0.012515475742637729 0.0029115212733833314 0 0.013771998062753928 0.0017444325636569963 0 0.012382559727526755 0.00024045735286478027 0 0.013426643195005453 4.9161989448604776e-08 0 0.010474654281816332 1.2871070135515943e-06 0 0.012382559727526755 0.00024045735286478027 0 0.013426643195005453 4.9161989448604776e-08 0 0.012382559727526755 0.00024045735286478027 0 0.014238036855740105 0.00053170631904693347 0 0.013771998062753928 0.0017444325636569963 0 0.012382559727526755 0.00024045735286478027 0 0.014238036855740105 0.00053170631904693347 0 0.013771998062753928 0.0017444325636569963 0 0.014238036855740105 0.00053170631904693347 0 0.016074928020821812 0.0012404516326412649 0 0.015252778442672869 0.00015923307936555281 0 0.014238036855740105 0.00053170631904693347 0 0.016074928020821812 0.0012404516326412649 0 0.0080885439958951772 0.0021657877322443357 0 0.008319143511292218 0.0012404082408186557 0 0.013771998062753928 0.0017444325636569963 0 0.014393753946014784 0.0031439553619760268 0 0.016074928020821812 0.0012404516326412649 0 0.0018729832454420429 0.00085819082578291893 0 0.0015987215017640394 0.00075434720640355543 0 0.0017069130177580192 0.00087145112582765805 0 0.0015987215017640394 0.00075434720640355543 0 0.0017069130177580192 0.00087145112582765805 0 0.0015612454509981353 0.00083549227083202929 0 0.013366586381786033 0.00097397600540671348 0 0.008319143511292218 0.0012404082408186557 0 0.0016346007121598306 0.0010378277112602584 0 0.0017069130177580192 0.00087145112582765805 0 0.0015612454509981353 0.00083549227083202929 0 0.0016346007121598306 0.0010378277112602584 0 0.0015612454509981353 0.00083549227083202929 0 0.0014092129798828172 0.00079452042254441217 0 0.019630090039815005 0.0013879236343205038 0 0.01909143570654807 0.0013206369280402259 0 0.019366078792458843 0.0021393908162974976 0 0.013366586381786033 0.00097397600540671348 0 0.0077168541765929048 0.0010241740514094959 0 0.0015987215017640394 0.00075434720640355543 0 0.0015612454509981353 0.00083549227083202929 0 0.0014247766040009155 0.00071288873654477586 0 0.0015987215017640394 0.00075434720640355543 0 0.0014247766040009155 0.00071288873654477586 0 0.0013559883410015454 0.00050943423820252564 0 0.0077168541765929048 0.0010241740514094959 0 0.0046213379361887547 0.0022807220416704863 0 0.0014247766040009155 0.00071288873654477586 0 0.0013559883410015454 0.00050943423820252564 0 0.0011856466417158068 0.0003183212461131129 0 0.0015612454509981353 0.00083549227083202929 0 0.0014092129798828172 0.00079452042254441217 0 0.0014247766040009155 0.00071288873654477586 0 0.0013559883410015454 0.00050943423820252564 0 0.0012321653778224039 0.00035459657546335366 0 0.0011856466417158068 0.0003183212461131129 0 0.0013559883410015454 0.00050943423820252564 0 0.0015988747341905637 0.00067976424052772579 0 0.0011201316425926984 0.00043816934175343867 0 0.0018729832454420429 0.00085819082578291893 0 0.0015987215017640394 0.00075434720640355543 0 0.0015988747341905637 0.00067976424052772579 0 0.0015987215017640394 0.00075434720640355543 0 0.0013559883410015454 0.00050943423820252564 0 0.0015988747341905637 0.00067976424052772579 0 0.0016800052879538453 0.00060453119993839652 0 0.0015988747341905637 0.00067976424052772579 0 0.0011201316425926984 0.00043816934175343867 0 0.0013559883410015454 0.00050943423820252564 0 0.0011201316425926984 0.00043816934175343867 0 0.0012321653778224039 0.00035459657546335366 0 0.0011201316425926984 0.00043816934175343867 0 0.0013337359169203311 0.00028651098686788317 0 0.0012321653778224039 0.00035459657546335366 0 0.0013337359169203311 0.00028651098686788317 0 0.0013404780593171295 0.00023364522407010334 0 0.0014624491900764821 0.0001808144032709457 0 0.0013337359169203311 0.00028651098686788317 0 0.0014624491900764821 0.0001808144032709457 0 0.0013896820307491501 0.00019424764842333121 0 0.0013404780593171295 0.00023364522407010334 0 0.0016043997472674676 -1.7407389952158608e-05 0 0.0014624491900764821 0.0001808144032709457 0 0.0013404780593171295 0.00023364522407010334 0 0.0012321653778224039 0.00035459657546335366 0 0.0011856466417158068 0.0003183212461131129 0 0.0013337359169203311 0.00028651098686788317 0 0.0013404780593171295 0.00023364522407010334 0 0.0012321653778224039 0.00035459657546335366 0 0.0013404780593171295 0.00023364522407010334 0 0.0011856466417158068 0.0003183212461131129 0 0.001300842959982552 -6.9676860492480928e-05 0 0.0077168541765929048 0.0010241740514094959 0 0.00089924131347081978 -0.00068547856991255573 0 0.00097540903670101256 -0.00012005168012153401 0 0.0011856466417158068 0.0003183212461131129 0 0.001300842959982552 -6.9676860492480928e-05 0 0.0013209073523515978 0.00084358263366234737 0 0.0014247766040009155 0.00071288873654477586 0 0.0011856466417158068 0.0003183212461131129 0 0.011123178223314927 0.0002414498416132943 0 0.0077168541765929048 0.0010241740514094959 0 0.0201425302272428 0.0013668692243664509 0 0.019630090039815005 0.0013879236343205038 0 0.019366078792458843 0.0021393908162974976 0 0.0013025458772197515 -0.00066007267980882007 0 0.00097540903670101256 -0.00012005168012153401 0 0.001300842959982552 -6.9676860492480928e-05 0 0.0013025458772197515 -0.00066007267980882007 0 0.001300842959982552 -6.9676860492480928e-05 0 0.0016043997472674676 -1.7407389952158608e-05 0 0.0013404780593171295 0.00023364522407010334 0 0.001300842959982552 -6.9676860492480928e-05 0 0.0016043997472674676 -1.7407389952158608e-05 0 0.0013025458772197515 -0.00066007267980882007 0 0.0016043997472674676 -1.7407389952158608e-05 0 0.0019352499759823477 -0.00041417904161336204 0 0.0019352499759823477 -0.00041417904161336204 0 0.0018823597026820015 -4.6862171506477971e-05 0 0.0028241422381379173 -0.00051640660231238786 0 0.0016043997472674676 -1.7407389952158608e-05 0 0.0019352499759823477 -0.00041417904161336204 0 0.0018823597026820015 -4.6862171506477971e-05 0 0.0016043997472674676 -1.7407389952158608e-05 0 0.0018823597026820015 -4.6862171506477971e-05 0 0.001611641603511862 5.522651695373707e-05 0 0.0016043997472674676 -1.7407389952158608e-05 0 0.001611641603511862 5.522651695373707e-05 0 0.0014624491900764821 0.0001808144032709457 0 0.0014624491900764821 0.0001808144032709457 0 0.0014044932214982661 0.000110890461873515 0 0.0013896820307491501 0.00019424764842333121 0 0.001611641603511862 5.522651695373707e-05 0 0.0014624491900764821 0.0001808144032709457 0 0.0014044932214982661 0.000110890461873515 0 0.001611641603511862 5.522651695373707e-05 0 0.0014044932214982661 0.000110890461873515 0 0.0016052756576812545 -8.5611155113408342e-05 0 0.0014044932214982661 0.000110890461873515 0 0.0013896820307491501 0.00019424764842333121 0 0.0013418854299705903 9.0873994636847259e-05 0 0.0014044932214982661 0.000110890461873515 0 0.0013418854299705903 9.0873994636847259e-05 0 0.0011877290104823661 4.8461763823325426e-05 0 0.0013418854299705903 9.0873994636847259e-05 0 0.0011877290104823661 4.8461763823325426e-05 0 0.00091491627431782669 -4.579572247078989e-05 0 0.00085846428157535231 -7.0335272496319234e-05 0 0.00092339401500247118 -4.6221301518841196e-05 0 0.00064592272074292655 3.8662567509813947e-05 0 0.00037788660430568651 -0.00014760761053973846 0 0.00091491627431782669 -4.579572247078989e-05 0 0.00037316824507092579 -0.00027136259573529371 0 0.00037788660430568651 -0.00014760761053973846 0 0.00091491627431782669 -4.579572247078989e-05 0 0.00037316824507092579 -0.00027136259573529371 0 0.00037788660430568651 -0.00014760761053973846 0 0.00028903824188330839 -0.00026272535743589778 0 0.00035837498802332283 -5.7511021214902982e-05 0 0.00018769557754467556 -0.00021550036750904664 0 0.00037788660430568651 -0.00014760761053973846 0 0.00018769557754467556 -0.00021550036750904664 0 0.00037788660430568651 -0.00014760761053973846 0 0.00028903824188330839 -0.00026272535743589778 0 0.00018769557754467556 -0.00021550036750904664 0 0.00028903824188330839 -0.00026272535743589778 0 8.8063989471622205e-05 -0.00036977338507117856 0 0.00028903824188330839 -0.00026272535743589778 0 0.00034607410011902053 5.0463976993288477e-06 0 0.00071100783294960419 -2.4874773106019083e-05 0 0.00085846428157535231 -7.0335272496319234e-05 0 0.00085672511450764124 0.00013432401523785499 0 0.00037316824507092579 -0.00027136259573529371 0 0.00028903824188330839 -0.00026272535743589778 0 0.00034607410011902053 5.0463976993288477e-06 0 0.0013896820307491501 0.00019424764842333121 0 0.0013418854299705903 9.0873994636847259e-05 0 0.0013525777896642118 0.00027229798878085132 0 0.0013337359169203311 0.00028651098686788317 0 0.0013896820307491501 0.00019424764842333121 0 0.0013525777896642118 0.00027229798878085132 0 0.0011201316425926984 0.00043816934175343867 0 0.0013337359169203311 0.00028651098686788317 0 0.0013525777896642118 0.00027229798878085132 0 0.0010949806745668156 0.00040747322070015178 0 0.00085672511450764124 0.00013432401523785499 0 0.0011201316425926984 0.00043816934175343867 0 0.00034607410011902053 5.0463976993288477e-06 0 0.00071100783294960419 -2.4874773106019083e-05 0 0.0011201316425926984 0.00043816934175343867 0 0.00071100783294960419 -2.4874773106019083e-05 0 0.0013485708385413972 0.00019141395508979868 0 0.0016800052879538453 0.00060453119993839652 0 0.0011201316425926984 0.00043816934175343867 0 0.0013485708385413972 0.00019141395508979868 0 0.00071100783294960419 -2.4874773106019083e-05 0 0.00061724751100109053 -0.00027005042687048138 0 0.0013485708385413972 0.00019141395508979868 0 0.00028903824188330839 -0.00026272535743589778 0 8.8063989471622205e-05 -0.00036977338507117856 0 0.00061724751100109053 -0.00027005042687048138 0 0.00028903824188330839 -0.00026272535743589778 0 0.00071100783294960419 -2.4874773106019083e-05 0 0.00061724751100109053 -0.00027005042687048138 0 -0.00017083402955365705 -0.00043189079349322299 0 8.8063989471622205e-05 -0.00036977338507117856 0 0.00061724751100109053 -0.00027005042687048138 0 0.00061724751100109053 -0.00027005042687048138 0 0.0013238188016677101 -0.00017839303105456048 0 0.0004857397742852562 -0.00033630089051390506 0 -0.00017083402955365705 -0.00043189079349322299 0 0.00061724751100109053 -0.00027005042687048138 0 0.0004857397742852562 -0.00033630089051390506 0 -0.00069202776218490309 -4.409143832470278e-07 0 0.0004857397742852562 -0.00033630089051390506 0 0.002045103587984176 -1.0898993544251073e-06 0 0.0013238188016677101 -0.00017839303105456048 0 0.002045103587984176 -1.0898993544251073e-06 0 0.0021599574236199886 -4.7667311248836257e-05 0 0.0013238188016677101 -0.00017839303105456048 0 0.0004857397742852562 -0.00033630089051390506 0 0.002045103587984176 -1.0898993544251073e-06 0 0.002045103587984176 -1.0898993544251073e-06 0 0.0021599574236199886 -4.7667311248836257e-05 0 0.0036301858035660962 2.7753914976966084e-05 0 0.002045103587984176 -1.0898993544251073e-06 0 0.0036301858035660962 2.7753914976966084e-05 0 0.0047829007916524212 8.6115512754131787e-07 0 0.0021599574236199886 -4.7667311248836257e-05 0 0.0036301858035660962 2.7753914976966084e-05 0 0.0021438792697457587 0.00051533296467783443 0 0.0013238188016677101 -0.00017839303105456048 0 0.0021599574236199886 -4.7667311248836257e-05 0 0.0013485708385413972 0.00019141395508979868 0 0.0021599574236199886 -4.7667311248836257e-05 0 0.0013485708385413972 0.00019141395508979868 0 0.0021438792697457587 0.00051533296467783443 0 0.00061724751100109053 -0.00027005042687048138 0 0.0013238188016677101 -0.00017839303105456048 0 0.0013485708385413972 0.00019141395508979868 0 0.0016800052879538453 0.00060453119993839652 0 0.0013485708385413972 0.00019141395508979868 0 0.0021438792697457587 0.00051533296467783443 0 0.0021325305239281345 0.00071193825520661784 0 0.002557476957130351 0.00067435029055439911 0 0.0021438792697457587 0.00051533296467783443 0 0.0038397053380490966 -9.6660732288980959e-05 0 0.0042296981281154796 -0.0001019675608051462 0 0.0036301858035660962 2.7753914976966084e-05 0 0.002557476957130351 0.00067435029055439911 0 0.0021438792697457587 0.00051533296467783443 0 0.0075235547218663384 -3.6853445026720658e-07 0 0.0047829007916524212 8.6115512754131787e-07 0 0.0060518649777807736 2.2067452342753843e-06 0 0.0036301858035660962 2.7753914976966084e-05 0 0.0047829007916524212 8.6115512754131787e-07 0 0.0060518649777807736 2.2067452342753843e-06 0 0.0024873929410379977 -0.00078172649619236785 0 0.002202062950763015 -0.0011430439465588509 0 0.0020204089068636788 -0.00061575287588638372 0 0.0024873929410379977 -0.00078172649619236785 0 0.0024723417511637313 -0.001192031861400085 0 0.0027709532753673969 -0.0012485743617849036 0 0.0024873929410379977 -0.00078172649619236785 0 0.0024723417511637313 -0.001192031861400085 0 0.002202062950763015 -0.0011430439465588509 0 0.002202062950763015 -0.0011430439465588509 0 0.0019102520313906304 -0.0010398507240309653 0 0.0020204089068636788 -0.00061575287588638372 0 0.0013894923606387604 2.6155317332749121e-05 0 0.0018714124435194577 -0.00069149187573442207 0 0.0019102520313906304 -0.0010398507240309653 0 0.0020204089068636788 -0.00061575287588638372 0 0.0016852165172124187 -0.00044591626514108495 0 0.0020204089068636788 -0.00061575287588638372 0 0.0017307110481482393 -0.00030286513181570108 0 0.0020148340939224103 -0.00027234497615463823 0 0.0020204089068636788 -0.00061575287588638372 0 0.0016852165172124187 -0.00044591626514108495 0 0.0017307110481482393 -0.00030286513181570108 0 0.0020204089068636788 -0.00061575287588638372 0 0.0023851752024536591 -0.00043167020586607689 0 0.0020148340939224103 -0.00027234497615463823 0 0.0024873929410379977 -0.00078172649619236785 0 0.0020204089068636788 -0.00061575287588638372 0 0.0023851752024536591 -0.00043167020586607689 0 0.0024873929410379977 -0.00078172649619236785 0 0.0028642216616873383 -0.00051423743938832625 0 0.0031399699953198888 -0.00095287854427137037 0 0.0024873929410379977 -0.00078172649619236785 0 0.0023851752024536591 -0.00043167020586607689 0 0.0028642216616873383 -0.00051423743938832625 0 0.0028642216616873383 -0.00051423743938832625 0 0.0031939308023651749 -0.00037724420587270771 0 0.0032912543876130961 -0.0007686190071047299 0 0.0028642216616873383 -0.00051423743938832625 0 0.0031399699953198888 -0.00095287854427137037 0 0.0032912543876130961 -0.0007686190071047299 0 0.0031399699953198888 -0.00095287854427137037 0 0.0034567412955985683 -0.0017676151703897888 0 0.0039172869336958609 -0.001096869176051283 0 0.0016408042044309631 -0.00069640500804525618 0 0.0078389328151344737 -0.0013857685866655862 0 0.0024873929410379977 -0.00078172649619236785 0 0.0031399699953198888 -0.00095287854427137037 0 0.0027709532753673969 -0.0012485743617849036 0 0.0031399699953198888 -0.00095287854427137037 0 0.0027709532753673969 -0.0012485743617849036 0 0.0030199569442458871 -0.0016262350011329362 0 0.0027709532753673969 -0.0012485743617849036 0 0.0026127137207759927 -0.0015316090343195402 0 0.0025500651663974178 -0.0013562071778999681 0 0.0027709532753673969 -0.0012485743617849036 0 0.0030199569442458871 -0.0016262350011329362 0 0.0026127137207759927 -0.0015316090343195402 0 0.0030199569442458871 -0.0016262350011329362 0 0.0026636539772112934 -0.0020036233436117696 0 0.0026127137207759927 -0.0015316090343195402 0 0.0031399699953198888 -0.00095287854427137037 0 0.0030199569442458871 -0.0016262350011329362 0 0.0034567412955985683 -0.0017676151703897888 0 0.019114493298512156 -0.0058756540402532679 0 0.019146630650602108 -0.0058841091301082516 0 0.01906238428596839 -0.0058690837332119449 0 0.014401199269356953 -0.0046178391613901333 0 0.011238696853536999 -0.0041005005059673938 0 0.0030959088210296597 -0.0024599292231808679 0 0.0030199569442458871 -0.0016262350011329362 0 0.0034567412955985683 -0.0017676151703897888 0 0.0030959088210296597 -0.0024599292231808679 0 0.0030199569442458871 -0.0016262350011329362 0 0.0026636539772112934 -0.0020036233436117696 0 0.014401199269356953 -0.0046178391613901333 0 0.011214892018142728 -0.002758368601395886 0 0.019907007655403687 -0.0040210665763868369 0 0.019951968915383179 -0.0037363042853709775 0 0.019597758657993875 -0.0037940033443927962 0 0.019951968915383179 -0.0037363042853709775 0 0.019602836283452479 -0.0033724768502825125 0 0.019597758657993875 -0.0037940033443927962 0 0.011214892018142728 -0.002758368601395886 0 0.0087275167789140976 -0.0017485214281641158 0 0.0026636539772112934 -0.0020036233436117696 0 0.0026127137207759927 -0.0015316090343195402 0 0.0022583947907009287 -0.0015234542685857299 0 0.0026127137207759927 -0.0015316090343195402 0 0.0022583947907009287 -0.0015234542685857299 0 0.002334008516669062 -0.0014572450607961982 0 0.0087275167789140976 -0.0017485214281641158 0 0.0071588238000592462 -0.0024065489812445228 0 0.002202062950763015 -0.0011430439465588509 0 0.0022489895331920199 -0.0015215638539994236 0 0.002334008516669062 -0.0014572450607961982 0 0.0024723417511637313 -0.001192031861400085 0 0.002202062950763015 -0.0011430439465588509 0 0.002334008516669062 -0.0014572450607961982 0 0.0024723417511637313 -0.001192031861400085 0 0.002334008516669062 -0.0014572450607961982 0 0.0025500651663974178 -0.0013562071778999681 0 0.0026127137207759927 -0.0015316090343195402 0 0.002334008516669062 -0.0014572450607961982 0 0.0025500651663974178 -0.0013562071778999681 0 0.0024723417511637313 -0.001192031861400085 0 0.0027709532753673969 -0.0012485743617849036 0 0.0025500651663974178 -0.0013562071778999681 0 0.0017334439737785509 -0.00025549822660600344 0 0.0017272293563444022 -0.00024183969873157646 0 0.0017679662917805992 -0.00019974453554332748 0 0.0016868873981236683 -0.00028961429557167558 0 0.0017334439737785509 -0.00025549822660600344 0 0.0017272293563444022 -0.00024183969873157646 0 0.002202062950763015 -0.0011430439465588509 0 0.0019102520313906304 -0.0010398507240309653 0 0.0022489895331920199 -0.0015215638539994236 0 0.0013894923606387604 2.6155317332749121e-05 0 0.0087275167789140976 -0.0017485214281641158 0 0.019327576589391774 -0.004201394947364709 0 0.019219537084747305 -0.0037011787855687111 0 0.019597758657993875 -0.0037940033443927962 0 0.019602836283452479 -0.0033724768502825125 0 0.019219537084747305 -0.0037011787855687111 0 0.019597758657993875 -0.0037940033443927962 0 0.0087275167789140976 -0.0017485214281641158 0 0.010713029500342617 -0.0018786785488885997 0 0.001814971973044206 -0.00015858591425552997 0 0.0017679662917805992 -0.00019974453554332748 0 0.0017546940494062939 -0.00019698174661936257 0 0.010760693991363627 -0.0019989421301665352 0 0.010713029500342617 -0.0018786785488885997 0 0.001814971973044206 -0.00015858591425552997 0 0.0017546940494062939 -0.00019698174661936257 0 0.001768308010858662 -0.00014645777682619108 0 0.0016943662586930803 -0.00018148914340301541 0 0.0017546940494062939 -0.00019698174661936257 0 0.001768308010858662 -0.00014645777682619108 0 0.0016943662586930803 -0.00018148914340301541 0 0.0017546940494062939 -0.00019698174661936257 0 0.0017121415043549867 -0.00028550928250208605 0 0.0016868873981236683 -0.00028961429557167558 0 0.0017272293563444022 -0.00024183969873157646 0 0.0017121415043549867 -0.00028550928250208605 0 0.0017272293563444022 -0.00024183969873157646 0 0.0017546940494062939 -0.00019698174661936257 0 0.0017121415043549867 -0.00028550928250208605 0 0.0017272293563444022 -0.00024183969873157646 0 0.0017679662917805992 -0.00019974453554332748 0 0.0017546940494062939 -0.00019698174661936257 0 0.0021390104903469842 -0.00024138658035698031 0 0.0017120116751635161 -3.5211005218934177e-05 0 0.0017552354303802295 -0.00012038634956534577 0 0.001768308010858662 -0.00014645777682619108 0 0.0017301343249462736 -0.00011509122706371528 0 0.0016943662586930803 -0.00018148914340301541 0 0.001768308010858662 -0.00014645777682619108 0 0.0017301343249462736 -0.00011509122706371528 0 0.0018823597026820015 -4.6862171506477971e-05 0 0.0017301343249462736 -0.00011509122706371528 0 0.0016052756576812545 -8.5611155113408342e-05 0 0.0018823597026820015 -4.6862171506477971e-05 0 0.0017552354303802295 -0.00012038634956534577 0 0.0017301343249462736 -0.00011509122706371528 0 0.0018823597026820015 -4.6862171506477971e-05 0 0.001611641603511862 5.522651695373707e-05 0 0.0016052756576812545 -8.5611155113408342e-05 0 0.0016943662586930803 -0.00018148914340301541 0 0.0017301343249462736 -0.00011509122706371528 0 0.0016052756576812545 -8.5611155113408342e-05 0 0.0016943662586930803 -0.00018148914340301541 0 0.0016052756576812545 -8.5611155113408342e-05 0 0.0015818983083574665 -0.00019465421207510067 0 0.0015818983083574665 -0.00019465421207510067 0 0.0014454183253700061 -0.00012822512364482399 0 0.0013786626092484261 -3.9741474455506287e-05 0 0.0016052756576812545 -8.5611155113408342e-05 0 0.0015818983083574665 -0.00019465421207510067 0 0.0013786626092484261 -3.9741474455506287e-05 0 0.0014044932214982661 0.000110890461873515 0 0.0016052756576812545 -8.5611155113408342e-05 0 0.0013786626092484261 -3.9741474455506287e-05 0 0.0017121415043549867 -0.00028550928250208605 0 0.0016852165172124187 -0.00044591626514108495 0 0.0015980822555861788 -0.00029303074251014691 0 0.0016868873981236683 -0.00028961429557167558 0 0.0017121415043549867 -0.00028550928250208605 0 0.0016852165172124187 -0.00044591626514108495 0 0.0017121415043549867 -0.00028550928250208605 0 0.0015818983083574665 -0.00019465421207510067 0 0.0015980822555861788 -0.00029303074251014691 0 0.0016943662586930803 -0.00018148914340301541 0 0.0017121415043549867 -0.00028550928250208605 0 0.0015818983083574665 -0.00019465421207510067 0 0.0015818983083574665 -0.00019465421207510067 0 0.0015980822555861788 -0.00029303074251014691 0 0.0014454183253700061 -0.00012822512364482399 0 0.0016852165172124187 -0.00044591626514108495 0 0.0015980822555861788 -0.00029303074251014691 0 0.0017307110481482393 -0.00030286513181570108 0 0.0015980822555861788 -0.00029303074251014691 0 0.0017307110481482393 -0.00030286513181570108 0 0.001488977560420544 -9.6592854402844833e-05 0 0.0017307110481482393 -0.00030286513181570108 0 0.001488977560420544 -9.6592854402844833e-05 0 0.0017897247601044216 -0.00012281362977265283 0 0.0015980822555861788 -0.00029303074251014691 0 0.001488977560420544 -9.6592854402844833e-05 0 0.0014454183253700061 -0.00012822512364482399 0 0.001488977560420544 -9.6592854402844833e-05 0 0.0014454183253700061 -0.00012822512364482399 0 0.0011830335335139368 5.0327792402141896e-05 0 0.001488977560420544 -9.6592854402844833e-05 0 0.0011830335335139368 5.0327792402141896e-05 0 0.0011986444395491931 0.00028498173973458214 0 0.001488977560420544 -9.6592854402844833e-05 0 0.0011986444395491931 0.00028498173973458214 0 0.0017417011894155434 0.00011661451902102694 0 0.001488977560420544 -9.6592854402844833e-05 0 0.0017417011894155434 0.00011661451902102694 0 0.0017897247601044216 -0.00012281362977265283 0 0.0014044932214982661 0.000110890461873515 0 0.0013786626092484261 -3.9741474455506287e-05 0 0.0011877290104823661 4.8461763823325426e-05 0 0.0014454183253700061 -0.00012822512364482399 0 0.0013786626092484261 -3.9741474455506287e-05 0 0.0011830335335139368 5.0327792402141896e-05 0 0.0013786626092484261 -3.9741474455506287e-05 0 0.0011830335335139368 5.0327792402141896e-05 0 0.0011877290104823661 4.8461763823325426e-05 0 0.0011830335335139368 5.0327792402141896e-05 0 0.0011877290104823661 4.8461763823325426e-05 0 0.00091491627431782669 -4.579572247078989e-05 0 0.0011830335335139368 5.0327792402141896e-05 0 0.0010027700033885931 0.00017625843936876234 0 0.00091491627431782669 -4.579572247078989e-05 0 0.00083009658545520895 0.00014770480213672946 0 0.0010027700033885931 0.00017625843936876234 0 0.00091491627431782669 -4.579572247078989e-05 0 0.00083009658545520895 0.00014770480213672946 0 0.00064592272074292655 3.8662567509813947e-05 0 0.00091491627431782669 -4.579572247078989e-05 0 0.0011986444395491931 0.00028498173973458214 0 0.0017679564251670465 0.00048676099001862061 0 0.0017417011894155434 0.00011661451902102694 0 0.0011830335335139368 5.0327792402141896e-05 0 0.0010027700033885931 0.00017625843936876234 0 0.0011986444395491931 0.00028498173973458214 0 0.00083845489929827309 0.00023251664952393905 0 0.0010027700033885931 0.00017625843936876234 0 0.00098599471041509027 0.00024385635596815125 0 0.0010027700033885931 0.00017625843936876234 0 0.0011986444395491931 0.00028498173973458214 0 0.00098599471041509027 0.00024385635596815125 0 0.0011807930525886373 0.00031264811325961019 0 0.001230133346322629 0.00053245232664842499 0 0.00080436823568369713 0.00025181916768520136 0 0.00098599471041509027 0.00024385635596815125 0 0.00069313892525169117 0.00029203357092807676 0 0.0011986444395491931 0.00028498173973458214 0 0.0018148200637110997 0.00083531480110676695 0 0.0017679564251670465 0.00048676099001862061 0 0.0011986444395491931 0.00028498173973458214 0 0.00098599471041509027 0.00024385635596815125 0 0.00069313892525169117 0.00029203357092807676 0 0.0020342008581475087 0.0008211282192327014 0 0.0019148941612310529 0.00068993902689284904 0 0.0020271143599208683 0.000601573922451632 0 0.0018148200637110997 0.00083531480110676695 0 0.0020342008581475087 0.0008211282192327014 0 0.0019148941612310529 0.00068993902689284904 0 0.0019148941612310529 0.00068993902689284904 0 0.0020271143599208683 0.000601573922451632 0 0.0017679564251670465 0.00048676099001862061 0 0.0020271143599208683 0.000601573922451632 0 0.0017679564251670465 0.00048676099001862061 0 0.0019870140758140461 0.00037557880632663415 0 0.0018148200637110997 0.00083531480110676695 0 0.0019148941612310529 0.00068993902689284904 0 0.0017679564251670465 0.00048676099001862061 0 0.0022032023701040234 0.00088799817145889426 0 0.0024112731905543976 0.00084560847835783032 0 0.0022217799669506755 0.0007096097049038428 0 0.0024112731905543976 0.00084560847835783032 0 0.0022217799669506755 0.0007096097049038428 0 0.0024067016120016211 0.00062742728235817542 0 0.0022032023701040234 0.00088799817145889426 0 0.0020342008581475087 0.0008211282192327014 0 0.0022217799669506755 0.0007096097049038428 0 0.0020342008581475087 0.0008211282192327014 0 0.0020271143599208683 0.000601573922451632 0 0.0022217799669506755 0.0007096097049038428 0 0.0020271143599208683 0.000601573922451632 0 0.0022217799669506755 0.0007096097049038428 0 0.002230620227366407 0.00046924090583221322 0 0.0024067016120016211 0.00062742728235817542 0 0.002230620227366407 0.00046924090583221322 0 0.0024833651321217263 0.00044436570281381345 0 0.0022217799669506755 0.0007096097049038428 0 0.0024067016120016211 0.00062742728235817542 0 0.002230620227366407 0.00046924090583221322 0 0.002230620227366407 0.00046924090583221322 0 0.0023992061675522417 0.00024528623517423295 0 0.0024833651321217263 0.00044436570281381345 0 0.002230620227366407 0.00046924090583221322 0 0.0021376126558976518 0.00017669599787450036 0 0.0019870140758140461 0.00037557880632663415 0 0.0020271143599208683 0.000601573922451632 0 0.002230620227366407 0.00046924090583221322 0 0.0019870140758140461 0.00037557880632663415 0 0.002230620227366407 0.00046924090583221322 0 0.0021376126558976518 0.00017669599787450036 0 0.0023992061675522417 0.00024528623517423295 0 0.0017679564251670465 0.00048676099001862061 0 0.0019870140758140461 0.00037557880632663415 0 0.0017417011894155434 0.00011661451902102694 0 0.0021376126558976518 0.00017669599787450036 0 0.0019870140758140461 0.00037557880632663415 0 0.0017417011894155434 0.00011661451902102694 0 0.0017417011894155434 0.00011661451902102694 0 0.0020209900523199351 -5.2270456457225478e-05 0 0.0017897247601044216 -0.00012281362977265283 0 0.0021376126558976518 0.00017669599787450036 0 0.0017417011894155434 0.00011661451902102694 0 0.0020209900523199351 -5.2270456457225478e-05 0 0.0021376126558976518 0.00017669599787450036 0 0.0020209900523199351 -5.2270456457225478e-05 0 0.0023315458128043546 8.4773625702260264e-06 0 0.0021376126558976518 0.00017669599787450036 0 0.0023992061675522417 0.00024528623517423295 0 0.0023315458128043546 8.4773625702260264e-06 0 0.0023315458128043546 8.4773625702260264e-06 0 0.0022607134221973341 -0.00018666862199681277 0 0.0025681311589911418 -0.00019132343802112433 0 0.0020209900523199351 -5.2270456457225478e-05 0 0.0023315458128043546 8.4773625702260264e-06 0 0.0022607134221973341 -0.00018666862199681277 0 0.0020209900523199351 -5.2270456457225478e-05 0 0.0022607134221973341 -0.00018666862199681277 0 0.0020148340939224103 -0.00027234497615463823 0 0.0023851752024536591 -0.00043167020586607689 0 0.0022607134221973341 -0.00018666862199681277 0 0.0025681311589911418 -0.00019132343802112433 0 0.0023851752024536591 -0.00043167020586607689 0 0.0022607134221973341 -0.00018666862199681277 0 0.0020148340939224103 -0.00027234497615463823 0 0.0017307110481482393 -0.00030286513181570108 0 0.0020148340939224103 -0.00027234497615463823 0 0.0017897247601044216 -0.00012281362977265283 0 0.0020209900523199351 -5.2270456457225478e-05 0 0.0020148340939224103 -0.00027234497615463823 0 0.0017897247601044216 -0.00012281362977265283 0 0.0028642216616873383 -0.00051423743938832625 0 0.0031939308023651749 -0.00037724420587270771 0 0.0028830924502498746 -0.00010120407795228291 0 0.0031939308023651749 -0.00037724420587270771 0 0.0028830924502498746 -0.00010120407795228291 0 0.0031788953077765405 -8.699237552342179e-05 0 0.0023851752024536591 -0.00043167020586607689 0 0.0028642216616873383 -0.00051423743938832625 0 0.0025681311589911418 -0.00019132343802112433 0 0.0028642216616873383 -0.00051423743938832625 0 0.0025681311589911418 -0.00019132343802112433 0 0.0028830924502498746 -0.00010120407795228291 0 0.0025681311589911418 -0.00019132343802112433 0 0.002597254964211408 5.3576408939712161e-05 0 0.0028830924502498746 -0.00010120407795228291 0 0.0023315458128043546 8.4773625702260264e-06 0 0.0025681311589911418 -0.00019132343802112433 0 0.002597254964211408 5.3576408939712161e-05 0 0.0023992061675522417 0.00024528623517423295 0 0.0023315458128043546 8.4773625702260264e-06 0 0.002597254964211408 5.3576408939712161e-05 0 0.002597254964211408 5.3576408939712161e-05 0 0.0028830924502498746 -0.00010120407795228291 0 0.0027935101453494429 0.00016702623167559949 0 0.0028830924502498746 -0.00010120407795228291 0 0.0030401018339287771 0.00019051539216587528 0 0.0027935101453494429 0.00016702623167559949 0 0.0028830924502498746 -0.00010120407795228291 0 0.0030401018339287771 0.00019051539216587528 0 0.0031788953077765405 -8.699237552342179e-05 0 0.0030401018339287771 0.00019051539216587528 0 0.0028534417997931093 0.00037818823663241278 0 0.0027935101453494429 0.00016702623167559949 0 0.0028534417997931093 0.00037818823663241278 0 0.0030397175195119655 0.00041788903496248322 0 0.0028960303086997606 0.00064368438223085238 0 0.0030401018339287771 0.00019051539216587528 0 0.0028534417997931093 0.00037818823663241278 0 0.0030397175195119655 0.00041788903496248322 0 0.0030401018339287771 0.00019051539216587528 0 0.0030397175195119655 0.00041788903496248322 0 0.0032793491590657775 0.00038177093960403528 0 0.0023992061675522417 0.00024528623517423295 0 0.002597254964211408 5.3576408939712161e-05 0 0.0026297134027225381 0.00029294789619256531 0 0.0023992061675522417 0.00024528623517423295 0 0.0026297134027225381 0.00029294789619256531 0 0.0024833651321217263 0.00044436570281381345 0 0.002597254964211408 5.3576408939712161e-05 0 0.0027935101453494429 0.00016702623167559949 0 0.0026297134027225381 0.00029294789619256531 0 0.0028534417997931093 0.00037818823663241278 0 0.0027935101453494429 0.00016702623167559949 0 0.0026297134027225381 0.00029294789619256531 0 0.0028534417997931093 0.00037818823663241278 0 0.0026297134027225381 0.00029294789619256531 0 0.0026908939119197274 0.00049204484919309385 0 0.0026297134027225381 0.00029294789619256531 0 0.0026908939119197274 0.00049204484919309385 0 0.0024833651321217263 0.00044436570281381345 0 0.0024067016120016211 0.00062742728235817542 0 0.0024833651321217263 0.00044436570281381345 0 0.0025557181486830331 0.00057347904856894217 0 0.0026908939119197274 0.00049204484919309385 0 0.0024833651321217263 0.00044436570281381345 0 0.0025557181486830331 0.00057347904856894217 0 0.0024067016120016211 0.00062742728235817542 0 0.0025557181486830331 0.00057347904856894217 0 0.0026227010690931521 0.00070322895351622797 0 0.0026908939119197274 0.00049204484919309385 0 0.0025557181486830331 0.00057347904856894217 0 0.0026227010690931521 0.00070322895351622797 0 0.0026908939119197274 0.00049204484919309385 0 0.0026227010690931521 0.00070322895351622797 0 0.0028960303086997606 0.00064368438223085238 0 0.0026247292762463484 0.00092247142190758299 0 0.002808555784099942 0.00082355041445936672 0 0.0026227010690931521 0.00070322895351622797 0 0.0024112731905543976 0.00084560847835783032 0 0.0024067016120016211 0.00062742728235817542 0 0.0026227010690931521 0.00070322895351622797 0 0.0024112731905543976 0.00084560847835783032 0 0.0026247292762463484 0.00092247142190758299 0 0.0026227010690931521 0.00070322895351622797 0 0.0030397175195119655 0.00041788903496248322 0 0.0031054330115184055 0.00058964193075639081 0 0.0028960303086997606 0.00064368438223085238 0 0.0028534417997931093 0.00037818823663241278 0 0.0026908939119197274 0.00049204484919309385 0 0.0028960303086997606 0.00064368438223085238 0 0.002808555784099942 0.00082355041445936672 0 0.0026227010690931521 0.00070322895351622797 0 0.0028960303086997606 0.00064368438223085238 0 0.002808555784099942 0.00082355041445936672 0 0.0030461956818694739 0.00083829024903348502 0 0.0028960303086997606 0.00064368438223085238 0 0.0030461956818694739 0.00083829024903348502 0 0.0031054330115184055 0.00058964193075639081 0 0.0028960303086997606 0.00064368438223085238 0 0.0030461956818694739 0.00083829024903348502 0 0.0031054330115184055 0.00058964193075639081 0 0.0033030597245544647 0.00068742760881752049 0 0.0031054330115184055 0.00058964193075639081 0 0.0033030597245544647 0.00068742760881752049 0 0.0032793491590657775 0.00038177093960403528 0 0.0033030597245544647 0.00068742760881752049 0 0.0035263762122500855 0.00051593168430438645 0 0.0032793491590657775 0.00038177093960403528 0 0.0035692549293094172 0.00085058097282271646 0 0.0037513869379263249 0.00063665763664280868 0 0.0035263762122500855 0.00051593168430438645 0 0.0035692549293094172 0.00085058097282271646 0 0.0033030597245544647 0.00068742760881752049 0 0.0035263762122500855 0.00051593168430438645 0 0.0037513869379263249 0.00063665763664280868 0 0.0035263762122500855 0.00051593168430438645 0 0.0038871085573368783 0.00029563926667938988 0 0.0035692549293094172 0.00085058097282271646 0 0.0037659597022229783 0.00078849255661795964 0 0.0037513869379263249 0.00063665763664280868 0 0.0035263762122500855 0.00051593168430438645 0 0.0036211957422520916 0.00021319394027019428 0 0.0038871085573368783 0.00029563926667938988 0 0.0035263762122500855 0.00051593168430438645 0 0.0036211957422520916 0.00021319394027019428 0 0.0032793491590657775 0.00038177093960403528 0 0.0036211957422520916 0.00021319394027019428 0 0.0032793491590657775 0.00038177093960403528 0 0.0033534254978466039 8.6584206667906539e-05 0 0.0030401018339287771 0.00019051539216587528 0 0.0032793491590657775 0.00038177093960403528 0 0.0033534254978466039 8.6584206667906539e-05 0 0.0030397175195119655 0.00041788903496248322 0 0.0031054330115184055 0.00058964193075639081 0 0.0032793491590657775 0.00038177093960403528 0 0.0021477269186258802 -0.0029290802517159399 0 0.0023865029396714452 -0.0026638131754879377 0 0.0018616198151245596 -0.0027568942749457864 0 0.0021477269186258802 -0.0029290802517159399 0 0.0020098059525426215 -0.0032145102247803591 0 0.0018616198151245596 -0.0027568942749457864 0 0.0021477269186258802 -0.0029290802517159399 0 0.0020098059525426215 -0.0032145102247803591 0 0.0023285831323297201 -0.0032181888221848166 0 0.0021477269186258802 -0.0029290802517159399 0 0.0023285831323297201 -0.0032181888221848166 0 0.002497215072181644 -0.0029893017891766244 0 0.0024676935014598944 -0.0034189217687660006 0 0.0023285831323297201 -0.0032181888221848166 0 0.002509059795553411 -0.0032635039034588065 0 0.0023285831323297201 -0.0032181888221848166 0 0.002509059795553411 -0.0032635039034588065 0 0.002497215072181644 -0.0029893017891766244 0 0.0021477269186258802 -0.0029290802517159399 0 0.002497215072181644 -0.0029893017891766244 0 0.0023865029396714452 -0.0026638131754879377 0 0.0032563047981884361 -0.001206320020519072 0 0.0034901653931265486 -0.0010510061884637322 0 0.0039680118690414226 0.00083391454516337576 0 0.0037513869379263249 0.00063665763664280868 0 0.0038871085573368783 0.00029563926667938988 0 0.0027031099267465718 -0.0034535694444445884 0 0.002497215072181644 -0.0029893017891766244 0 0.0030525249683318254 -0.0023536510672648161 0 0.0027031099267465718 -0.0034535694444445884 0 0.002509059795553411 -0.0032635039034588065 0 0.002497215072181644 -0.0029893017891766244 0 0.0037659597022229783 0.00078849255661795964 0 0.0039680118690414226 0.00083391454516337576 0 0.0037513869379263249 0.00063665763664280868 0 0.0030525249683318254 -0.0023536510672648161 0 0.0023865029396714452 -0.0026638131754879377 0 0.0029630435178381038 -0.001689432589288088 0 0.002497215072181644 -0.0029893017891766244 0 0.0030525249683318254 -0.0023536510672648161 0 0.0023865029396714452 -0.0026638131754879377 0 0.0023865029396714452 -0.0026638131754879377 0 0.0017851897703517147 -0.0026378934581582159 0 0.0018616198151245596 -0.0027568942749457864 0 0.0023193412176216485 -0.0026738300504426829 0 0.0022813214850853757 -0.0024266891959293098 0 0.0023865029396714452 -0.0026638131754879377 0 0.0017851897703517147 -0.0026378934581582159 0 0.0012907728640984767 -0.002775558490921004 0 0.0017851897703517147 -0.0026378934581582159 0 0.0012907728640984767 -0.002775558490921004 0 0.0017958480172823039 -0.0029085775967367831 0 0.0034901653931265486 -0.0010510061884637322 0 0.0036730799318212279 -0.00096544836584747725 0 0.0030525249683318254 -0.0023536510672648161 0 0.0031494941972122748 -0.0018471075360620383 0 0.0035206261324555619 -0.0016610092226425352 0 0.0030525249683318254 -0.0023536510672648161 0 0.0029630435178381038 -0.001689432589288088 0 0.0031494941972122748 -0.0018471075360620383 0 0.0029630435178381038 -0.001689432589288088 0 0.0031494941972122748 -0.0018471075360620383 0 0.0031012060849588902 -0.0017008908642495064 0 0.0031494941972122748 -0.0018471075360620383 0 0.0031012060849588902 -0.0017008908642495064 0 0.0035206261324555619 -0.0016610092226425352 0 0.0031012060849588902 -0.0017008908642495064 0 0.0035206261324555619 -0.0016610092226425352 0 0.0034184076895738477 -0.0013538203032596942 0 0.0029630435178381038 -0.001689432589288088 0 0.0031012060849588902 -0.0017008908642495064 0 0.0034854771746061189 -0.0021638587017432159 0 0.0012907728640984767 -0.002775558490921004 0 0.0012969608019346038 -0.0036147892298645777 0 0.0017958480172823039 -0.0029085775967367831 0 0.0012907728640984767 -0.002775558490921004 0 0.0012969608019346038 -0.0036147892298645777 0 0.00027376216592980509 -0.0048028522431218983 0 0.0022813214850853757 -0.0024266891959293098 0 0.00079408286120114099 -0.0033208617139664316 0 0.0033534254978466039 8.6584206667906539e-05 0 0.0035702373131876203 -5.6317168336878077e-05 0 0.0034411780830611023 -0.00025750684744476167 0 0.0031788953077765405 -8.699237552342179e-05 0 0.0033534254978466039 8.6584206667906539e-05 0 0.0034411780830611023 -0.00025750684744476167 0 0.0030401018339287771 0.00019051539216587528 0 0.0031788953077765405 -8.699237552342179e-05 0 0.0033534254978466039 8.6584206667906539e-05 0 0.0036211957422520916 0.00021319394027019428 0 0.0033534254978466039 8.6584206667906539e-05 0 0.0035702373131876203 -5.6317168336878077e-05 0 0.0036211957422520916 0.00021319394027019428 0 0.0038871085573368783 0.00029563926667938988 0 0.0038441078020078822 -0.00028572553217715691 0 0.0035702373131876203 -5.6317168336878077e-05 0 0.0038441078020078822 -0.00028572553217715691 0 0.0034411780830611023 -0.00025750684744476167 0 0.0036211957422520916 0.00021319394027019428 0 0.0035702373131876203 -5.6317168336878077e-05 0 0.0038441078020078822 -0.00028572553217715691 0 0.0038441078020078822 -0.00028572553217715691 0 0.0034707665223068433 -0.00059080864942526623 0 0.0034411780830611023 -0.00025750684744476167 0 0.0038441078020078822 -0.00028572553217715691 0 0.0034707665223068433 -0.00059080864942526623 0 0.0036269075089932338 -0.00078435482457240625 0 0.0031939308023651749 -0.00037724420587270771 0 0.0031788953077765405 -8.699237552342179e-05 0 0.0034411780830611023 -0.00025750684744476167 0 0.0031939308023651749 -0.00037724420587270771 0 0.0034707665223068433 -0.00059080864942526623 0 0.0034411780830611023 -0.00025750684744476167 0 0.0035017839689039749 -0.00087453888195975957 0 0.0032912543876130961 -0.0007686190071047299 0 0.0035115081775706374 -0.0011510550517684441 0 0.0034707665223068433 -0.00059080864942526623 0 0.0035017839689039749 -0.00087453888195975957 0 0.0032912543876130961 -0.0007686190071047299 0 0.0031939308023651749 -0.00037724420587270771 0 0.0034707665223068433 -0.00059080864942526623 0 0.0032912543876130961 -0.0007686190071047299 0 0.0034707665223068433 -0.00059080864942526623 0 0.0035017839689039749 -0.00087453888195975957 0 0.0036269075089932338 -0.00078435482457240625 0 0.0035017839689039749 -0.00087453888195975957 0 0.0036577505601670386 -0.0010284244291814144 0 0.0036269075089932338 -0.00078435482457240625 0 0.0031399699953198888 -0.00095287854427137037 0 0.0032912543876130961 -0.0007686190071047299 0 0.0035115081775706374 -0.0011510550517684441 0 0.0078389328151344737 -0.0013857685866655862 0 0.0045737406138485473 -0.0020171044002249934 0 0.0035017839689039749 -0.00087453888195975957 0 0.0035115081775706374 -0.0011510550517684441 0 0.0036577505601670386 -0.0010284244291814144 0 0.0037242222572674405 -0.0010732901169774999 0 0.0037126813328175797 -0.001071525977575042 0 0.0037194731000990363 -0.0010543616771446483 0 0.0078389328151344737 -0.0013857685866655862 0 0.016216642621602852 -0.0050035595488558977 0 0.0037126813328175797 -0.001071525977575042 0 0.0036812386087565251 -0.0010924296029685776 0 0.0037194731000990363 -0.0010543616771446483 0 0.0037242222572674405 -0.0010732901169774999 0 0.0037126813328175797 -0.001071525977575042 0 0.0036577505601670386 -0.0010284244291814144 0 0.0037126813328175797 -0.001071525977575042 0 0.0036577505601670386 -0.0010284244291814144 0 0.0037467265962596316 -0.0010511784422036878 0 0.0037126813328175797 -0.001071525977575042 0 0.0036729527774920665 -0.001100123409624007 0 0.0037467265962596316 -0.0010511784422036878 0 0.0037126813328175797 -0.001071525977575042 0 0.0036812386087565251 -0.0010924296029685776 0 0.0036729527774920665 -0.001100123409624007 0 0.0036812386087565251 -0.0010924296029685776 0 0.0036729527774920665 -0.001100123409624007 0 0.0035825685149833485 -0.0011458232745408302 0 0.0036729527774920665 -0.001100123409624007 0 0.0037467265962596316 -0.0010511784422036878 0 0.003560613672318207 -0.0012159472090588208 0 0.0035206261324555619 -0.0016610092226425352 0 0.0037467265962596316 -0.0010511784422036878 0 0.003560613672318207 -0.0012159472090588208 0 0.0038441078020078822 -0.00028572553217715691 0 0.0037467265962596316 -0.0010511784422036878 0 0.0036269075089932338 -0.00078435482457240625 0 0.0036730799318212279 -0.00096544836584747725 0 0.003736595561560428 -0.0010493488102674069 0 0.0036577505601670386 -0.0010284244291814144 0 0.0037467265962596316 -0.0010511784422036878 0 0.0036269075089932338 -0.00078435482457240625 0 0.0031012060849588902 -0.0017008908642495064 0 0.0034184076895738477 -0.0013538203032596942 0 0.0034938275575471865 -0.0011641695815759487 0 0.0035206261324555619 -0.0016610092226425352 0 0.0034184076895738477 -0.0013538203032596942 0 0.003560613672318207 -0.0012159472090588208 0 0.0035133838359686651 -0.0011985476731631744 0 0.0034938275575471865 -0.0011641695815759487 0 0.0035690185124457362 -0.0011942467930817072 0 0.0034184076895738477 -0.0013538203032596942 0 0.0035133838359686651 -0.0011985476731631744 0 0.0034938275575471865 -0.0011641695815759487 0 0.0035133838359686651 -0.0011985476731631744 0 0.003560613672318207 -0.0012159472090588208 0 0.0035825685149833485 -0.0011458232745408302 0 0.0034184076895738477 -0.0013538203032596942 0 0.0035133838359686651 -0.0011985476731631744 0 0.003560613672318207 -0.0012159472090588208 0 0.0034754328487383653 -0.0023200474117378005 0 0.0021190767252162049 -0.00044749677558139601 0 0.0031012060849588902 -0.0017008908642495064 0 0.0032622952424470708 -0.002388647263635173 0 0.0034854771746061189 -0.0021638587017432159 0 0.0012969608019346038 -0.0036147892298645777 0 0.0012268308712349361 -0.004313864785221222 0 0.00027376216592980509 -0.0048028522431218983 0 0.0012268308712349361 -0.004313864785221222 0 0.00027376216592980509 -0.0048028522431218983 0 0.0011053849356607757 -0.0048072581627500192 0 0.00027376216592980509 -0.0048028522431218983 0 0.0011495928739514061 -0.0069806370518257239 0 0.0012040932718874477 -0.0054582755561150857 0 0.00027376216592980509 -0.0048028522431218983 0 0.0011053849356607757 -0.0048072581627500192 0 0.0012040932718874477 -0.0054582755561150857 0 0.0034938275575471865 -0.0011641695815759487 0 0.0036559990623373437 -0.0012695552082816141 0 0.003841608339039136 -0.0013967053303325263 0 0.0032622952424470708 -0.002388647263635173 0 0.0039051047804614294 -0.0041014223980466594 0 0.0040989931565554938 -0.0041415669726217403 0 0.0032622952424470708 -0.002388647263635173 0 0.0034854771746061189 -0.0021638587017432159 0 0.0040989931565554938 -0.0041415669726217403 0 0.00027376216592980509 -0.0048028522431218983 0 -2.5966158467773847e-05 -0.0094038398279382308 0 0.0011495928739514061 -0.0069806370518257239 0 0.00079408286120114099 -0.0033208617139664316 0 0.010360880737427429 -0.0075996449867281176 0 0.0021190767252162049 -0.00044749677558139601 0 0.015044583309798208 -0.0076726274380134489 0 0.0036559990623373437 -0.0012695552082816141 0 0.0036233644623238676 -0.0012622675130184793 0 0.003841608339039136 -0.0013967053303325263 0 0.0036729527774920665 -0.001100123409624007 0 0.003560613672318207 -0.0012159472090588208 0 0.0035825685149833485 -0.0011458232745408302 0 0.0034938275575471865 -0.0011641695815759487 0 0.0036559990623373437 -0.0012695552082816141 0 0.0035690185124457362 -0.0011942467930817072 0 0.0035133838359686651 -0.0011985476731631744 0 0.0035825685149833485 -0.0011458232745408302 0 0.0035690185124457362 -0.0011942467930817072 0 0.0035825685149833485 -0.0011458232745408302 0 0.0035690185124457362 -0.0011942467930817072 0 0.0036233644623238676 -0.0012622675130184793 0 0.0036559990623373437 -0.0012695552082816141 0 0.0035690185124457362 -0.0011942467930817072 0 0.0036233644623238676 -0.0012622675130184793 0 0.0036812386087565251 -0.0010924296029685776 0 0.0035825685149833485 -0.0011458232745408302 0 0.0037194731000990363 -0.0010543616771446483 0 0.0035825685149833485 -0.0011458232745408302 0 0.0036233644623238676 -0.0012622675130184793 0 0.0035479113350347586 -0.0013139099586366024 0 0.0075103805770686278 -0.002753701197091985 0 0.016216642621602852 -0.0050035595488558977 0 0.03212388764054179 -0.013074899302197091 0 0.031950071130155785 -0.012953604950398838 0 0.031750538068730565 -0.013004601926244388 0 0.03212388764054179 -0.013074899302197091 0 0.031950071130155785 -0.012953604950398838 0 0.03213055031770138 -0.012940786575058679 0 0.016216642621602852 -0.0050035595488558977 0 0.015044583309798208 -0.0076726274380134489 0 0.0036233644623238676 -0.0012622675130184793 0 0.0035479113350347586 -0.0013139099586366024 0 0.003841608339039136 -0.0013967053303325263 0 0.031950071130155785 -0.012953604950398838 0 0.031930616422443873 -0.012828212282032939 0 0.032107754685028231 -0.012851790372063592 0 0.031950071130155785 -0.012953604950398838 0 0.03213055031770138 -0.012940786575058679 0 0.032107754685028231 -0.012851790372063592 0 0.010360880737427429 -0.0075996449867281176 0 0.024957946612069067 -0.012992953129361905 0 0.015044583309798208 -0.0076726274380134489 0 0.024957946612069067 -0.012992953129361905 0 0.017237973653508615 -0.0058729377310363364 0 0.018255729993819584 -0.0061152992921528404 0 0.019301295201797165 -0.014139349682079441 0 0.015044583309798208 -0.0076726274380134489 0 0.010360880737427429 -0.0075996449867281176 0 0.031950071130155785 -0.012953604950398838 0 0.031750538068730565 -0.013004601926244388 0 0.031930616422443873 -0.012828212282032939 0 0.016845836013784466 -0.011444529634324421 0 0.016792270339547211 -0.01026241721494054 0 0.016246802699916282 -0.010794592423151015 0 0.031922938879467122 -0.01270168394011501 0 0.031713937233135633 -0.012611858920095005 0 0.032161925713468306 -0.012590996285249421 0 0.031750538068730565 -0.013004601926244388 0 0.031930616422443873 -0.012828212282032939 0 0.031729684764227668 -0.012704536477254558 0 0.031930616422443873 -0.012828212282032939 0 0.031922938879467122 -0.01270168394011501 0 0.031729684764227668 -0.012704536477254558 0 0.031922938879467122 -0.01270168394011501 0 0.031713937233135633 -0.012611858920095005 0 0.031729684764227668 -0.012704536477254558 0 0.028809693702592849 -0.012400669265633458 0 0.025125519800611278 -0.012560744704976225 0 0.028809693702592849 -0.012400669265633458 0 0.024957946612069067 -0.012992953129361905 0 0.016786396492680471 -0.010009131129020667 0 0.016792270339547211 -0.01026241721494054 0 0.016568955809545625 -0.010120825820218789 0 0.03213055031770138 -0.012940786575058679 0 0.032107754685028231 -0.012851790372063592 0 0.032515674801185376 -0.012747194183340551 0 0.032107754685028231 -0.012851790372063592 0 0.032187424238259717 -0.012727587841659947 0 0.032515674801185376 -0.012747194183340551 0 0.031930616422443873 -0.012828212282032939 0 0.031922938879467122 -0.01270168394011501 0 0.032187424238259717 -0.012727587841659947 0 0.031930616422443873 -0.012828212282032939 0 0.032107754685028231 -0.012851790372063592 0 0.032187424238259717 -0.012727587841659947 0 0.031922938879467122 -0.01270168394011501 0 0.032187424238259717 -0.012727587841659947 0 0.032161925713468306 -0.012590996285249421 0 0.032187424238259717 -0.012727587841659947 0 0.03244573652932202 -0.012613124107753518 0 0.032161925713468306 -0.012590996285249421 0 0.032187424238259717 -0.012727587841659947 0 0.032515674801185376 -0.012747194183340551 0 0.03244573652932202 -0.012613124107753518 0 0.019146630650602108 -0.0058841091301082516 0 0.01906238428596839 -0.0058690837332119449 0 0.019108656213494609 -0.0058927665954459692 0 0.011238696853536999 -0.0041005005059673938 0 0.0078389328151344737 -0.0013857685866655862 0 0.01906238428596839 -0.0058690837332119449 0 0.018987070483421156 -0.0058315213673873646 0 0.019108656213494609 -0.0058927665954459692 0 0.016216642621602852 -0.0050035595488558977 0 0.026836950484642904 -0.0099059085599076547 0 0.03212388764054179 -0.013074899302197091 0 0.03213055031770138 -0.012940786575058679 0 0.032515674801185376 -0.012747194183340551 0 0.018987070483421156 -0.0058315213673873646 0 0.019038675755739792 -0.0058440023871624064 0 0.019108656213494609 -0.0058927665954459692 0 0.0062921957526368335 -0.011988222138531963 0 0.0062100742290692743 -0.008884655272699887 0 0.013559146448739087 -0.0088867171973300019 0 0.016606933137951328 -0.010439706228979308 0 0.016084759738143242 -0.010318201640871659 0 0.017338475223567851 -0.0095752363782762757 0 0.013673028924970717 -0.011472673798397302 0 0.015079346703258599 -0.0080751940080622912 0 0.016606933137951328 -0.010439706228979308 0 0.017292849100424029 -0.010192231292166877 0 0.017338475223567851 -0.0095752363782762757 0 0.021167806045995705 -0.01085236145878629 0 0.01943263497887757 -0.011443657760149587 0 0.019527850304951338 -0.010454509441168675 0 0.022022307349482066 -0.012509374374132213 0 0.017509471668734351 -0.0093346711841940967 0 0.017160122836535351 -0.0068516518052005706 0 0.017124604103690995 -0.0077566662773183182 0 0.018511253071300734 -0.0085070655703321542 0 0.017509471668734351 -0.0093346711841940967 0 0.015079346703258599 -0.0080751940080622912 0 0.017160122836535351 -0.0068516518052005706 0 0.015199634822140878 -0.0076916470892711549 0 0.015291069020787997 -0.0061640645594745842 0 0.017160122836535351 -0.0068516518052005706 0 0.01584053349423406 -0.005912454903801807 0 0.015291069020787997 -0.0061640645594745842 0 0.017160122836535351 -0.0068516518052005706 0 0.017124604103690995 -0.0077566662773183182 0 0.016066972305308003 -0.0072809784517565779 0 0.016735172646668739 -0.0073900906775284684 0 0.017509471668734351 -0.0093346711841940967 0 0.017124604103690995 -0.0077566662773183182 0 0.016066972305308003 -0.0072809784517565779 0 0.015851721319696477 -0.0082034270545435148 0 0.017509471668734351 -0.0093346711841940967 0 0.020815037110617898 -0.011257191629460556 0 0.018531531369520009 -0.0086452633583109489 0 0.018511253071300734 -0.0085070655703321542 0 0.019049103605737441 -0.0092246254475565042 0 0.020815037110617898 -0.011257191629460556 0 0.016937693313710436 -0.008110749415702577 0 0.017124604103690995 -0.0077566662773183182 0 0.015851721319696477 -0.0082034270545435148 0 0.018511253071300734 -0.0085070655703321542 0 0.02880707230395604 -0.015494983326074265 0 0.027962658501527248 -0.015280876051082557 0 0.028996272761594423 -0.014454341604525975 0 0.022022307349482066 -0.012509374374132213 0 0.020815037110617898 -0.011257191629460556 0 0.02880707230395604 -0.015494983326074265 0 0.028996272761594423 -0.014454341604525975 0 0.030012772013973125 -0.015100210095472745 0 0.028996272761594423 -0.014454341604525975 0 0.030012772013973125 -0.015100210095472745 0 0.03008532992437642 -0.014249084191673174 0 0.019279638977300371 -0.013303744207710213 0 0.021756866705037254 -0.012427249584358663 0 0.020657407950289048 -0.013629072039045084 0 0.022022307349482066 -0.012509374374132213 0 0.026491503478577982 -0.013624054010266619 0 0.026491503478577982 -0.013624054010266619 0 0.025125519800611278 -0.012560744704976225 0 0.030012772013973125 -0.015100210095472745 0 0.031169741170043758 -0.014687851015729366 0 0.03008532992437642 -0.014249084191673174 0 0.021756866705037254 -0.012427249584358663 0 0.024248948613321167 -0.011556899907202815 0 0.020657407950289048 -0.013629072039045084 0 0.016568955809545625 -0.010120825820218789 0 0.016246802699916282 -0.010794592423151015 0 0.014928980691541281 -0.011017928446403025 0 0.025125519800611278 -0.012560744704976225 0 0.013673028924970717 -0.011472673798397302 0 0.016792270339547211 -0.01026241721494054 0 0.016568955809545625 -0.010120825820218789 0 0.016246802699916282 -0.010794592423151015 0 0.016246802699916282 -0.010794592423151015 0 0.015911417201517893 -0.011244006866664786 0 0.014928980691541281 -0.011017928446403025 0 0.016845836013784466 -0.011444529634324421 0 0.016246802699916282 -0.010794592423151015 0 0.015911417201517893 -0.011244006866664786 0 0.0026535522384367547 -0.010581542566142087 0 0.0016031493928948615 -0.008560974819580883 0 0.0027717491535489843 -0.0074624430682172001 0 -2.5966158467773847e-05 -0.0094038398279382308 0 0.0026535522384367547 -0.010581542566142087 0 0.0016031493928948615 -0.008560974819580883 0 0.010360880737427429 -0.0075996449867281176 0 0.00877144582985619 -0.010658547796203515 0 0.022022307349482066 -0.012509374374132213 0 0.013673028924970717 -0.011472673798397302 0 0.00877144582985619 -0.010658547796203515 0 0.013673028924970717 -0.011472673798397302 0 0.0026535522384367547 -0.010581542566142087 0 0.0062921957526368335 -0.011988222138531963 0 0.0062100742290692743 -0.008884655272699887 0 0.0026535522384367547 -0.010581542566142087 0 0.0062100742290692743 -0.008884655272699887 0 0.0027717491535489843 -0.0074624430682172001 0 0.0062100742290692743 -0.008884655272699887 0 0.0043456336637039926 -0.0066616144880483914 0 0.0044009893451180662 -0.0045421003090281731 0 0.0061410408068566227 -0.0088325557806383081 0 0.0074264396332465368 -0.0046416733655371637 0 0.0062100742290692743 -0.008884655272699887 0 0.0043456336637039926 -0.0066616144880483914 0 0.0027717491535489843 -0.0074624430682172001 0 0.0043456336637039926 -0.0066616144880483914 0 0.0027650926942821472 -0.005623272071197216 0 0.0035832922006143186 -0.0051346797160578836 0 -2.5966158467773847e-05 -0.0094038398279382308 0 0.0016031493928948615 -0.008560974819580883 0 0.0011495928739514061 -0.0069806370518257239 0 0.0016031493928948615 -0.008560974819580883 0 0.0027717491535489843 -0.0074624430682172001 0 0.0011495928739514061 -0.0069806370518257239 0 0.0027717491535489843 -0.0074624430682172001 0 0.0019150821917446545 -0.0061110647020932831 0 0.0027650926942821472 -0.005623272071197216 0 0.0043456336637039926 -0.0066616144880483914 0 0.0027717491535489843 -0.0074624430682172001 0 0.0027650926942821472 -0.005623272071197216 0 0.0019150821917446545 -0.0061110647020932831 0 0.0011495928739514061 -0.0069806370518257239 0 0.0012040932718874477 -0.0054582755561150857 0 0.0027717491535489843 -0.0074624430682172001 0 0.0019150821917446545 -0.0061110647020932831 0 0.0011495928739514061 -0.0069806370518257239 0 0.0019150821917446545 -0.0061110647020932831 0 0.0012040932718874477 -0.0054582755561150857 0 0.0016885936656136588 -0.004687522246308997 0 0.0011053849356607757 -0.0048072581627500192 0 0.0012040932718874477 -0.0054582755561150857 0 0.0016885936656136588 -0.004687522246308997 0 0.0019150821917446545 -0.0061110647020932831 0 0.0027650926942821472 -0.005623272071197216 0 0.0016885936656136588 -0.004687522246308997 0 0.0027650926942821472 -0.005623272071197216 0 0.0025413298277118805 -0.0045211334990484416 0 0.0016885936656136588 -0.004687522246308997 0 0.0025413298277118805 -0.0045211334990484416 0 0.0016885936656136588 -0.004687522246308997 0 0.0018095759638901501 -0.0037742049344009479 0 0.0012268308712349361 -0.004313864785221222 0 0.0016885936656136588 -0.004687522246308997 0 0.0018095759638901501 -0.0037742049344009479 0 0.0012268308712349361 -0.004313864785221222 0 0.0011053849356607757 -0.0048072581627500192 0 0.0016885936656136588 -0.004687522246308997 0 0.0032051064070655584 -0.0042076767739487406 0 0.0044009893451180662 -0.0045421003090281731 0 0.0027880649196286604 -0.0032412697516138785 0 0.0043456336637039926 -0.0066616144880483914 0 0.0035832922006143186 -0.0051346797160578836 0 0.0044009893451180662 -0.0045421003090281731 0 0.0027650926942821472 -0.005623272071197216 0 0.0025413298277118805 -0.0045211334990484416 0 0.0035832922006143186 -0.0051346797160578836 0 0.0025413298277118805 -0.0045211334990484416 0 0.0032051064070655584 -0.0042076767739487406 0 0.0023640441120019117 -0.0034263579724742297 0 0.0025413298277118805 -0.0045211334990484416 0 0.0035832922006143186 -0.0051346797160578836 0 0.0032051064070655584 -0.0042076767739487406 0 0.0035832922006143186 -0.0051346797160578836 0 0.0032051064070655584 -0.0042076767739487406 0 0.0044009893451180662 -0.0045421003090281731 0 0.010686564939919464 -0.0040257194839112935 0 0.014442686882158938 -0.004024121238880571 0 0.013525472737435202 -0.0011797185271609128 0 0.010686564939919464 -0.0040257194839112935 0 0.010185349290997028 -0.0070131954949865759 0 0.014442686882158938 -0.004024121238880571 0 0.010185349290997028 -0.0070131954949865759 0 0.013559146448739087 -0.0088867171973300019 0 0.014442686882158938 -0.004024121238880571 0 0.0062100742290692743 -0.008884655272699887 0 0.010185349290997028 -0.0070131954949865759 0 0.013559146448739087 -0.0088867171973300019 0 0.0062100742290692743 -0.008884655272699887 0 0.010686564939919464 -0.0040257194839112935 0 0.010185349290997028 -0.0070131954949865759 0 0.015079346703258599 -0.0080751940080622912 0 0.014432569686556018 -0.0039760570644084134 0 0.01584053349423406 -0.005912454903801807 0 0.01536294414726721 -0.0062376071086901732 0 0.014442686882158938 -0.004024121238880571 0 0.01584053349423406 -0.005912454903801807 0 0.014442686882158938 -0.004024121238880571 0 0.016478422845143444 -0.0050291102460609484 0 0.01584053349423406 -0.005912454903801807 0 0.016969701075745771 -0.005958074551863873 0 0.016478422845143444 -0.0050291102460609484 0 0.017160122836535351 -0.0068516518052005706 0 0.01584053349423406 -0.005912454903801807 0 0.016969701075745771 -0.005958074551863873 0 0.015850890704733486 -0.0071040235234354843 0 0.015079346703258599 -0.0080751940080622912 0 0.014442686882158938 -0.004024121238880571 0 0.016478422845143444 -0.0050291102460609484 0 0.016524735433878113 -0.0037162895273740093 0 0.014442686882158938 -0.004024121238880571 0 0.015323743664271266 -0.002285560577773156 0 0.016524735433878113 -0.0037162895273740093 0 0.015323743664271266 -0.002285560577773156 0 0.013525472737435202 -0.0011797185271609128 0 0.015463710488385527 -0.0007295410783089418 0 0.014442686882158938 -0.004024121238880571 0 0.015323743664271266 -0.002285560577773156 0 0.013525472737435202 -0.0011797185271609128 0 0.015323743664271266 -0.002285560577773156 0 0.015463710488385527 -0.0007295410783089418 0 0.016552055786029977 -0.0020911137617128286 0 0.0074264396332465368 -0.0046416733655371637 0 0.0079781044301071424 -0.0021726523135382988 0 0.0044009893451180662 -0.0045421003090281731 0 0.0025960248830880711 -0.0028759589197265246 0 0.0027880649196286604 -0.0032412697516138785 0 0.0025960248830880711 -0.0028759589197265246 0 0.0018119757394278245 -0.0026009497424668098 0 0.00076926649047656952 -0.0024633098211193525 0 0.0025960248830880711 -0.0028759589197265246 0 0.0018119757394278245 -0.0026009497424668098 0 0.0027880649196286604 -0.0032412697516138785 0 0.013525472737435202 -0.0011797185271609128 0 0.015463710488385527 -0.0007295410783089418 0 0.014939633563957375 0.00053120546824475296 0 0.0079781044301071424 -0.0021726523135382988 0 0.0078124027448309812 -0.0010623604695616368 0 0.0012969608019346038 -0.0036147892298645777 0 0.0018095759638901501 -0.0037742049344009479 0 0.0017958480172823039 -0.0029085775967367831 0 0.0012969608019346038 -0.0036147892298645777 0 0.0012268308712349361 -0.004313864785221222 0 0.0018095759638901501 -0.0037742049344009479 0 0.0025413298277118805 -0.0045211334990484416 0 0.0018095759638901501 -0.0037742049344009479 0 0.0023640441120019117 -0.0034263579724742297 0 0.0018095759638901501 -0.0037742049344009479 0 0.0023640441120019117 -0.0034263579724742297 0 0.0017958480172823039 -0.0029085775967367831 0 0.0023640441120019117 -0.0034263579724742297 0 0.0027880649196286604 -0.0032412697516138785 0 0.0021142320968985701 -0.0028207807413615383 0 0.0032051064070655584 -0.0042076767739487406 0 0.0023640441120019117 -0.0034263579724742297 0 0.0027880649196286604 -0.0032412697516138785 0 0.0018119757394278245 -0.0026009497424668098 0 0.0027880649196286604 -0.0032412697516138785 0 0.0021142320968985701 -0.0028207807413615383 0 0.0018119757394278245 -0.0026009497424668098 0 0.0021142320968985701 -0.0028207807413615383 0 0.0018063311937577058 -0.0026291835746619498 0 0.0021142320968985701 -0.0028207807413615383 0 0.0017958480172823039 -0.0029085775967367831 0 0.0018063311937577058 -0.0026291835746619498 0 0.0017851897703517147 -0.0026378934581582159 0 0.0017958480172823039 -0.0029085775967367831 0 0.0018063311937577058 -0.0026291835746619498 0 0.0023640441120019117 -0.0034263579724742297 0 0.0021142320968985701 -0.0028207807413615383 0 0.0017958480172823039 -0.0029085775967367831 0 0.0017851897703517147 -0.0026378934581582159 0 0.0018616198151245596 -0.0027568942749457864 0 0.0018063311937577058 -0.0026291835746619498 0 0.0018616198151245596 -0.0027568942749457864 0 0.0018063311937577058 -0.0026291835746619498 0 0.0016903480171494133 -0.0027671324058324543 0 0.0018119757394278245 -0.0026009497424668098 0 0.0018063311937577058 -0.0026291835746619498 0 0.0013413593317429761 -0.0027547262467828709 0 0.0018063311937577058 -0.0026291835746619498 0 0.0016903480171494133 -0.0027671324058324543 0 0.0013413593317429761 -0.0027547262467828709 0 0.0007872781613516936 -0.0034816518427202925 0 0.0013797377537494949 -0.0033369121467735213 0 0.0013413593317429761 -0.0027547262467828709 0 0.0013797377537494949 -0.0033369121467735213 0 0.0013413593317429761 -0.0027547262467828709 0 0.0016676961664046956 -0.0030215877429067054 0 0.0016903480171494133 -0.0027671324058324543 0 0.0013413593317429761 -0.0027547262467828709 0 0.0016676961664046956 -0.0030215877429067054 0 0.0018616198151245596 -0.0027568942749457864 0 0.0016903480171494133 -0.0027671324058324543 0 0.0016676961664046956 -0.0030215877429067054 0 0.0020098059525426215 -0.0032145102247803591 0 0.0018616198151245596 -0.0027568942749457864 0 0.0016676961664046956 -0.0030215877429067054 0 0.015463710488385527 -0.0007295410783089418 0 0.014939633563957375 0.00053120546824475296 0 0.016264970709871374 0.00076024658656292043 0 0.0018119757394278245 -0.0026009497424668098 0 0.00076926649047656952 -0.0024633098211193525 0 0.0007584482831483032 -0.0027383119524730121 0 0.0018119757394278245 -0.0026009497424668098 0 0.0013413593317429761 -0.0027547262467828709 0 0.0007584482831483032 -0.0027383119524730121 0 9.9433438311336819e-05 -0.0031925278274667203 0 0.0013413593317429761 -0.0027547262467828709 0 0.0007584482831483032 -0.0027383119524730121 0 9.9433438311336819e-05 -0.0031925278274667203 0 0.0007872781613516936 -0.0034816518427202925 0 0.0013413593317429761 -0.0027547262467828709 0 9.9433438311336819e-05 -0.0031925278274667203 0 0.0007584482831483032 -0.0027383119524730121 0 -0.0011665443457169018 -0.0031268184614079947 0 0.00076926649047656952 -0.0024633098211193525 0 0.0007584482831483032 -0.0027383119524730121 0 -0.0011665443457169018 -0.0031268184614079947 0 0.0078124027448309812 -0.0010623604695616368 0 0.0072906434434356071 -0.00063279308310728666 0 0.014939633563957375 0.00053120546824475296 0 0.01585802165971362 0.0021576276389430713 0 0.016264970709871374 0.00076024658656292043 0 0.01585802165971362 0.0021576276389430713 0 0.017040863981229122 0.0015620669749236646 0 0.016264970709871374 0.00076024658656292043 0 0.016962683076610283 0.0024858518220351217 0 0.01585802165971362 0.0021576276389430713 0 0.017040863981229122 0.0015620669749236646 0 0.016264970709871374 0.00076024658656292043 0 0.017711820454865405 0.00071504256055665441 0 0.016881529029465884 -0.00016299364749313981 0 0.015463710488385527 -0.0007295410783089418 0 0.016264970709871374 0.00076024658656292043 0 0.016881529029465884 -0.00016299364749313981 0 0.017040863981229122 0.0015620669749236646 0 0.016264970709871374 0.00076024658656292043 0 0.017711820454865405 0.00071504256055665441 0 0.018249324809253311 0.00038993565857768766 0 0.017711820454865405 0.00071504256055665441 0 0.018021890074253408 -0.00020251384932311624 0 0.018249324809253311 0.00038993565857768766 0 0.018626271994347143 0.00055403074440203194 0 0.018625190802713659 1.3186621475083305e-05 0 0.018249324809253311 0.00038993565857768766 0 0.018625190802713659 1.3186621475083305e-05 0 0.018021890074253408 -0.00020251384932311624 0 0.017711820454865405 0.00071504256055665441 0 0.016881529029465884 -0.00016299364749313981 0 0.018021890074253408 -0.00020251384932311624 0 0.017711820454865405 0.00071504256055665441 0 0.018254888846833524 0.00083180410731383285 0 0.018036721709519407 0.0014186682823002794 0 0.018249324809253311 0.00038993565857768766 0 0.017711820454865405 0.00071504256055665441 0 0.018254888846833524 0.00083180410731383285 0 0.018249324809253311 0.00038993565857768766 0 0.018254888846833524 0.00083180410731383285 0 0.018626271994347143 0.00055403074440203194 0 0.017040863981229122 0.0015620669749236646 0 0.017711820454865405 0.00071504256055665441 0 0.018036721709519407 0.0014186682823002794 0 0.017040863981229122 0.0015620669749236646 0 0.018036721709519407 0.0014186682823002794 0 0.017491473306004996 0.0019662167816296523 0 0.016962683076610283 0.0024858518220351217 0 0.017040863981229122 0.0015620669749236646 0 0.017491473306004996 0.0019662167816296523 0 0.018050180754043361 0.0023035984507251668 0 0.018036721709519407 0.0014186682823002794 0 0.017491473306004996 0.0019662167816296523 0 0.0071153358889687098 -0.00031462115907440757 0 0.0070993241288929932 8.5374289524466623e-06 0 0.0070700482133024363 -2.1908842316842533e-06 0 0.0068642343452413237 -0.00035772664298120072 0 0.0071153358889687098 -0.00031462115907440757 0 0.0070700482133024363 -2.1908842316842533e-06 0 0.0061820525498203684 -0.00056868076713657454 0 0.012968574244426892 -0.00064118024672453586 0 0.018050180754043361 0.0023035984507251668 0 0.018036721709519407 0.0014186682823002794 0 0.018926795531458037 0.00071779688270767706 0 0.012371585958727813 0.001045381935633553 0 0.01456909533764001 0.00027296142164142729 0 0.0067414361471506102 -0.00059394731430793672 0 0.0068017052865479866 -0.00060242489716361592 0 0.0068340725019585529 -0.00045780539975043055 0 0.0069157934667668291 -0.00060837048826326012 0 0.0068340725019585529 -0.00045780539975043055 0 0.0071121032013754934 -0.00034271900268637414 0 0.0068017052865479866 -0.00060242489716361592 0 0.0069157934667668291 -0.00060837048826326012 0 0.0068340725019585529 -0.00045780539975043055 0 0.013474583320748457 -0.0018304252963889133 0 0.012968574244426892 -0.00064118024672453586 0 0.019822180129453602 -0.0031197718706397351 0 0.019850796359942875 -0.0029949697763171986 0 0.019843233752985516 -0.0029742210829661296 0 0.019822180129453602 -0.0031197718706397351 0 0.019850796359942875 -0.0029949697763171986 0 0.019887623335602417 -0.0029823808153020205 0 0.019822180129453602 -0.0031197718706397351 0 0.019887623335602417 -0.0029823808153020205 0 0.019738776342865402 -0.0029417481757439507 0 0.019850796359942875 -0.0029949697763171986 0 0.019842574889150612 -0.0029793317905406585 0 0.019838001629741874 -0.0029762390204652743 0 0.019850796359942875 -0.0029949697763171986 0 0.019887623335602417 -0.0029823808153020205 0 0.019838001629741874 -0.0029762390204652743 0 0.019126301061995168 0.00051712064868143098 0 0.018625190802713659 1.3186621475083305e-05 0 0.019031798999144239 -0.0010096450873241572 0 0.018254888846833524 0.00083180410731383285 0 0.018926795531458037 0.00071779688270767706 0 0.018626271994347143 0.00055403074440203194 0 0.018254888846833524 0.00083180410731383285 0 0.018036721709519407 0.0014186682823002794 0 0.018926795531458037 0.00071779688270767706 0 0.019051983511282917 0.00074316417529972606 0 0.019126301061995168 0.00051712064868143098 0 0.018626271994347143 0.00055403074440203194 0 0.01456909533764001 0.00027296142164142729 0 0.016929012529845879 0.0009603273769982864 0 0.014791569397783975 0.0002628533977408805 0 0.014989884162447755 -0.00038106083872752359 0 0.015240295449818191 0.00045518385072217647 0 0.01456909533764001 0.00027296142164142729 0 0.012968574244426892 -0.00064118024672453586 0 0.01456909533764001 0.00027296142164142729 0 0.015950960253155844 -0.0010034370847923923 0 0.019850796359942875 -0.0029949697763171986 0 0.019843233752985516 -0.0029742210829661296 0 0.019842574889150612 -0.0029793317905406585 0 0.019838307620420971 -0.0029701655523546627 0 0.019843233752985516 -0.0029742210829661296 0 0.019842574889150612 -0.0029793317905406585 0 0.015950960253155844 -0.0010034370847923923 0 0.012968574244426892 -0.00064118024672453586 0 0.019838307620420971 -0.0029701655523546627 0 0.019842574889150612 -0.0029793317905406585 0 0.019838001629741874 -0.0029762390204652743 0 0.019126301061995168 0.00051712064868143098 0 0.018626271994347143 0.00055403074440203194 0 0.018625190802713659 1.3186621475083305e-05 0 0.015950960253155844 -0.0010034370847923923 0 0.019208530057675432 -0.0018597352160958235 0 0.019518402096900152 -0.0023110223617074537 0 0.019744087308484416 -0.0030005101392523059 0 0.0193616662245857 -0.0029518741212617395 0 0.019838307620420971 -0.0029701655523546627 0 0.019744087308484416 -0.0030005101392523059 0 0.019838001629741874 -0.0029762390204652743 0 0.015950960253155844 -0.0010034370847923923 0 0.020033249644109352 -0.0038161371750447281 0 0.019744087308484416 -0.0030005101392523059 0 0.0193616662245857 -0.0029518741212617395 0 0.019474719359702682 -0.0031698077520003151 0 0.019887623335602417 -0.0029823808153020205 0 0.020126429426297287 -0.0031665850596635341 0 0.019738776342865402 -0.0029417481757439507 0 0.019887623335602417 -0.0029823808153020205 0 0.019838001629741874 -0.0029762390204652743 0 0.020126429426297287 -0.0031665850596635341 0 0.019744087308484416 -0.0030005101392523059 0 0.019838001629741874 -0.0029762390204652743 0 0.020126429426297287 -0.0031665850596635341 0 0.019744087308484416 -0.0030005101392523059 0 0.020126429426297287 -0.0031665850596635341 0 0.019877153125970222 -0.0033910004107412742 0 0.020126429426297287 -0.0031665850596635341 0 0.019877153125970222 -0.0033910004107412742 0 0.020425922371972598 -0.0037213477370267975 0 0.019877153125970222 -0.0033910004107412742 0 0.020425922371972598 -0.0037213477370267975 0 0.020047789580480323 -0.0040849934118934259 0 0.0193616662245857 -0.0029518741212617395 0 0.019474719359702682 -0.0031698077520003151 0 0.018908621334249715 -0.0030926425559279305 0 0.019877153125970222 -0.0033910004107412742 0 0.019474719359702682 -0.0031698077520003151 0 0.019563579898088209 -0.0035530192535098682 0 0.019744087308484416 -0.0030005101392523059 0 0.019877153125970222 -0.0033910004107412742 0 0.019474719359702682 -0.0031698077520003151 0 0.019877153125970222 -0.0033910004107412742 0 0.019563579898088209 -0.0035530192535098682 0 0.020047789580480323 -0.0040849934118934259 0 0.019563579898088209 -0.0035530192535098682 0 0.018908621334249715 -0.0030926425559279305 0 0.019469145670780286 -0.0041832265686916614 0 0.019474719359702682 -0.0031698077520003151 0 0.019563579898088209 -0.0035530192535098682 0 0.018908621334249715 -0.0030926425559279305 0 0.019031798999144239 -0.0010096450873241572 0 0.018908621334249715 -0.0030926425559279305 0 0.017827254321241628 -0.0015719477324684936 0 0.019208530057675432 -0.0018597352160958235 0 0.018893385896434103 -0.0030852371920223926 0 0.018908621334249715 -0.0030926425559279305 0 0.017674341337538157 -0.0033345745803140172 0 0.017827254321241628 -0.0015719477324684936 0 0.017674341337538157 -0.0033345745803140172 0 0.016552055786029977 -0.0020911137617128286 0 0.017827254321241628 -0.0015719477324684936 0 0.017674341337538157 -0.0033345745803140172 0 0.016552055786029977 -0.0020911137617128286 0 0.016524735433878113 -0.0037162895273740093 0 0.015323743664271266 -0.002285560577773156 0 0.016552055786029977 -0.0020911137617128286 0 0.016524735433878113 -0.0037162895273740093 0 0.015463710488385527 -0.0007295410783089418 0 0.016552055786029977 -0.0020911137617128286 0 0.016881529029465884 -0.00016299364749313981 0 0.016552055786029977 -0.0020911137617128286 0 0.016881529029465884 -0.00016299364749313981 0 0.017827254321241628 -0.0015719477324684936 0 0.016881529029465884 -0.00016299364749313981 0 0.018021890074253408 -0.00020251384932311624 0 0.017827254321241628 -0.0015719477324684936 0 0.019031798999144239 -0.0010096450873241572 0 0.018021890074253408 -0.00020251384932311624 0 0.017827254321241628 -0.0015719477324684936 0 0.018625190802713659 1.3186621475083305e-05 0 0.019031798999144239 -0.0010096450873241572 0 0.018021890074253408 -0.00020251384932311624 0 0.021501753093932017 -0.0031899601563023391 0 0.021303120784140483 -0.0032825773535124147 0 0.021505258788610666 -0.0035053683300119349 0 0.020619887055460608 -0.0032235761721578012 0 0.020782687873402955 -0.00325079313555038 0 0.02092223038784655 -0.0034417459717243182 0 0.016124129123435239 -0.0027052626987813431 0 0.022162151816530411 -0.0035990889072770134 0 0.020782687873402955 -0.00325079313555038 0 0.020913738700080713 -0.0032337272789156892 0 0.02092223038784655 -0.0034417459717243182 0 0.02124601505321181 -0.0028618063542650259 0 0.021308438427984817 -0.0030805319974530972 0 0.021116822192321 -0.0030169192904947583 0 0.02124601505321181 -0.0028618063542650259 0 0.021501753093932017 -0.0031899601563023391 0 0.021308438427984817 -0.0030805319974530972 0 0.021308438427984817 -0.0030805319974530972 0 0.021211228264776998 -0.0031254125305912122 0 0.021116822192321 -0.0030169192904947583 0 0.021308438427984817 -0.0030805319974530972 0 0.021211228264776998 -0.0031254125305912122 0 0.021303120784140483 -0.0032825773535124147 0 0.021501753093932017 -0.0031899601563023391 0 0.021308438427984817 -0.0030805319974530972 0 0.021303120784140483 -0.0032825773535124147 0 0.020640261894187106 -0.0029329325581180276 0 0.020177610223656689 -0.0030898709182441146 0 0.021132839763766689 -0.0031436218937856502 0 0.021116822192321 -0.0030169192904947583 0 0.020841779943916242 -0.0030423345705906748 0 0.021132839763766689 -0.0031436218937856502 0 0.021211228264776998 -0.0031254125305912122 0 0.021303120784140483 -0.0032825773535124147 0 0.021132839763766689 -0.0031436218937856502 0 0.020841779943916242 -0.0030423345705906748 0 0.021168975539637053 -0.0033605725439870451 0 0.021132839763766689 -0.0031436218937856502 0 0.021211228264776998 -0.0031254125305912122 0 0.021116822192321 -0.0030169192904947583 0 0.016124129123435239 -0.0027052626987813431 0 0.020640261894187106 -0.0029329325581180276 0 0.018694402548974379 -0.00370457332649824 0 0.019016006378268214 -0.0034951811525136349 0 0.019259310517886607 -0.0031703691417923762 0 0.019016006378268214 -0.0034951811525136349 0 0.019419664555492554 -0.0034051040729659041 0 0.019259310517886607 -0.0031703691417923762 0 0.019419664555492554 -0.0034051040729659041 0 0.019259310517886607 -0.0031703691417923762 0 0.019603423010617536 -0.0031317713777447909 0 0.013474583320748457 -0.0018304252963889133 0 0.012456407988219738 -0.002102808416083493 0 0.0067414361471506102 -0.00059394731430793672 0 0.0068340725019585529 -0.00045780539975043055 0 0.0066976774471323329 -0.00059970756474103507 0 0.019822180129453602 -0.0031197718706397351 0 0.019419664555492554 -0.0034051040729659041 0 0.019603423010617536 -0.0031317713777447909 0 0.019822180129453602 -0.0031197718706397351 0 0.019603423010617536 -0.0031317713777447909 0 0.019738776342865402 -0.0029417481757439507 0 0.019259310517886607 -0.0031703691417923762 0 0.019603423010617536 -0.0031317713777447909 0 0.019738776342865402 -0.0029417481757439507 0 0.020132439801947701 -0.0031652792368418838 0 0.020177610223656689 -0.0030898709182441146 0 0.020126429426297287 -0.0031665850596635341 0 0.020841779943916242 -0.0030423345705906748 0 0.020815496487016364 -0.0033761443783028072 0 0.020841779943916242 -0.0030423345705906748 0 0.020815496487016364 -0.0033761443783028072 0 0.021168975539637053 -0.0033605725439870451 0 0.020425922371972598 -0.0037213477370267975 0 0.020815496487016364 -0.0033761443783028072 0 0.021033444146580798 -0.0038787932755482172 0 0.020126429426297287 -0.0031665850596635341 0 0.020425922371972598 -0.0037213477370267975 0 0.020815496487016364 -0.0033761443783028072 0 0.020815496487016364 -0.0033761443783028072 0 0.021033444146580798 -0.0038787932755482172 0 0.021168975539637053 -0.0033605725439870451 0 0.021033444146580798 -0.0038787932755482172 0 0.021168975539637053 -0.0033605725439870451 0 0.021572082997711576 -0.0037694353511177866 0 0.021168975539637053 -0.0033605725439870451 0 0.021303120784140483 -0.0032825773535124147 0 0.021572082997711576 -0.0037694353511177866 0 0.021132839763766689 -0.0031436218937856502 0 0.021168975539637053 -0.0033605725439870451 0 0.021303120784140483 -0.0032825773535124147 0 0.021326121830245025 -0.0033359256093743431 0 0.021369273692686857 -0.0037504605297054867 0 0.021303120784140483 -0.0032825773535124147 0 0.021177544202631703 -0.0036880245260794706 0 0.021505258788610666 -0.0035053683300119349 0 0.021177544202631703 -0.0036880245260794706 0 0.021505258788610666 -0.0035053683300119349 0 0.021588973544939844 -0.0039030097243132954 0 0.021612467375203656 -0.0036432437286545573 0 0.021505258788610666 -0.0035053683300119349 0 0.021588973544939844 -0.0039030097243132954 0 0.021969951468080298 -0.0043117648354807914 0 0.02166122515751611 -0.0045343064339092871 0 0.021588973544939844 -0.0039030097243132954 0 0.02166122515751611 -0.0045343064339092871 0 0.021588973544939844 -0.0039030097243132954 0 0.021103419142119856 -0.0042135810995189505 0 0.021177544202631703 -0.0036880245260794706 0 0.021588973544939844 -0.0039030097243132954 0 0.021103419142119856 -0.0042135810995189505 0 0.02166122515751611 -0.0045343064339092871 0 0.021103419142119856 -0.0042135810995189505 0 0.021395304570461265 -0.0047527873874523624 0 0.021103419142119856 -0.0042135810995189505 0 0.021019331684714537 -0.0050156090994228075 0 0.021395304570461265 -0.0047527873874523624 0 0.02168554980998437 -0.0047533090307273623 0 0.021015025055623141 -0.0054207398317879527 0 0.021572469948917403 -0.0058334299807645019 0 0.021381683577329526 -0.0044954079025250138 0 0.021314362534213226 -0.0054204297499246268 0 0.021033444146580798 -0.0038787932755482172 0 0.021572082997711576 -0.0037694353511177866 0 0.02168554980998437 -0.0047533090307273623 0 0.021369273692686857 -0.0037504605297054867 0 0.021381683577329526 -0.0044954079025250138 0 0.021033444146580798 -0.0038787932755482172 0 0.02168554980998437 -0.0047533090307273623 0 0.020657504277453061 -0.0046046419046508495 0 0.020425922371972598 -0.0037213477370267975 0 0.021033444146580798 -0.0038787932755482172 0 0.020657504277453061 -0.0046046419046508495 0 0.02168554980998437 -0.0047533090307273623 0 0.020657504277453061 -0.0046046419046508495 0 0.021015025055623141 -0.0054207398317879527 0 0.020657504277453061 -0.0046046419046508495 0 0.021015025055623141 -0.0054207398317879527 0 0.020267820083452962 -0.0056027104522540089 0 0.021015025055623141 -0.0054207398317879527 0 0.02109885135614626 -0.0060223989706288698 0 0.020658107298935073 -0.0060396195671278087 0 0.021015025055623141 -0.0054207398317879527 0 0.02109885135614626 -0.0060223989706288698 0 0.021572469948917403 -0.0058334299807645019 0 0.02109885135614626 -0.0060223989706288698 0 0.020871910535273774 -0.0064496542750299432 0 0.020658107298935073 -0.0060396195671278087 0 0.020871910535273774 -0.0064496542750299432 0 0.020689445820856446 -0.0069940490208617806 0 0.02104526141092421 -0.006835660806823296 0 0.020871910535273774 -0.0064496542750299432 0 0.021247775636381822 -0.0063108608555071414 0 0.02104526141092421 -0.006835660806823296 0 0.02109885135614626 -0.0060223989706288698 0 0.020871910535273774 -0.0064496542750299432 0 0.021247775636381822 -0.0063108608555071414 0 0.021320525448402058 -0.0063557194832160966 0 0.021358054575081151 -0.0057142024777473667 0 0.021019331684714537 -0.0050156090994228075 0 0.02129728257991774 -0.0062431639506747997 0 0.021314362534213226 -0.0054204297499246268 0 0.021247775636381822 -0.0063108608555071414 0 0.021320525448402058 -0.0063557194832160966 0 0.021572469948917403 -0.0058334299807645019 0 0.021320525448402058 -0.0063557194832160966 0 0.021358054575081151 -0.0057142024777473667 0 0.021492492389155172 -0.0061173173063063975 0 0.02109885135614626 -0.0060223989706288698 0 0.021247775636381822 -0.0063108608555071414 0 0.021572469948917403 -0.0058334299807645019 0 0.021358054575081151 -0.0057142024777473667 0 0.021019331684714537 -0.0050156090994228075 0 0.021667468332600973 -0.0052865503099462719 0 0.02166122515751611 -0.0045343064339092871 0 0.021395304570461265 -0.0047527873874523624 0 0.021667468332600973 -0.0052865503099462719 0 0.021019331684714537 -0.0050156090994228075 0 0.021395304570461265 -0.0047527873874523624 0 0.021667468332600973 -0.0052865503099462719 0 0.021358054575081151 -0.0057142024777473667 0 0.021667468332600973 -0.0052865503099462719 0 0.021492492389155172 -0.0061173173063063975 0 0.021667468332600973 -0.0052865503099462719 0 0.021492492389155172 -0.0061173173063063975 0 0.021791102915821484 -0.0060683244846583898 0 0.021791102915821484 -0.0060683244846583898 0 0.022074900053507266 -0.0056984385251883677 0 0.022249272481231774 -0.0061902473242751487 0 0.021667468332600973 -0.0052865503099462719 0 0.021791102915821484 -0.0060683244846583898 0 0.022074900053507266 -0.0056984385251883677 0 0.023018934950164282 -0.0050879863768201862 0 0.022074900053507266 -0.0056984385251883677 0 0.022489644490648195 -0.0058348726073261144 0 0.023018934950164282 -0.0050879863768201862 0 0.022687950941559589 -0.0060635460598955238 0 0.022489644490648195 -0.0058348726073261144 0 0.023018934950164282 -0.0050879863768201862 0 0.021667468332600973 -0.0052865503099462719 0 0.022074900053507266 -0.0056984385251883677 0 0.022074900053507266 -0.0056984385251883677 0 0.022489644490648195 -0.0058348726073261144 0 0.022249272481231774 -0.0061902473242751487 0 0.022652017754291986 -0.006012243322351638 0 0.022489644490648195 -0.0058348726073261144 0 0.022249272481231774 -0.0061902473242751487 0 0.023331262411735602 -0.0055214100527362416 0 0.02305834623387458 -0.0055532848873426667 0 0.022980958764963359 -0.004321531581064489 0 0.021479887724734109 -0.0054061245808443249 0 0.021998621266826956 -0.0049206648662569446 0 0.02166122515751611 -0.0045343064339092871 0 0.021667468332600973 -0.0052865503099462719 0 0.01865337533662598 -0.0056785649599832861 0 0.01864582128770154 -0.0043432523878339183 0 0.019313118301653262 -0.0049864100076389148 0 0.01865337533662598 -0.0056785649599832861 0 0.017566366549571475 -0.0046130279063055337 0 0.01864582128770154 -0.0043432523878339183 0 0.01865337533662598 -0.0056785649599832861 0 0.019313118301653262 -0.0049864100076389148 0 0.019499220658352134 -0.005776688115173117 0 0.01865337533662598 -0.0056785649599832861 0 0.017448660028630568 -0.0055732381225975401 0 0.017988410381950225 -0.0065102306708838473 0 0.017448660028630568 -0.0055732381225975401 0 0.016969701075745771 -0.005958074551863873 0 0.017988410381950225 -0.0065102306708838473 0 0.017448660028630568 -0.0055732381225975401 0 0.016969701075745771 -0.005958074551863873 0 0.016478422845143444 -0.0050291102460609484 0 0.017448660028630568 -0.0055732381225975401 0 0.016478422845143444 -0.0050291102460609484 0 0.017566366549571475 -0.0046130279063055337 0 0.01865337533662598 -0.0056785649599832861 0 0.017448660028630568 -0.0055732381225975401 0 0.017566366549571475 -0.0046130279063055337 0 0.016478422845143444 -0.0050291102460609484 0 0.017566366549571475 -0.0046130279063055337 0 0.016524735433878113 -0.0037162895273740093 0 0.017674341337538157 -0.0033345745803140172 0 0.017566366549571475 -0.0046130279063055337 0 0.016524735433878113 -0.0037162895273740093 0 0.017674341337538157 -0.0033345745803140172 0 0.017566366549571475 -0.0046130279063055337 0 0.01864582128770154 -0.0043432523878339183 0 0.018908621334249715 -0.0030926425559279305 0 0.017674341337538157 -0.0033345745803140172 0 0.01864582128770154 -0.0043432523878339183 0 0.018908621334249715 -0.0030926425559279305 0 0.01864582128770154 -0.0043432523878339183 0 0.019469145670780286 -0.0041832265686916614 0 0.019563579898088209 -0.0035530192535098682 0 0.019469145670780286 -0.0041832265686916614 0 0.020047789580480323 -0.0040849934118934259 0 0.019469145670780286 -0.0041832265686916614 0 0.020047789580480323 -0.0040849934118934259 0 0.019953311060808648 -0.0048933500375895533 0 0.019469145670780286 -0.0041832265686916614 0 0.019313118301653262 -0.0049864100076389148 0 0.019953311060808648 -0.0048933500375895533 0 0.01864582128770154 -0.0043432523878339183 0 0.019469145670780286 -0.0041832265686916614 0 0.019313118301653262 -0.0049864100076389148 0 0.020657504277453061 -0.0046046419046508495 0 0.020047789580480323 -0.0040849934118934259 0 0.019953311060808648 -0.0048933500375895533 0 0.020425922371972598 -0.0037213477370267975 0 0.020657504277453061 -0.0046046419046508495 0 0.020047789580480323 -0.0040849934118934259 0 0.020657504277453061 -0.0046046419046508495 0 0.020267820083452962 -0.0056027104522540089 0 0.019953311060808648 -0.0048933500375895533 0 0.020267820083452962 -0.0056027104522540089 0 0.019953311060808648 -0.0048933500375895533 0 0.019499220658352134 -0.005776688115173117 0 0.019313118301653262 -0.0049864100076389148 0 0.019953311060808648 -0.0048933500375895533 0 0.019499220658352134 -0.005776688115173117 0 0.020267820083452962 -0.0056027104522540089 0 0.019499220658352134 -0.005776688115173117 0 0.019690667834162852 -0.0064721955509529638 0 0.021015025055623141 -0.0054207398317879527 0 0.020267820083452962 -0.0056027104522540089 0 0.020658107298935073 -0.0060396195671278087 0 0.020267820083452962 -0.0056027104522540089 0 0.020228750994398755 -0.0062100752667098042 0 0.020658107298935073 -0.0060396195671278087 0 0.020267820083452962 -0.0056027104522540089 0 0.019690667834162852 -0.0064721955509529638 0 0.020228750994398755 -0.0062100752667098042 0 0.020871910535273774 -0.0064496542750299432 0 0.020658107298935073 -0.0060396195671278087 0 0.020284639295716531 -0.0066749394610121325 0 0.020228750994398755 -0.0062100752667098042 0 0.020658107298935073 -0.0060396195671278087 0 0.020284639295716531 -0.0066749394610121325 0 0.019690667834162852 -0.0064721955509529638 0 0.020228750994398755 -0.0062100752667098042 0 0.020284639295716531 -0.0066749394610121325 0 0.020871910535273774 -0.0064496542750299432 0 0.020284639295716531 -0.0066749394610121325 0 0.020689445820856446 -0.0069940490208617806 0 0.019690667834162852 -0.0064721955509529638 0 0.019864013727767263 -0.0069462809998549696 0 0.019307072791916412 -0.0070299216390290872 0 0.019690667834162852 -0.0064721955509529638 0 0.020284639295716531 -0.0066749394610121325 0 0.019864013727767263 -0.0069462809998549696 0 0.020284639295716531 -0.0066749394610121325 0 0.019864013727767263 -0.0069462809998549696 0 0.020201179877041807 -0.007318449267520559 0 0.019690667834162852 -0.0064721955509529638 0 0.019069348429882553 -0.0068125699414549913 0 0.019307072791916412 -0.0070299216390290872 0 0.019069348429882553 -0.0068125699414549913 0 0.018511253071300734 -0.0085070655703321542 0 0.020793295860766271 -0.0091813658946559382 0 0.019208950152955623 -0.0068980222266285364 0 0.019996447686994451 -0.0081288694324637076 0 0.019499220658352134 -0.005776688115173117 0 0.019690667834162852 -0.0064721955509529638 0 0.019069348429882553 -0.0068125699414549913 0 0.01865337533662598 -0.0056785649599832861 0 0.019499220658352134 -0.005776688115173117 0 0.019069348429882553 -0.0068125699414549913 0 0.019069348429882553 -0.0068125699414549913 0 0.017988410381950225 -0.0065102306708838473 0 0.018511253071300734 -0.0085070655703321542 0 0.017160122836535351 -0.0068516518052005706 0 0.017988410381950225 -0.0065102306708838473 0 0.018511253071300734 -0.0085070655703321542 0 0.017160122836535351 -0.0068516518052005706 0 0.016969701075745771 -0.005958074551863873 0 0.017988410381950225 -0.0065102306708838473 0 0.01865337533662598 -0.0056785649599832861 0 0.019069348429882553 -0.0068125699414549913 0 0.017988410381950225 -0.0065102306708838473 0 0.019734288107565862 -0.009496685694189615 0 0.020067360169980918 -0.010216407916135244 0 0.019049103605737441 -0.0092246254475565042 0 0.018511253071300734 -0.0085070655703321542 0 0.019734288107565862 -0.009496685694189615 0 0.019049103605737441 -0.0092246254475565042 0 0.018511253071300734 -0.0085070655703321542 0 0.019734288107565862 -0.009496685694189615 0 0.020793295860766271 -0.0091813658946559382 0 0.019734288107565862 -0.009496685694189615 0 0.020067360169980918 -0.010216407916135244 0 0.02059783774332264 -0.010102149701113174 0 0.020067360169980918 -0.010216407916135244 0 0.020956412237195809 -0.01076782847327626 0 0.020834723804458478 -0.011040310468812445 0 0.020067360169980918 -0.010216407916135244 0 0.020956412237195809 -0.01076782847327626 0 0.02059783774332264 -0.010102149701113174 0 0.020956412237195809 -0.01076782847327626 0 0.02059783774332264 -0.010102149701113174 0 0.021417533147396896 -0.010655124702835668 0 0.02059783774332264 -0.010102149701113174 0 0.020793295860766271 -0.0091813658946559382 0 0.021417533147396896 -0.010655124702835668 0 0.019734288107565862 -0.009496685694189615 0 0.02059783774332264 -0.010102149701113174 0 0.020793295860766271 -0.0091813658946559382 0 0.019996447686994451 -0.0081288694324637076 0 0.020645815834772874 -0.009655547834271673 0 0.019307072791916412 -0.0070299216390290872 0 0.01997364226272693 -0.0078673177235116382 0 0.019823570199979768 -0.0086661817722031437 0 0.019864013727767263 -0.0069462809998549696 0 0.019307072791916412 -0.0070299216390290872 0 0.019849763645314159 -0.0072862187992085489 0 0.019864013727767263 -0.0069462809998549696 0 0.019849763645314159 -0.0072862187992085489 0 0.020201179877041807 -0.007318449267520559 0 0.020201179877041807 -0.007318449267520559 0 0.020422213198026333 -0.0078849817542843322 0 0.01997364226272693 -0.0078673177235116382 0 0.019849763645314159 -0.0072862187992085489 0 0.020201179877041807 -0.007318449267520559 0 0.01997364226272693 -0.0078673177235116382 0 0.019307072791916412 -0.0070299216390290872 0 0.019849763645314159 -0.0072862187992085489 0 0.01997364226272693 -0.0078673177235116382 0 0.020689445820856446 -0.0069940490208617806 0 0.020201179877041807 -0.007318449267520559 0 0.020661069951080642 -0.0075632922571307768 0 0.020284639295716531 -0.0066749394610121325 0 0.020689445820856446 -0.0069940490208617806 0 0.020201179877041807 -0.007318449267520559 0 0.020201179877041807 -0.007318449267520559 0 0.020661069951080642 -0.0075632922571307768 0 0.020422213198026333 -0.0078849817542843322 0 0.020422213198026333 -0.0078849817542843322 0 0.01997364226272693 -0.0078673177235116382 0 0.020449715326369206 -0.00855560868976246 0 0.020661069951080642 -0.0075632922571307768 0 0.020422213198026333 -0.0078849817542843322 0 0.020871157936526923 -0.0080136939300179105 0 0.020422213198026333 -0.0078849817542843322 0 0.020449715326369206 -0.00855560868976246 0 0.020871157936526923 -0.0080136939300179105 0 0.01997364226272693 -0.0078673177235116382 0 0.019823570199979768 -0.0086661817722031437 0 0.021944094803815799 -0.009608439426488511 0 0.02018650481892555 -0.00802315856958658 0 0.020851351390751179 -0.0089821329818773037 0 0.020645815834772874 -0.009655547834271673 0 0.021226962760410247 -0.01094720866306657 0 0.021257760205381431 -0.010964174904026514 0 0.021309619526958638 -0.011068901472987034 0 0.021159220511796938 -0.011228995225316332 0 0.019823570199979768 -0.0086661817722031437 0 0.021944094803815799 -0.009608439426488511 0 0.021309619526958638 -0.011068901472987034 0 0.021417533147396896 -0.010655124702835668 0 0.021257760205381431 -0.010964174904026514 0 0.021309619526958638 -0.011068901472987034 0 0.021944094803815799 -0.009608439426488511 0 0.022007719243980001 -0.010914090542434918 0 0.021309619526958638 -0.011068901472987034 0 0.021944094803815799 -0.009608439426488511 0 0.022007719243980001 -0.010914090542434918 0 0.022898871865457363 -0.010993716297507453 0 0.022007719243980001 -0.010914090542434918 0 0.021309619526958638 -0.011068901472987034 0 0.021910123413731344 -0.011590650337308736 0 0.022007719243980001 -0.010914090542434918 0 0.022898871865457363 -0.010993716297507453 0 0.021910123413731344 -0.011590650337308736 0 0.021309619526958638 -0.011068901472987034 0 0.021440654788928967 -0.011444134060525702 0 0.021910123413731344 -0.011590650337308736 0 0.021309619526958638 -0.011068901472987034 0 0.021159220511796938 -0.011228995225316332 0 0.021219533970616655 -0.011436106619295837 0 0.021309619526958638 -0.011068901472987034 0 0.021219533970616655 -0.011436106619295837 0 0.021440654788928967 -0.011444134060525702 0 0.02132551038257945 -0.011721286506770016 0 0.021159220511796938 -0.011228995225316332 0 0.021219533970616655 -0.011436106619295837 0 0.020067360169980918 -0.010216407916135244 0 0.020834723804458478 -0.011040310468812445 0 0.020229029558070287 -0.010827266815824162 0 0.02132551038257945 -0.011721286506770016 0 0.020834723804458478 -0.011040310468812445 0 0.020229029558070287 -0.010827266815824162 0 0.02132551038257945 -0.011721286506770016 0 0.020834723804458478 -0.011040310468812445 0 0.021159220511796938 -0.011228995225316332 0 0.020956412237195809 -0.01076782847327626 0 0.020834723804458478 -0.011040310468812445 0 0.021159220511796938 -0.011228995225316332 0 0.020956412237195809 -0.01076782847327626 0 0.021257760205381431 -0.010964174904026514 0 0.021159220511796938 -0.011228995225316332 0 0.020956412237195809 -0.01076782847327626 0 0.021417533147396896 -0.010655124702835668 0 0.021257760205381431 -0.010964174904026514 0 0.022557825026257396 -0.0065958696545800662 0 0.021511140357575152 -0.0065691621836043287 0 0.022798823549864535 -0.0080062418206365577 0 0.023508098165662784 -0.0074728930402338358 0 0.022557825026257396 -0.0065958696545800662 0 0.022798823549864535 -0.0080062418206365577 0 0.022268232419070971 -0.0070365704959921204 0 0.023401338437926571 -0.0083769640178065433 0 0.022557825026257396 -0.0065958696545800662 0 0.022249272481231774 -0.0061902473242751487 0 0.021511140357575152 -0.0065691621836043287 0 0.022652017754291986 -0.006012243322351638 0 0.022557825026257396 -0.0065958696545800662 0 0.022249272481231774 -0.0061902473242751487 0 0.023331262411735602 -0.0055214100527362416 0 0.022580253329474977 -0.0066137274315241591 0 0.021492492389155172 -0.0061173173063063975 0 0.021791102915821484 -0.0060683244846583898 0 0.021511140357575152 -0.0065691621836043287 0 0.021791102915821484 -0.0060683244846583898 0 0.022249272481231774 -0.0061902473242751487 0 0.021511140357575152 -0.0065691621836043287 0 0.022948027271254227 -0.0074481863217026141 0 0.02312586362184145 -0.0086076551743667264 0 0.024393291735300762 -0.008667819647691 0 0.022948027271254227 -0.0074481863217026141 0 0.022303502662090892 -0.0080244308377349065 0 0.02312586362184145 -0.0086076551743667264 0 0.022948027271254227 -0.0074481863217026141 0 0.022303502662090892 -0.0080244308377349065 0 0.021525689064462297 -0.0072545962944359568 0 0.022303502662090892 -0.0080244308377349065 0 0.022343374722668136 -0.00872709977611613 0 0.02312586362184145 -0.0086076551743667264 0 0.022303502662090892 -0.0080244308377349065 0 0.021591543219312868 -0.0080854897319106393 0 0.022343374722668136 -0.00872709977611613 0 0.022303502662090892 -0.0080244308377349065 0 0.021525689064462297 -0.0072545962944359568 0 0.021591543219312868 -0.0080854897319106393 0 0.021247775636381822 -0.0063108608555071414 0 0.022948027271254227 -0.0074481863217026141 0 0.021525689064462297 -0.0072545962944359568 0 0.021247775636381822 -0.0063108608555071414 0 0.021320525448402058 -0.0063557194832160966 0 0.021511140357575152 -0.0065691621836043287 0 0.021296848628450892 -0.0063276185933189054 0 0.022268232419070971 -0.0070365704959921204 0 0.021320525448402058 -0.0063557194832160966 0 0.021492492389155172 -0.0061173173063063975 0 0.021511140357575152 -0.0065691621836043287 0 0.021247775636381822 -0.0063108608555071414 0 0.021525689064462297 -0.0072545962944359568 0 0.02104526141092421 -0.006835660806823296 0 0.021525689064462297 -0.0072545962944359568 0 0.02104454446718065 -0.0074473095543905734 0 0.021591543219312868 -0.0080854897319106393 0 0.021525689064462297 -0.0072545962944359568 0 0.02104526141092421 -0.006835660806823296 0 0.02104454446718065 -0.0074473095543905734 0 0.020689445820856446 -0.0069940490208617806 0 0.02104526141092421 -0.006835660806823296 0 0.02104454446718065 -0.0074473095543905734 0 0.020689445820856446 -0.0069940490208617806 0 0.020661069951080642 -0.0075632922571307768 0 0.02104454446718065 -0.0074473095543905734 0 0.02104454446718065 -0.0074473095543905734 0 0.020871157936526923 -0.0080136939300179105 0 0.021591543219312868 -0.0080854897319106393 0 0.020661069951080642 -0.0075632922571307768 0 0.02104454446718065 -0.0074473095543905734 0 0.020871157936526923 -0.0080136939300179105 0 0.020871157936526923 -0.0080136939300179105 0 0.021591543219312868 -0.0080854897319106393 0 0.021257772908120386 -0.0087826042965549172 0 0.020449715326369206 -0.00855560868976246 0 0.021257772908120386 -0.0087826042965549172 0 0.021327224759754595 -0.0096800131513009521 0 0.020851351390751179 -0.0089821329818773037 0 0.024169887705465819 -0.010163182643021502 0 0.020449715326369206 -0.00855560868976246 0 0.020871157936526923 -0.0080136939300179105 0 0.021257772908120386 -0.0087826042965549172 0 0.021591543219312868 -0.0080854897319106393 0 0.021257772908120386 -0.0087826042965549172 0 0.021771830394238315 -0.0088804124121577357 0 0.021257772908120386 -0.0087826042965549172 0 0.021327224759754595 -0.0096800131513009521 0 0.021537955924812835 -0.0094790284545732025 0 0.021257772908120386 -0.0087826042965549172 0 0.021537955924812835 -0.0094790284545732025 0 0.021771830394238315 -0.0088804124121577357 0 0.021317208518877143 -0.0097107951428792114 0 0.021537955924812835 -0.0094790284545732025 0 0.022340257356222477 -0.0097166444711385084 0 0.024169887705465819 -0.010163182643021502 0 0.025790898659375477 -0.010602914580169249 0 0.024169887705465819 -0.010163182643021502 0 0.023191220860174382 -0.010433648988831911 0 0.021317208518877143 -0.0097107951428792114 0 0.022340257356222477 -0.0097166444711385084 0 0.022481390714358195 -0.010981389202650019 0 0.021537955924812835 -0.0094790284545732025 0 0.022340257356222477 -0.0097166444711385084 0 0.022186056604612224 -0.0092068170101182734 0 0.024169887705465819 -0.010163182643021502 0 0.025711470860093961 -0.010282354935277306 0 0.022186056604612224 -0.0092068170101182734 0 0.022343374722668136 -0.00872709977611613 0 0.022734250240299424 -0.0091482189563315396 0 0.022340257356222477 -0.0097166444711385084 0 0.022186056604612224 -0.0092068170101182734 0 0.022734250240299424 -0.0091482189563315396 0 0.022186056604612224 -0.0092068170101182734 0 0.021771830394238315 -0.0088804124121577357 0 0.022343374722668136 -0.00872709977611613 0 0.021537955924812835 -0.0094790284545732025 0 0.022186056604612224 -0.0092068170101182734 0 0.021771830394238315 -0.0088804124121577357 0 0.021591543219312868 -0.0080854897319106393 0 0.021771830394238315 -0.0088804124121577357 0 0.022343374722668136 -0.00872709977611613 0 0.022343374722668136 -0.00872709977611613 0 0.02312586362184145 -0.0086076551743667264 0 0.022734250240299424 -0.0091482189563315396 0 0.02312586362184145 -0.0086076551743667264 0 0.022734250240299424 -0.0091482189563315396 0 0.023679378942931251 -0.0094989735782251093 0 0.022340257356222477 -0.0097166444711385084 0 0.023679378942931251 -0.0094989735782251093 0 0.022481390714358195 -0.010981389202650019 0 0.022579005849105785 -0.00998653970214659 0 0.025711470860093961 -0.010282354935277306 0 0.022340257356222477 -0.0097166444711385084 0 0.022734250240299424 -0.0091482189563315396 0 0.023679378942931251 -0.0094989735782251093 0 0.023679378942931251 -0.0094989735782251093 0 0.023642144935863352 -0.010446309647941868 0 0.0229278220602551 -0.010658304439695062 0 0.023679378942931251 -0.0094989735782251093 0 0.024388099465024342 -0.010092459686056121 0 0.02434994140553666 -0.0094822178819412243 0 0.023679378942931251 -0.0094989735782251093 0 0.024388099465024342 -0.010092459686056121 0 0.023642144935863352 -0.010446309647941868 0 0.024815620736210263 -0.0096439301584253945 0 0.024388099465024342 -0.010092459686056121 0 0.02434994140553666 -0.0094822178819412243 0 0.02312586362184145 -0.0086076551743667264 0 0.023679378942931251 -0.0094989735782251093 0 0.024393291735300762 -0.008667819647691 0 0.024815620736210263 -0.0096439301584253945 0 0.02434994140553666 -0.0094822178819412243 0 0.024393291735300762 -0.008667819647691 0 0.023679378942931251 -0.0094989735782251093 0 0.02434994140553666 -0.0094822178819412243 0 0.024393291735300762 -0.008667819647691 0 0.030998091966823463 -0.0090254304263678344 0 0.035739248528700612 -0.0075244052794437473 0 0.031160153660261609 -0.0088623370941954532 0 0.031128631817912523 -0.0088596813042609805 0 0.031158981557814609 -0.0088848980344642722 0 0.030998091966823463 -0.0090254304263678344 0 0.026595442304899831 -0.0099228491579535175 0 0.024388099465024342 -0.010092459686056121 0 0.02409306411830156 -0.011013156498829646 0 0.023642144935863352 -0.010446309647941868 0 0.025098155248912304 -0.011067694572681343 0 0.024834686148454709 -0.010575785331404217 0 0.02409306411830156 -0.011013156498829646 0 0.024834686148454709 -0.010575785331404217 0 0.024388099465024342 -0.010092459686056121 0 0.02409306411830156 -0.011013156498829646 0 0.02409306411830156 -0.011013156498829646 0 0.023642144935863352 -0.010446309647941868 0 0.023194817554032555 -0.010946465294806286 0 0.026595442304899831 -0.0099228491579535175 0 0.030107204020667647 -0.0097888680828285089 0 0.023642144935863352 -0.010446309647941868 0 0.023194817554032555 -0.010946465294806286 0 0.0229278220602551 -0.010658304439695062 0 0.030107204020667647 -0.0097888680828285089 0 0.035739248528700612 -0.0075244052794437473 0 0.031128631817912523 -0.0088596813042609805 0 0.031090381036777432 -0.00886119977371576 0 0.031158981557814609 -0.0088848980344642722 0 0.036681729630422072 -0.0090830099030858088 0 0.037063403134153981 -0.0081051905744511602 0 0.03558139556017112 -0.0078448707232413543 0 0.037282312757578172 -0.0091110640603036166 0 0.038096832930208588 -0.0081528260651959825 0 0.037063403134153981 -0.0081051905744511602 0 0.036681729630422072 -0.0090830099030858088 0 0.037282312757578172 -0.0091110640603036166 0 0.037063403134153981 -0.0081051905744511602 0 0.030107204020667647 -0.0097888680828285089 0 0.025711470860093961 -0.010282354935277306 0 0.02869606507325774 -0.010388522661337529 0 0.027943882994638326 -0.0095669121883930602 0 0.028606042951608981 -0.0096631354575004852 0 0.030107204020667647 -0.0097888680828285089 0 0.030716136937889882 -0.0088050582852843926 0 0.028683352394943063 -0.0096044158155314495 0 0.028602762131639106 -0.0095216853308398783 0 0.028548382597019573 -0.0095928523484216082 0 0.025711470860093961 -0.010282354935277306 0 0.030716136937889882 -0.0088050582852843926 0 0.027943882994638326 -0.0095669121883930602 0 0.028149701382347788 -0.0093145342091595102 0 0.028606042951608981 -0.0096631354575004852 0 0.02869606507325774 -0.010388522661337529 0 0.028606042951608981 -0.0096631354575004852 0 0.029005640621990288 -0.0096585860375683879 0 0.030716136937889882 -0.0088050582852843926 0 0.028267244143893831 -0.0094853269531291612 0 0.028149701382347788 -0.0093145342091595102 0 0.028606042951608981 -0.0096631354575004852 0 0.029225022317507492 -0.0094070713754492406 0 0.02869606507325774 -0.010388522661337529 0 0.029005640621990288 -0.0096585860375683879 0 0.029305627207683701 -0.009753146454938362 0 0.028606042951608981 -0.0096631354575004852 0 0.029005640621990288 -0.0096585860375683879 0 0.029225022317507492 -0.0094070713754492406 0 0.030716136937889882 -0.0088050582852843926 0 0.033826083499219235 -0.0084834165006421273 0 0.028832410894876568 -0.0093426485498032483 0 0.029052637292569055 -0.0090400431924728894 0 0.029225022317507492 -0.0094070713754492406 0 0.038096832930208588 -0.0081528260651959825 0 0.037687911142903603 -0.0070568277248843417 0 0.038873183810422283 -0.0071839088592451127 0 0.033826083499219235 -0.0084834165006421273 0 0.034038150980680151 -0.0080118068859786947 0 0.038523382387513766 -0.006123608554278394 0 0.037687911142903603 -0.0070568277248843417 0 0.038873183810422283 -0.0071839088592451127 0 0.038523382387513766 -0.006123608554278394 0 0.037427978214384504 -0.0059532284299551649 0 0.037687911142903603 -0.0070568277248843417 0 0.037858866115041377 -0.005784936203616543 0 0.03732530435137512 -0.006444331992803279 0 0.037427978214384504 -0.0059532284299551649 0 0.037687911142903603 -0.0070568277248843417 0 0.036476171706643398 -0.0068817125796756555 0 0.037687911142903603 -0.0070568277248843417 0 0.037063403134153981 -0.0081051905744511602 0 0.036476171706643398 -0.0068817125796756555 0 0.038096832930208588 -0.0081528260651959825 0 0.037687911142903603 -0.0070568277248843417 0 0.037063403134153981 -0.0081051905744511602 0 0.03732530435137512 -0.006444331992803279 0 0.035739248528700612 -0.0075244052794437473 0 0.037063403134153981 -0.0081051905744511602 0 0.036476171706643398 -0.0068817125796756555 0 0.03558139556017112 -0.0078448707232413543 0 0.037937857326926415 -0.0055875427811664432 0 0.037956071754825613 -0.006159688393703202 0 0.037527159367491687 -0.0059215838194025946 0 0.037956071754825613 -0.006159688393703202 0 0.037527159367491687 -0.0059215838194025946 0 0.037460830151256362 -0.0067723067246876628 0 0.037527159367491687 -0.0059215838194025946 0 0.0371539691053204 -0.0060682030652372335 0 0.037460830151256362 -0.0067723067246876628 0 0.036785005643964419 -0.0061267542679230803 0 0.0371539691053204 -0.0060682030652372335 0 0.037460830151256362 -0.0067723067246876628 0 0.037177388293106475 -0.0056191822875266313 0 0.037527159367491687 -0.0059215838194025946 0 0.0371539691053204 -0.0060682030652372335 0 0.037345679867327855 -0.0061144221197565506 0 0.035739248528700612 -0.0075244052794437473 0 0.022359345623105639 -0.013233458934539505 0 0.022620342873605325 -0.013513824564792712 0 0.021989447720576562 -0.013024556651701784 0 0.021355677235130766 -0.012542972846537184 0 0.026177220985222394 -0.010907469046166454 0 0.021297432066504116 -0.011609473157252205 0 0.02122770049751151 -0.011534061546519703 0 0.021317417211789685 -0.011761104827360976 0 0.022359345623105639 -0.013233458934539505 0 0.022760942853671962 -0.013510620093489701 0 0.023436020369155583 -0.012306074510722499 0 0.022359345623105639 -0.013233458934539505 0 0.022760942853671962 -0.013510620093489701 0 0.022620342873605325 -0.013513824564792712 0 0.021526033666512779 -0.011820485559020079 0 0.021355677235130766 -0.012542972846537184 0 0.02132551038257945 -0.011721286506770016 0 0.022173161275637232 -0.013324314587622127 0 0.022620342873605325 -0.013513824564792712 0 0.022760942853671962 -0.013510620093489701 0 0.022173161275637232 -0.013324314587622127 0 0.022620342873605325 -0.013513824564792712 0 0.02132551038257945 -0.011721286506770016 0 0.02122770049751151 -0.011534061546519703 0 0.021219533970616655 -0.011436106619295837 0 0.021297432066504116 -0.011609473157252205 0 0.02122770049751151 -0.011534061546519703 0 0.021219533970616655 -0.011436106619295837 0 0.021297432066504116 -0.011609473157252205 0 0.021219533970616655 -0.011436106619295837 0 0.021453479332685706 -0.011690910026847173 0 0.021219533970616655 -0.011436106619295837 0 0.021440654788928967 -0.011444134060525702 0 0.021453479332685706 -0.011690910026847173 0 0.021440654788928967 -0.011444134060525702 0 0.021910123413731344 -0.011590650337308736 0 0.021453479332685706 -0.011690910026847173 0 0.029305627207683701 -0.009753146454938362 0 0.029225022317507492 -0.0094070713754492406 0 0.02966784380815907 -0.0093137183083959844 0 0.025790898659375477 -0.010602914580169249 0 0.025527084528947797 -0.010498574847337542 0 0.029005640621990288 -0.0096585860375683879 0 0.029305627207683701 -0.009753146454938362 0 0.029225022317507492 -0.0094070713754492406 0 0.029225022317507492 -0.0094070713754492406 0 0.02939182198167048 -0.0090703852960841193 0 0.02966784380815907 -0.0093137183083959844 0 0.029052637292569055 -0.0090400431924728894 0 0.029225022317507492 -0.0094070713754492406 0 0.02939182198167048 -0.0090703852960841193 0 0.021297432066504116 -0.011609473157252205 0 0.021453479332685706 -0.011690910026847173 0 0.021317417211789685 -0.011761104827360976 0 0.02966784380815907 -0.0093137183083959844 0 0.029668745508504825 -0.0089376592288779953 0 0.029979778092170412 -0.0089995937564459044 0 0.02939182198167048 -0.0090703852960841193 0 0.02966784380815907 -0.0093137183083959844 0 0.029668745508504825 -0.0089376592288779953 0 0.025527084528947797 -0.010498574847337542 0 0.026177220985222394 -0.010907469046166454 0 0.029668745508504825 -0.0089376592288779953 0 0.029351845403955228 -0.0086579937140479814 0 0.02983046092830631 -0.0086438307291719346 0 0.029668745508504825 -0.0089376592288779953 0 0.02983046092830631 -0.0086438307291719346 0 0.029979778092170412 -0.0089995937564459044 0 0.030412762637890216 -0.0085579209323772779 0 0.026177220985222394 -0.010907469046166454 0 0.029052637292569055 -0.0090400431924728894 0 0.02939182198167048 -0.0090703852960841193 0 0.029351845403955228 -0.0086579937140479814 0 0.02939182198167048 -0.0090703852960841193 0 0.029668745508504825 -0.0089376592288779953 0 0.029351845403955228 -0.0086579937140479814 0 0.03953746955603319 -0.0062795609152123399 0 0.038523382387513766 -0.006123608554278394 0 0.038873183810422283 -0.0071839088592451127 0 0.03471195964892191 -0.0069243281876322635 0 0.034038150980680151 -0.0080118068859786947 0 0.031750335537104761 -0.0076281656336966179 0 0.030557180179129784 -0.0076022772921338034 0 0.031073307600479529 -0.0086194873411692702 0 0.02967631811219602 -0.0082790889243919905 0 0.029351845403955228 -0.0086579937140479814 0 0.02983046092830631 -0.0086438307291719346 0 0.03471195964892191 -0.0069243281876322635 0 0.030412762637890216 -0.0085579209323772779 0 0.031750335537104761 -0.0076281656336966179 0 0.032817670198476048 -0.007413016605372272 0 0.032634216462832363 -0.0086168659738664281 0 0.031750335537104761 -0.0076281656336966179 0 0.031073307600479529 -0.0086194873411692702 0 0.032634216462832363 -0.0086168659738664281 0 0.026177220985222394 -0.010907469046166454 0 0.026891469973206079 -0.0098461551056660077 0 0.022359345623105639 -0.013233458934539505 0 0.021989447720576562 -0.013024556651701784 0 0.022541913571797731 -0.012444903775101946 0 0.031073307600479529 -0.0086194873411692702 0 0.031589084144105821 -0.009643133353512948 0 0.032634216462832363 -0.0086168659738664281 0 0.022359345623105639 -0.013233458934539505 0 0.023436020369155583 -0.012306074510722499 0 0.022361885917190117 -0.010853726638987857 0 0.021568253555553574 -0.013933528192893233 0 0.026891469973206079 -0.0098461551056660077 0 0.023436020369155583 -0.012306074510722499 0 0.022361885917190117 -0.010853726638987857 0 0.024314273254859641 -0.010625370089313446 0 0.031706220733303453 -0.0068783610263535378 0 0.026891469973206079 -0.0098461551056660077 0 0.024990862479880208 -0.0085272167172840644 0 0.022361885917190117 -0.010853726638987857 0 0.024314273254859641 -0.010625370089313446 0 0.027884630363148019 -0.0077247506557906144 0 0.026891469973206079 -0.0098461551056660077 0 0.030389393320977995 -0.0069523442413945728 0 0.030904863348811203 -0.0069492733920221541 0 0.030274545884837259 -0.0076327331606578326 0 0.024990862479880208 -0.0085272167172840644 0 0.026111023250287184 -0.010162128335629036 0 0.024314273254859641 -0.010625370089313446 0 0.024990862479880208 -0.0085272167172840644 0 0.028134823419357552 -0.0088253912243007691 0 0.026111023250287184 -0.010162128335629036 0 0.026111023250287184 -0.010162128335629036 0 0.024314273254859641 -0.010625370089313446 0 0.024893870259622496 -0.011370915702111035 0 0.028134823419357552 -0.0088253912243007691 0 0.026111023250287184 -0.010162128335629036 0 0.027891428510463414 -0.011095737985069477 0 0.027891428510463414 -0.011095737985069477 0 0.026189644496554851 -0.012457961350330136 0 0.027375338965311614 -0.013232819351686898 0 0.026111023250287184 -0.010162128335629036 0 0.027891428510463414 -0.011095737985069477 0 0.026034512006424718 -0.011400731921770522 0 0.027891428510463414 -0.011095737985069477 0 0.026034512006424718 -0.011400731921770522 0 0.026189644496554851 -0.012457961350330136 0 0.023436020369155583 -0.012306074510722499 0 0.024314273254859641 -0.010625370089313446 0 0.024893870259622496 -0.011370915702111035 0 0.026034512006424718 -0.011400731921770522 0 0.024893870259622496 -0.011370915702111035 0 0.024682923174317375 -0.012304171619264335 0 0.026111023250287184 -0.010162128335629036 0 0.026034512006424718 -0.011400731921770522 0 0.024893870259622496 -0.011370915702111035 0 0.026034512006424718 -0.011400731921770522 0 0.026189644496554851 -0.012457961350330136 0 0.024682923174317375 -0.012304171619264335 0 0.026189644496554851 -0.012457961350330136 0 0.024682923174317375 -0.012304171619264335 0 0.025081282066128644 -0.01313116979345353 0 0.023436020369155583 -0.012306074510722499 0 0.024682923174317375 -0.012304171619264335 0 0.023636709760857345 -0.013230916380574505 0 0.023436020369155583 -0.012306074510722499 0 0.024893870259622496 -0.011370915702111035 0 0.024682923174317375 -0.012304171619264335 0 0.022760942853671962 -0.013510620093489701 0 0.023436020369155583 -0.012306074510722499 0 0.023636709760857345 -0.013230916380574505 0 0.022760942853671962 -0.013510620093489701 0 0.023636709760857345 -0.013230916380574505 0 0.022641792663755156 -0.014090322629078408 0 0.023636709760857345 -0.013230916380574505 0 0.022641792663755156 -0.014090322629078408 0 0.024761024906526239 -0.014128262319727757 0 0.024682923174317375 -0.012304171619264335 0 0.023636709760857345 -0.013230916380574505 0 0.025081282066128644 -0.01313116979345353 0 0.023636709760857345 -0.013230916380574505 0 0.024761024906526239 -0.014128262319727757 0 0.025081282066128644 -0.01313116979345353 0 0.026189644496554851 -0.012457961350330136 0 0.027375338965311614 -0.013232819351686898 0 0.026129361038835581 -0.01374433714080139 0 0.026189644496554851 -0.012457961350330136 0 0.025081282066128644 -0.01313116979345353 0 0.026129361038835581 -0.01374433714080139 0 0.027375338965311614 -0.013232819351686898 0 0.026129361038835581 -0.01374433714080139 0 0.026667212408862294 -0.014941722341090946 0 0.024761024906526239 -0.014128262319727757 0 0.025081282066128644 -0.01313116979345353 0 0.026129361038835581 -0.01374433714080139 0 0.026129361038835581 -0.01374433714080139 0 0.026025140086522295 -0.014680330887644288 0 0.026667212408862294 -0.014941722341090946 0 0.024761024906526239 -0.014128262319727757 0 0.026129361038835581 -0.01374433714080139 0 0.026025140086522295 -0.014680330887644288 0 0.024761024906526239 -0.014128262319727757 0 0.026025140086522295 -0.014680330887644288 0 0.026562275260578919 -0.016350787627803783 0 0.028345872672477401 -0.012263233890504051 0 0.026784350061824311 -0.012052177504423384 0 0.026025140086522295 -0.014680330887644288 0 0.026667212408862294 -0.014941722341090946 0 0.026562275260578919 -0.016350787627803783 0 0.031063675401289754 -0.011067102052816347 0 0.031017518386231773 -0.011362774437658795 0 0.031731317562840596 -0.011292680135574129 0 0.022641792663755156 -0.014090322629078408 0 0.024761024906526239 -0.014128262319727757 0 0.026562275260578919 -0.016350787627803783 0 0.022017076119713673 -0.014050743892768001 0 0.026784350061824311 -0.012052177504423384 0 0.022641792663755156 -0.014090322629078408 0 0.020109750548993128 -0.013395773307432463 0 0.02119514958031184 -0.012592364190037212 0 0.022173161275637232 -0.013324314587622127 0 0.022641792663755156 -0.014090322629078408 0 0.02119514958031184 -0.012592364190037212 0 0.022760942853671962 -0.013510620093489701 0 0.022173161275637232 -0.013324314587622127 0 0.022641792663755156 -0.014090322629078408 0 0.032441662019504401 -0.011122166528637069 0 0.032219036777212842 -0.011768287763841201 0 0.033290535929926965 -0.011539665051481929 0 0.032441662019504401 -0.011122166528637069 0 0.033128479618141755 -0.011014819185159692 0 0.033290535929926965 -0.011539665051481929 0 0.031017518386231773 -0.011362774437658795 0 0.032219036777212842 -0.011768287763841201 0 0.031731317562840596 -0.011292680135574129 0 0.028610908342991018 -0.009564518431096871 0 0.030291446281911823 -0.010202793146183432 0 0.029147993189689667 -0.010606379481354669 0 0.026784350061824311 -0.012052177504423384 0 0.031799536788783646 -0.010905342648433307 0 0.032441662019504401 -0.011122166528637069 0 0.032219036777212842 -0.011768287763841201 0 0.031731317562840596 -0.011292680135574129 0 0.032441662019504401 -0.011122166528637069 0 0.031731317562840596 -0.011292680135574129 0 0.032149672025490308 -0.010366242893373238 0 0.031063675401289754 -0.011067102052816347 0 0.031731317562840596 -0.011292680135574129 0 0.032149672025490308 -0.010366242893373238 0 0.028345872672477401 -0.012263233890504051 0 0.031196249450910121 -0.011704448167092983 0 0.027375338965311614 -0.013232819351686898 0 0.026667212408862294 -0.014941722341090946 0 0.030137505550622116 -0.012894789292637552 0 0.032149672025490308 -0.010366242893373238 0 0.033128479618141755 -0.011014819185159692 0 0.033454932272305574 -0.010406099901763199 0 0.032441662019504401 -0.011122166528637069 0 0.032149672025490308 -0.010366242893373238 0 0.033128479618141755 -0.011014819185159692 0 0.031196249450910121 -0.011704448167092983 0 0.033047008230619374 -0.010237376884231358 0 0.030137505550622116 -0.012894789292637552 0 0.030199390794665628 -0.0097476719813262488 0 0.032921381888245164 -0.010891540681683107 0 0.032149672025490308 -0.010366242893373238 0 0.033229122025229679 -0.0096301906212627533 0 0.033454932272305574 -0.010406099901763199 0 0.027891428510463414 -0.011095737985069477 0 0.030137505550622116 -0.012894789292637552 0 0.030199390794665628 -0.0097476719813262488 0 0.027891428510463414 -0.011095737985069477 0 0.027375338965311614 -0.013232819351686898 0 0.030137505550622116 -0.012894789292637552 0 0.028134823419357552 -0.0088253912243007691 0 0.027891428510463414 -0.011095737985069477 0 0.030199390794665628 -0.0097476719813262488 0 0.032151371136049968 -0.0088336890164036914 0 0.030199390794665628 -0.0097476719813262488 0 0.032921381888245164 -0.010891540681683107 0 0.033546483806256314 -0.0085351515153230129 0 0.03456408943492921 -0.0089415534774495656 0 0.032921381888245164 -0.010891540681683107 0 0.033546483806256314 -0.0085351515153230129 0 0.032151371136049968 -0.0088336890164036914 0 0.032921381888245164 -0.010891540681683107 0 0.034463973590937953 -0.0090749656080572633 0 0.033047008230619374 -0.010237376884231358 0 0.03456408943492921 -0.0089415534774495656 0 0.034116260846484045 -0.0099716781045738577 0 0.033229122025229679 -0.0096301906212627533 0 0.03456408943492921 -0.0089415534774495656 0 0.034116260846484045 -0.0099716781045738577 0 0.035149596171031874 -0.0096339497343349602 0 0.034116260846484045 -0.0099716781045738577 0 0.035149596171031874 -0.0096339497343349602 0 0.034512165998327439 -0.010456431445710844 0 0.034116260846484045 -0.0099716781045738577 0 0.033229122025229679 -0.0096301906212627533 0 0.033454932272305574 -0.010406099901763199 0 0.037743110650623649 -0.0096178258420348967 0 0.037489567434071738 -0.0089511937980071496 0 0.037673398023185922 -0.0096104362790400688 0 0.036198889965563683 -0.0085530485177919714 0 0.036248780172168323 -0.0095626604246557348 0 0.036198889965563683 -0.0085530485177919714 0 0.035149596171031874 -0.0096339497343349602 0 0.036248780172168323 -0.0095626604246557348 0 0.03456408943492921 -0.0089415534774495656 0 0.036198889965563683 -0.0085530485177919714 0 0.035149596171031874 -0.0096339497343349602 0 0.035149596171031874 -0.0096339497343349602 0 0.035225081405518846 -0.01057614284717031 0 0.034512165998327439 -0.010456431445710844 0 0.035149596171031874 -0.0096339497343349602 0 0.035853406507156509 -0.010068251992953352 0 0.035225081405518846 -0.01057614284717031 0 0.035149596171031874 -0.0096339497343349602 0 0.036248780172168323 -0.0095626604246557348 0 0.035853406507156509 -0.010068251992953352 0 0.036248780172168323 -0.0095626604246557348 0 0.035853406507156509 -0.010068251992953352 0 0.036594666458398685 -0.010045232082138377 0 0.037673398023185922 -0.0096104362790400688 0 0.036248780172168323 -0.0095626604246557348 0 0.036594666458398685 -0.010045232082138377 0 0.036051634533391726 -0.010703876180704355 0 0.035812789125804621 -0.011371864985863081 0 0.036625330189984609 -0.011297650938885524 0 0.037018074312469701 -0.010345690666931808 0 0.036051634533391726 -0.010703876180704355 0 0.036625330189984609 -0.011297650938885524 0 0.037018074312469701 -0.010345690666931808 0 0.036594666458398685 -0.010045232082138377 0 0.036051634533391726 -0.010703876180704355 0 0.035853406507156509 -0.010068251992953352 0 0.036594666458398685 -0.010045232082138377 0 0.036051634533391726 -0.010703876180704355 0 0.035853406507156509 -0.010068251992953352 0 0.036051634533391726 -0.010703876180704355 0 0.035225081405518846 -0.01057614284717031 0 0.036051634533391726 -0.010703876180704355 0 0.035195852555851025 -0.011199733633728375 0 0.035812789125804621 -0.011371864985863081 0 0.036051634533391726 -0.010703876180704355 0 0.035225081405518846 -0.01057614284717031 0 0.035195852555851025 -0.011199733633728375 0 0.035225081405518846 -0.01057614284717031 0 0.034469348136694312 -0.011104554213155393 0 0.035195852555851025 -0.011199733633728375 0 0.035225081405518846 -0.01057614284717031 0 0.034469348136694312 -0.011104554213155393 0 0.034512165998327439 -0.010456431445710844 0 0.034469348136694312 -0.011104554213155393 0 0.034606174471693951 -0.011590204599322911 0 0.035195852555851025 -0.011199733633728375 0 0.034469348136694312 -0.011104554213155393 0 0.034606174471693951 -0.011590204599322911 0 0.033921704672814176 -0.011649042742730563 0 0.034606174471693951 -0.011590204599322911 0 0.033921704672814176 -0.011649042742730563 0 0.034099513732682753 -0.011938939971909488 0 0.034606174471693951 -0.011590204599322911 0 0.035151315017633918 -0.01155592478089271 0 0.035009194987330898 -0.012052219196137677 0 0.034606174471693951 -0.011590204599322911 0 0.035151315017633918 -0.01155592478089271 0 0.035195852555851025 -0.011199733633728375 0 0.035812789125804621 -0.011371864985863081 0 0.036625330189984609 -0.011297650938885524 0 0.035009194987330898 -0.012052219196137677 0 0.032993632346027257 -0.011970661951390536 0 0.032931291732748121 -0.01177575554245606 0 0.032864412185890382 -0.012096890590796909 0 0.035307194073866753 -0.011583125215831961 0 0.033883367590808663 -0.01201853907931812 0 0.035151315017633918 -0.01155592478089271 0 0.035195852555851025 -0.011199733633728375 0 0.035812789125804621 -0.011371864985863081 0 0.035151315017633918 -0.01155592478089271 0 0.035812789125804621 -0.011371864985863081 0 0.035009194987330898 -0.012052219196137677 0 0.033128479618141755 -0.011014819185159692 0 0.033454932272305574 -0.010406099901763199 0 0.033834045619752368 -0.01096570864808742 0 0.034116260846484045 -0.0099716781045738577 0 0.034512165998327439 -0.010456431445710844 0 0.033834045619752368 -0.01096570864808742 0 0.034116260846484045 -0.0099716781045738577 0 0.033454932272305574 -0.010406099901763199 0 0.033834045619752368 -0.01096570864808742 0 0.034469348136694312 -0.011104554213155393 0 0.034512165998327439 -0.010456431445710844 0 0.033834045619752368 -0.01096570864808742 0 0.033834045619752368 -0.01096570864808742 0 0.033921704672814176 -0.011649042742730563 0 0.033290535929926965 -0.011539665051481929 0 0.034469348136694312 -0.011104554213155393 0 0.033834045619752368 -0.01096570864808742 0 0.033921704672814176 -0.011649042742730563 0 0.033128479618141755 -0.011014819185159692 0 0.033834045619752368 -0.01096570864808742 0 0.033290535929926965 -0.011539665051481929 0 0.033290535929926965 -0.011539665051481929 0 0.033331423062033683 -0.012022580398679825 0 0.033571737078898239 -0.011970605418329087 0 0.033331423062033683 -0.012022580398679825 0 0.033571737078898239 -0.011970605418329087 0 0.033425038844751363 -0.012051285447292269 0 0.032474323051480639 -0.011485697796256014 0 0.033414279513496917 -0.011983357137322835 0 0.031908161996531556 -0.010929973429830479 0 0.033425038844751363 -0.012051285447292269 0 0.032488218278494678 -0.011760437690452296 0 0.033921704672814176 -0.011649042742730563 0 0.033290535929926965 -0.011539665051481929 0 0.033571737078898239 -0.011970605418329087 0 0.033921704672814176 -0.011649042742730563 0 0.033571737078898239 -0.011970605418329087 0 0.033770207316336454 -0.011950729660097002 0 0.033921704672814176 -0.011649042742730563 0 0.033770207316336454 -0.011950729660097002 0 0.034099513732682753 -0.011938939971909488 0 0.033770207316336454 -0.011950729660097002 0 0.033425038844751363 -0.012051285447292269 0 0.034099513732682753 -0.011938939971909488 0 0.033571737078898239 -0.011970605418329087 0 0.033770207316336454 -0.011950729660097002 0 0.033425038844751363 -0.012051285447292269 0 0.032885341995844496 -0.012026590379935956 0 0.032370365838749478 -0.012107111053562825 0 0.032488218278494678 -0.011760437690452296 0 0.032885341995844496 -0.012026590379935956 0 0.033425038844751363 -0.012051285447292269 0 0.032488218278494678 -0.011760437690452296 0 0.032885341995844496 -0.012026590379935956 0 0.033425038844751363 -0.012051285447292269 0 0.033232731641348753 -0.012119045367113833 0 0.032885341995844496 -0.012026590379935956 0 0.033232731641348753 -0.012119045367113833 0 0.032993815380231016 -0.012129127749439103 0 0.033048928135710032 -0.012123179762334912 0 0.032993815380231016 -0.012129127749439103 0 0.032922169646256723 -0.012175636304820648 0 0.033232731641348753 -0.012119045367113833 0 0.033048928135710032 -0.012123179762334912 0 0.032993815380231016 -0.012129127749439103 0 0.032993815380231016 -0.012129127749439103 0 0.032922169646256723 -0.012175636304820648 0 0.032744285019464324 -0.012182994760535143 0 0.032885341995844496 -0.012026590379935956 0 0.032993815380231016 -0.012129127749439103 0 0.032744285019464324 -0.012182994760535143 0 0.032922169646256723 -0.012175636304820648 0 0.032744285019464324 -0.012182994760535143 0 0.03275127944276629 -0.012301784101787561 0 0.032922169646256723 -0.012175636304820648 0 0.032944640835556857 -0.012161658774374518 0 0.03275127944276629 -0.012301784101787561 0 0.032744285019464324 -0.012182994760535143 0 0.032370365838749478 -0.012107111053562825 0 0.032344236269734504 -0.012352510097834613 0 0.032885341995844496 -0.012026590379935956 0 0.032744285019464324 -0.012182994760535143 0 0.032370365838749478 -0.012107111053562825 0 0.031908161996531556 -0.010929973429830479 0 0.031926965331378752 -0.012116292654829072 0 0.032488218278494678 -0.011760437690452296 0 0.031908161996531556 -0.010929973429830479 0 0.031926965331378752 -0.012116292654829072 0 0.030976521879429626 -0.011810110821861312 0 0.032370365838749478 -0.012107111053562825 0 0.031926965331378752 -0.012116292654829072 0 0.032488218278494678 -0.011760437690452296 0 0.032370365838749478 -0.012107111053562825 0 0.031926965331378752 -0.012116292654829072 0 0.032344236269734504 -0.012352510097834613 0 0.032761733157350398 -0.012090144929417511 0 0.032903121239065317 -0.012115581318115028 0 0.032904158162857258 -0.012089732643666045 0 0.032993632346027257 -0.011970661951390536 0 0.032903121239065317 -0.012115581318115028 0 0.032864412185890382 -0.012096890590796909 0 0.026451716141091843 -0.00842809578894229 0 0.034588797788583925 -0.012423623006664206 0 0.026451716141091843 -0.00842809578894229 0 0.026056480341057241 -0.0090075671340654195 0 0.033425038844751363 -0.012051285447292269 0 0.035009194987330898 -0.012052219196137677 0 0.034099513732682753 -0.011938939971909488 0 0.033232731641348753 -0.012119045367113833 0 0.032864412185890382 -0.012096890590796909 0 0.032974428909990125 -0.012105839865076226 0 0.033410046576031804 -0.012091230261446389 0 0.033883367590808663 -0.01201853907931812 0 0.033425038844751363 -0.012051285447292269 0 0.033232731641348753 -0.012119045367113833 0 0.035009194987330898 -0.012052219196137677 0 0.032903121239065317 -0.012115581318115028 0 0.032864412185890382 -0.012096890590796909 0 0.032974428909990125 -0.012105839865076226 0 0.034606174471693951 -0.011590204599322911 0 0.035009194987330898 -0.012052219196137677 0 0.034099513732682753 -0.011938939971909488 0 0.033232731641348753 -0.012119045367113833 0 0.033016187245601909 -0.012108260119174841 0 0.032974428909990125 -0.012105839865076226 0 0.032944640835556857 -0.012161658774374518 0 0.033016187245601909 -0.012108260119174841 0 0.032913947461381841 -0.012147458670891433 0 0.033232731641348753 -0.012119045367113833 0 0.033048928135710032 -0.012123179762334912 0 0.033016187245601909 -0.012108260119174841 0 0.033048928135710032 -0.012123179762334912 0 0.032944640835556857 -0.012161658774374518 0 0.033016187245601909 -0.012108260119174841 0 0.033048928135710032 -0.012123179762334912 0 0.032922169646256723 -0.012175636304820648 0 0.032944640835556857 -0.012161658774374518 0 0.033016187245601909 -0.012108260119174841 0 0.032913947461381841 -0.012147458670891433 0 0.032974428909990125 -0.012105839865076226 0 0.032913947461381841 -0.012147458670891433 0 0.032974428909990125 -0.012105839865076226 0 0.032918688060914414 -0.012107656222099687 0 0.032903121239065317 -0.012115581318115028 0 0.032974428909990125 -0.012105839865076226 0 0.032918688060914414 -0.012107656222099687 0 0.032903121239065317 -0.012115581318115028 0 0.032918688060914414 -0.012107656222099687 0 0.032904158162857258 -0.012089732643666045 0 0.032913947461381841 -0.012147458670891433 0 0.032918688060914414 -0.012107656222099687 0 0.032904158162857258 -0.012089732643666045 0 0.026056480341057241 -0.0090075671340654195 0 0.025924202967968869 -0.0090167212320509116 0 0.019318967081713594 -0.0058198087246858496 0 0.01929859104252624 -0.0057317593789726557 0 0.019181801448017372 -0.0059036835033879718 0 0.032913947461381841 -0.012147458670891433 0 0.032904158162857258 -0.012089732643666045 0 0.032892098905874766 -0.012345868423951075 0 0.019212104930814072 -0.0058789239645497017 0 0.019318967081713594 -0.0058198087246858496 0 0.019181801448017372 -0.0059036835033879718 0 0.032913947461381841 -0.012147458670891433 0 0.032892098905874766 -0.012345868423951075 0 0.032824417804776407 -0.012275231063933413 0 0.032892098905874766 -0.012345868423951075 0 0.032824417804776407 -0.012275231063933413 0 0.032554936500381153 -0.012503943553085647 0 0.032944640835556857 -0.012161658774374518 0 0.032913947461381841 -0.012147458670891433 0 0.032824417804776407 -0.012275231063933413 0 0.032944640835556857 -0.012161658774374518 0 0.032824417804776407 -0.012275231063933413 0 0.03275127944276629 -0.012301784101787561 0 0.032824417804776407 -0.012275231063933413 0 0.03275127944276629 -0.012301784101787561 0 0.032554936500381153 -0.012503943553085647 0 0.026836950484642904 -0.0099059085599076547 0 0.025924202967968869 -0.0090167212320509116 0 0.032515674801185376 -0.012747194183340551 0 0.032892098905874766 -0.012345868423951075 0 0.03244573652932202 -0.012613124107753518 0 0.032892098905874766 -0.012345868423951075 0 0.032554936500381153 -0.012503943553085647 0 0.03244573652932202 -0.012613124107753518 0 0.019146630650602108 -0.0058841091301082516 0 0.019108656213494609 -0.0058927665954459692 0 0.019181801448017372 -0.0059036835033879718 0 0.019146630650602108 -0.0058841091301082516 0 0.019212104930814072 -0.0058789239645497017 0 0.019181801448017372 -0.0059036835033879718 0 0.031926965331378752 -0.012116292654829072 0 0.032069873223311486 -0.01255232420505983 0 0.031620710796492459 -0.012673293059083331 0 0.032069873223311486 -0.01255232420505983 0 0.032344236269734504 -0.012352510097834613 0 0.032469705644793907 -0.012470849598224781 0 0.032069873223311486 -0.01255232420505983 0 0.032469705644793907 -0.012470849598224781 0 0.032129752691403501 -0.012750711205227402 0 0.032069873223311486 -0.01255232420505983 0 0.031915030326443411 -0.012741742875050133 0 0.031620710796492459 -0.012673293059083331 0 0.031926965331378752 -0.012116292654829072 0 0.032069873223311486 -0.01255232420505983 0 0.032344236269734504 -0.012352510097834613 0 0.032744285019464324 -0.012182994760535143 0 0.032344236269734504 -0.012352510097834613 0 0.032590653674498503 -0.012327322752852915 0 0.032590653674498503 -0.012327322752852915 0 0.03275127944276629 -0.012301784101787561 0 0.032469705644793907 -0.012470849598224781 0 0.032344236269734504 -0.012352510097834613 0 0.032590653674498503 -0.012327322752852915 0 0.032469705644793907 -0.012470849598224781 0 0.032744285019464324 -0.012182994760535143 0 0.032590653674498503 -0.012327322752852915 0 0.03275127944276629 -0.012301784101787561 0 0.03275127944276629 -0.012301784101787561 0 0.032469705644793907 -0.012470849598224781 0 0.032554936500381153 -0.012503943553085647 0 0.032469705644793907 -0.012470849598224781 0 0.032554936500381153 -0.012503943553085647 0 0.032129752691403501 -0.012750711205227402 0 0.031562437884410169 -0.012539574858355267 0 0.032554936500381153 -0.012503943553085647 0 0.032161925713468306 -0.012590996285249421 0 0.032554936500381153 -0.012503943553085647 0 0.03244573652932202 -0.012613124107753518 0 0.032161925713468306 -0.012590996285249421 0 0.028809693702592849 -0.012400669265633458 0 0.032945249970051028 -0.012290962994167293 0 0.031892352168860251 -0.013145320699518407 0 0.031826321506010544 -0.01297779460130211 0 0.031620710796492459 -0.012673293059083331 0 0.031876485669994903 -0.013224620999371915 0 0.032554936500381153 -0.012503943553085647 0 0.032129752691403501 -0.012750711205227402 0 0.028809693702592849 -0.012400669265633458 0 0.033613586639769995 -0.012495180103961665 0 0.032069873223311486 -0.01255232420505983 0 0.032129752691403501 -0.012750711205227402 0 0.031915030326443411 -0.012741742875050133 0 0.031915030326443411 -0.012741742875050133 0 0.031826321506010544 -0.01297779460130211 0 0.031620710796492459 -0.012673293059083331 0 0.032129752691403501 -0.012750711205227402 0 0.031915030326443411 -0.012741742875050133 0 0.031826321506010544 -0.01297779460130211 0 0.031876485669994903 -0.013224620999371915 0 0.032129752691403501 -0.012750711205227402 0 0.031826321506010544 -0.01297779460130211 0 0.028809693702592849 -0.012400669265633458 0 0.030083090552962356 -0.01314073587172962 0 0.028809693702592849 -0.012400669265633458 0 0.031600961278182883 -0.013281911333000126 0 0.031371549594841466 -0.014566566933331158 0 0.030904458700661705 -0.013974663455375574 0 0.031104523571978734 -0.0132179427518867 0 0.030904458700661705 -0.013974663455375574 0 0.031104523571978734 -0.0132179427518867 0 0.029771723851729902 -0.013377141350194258 0 0.030904458700661705 -0.013974663455375574 0 0.029771723851729902 -0.013377141350194258 0 0.03008532992437642 -0.014249084191673174 0 0.031371549594841466 -0.014566566933331158 0 0.031169741170043758 -0.014687851015729366 0 0.030904458700661705 -0.013974663455375574 0 0.031169741170043758 -0.014687851015729366 0 0.030904458700661705 -0.013974663455375574 0 0.03008532992437642 -0.014249084191673174 0 0.030406381847054138 -0.012660732799759621 0 0.031104523571978734 -0.0132179427518867 0 0.029771723851729902 -0.013377141350194258 0 0.030406381847054138 -0.012660732799759621 0 0.031104523571978734 -0.0132179427518867 0 0.030976521879429626 -0.011810110821861312 0 0.031926965331378752 -0.012116292654829072 0 0.031620710796492459 -0.012673293059083331 0 0.030976521879429626 -0.011810110821861312 0 0.031600961278182883 -0.013281911333000126 0 0.030959710075470586 -0.011701428357753766 0 0.030406381847054138 -0.012660732799759621 0 0.029771723851729902 -0.013377141350194258 0 0.029595368843821971 -0.01202740783586943 0 0.028996272761594423 -0.014454341604525975 0 0.029771723851729902 -0.013377141350194258 0 0.03008532992437642 -0.014249084191673174 0 0.027962658501527248 -0.015280876051082557 0 0.028996272761594423 -0.014454341604525975 0 0.028215724952590622 -0.013418416281068728 0 0.028996272761594423 -0.014454341604525975 0 0.029771723851729902 -0.013377141350194258 0 0.028215724952590622 -0.013418416281068728 0 0.020815037110617898 -0.011257191629460556 0 0.023961127196911722 -0.011723525627712521 0 0.018531531369520009 -0.0086452633583109489 0 0.01892872322943703 -0.0097669431066632791 0 0.019049103605737441 -0.0092246254475565042 0 0.020067360169980918 -0.010216407916135244 0 0.01892872322943703 -0.0097669431066632791 0 0.019049103605737441 -0.0092246254475565042 0 0.020067360169980918 -0.010216407916135244 0 0.01892872322943703 -0.0097669431066632791 0 0.020229029558070287 -0.010827266815824162 0 0.023961127196911722 -0.011723525627712521 0 0.023708942343844273 -0.011203189299176762 0 0.029771723851729902 -0.013377141350194258 0 0.028215724952590622 -0.013418416281068728 0 0.029595368843821971 -0.01202740783586943 0 0.028215724952590622 -0.013418416281068728 0 0.028433136610606098 -0.011532179023172951 0 0.029595368843821971 -0.01202740783586943 0 0.028433136610606098 -0.011532179023172951 0 0.029147993189689667 -0.010606379481354669 0 0.029595368843821971 -0.01202740783586943 0 0.02132551038257945 -0.011721286506770016 0 0.019752534061803356 -0.011214778003240188 0 0.020229029558070287 -0.010827266815824162 0 0.01892872322943703 -0.0097669431066632791 0 0.019752534061803356 -0.011214778003240188 0 0.020229029558070287 -0.010827266815824162 0 0.02132551038257945 -0.011721286506770016 0 0.022173161275637232 -0.013324314587622127 0 0.02119514958031184 -0.012592364190037212 0 0.02132551038257945 -0.011721286506770016 0 0.02119514958031184 -0.012592364190037212 0 0.019752534061803356 -0.011214778003240188 0 0.026784350061824311 -0.012052177504423384 0 0.023708942343844273 -0.011203189299176762 0 0.028610908342991018 -0.009564518431096871 0 0.028433136610606098 -0.011532179023172951 0 0.029147993189689667 -0.010606379481354669 0 0.020109750548993128 -0.013395773307432463 0 0.02119514958031184 -0.012592364190037212 0 0.019752534061803356 -0.011214778003240188 0 0.030291446281911823 -0.010202793146183432 0 0.029147993189689667 -0.010606379481354669 0 0.029595368843821971 -0.01202740783586943 0 0.030291446281911823 -0.010202793146183432 0 0.031908161996531556 -0.010929973429830479 0 0.030976521879429626 -0.011810110821861312 0 0.031799536788783646 -0.010905342648433307 0 0.032474323051480639 -0.011485697796256014 0 0.032219036777212842 -0.011768287763841201 0 0.033290535929926965 -0.011539665051481929 0 0.033331423062033683 -0.012022580398679825 0 0.030291446281911823 -0.010202793146183432 0 0.030976521879429626 -0.011810110821861312 0 0.029595368843821971 -0.01202740783586943 0 0.030406381847054138 -0.012660732799759621 0 0.030976521879429626 -0.011810110821861312 0 0.029595368843821971 -0.01202740783586943 0 
</DataArray>
</PointData>
<CellData Scalars="region_id,cross_section_updated," Vectors="" Tensors="stress,">
<DataArray type="Float64" Name="region_id" format="ascii">
5 5 5 5 5 5 5 5 5 5 5 5 5 5 5 5 5 5 6 6 6 6 5 5 5 6 6 5 5 5 5 5 5 5 5 5 5 5 5 5 5 5 6 5 5 5 6 5 5 5 6 5 5 5 6 5 6 5 5 5 5 5 5 5 6 5 6 5 5 5 5 5 5 5 5 5 5 6 5 5 6 5 5 6 5 5 6 5 5 5 5 6 6 5 6 6 5 5 5 5 5 5 5 6 5 5 5 6 5 5 6 5 6 6 5 5 6 6 5 5 5 5 6 5 6 5 5 5 6 6 5 6 5 6 5 5 6 6 5 5 5 6 5 6 5 5 5 6 5 6 5 6 6 5 5 5 5 5 6 5 5 5 5 5 6 6 5 6 5 5 6 5 5 5 5 6 5 5 5 6 5 5 5 5 5 6 6 5 6 5 6 5 5 5 5 5 5 5 5 5 6 5 6 5 5 5 5 5 5 5 5 5 5 5 5 5 5 5 5 5 5 6 5 5 5 5 5 5 5 5 6 5 5 5 5 5 5 5 6 5 5 5 5 6 6 5 5 6 5 5 6 5 5 6 6 5 5 5 6 6 5 5 5 6 5 5 6 5 5 6 5 5 5 6 6 5 5 6 5 5 6 5 5 5 5 6 6 5 6 6 6 5 5 5 5 6 6 5 5 5 5 6 6 5 6 5 6 5 5 6 6 5 5 5 5 6 5 5 6 6 6 5 6 5 5 6 6 6 6 5 5 5 5 5 5 5 6 6 5 5 5 6 6 5 6 6 5 5 6 5 5 5 5 5 6 5 5 6 5 6 5 6 5 5 6 5 5 5 6 5 6 5 5 5 5 5 6 6 5 5 5 5 6 5 5 5 6 5 5 5 6 5 5 6 6 5 5 5 5 5 5 5 5 5 5 5 5 5 6 6 5 5 5 6 5 5 5 5 5 5 5 5 5 5 5 6 5 5 6 5 6 6 5 5 5 5 5 5 5 5 5 5 5 5 5 6 6 5 5 5 6 5 5 5 5 6 5 5 5 5 5 5 5 5 6 5 5 5 5 5 5 5 5 6 6 6 5 5 5 6 6 6 5 5 5 5 5 5 6 6 6 5 5 5 5 6 5 5 5 5 5 6 5 5 5 6 5 6 5 5 5 5 5 6 5 5 5 5 5 5 5 6 5 5 5 6 5 5 5 5 6 5 5 6 5 5 6 5 5 6 5 5 5 5 5 5 5 5 5 5 5 5 6 5 5 5 5 5 5 5 5 5 5 5 5 6 5 5 5 5 5 5 5 6 5 6 5 5 5 5 5 6 5 5 5 5 5 5 5 5 6 5 6 5 5 5 5 6 6 5 6 5 5 6 5 5 5 5 5 6 5 5 5 5 5 6 5 6 5 5 6 5 6 5 5 5 5 5 5 5 5 5 5 5 5 6 5 5 5 5 6 5 5 5 5 5 5 5 6 5 5 5 5 6 6 5 5 5 6 6 5 6 5 6 5 5 5 5 6 6 5 5 5 5 5 5 6 5 6 6 5 5 5 5 6 5 5 5 5 5 5 6 6 5 5 5 5 6 6 5 5 6 5 5 5 5 5 5 6 6 5 6 5 6 5 5 5 5 6 5 5 5 5 5 5 5 5 5 6 5 5 5 6 5 5 5 5 5 5 6 5 5 5 5 5 5 5 5 5 6 5 5 6 5 5 5 5 5 6 5 5 5 5 5 5 5 5 5 6 5 6 5 5 5 5 5 5 6 5 5 5 5 5 5 5 5 5 5 6 5 5 6 5 5 5 5 6 5 5 5 5 5 6 5 5 5 5 5 6 5 5 6 5 5 5 6 6 5 5 5 5 6 5 5 6 5 5 5 6 5 5 6 5 5 5 5 5 5 5 5 5 5 5 5 5 5 6 5 6 6 5 5 6 5 5 5 5 5 6 5 5 6 5 6 5 5 5 6 5 6 5 6 5 5 6 5 5 5 5 5 5 5 6 5 5 5 5 5 5 5 5 5 6 5 5 5 6 5 6 5 5 5 5 5 5 5 5 5 5 6 5 5 5 5 5 5 6 5 5 5 5 5 5 6 5 5 5 5 5 5 5 6 5 5 5 5 5 5 5 6 5 5 5 6 5 5 5 5 5 6 6 5 5 6 5 6 5 5 5 5 5 6 5 6 5 5 6 5 5 6 5 5 5 5 6 5 5 5 5 5 6 5 5 5 5 6 5 5 5 5 6 5 5 5 5 5 5 5 5 5 5 6 5 5 5 5 6 5 5 5 5 5 5 5 5 5 5 5 5 5 5 5 5 5 5 5 5 5 5 5 5 5 5 6 5 5 5 5 6 5 5 5 5 5 6 6 6 5 5 5 5 6 5 6 6 6 5 5 5 5 5 6 5 5 5 5 5 5 5 5 5 5 5 6 5 5 5 5 5 5 5 5 5 5 5 5 5 5 5 5 5 6 5 5 5 5 5 5 5 5 5 5 5 5 5 5 6 6 5 5 6 5 5 5 5 6 5 5 6 5 5 5 5 5 6 5 5 5 5 5 5 5 6 5 5 5 6 6 5 5 5 5 5 5 6 5 5 5 5 5 5 5 5 5 5 5 5 5 5 5 5 5 6 5 6 5 5 5 5 5 5 5 6 5 5 5 6 5 5 5 5 5 5 5 5 5 5 5 5 5 5 5 5 5 5 5 5 5 5 5 5 5 5 5 5 5 5 5 5 5 5 5 5 5 5 5 5 5 5 5 5 5 5 5 5 5 5 5 5 5 5 5 5 5 5 5 5 5 5 5 5 5 5 5 5 5 5 5 5 5 5 5 5 5 5 5 5 5 5 5 5 5 5 5 5 5 5 5 5 5 5 5 5 5 5 5 5 5 5 5 5 5 5 5 5 5 6 5 6 5 5 6 5 6 6 5 5 5 5 5 5 5 5 5 5 5 5 5 6 5 5 5 5 5 5 5 6 5 5 5 5 5 6 5 5 5 5 5 6 6 5 5 5 5 5 5 5 5 5 5 6 6 5 5 5 5 5 5 5 5 5 5 5 6 5 5 5 5 5 5 5 5 5 5 6 5 5 6 5 5 5 5 6 5 5 5 5 6 5 5 5 5 5 5 5 5 5 5 6 5 5 5 5 5 6 5 5 5 5 5 6 5 6 5 5 6 5 5 5 5 5 5 5 5 5 5 5 5 5 5 5 5 5 5 5 5 5 5 5 5 5 5 5 5 5 5 5 5 5 5 5 6 5 5 5 5 5 5 5 5 5 5 5 5 5 5 5 5 5 6 6 5 5 6 5 5 5 5 5 5 5 5 5 5 5 5 6 5 5 5 5 6 5 5 5 5 5 5 5 5 5 5 5 5 5 5 6 5 5 5 5 5 5 5 5 5 5 5 5 6 5 6 5 5 5 5 6 5 5 5 6 5 5 6 5 5 5 5 5 5 5 6 6 5 5 5 6 5 5 5 5 5 5 5 5 5 5 5 5 5 5 5 5 5 5 5 5 5 5 5 5 6 6 6 6 5 5 5 5 6 6 5 5 5 5 5 5 5 5 5 5 5 5 5 5 5 5 6 5 5 5 5 5 5 5 5 5 5 5 5 5 5 5 6 5 5 5 5 6 5 5 6 5 5 5 6 5 5 5 5 5 5 5 5 5 5 5 5 5 5 5 5 5 6 5 6 6 5 5 6 5 5 5 5 5 5 5 6 5 6 5 5 6 6 5 5 5 5 5 6 5 5 5 5 5 5 5 5 5 5 5 5 5 5 6 5 6 5 5 5 5 6 5 5 5 5 5 6 5 5 5 5 5 5 5 5 5 5 5 5 6 5 6 5 5 5 5 5 5 5 5 5 5 5 5 5 5 5 5 5 5 5 5 5 5 5 5 5 5 5 5 5 5 5 5 5 5 5 5 5 5 5 6 5 5 6 5 5 5 6 5 5 5 6 6 6 5 6 5 5 5 6 5 5 5 6 5 6 5 5 6 5 5 5 5 5 5 5 5 5 5 5 5 5 5 5 5 5 5 6 5 5 5 5 5 5 5 5 5 5 5 5 5 5 5 5 5 5 5 5 5 5 5 5 5 5 5 5 5 6 5 5 5 5 5 5 5 5 5 5 5 5 5 5 5 5 5 6 5 5 5 5 5 5 5 5 5 5 5 5 5 5 5 5 5 5 5 5 5 5 5 5 5 5 5 5 5 5 5 6 5 5 5 5 5 5 5 6 5 5 6 5 5 5 6 5 6 5 5 5 5 5 5 6 5 5 5 6 5 5 5 5 5 5 5 5 5 5 5 5 5 5 5 5 5 5 5 5 5 5 5 5 5 6 5 5 5 5 5 5 5 5 6 5 5 5 5 5 5 5 5 5 5 5 5 5 5 5 5 5 6 5 5 5 5 5 5 5 5 5 5 5 5 5 5 5 5 5 5 5 5 5 5 5 5 5 5 5 5 5 5 5 5 5 5 5 5 5 5 5 5 5 5 5 5 5 5 5 5 5 5 5 5 5 5 5 5 5 5 5 5 5 5 5 5 5 5 5 5 5 5 5 5 5 5 5 5 5 5 5 5 5 5 5 5 5 5 5 5 5 5 5 5 5 5 5 5 6 5 6 5 5 5 6 5 5 5 6 5 5 5 5 5 5 5 5 5 5 6 5 5 5 5 5 5 5 5 5 5 5 5 5 5 5 5 5 5 5 5 5 5 5 5 5 5 5 5 5 5 5 5 5 5 5 5 5 5 5 6 5 5 5 5 5 6 5 5 5 5 5 5 5 6 5 5 5 6 5 5 5 5 6 6 5 5 5 5 5 5 5 5 5 5 5 5 5 6 5 5 5 5 5 5 5 5 6 5 6 5 5 5 5 5 5 5 5 6 5 6 5 5 5 5 5 5 5 5 6 5 6 6 5 5 5 5 5 5 6 5 5 5 5 6 6 5 6 5 6 5 5 6 5 5 6 5 5 5 6 5 5 5 5 6 5 5 5 6 5 6 5 5 5 5 5 5 5 5 6 5 6 6 6 5 5 5 6 5 5 5 5 5 5 5 5 5 5 5 5 5 6 5 6 5 5 6 5 5 5 5 5 5 6 5 5 5 5 5 5 5 5 6 5 5 5 6 5 5 5 5 5 5 5 5 5 5 6 5 5 5 5 5 5 5 5 5 5 5 5 5 5 5 5 5 5 5 5 6 5 5 5 5 5 5 5 5 5 6 5 5 5 5 5 5 5 5 6 5 5 5 5 5 5 5 5 5 6 6 5 5 5 6 5 5 5 5 5 5 5 5 5 5 5 5 5 5 5 5 5 5 5 5 6 5 6 5 5 5 5 5 5 5 5 5 5 5 5 5 5 5 5 5 5 6 5 5 5 5 6 5 5 5 5 5 5 5 5 5 6 5 5 5 5 5 5 5 5 5 5 5 5 5 5 5 5 5 5 5 5 5 5 5 6 5 5 5 5 5 5 5 5 5 5 5 5 5 5 6 5 5 5 5 5 5 5 5 5 5 6 5 5 5 5 6 6 5 6 5 5 5 5 5 5 6 5 5 5 5 5 5 5 6 5 5 5 5 6 5 6 5 5 5 5 5 5 5 5 5 5 5 5 5 6 6 5 5 6 5 5 5 6 5 5 5 6 5 5 6 5 5 5 5 5 5 5 5 5 6 5 5 5 5 6 5 5 5 6 5 5 5 5 6 5 5 5 5 6 5 5 5 5 6 5 5 5 5 5 5 6 6 5 5 5 5 5 5 6 5 5 6 5 5 5 6 5 6 5 5 5 5 5 5 5 5 5 5 5 5 5 5 5 5 5 6 5 5 5 5 5 6 5 5 5 5 5 5 5 5 5 5 5 5 5 5 5 5 5 5 6 5 5 6 5 6 5 6 5 5 6 5 5 5 5 5 5 6 5 5 5 5 5 6 6 5 5 5 6 5 5 5 5 5 6 5 5 5 5 5 5 5 5 5 5 5 5 5 5 5 5 5 5 5 5 5 5 5 5 5 5 5 5 5 6 5 5 6 5 5 5 5 5 6 5 5 5 5 5 5 5 5 5 5 5 6 5 5 5 5 5 5 5 5 5 5 5 5 6 5 5 5 6 5 5 6 6 6 5 6 5 6 5 6 5 6 5 6 5 5 6 6 5 5 5 5 5 5 6 5 5 6 6 5 5 5 5 5 5 5 5 5 5 5 6 5 5 5 5 5 5 6 5 5 5 6 5 6 5 5 5 5 5 5 5 5 5 5 5 5 5 5 5 5 5 5 5 5 5 5 5 5 5 5 5 5 5 5 5 5 5 5 5 5 5 5 5 5 5 5 6 5 6 5 5 5 5 5 5 5 5 5 5 5 5 5 5 5 5 5 5 5 5 5 5 5 5 5 5 6 5 5 5 5 5 5 5 5 5 5 5 5 5 5 5 5 5 5 5 5 5 5 5 6 6 5 5 6 5 5 5 5 5 5 5 5 5 5 5 5 6 6 5 5 5 5 5 6 5 6 5 5 5 6 5 6 6 5 6 5 5 5 5 5 5 5 5 5 5 5 5 5 5 5 5 5 5 5 5 5 5 5 5 5 5 5 5 6 5 5 5 5 5 6 5 5 5 5 5 5 6 5 5 5 5 5 5 6 5 5 5 5 5 5 6 5 6 5 6 5 5 5 5 5 5 5 5 5 5 5 5 6 5 5 5 6 5 5 5 5 6 5 6 5 5 5 5 5 5 5 5 5 5 5 5 5 5 6 5 5 6 5 5 5 5 5 5 5 5 6 5 5 5 5 5 5 5 5 6 5 5 5 5 5 5 6 5 5 5 5 5 5 5 5 5 5 5 5 5 5 5 5 5 5 5 5 5 5 5 5 5 5 5 5 5 5 5 5 5 5 5 5 5 5 5 5 5 5 5 5 5 5 5 6 5 5 5 5 5 5 5 5 5 6 5 5 6 5 5 5 6 5 6 6 5 5 6 5 5 5 5 5 5 5 5 5 5 6 5 5 6 5 5 5 6 5 5 5 5 5 5 5 5 5 5 5 6 5 5 5 5 5 5 6 5 5 5 5 5 6 5 5 5 5 5 5 6 5 5 5 5 5 6 5 5 5 5 5 5 5 5 6 5 5 5 5 5 5 5 5 5 6 5 5 6 5 5 5 5 6 5 5 6 5 5 5 5 5 5 5 5 5 5 5 5 5 5 6 5 5 5 5 5 5 5 5 6 5 5 6 5 5 5 5 5 5 5 6 5 5 5 5 5 5 6 5 5 5 5 5 5 5 6 5 5 5 6 5 5 5 5 6 5 5 5 5 5 5 5 5 5 5 5 6 5 5 5 5 5 5 6 5 5 6 5 5 5 5 5 5 5 5 5 6 5 5 5 5 6 5 6 5 5 5 5 5 6 5 5 5 6 5 5 5 5 5 5 5 5 6 5 5 5 5 5 6 5 5 5 5 6 5 5 5 6 5 5 5 5 5 5 5 5 5 6 5 5 5 5 5 5 5 5 5 6 5 5 6 5 5 5 5 5 5 5 5 5 5 5 5 5 5 5 5 6 5 5 6 5 5 5 6 5 5 5 6 5 5 5 5 5 5 6 5 5 5 5 5 5 5 5 5 5 5 6 5 5 6 6 5 5 5 5 5 5 6 5 5 5 5 5 5 6 5 5 5 5 5 5 5 5 5 5 5 5 5 6 5 5 5 5 5 5 5 5 6 6 5 5 5 5 6 5 5 5 5 5 5 5 5 5 5 5 5 6 5 5 5 5 6 5 6 6 5 5 5 5 6 5 5 5 5 5 5 6 5 5 5 5 5 5 5 5 5 5 5 5 5 5 5 5 6 6 5 5 5 6 5 5 5 5 5 6 5 5 5 5 5 5 6 5 5 5 5 6 5 5 5 5 5 5 5 6 5 5 5 6 6 5 5 6 5 5 5 5 5 5 5 5 6 5 5 5 6 5 5 5 6 5 5 6 5 5 5 5 6 5 6 6 5 5 5 5 5 5 5 5 5 5 5 5 5 5 5 5 5 5 5 5 5 5 5 5 5 5 5 6 5 5 5 6 5 5 5 5 5 6 6 5 6 5 5 5 6 5 5 5 6 5 5 5 5 5 5 5 5 5 5 5 5 5 5 5 5 5 6 5 6 5 5 5 5 5 5 5 5 6 5 5 5 5 5 5 5 5 5 6 6 5 5 5 6 5 5 5 5 6 5 5 5 5 5 5 5 6 6 5 5 5 6 5 5 5 5 5 5 5 5 5 5 6 5 5 5 6 5 6 5 5 5 5 5 5 5 6 5 5 5 5 6 5 5 5 5 5 5 6 5 5 5 5 5 5 5 5 5 5 5 6 5 5 5 5 6 5 5 6 5 5 5 5 5 5 5 5 5 5 6 5 5 5 6 5 5 5 5 6 5 5 6 5 6 6 5 5 5 5 5 5 5 5 5 5 5 5 5 5 5 5 5 5 6 5 6 5 5 6 5 6 5 5 5 5 5 5 5 5 5 5 5 5 5 5 5 5 5 5 5 5 5 5 5 5 5 5 5 5 5 5 5 5 5 5 5 5 5 5 6 5 5 5 6 5 5 5 6 5 6 5 5 5 5 5 5 5 6 5 5 5 5 5 5 6 5 5 5 6 5 5 5 5 6 5 5 5 6 5 6 5 5 5 6 5 5 5 5 5 5 5 5 6 5 5 6 5 5 5 5 5 5 6 5 5 5 5 5 5 5 5 5 5 5 5 5 5 5 5 5 5 5 5 5 5 5 5 5 5 5 5 5 5 5 5 5 5 5 5 5 5 5 5 5 5 5 5 6 5 5 5 5 5 5 5 6 5 5 5 5 5 5 6 5 5 5 5 5 6 5 5 6 5 5 5 5 5 5 6 5 5 5 6 5 5 5 6 5 5 5 5 5 5 6 5 5 5 5 5 5 5 5 5 5 5 5 5 5 5 6 5 6 5 6 5 6 6 5 6 5 5 6 5 5 5 5 6 5 5 6 6 5 5 5 5 5 5 5 6 5 6 5 5 5 5 6 6 5 5 6 5 5 5 5 5 5 5 5 6 5 6 5 5 5 5 6 5 5 5 6 6 5 5 5 5 5 5 5 5 5 5 5 5 6 5 5 5 5 5 5 6 5 5 5 5 6 5 5 5 5 5 5 5 5 5 5 5 5 5 5 5 5 6 5 6 5 5 5 5 6 6 5 6 5 5 6 5 5 5 6 5 5 5 6 5 6 5 5 5 5 5 6 5 6 5 6 5 5 5 6 5 5 6 5 5 5 5 5 5 5 5 5 5 5 6 5 5 5 5 6 5 5 5 5 5 5 6 6 5 5 5 6 5 6 6 5 5 5 6 5 5 5 5 5 6 5 5 5 5 5 5 5 5 5 6 5 5 6 5 5 5 5 5 5 5 6 5 5 6 6 5 5 5 6 5 6 5 5 6 5 5 6 6 5 5 5 6 5 6 5 6 5 5 5 5 5 5 5 6 6 5 5 5 5 5 5 5 5 6 5 5 5 5 5 5 5 5 5 5 5 5 5 5 5 6 5 5 5 5 5 5 5 5 6 5 5 5 5 5 5 5 6 5 5 5 5 5 5 5 5 5 5 5 5 5 5 6 5 5 5 5 5 5 5 5 6 5 5 5 5 6 5 5 5 5 5 5 5 5 5 5 5 5 5 5 5 6 5 5 5 5 6 5 6 5 5 5 5 6 5 5 5 5 6 5 6 5 5 5 5 5 5 5 5 6 5 5 6 6 5 5 5 6 6 5 6 6 5 5 5 5 6 5 6 5 5 5 6 5 5 6 5 5 6 5 6 5 6 5 5 5 5 5 5 6 6 5 5 6 6 6 6 5 6 6 5 6 5 5 5 6 6 5 5 6 5 5 5 6 5 5 5 6 5 6 5 5 6 5 5 5 5 5 6 5 5 5 5 5 5 5 5 5 5 5 5 5 6 5 5 6 5 5 5 5 5 5 5 5 5 5 5 5 5 5 5 5 5 5 5 5 5 5 5 5 6 5 5 5 5 5 6 5 5 5 5 5 5 5 5 5 5 5 5 5 5 5 5 6 5 5 5 5 5 5 6 5 5 5 5 5 6 5 5 6 6 5 5 5 5 5 5 5 5 5 5 5 5 5 5 5 5 5 5 5 5 6 5 5 5 5 5 6 5 5 6 5 6 5 5 6 6 6 5 5 6 5 5 5 5 5 6 5 5 5 5 5 5 5 5 5 5 5 5 5 6 5 5 5 5 5 5 5 6 5 5 5 5 6 5 5 6 5 5 5 5 5 5 5 5 5 5 5 5 6 5 5 5 5 6 5 5 5 5 5 5 5 5 6 5 6 5 6 5 5 5 5 5 5 5 5 5 5 5 5 5 5 5 5 5 5 5 5 5 5 5 5 6 5 5 5 6 5 5 5 5 5 5 6 5 5 6 5 6 5 6 5 5 5 5 5 5 5 5 5 5 5 5 5 5 5 6 5 5 5 5 5 5 5 5 5 5 5 5 6 5 5 5 5 5 5 5 5 6 5 5 5 5 6 5 5 5 5 6 5 5 5 6 5 5 5 5 6 5 5 6 5 5 5 5 6 5 5 5 5 5 5 5 5 5 5 6 5 5 5 5 6 6 5 5 5 5 5 5 5 5 5 5 5 5 5 5 5 5 5 5 5 5 5 5 5 5 5 5 5 5 5 5 5 6 5 5 5 5 5 5 5 5 5 5 5 5 5 5 5 5 5 5 5 6 5 5 5 5 5 5 5 5 5 5 5 5 5 5 5 5 5 5 5 5 5 5 5 5 5 5 5 5 5 5 6 5 5 5 6 5 5 5 5 5 5 5 6 5 5 5 5 5 5 5 5 6 5 5 6 5 5 5 5 5 5 5 6 5 5 5 5 6 5 6 6 6 5 5 5 6 5 5 5 5 5 6 6 5 5 5 6 5 5 5 5 6 5 5 5 5 5 5 5 5 5 5 5 5 5 5 5 5 5 5 6 5 5 6 6 5 6 5 6 5 5 6 5 6 6 5 5 5 6 5 5 5 5 6 5 5 5 5 5 6 5 5 5 5 6 5 6 5 5 5 5 5 5 5 5 5 6 5 5 6 5 5 5 5 5 5 5 5 5 6 5 5 5 6 5 5 5 5 5 5 5 5 5 5 5 5 5 6 5 5 5 5 6 5 5 5 5 5 5 5 5 5 5 5 5 5 5 5 5 5 5 6 5 5 5 6 6 5 5 5 5 6 5 5 6 5 5 5 6 5 6 5 5 6 5 5 5 6 6 5 6 5 5 6 5 5 5 6 6 5 5 5 5 5 6 6 5 5 6 6 6 5 5 6 5 5 5 5 5 5 5 5 5 5 5 6 5 5 5 5 5 6 6 5 6 5 5 5 5 5 5 5 6 6 5 5 6 5 5 5 5 5 5 5 6 5 5 5 5 5 5 5 5 5 6 6 5 5 6 5 5 5 5 5 5 6 5 6 5 5 5 5 6 6 5 6 5 5 5 6 5 5 5 5 5 5 5 5 5 6 5 6 5 5 5 5 5 5 5 5 6 5 5 5 5 5 6 5 5 5 5 5 5 5 5 5 5 5 5 5 5 6 5 5 5 5 6 5 5 5 5 5 5 5 5 5 5 5 5 5 5 5 5 6 5 5 5 5 5 5 5 6 5 5 5 6 5 5 5 5 5 6 6 5 5 5 5 5 5 6 5 5 6 5 6 5 6 5 6 6 5 6 5 5 6 5 6 5 5 5 5 6 5 5 5 5 6 5 5 6 5 6 5 5 6 5 5 5 6 5 5 6 6 5 5 5 6 5 5 5 5 5 5 5 5 6 5 5 5 5 5 5 5 6 5 5 5 5 5 6 5 5 5 5 6 5 5 5 6 6 5 5 5 5 5 5 5 5 6 5 5 5 5 5 5 5 5 6 5 5 5 6 5 5 5 5 5 5 5 5 5 5 5 5 5 5 6 5 5 5 5 5 5 5 5 5 5 6 5 5 5 5 5 5 5 5 5 5 5 5 5 5 5 6 5 5 6 6 5 5 5 5 5 6 6 5 5 5 5 5 5 5 5 5 5 5 5 5 5 5 5 5 6 5 5 5 5 6 5 5 6 6 6 6 5 6 5 5 5 5 6 5 5 6 5 5 5 5 5 5 5 5 5 5 6 5 5 5 5 5 5 5 6 5 5 6 5 5 5 5 5 5 5 5 5 5 5 6 5 5 5 5 5 5 5 5 5 5 5 5 5 5 5 5 5 5 6 5 5 5 5 5 5 5 6 5 5 5 6 5 5 6 5 5 5 6 5 5 5 5 5 5 5 5 5 5 5 5 5 5 5 5 5 5 5 5 5 5 5 5 5 5 5 5 6 5 5 5 5 5 5 5 5 5 5 5 5 5 5 5 5 5 5 5 5 6 5 5 5 5 5 5 5 5 5 5 5 6 6 5 5 5 5 5 6 5 6 5 5 5 5 5 5 5 5 5 5 6 5 5 6 5 5 5 5 5 5 5 5 6 5 6 5 5 5 5 5 5 5 5 5 5 5 5 5 5 5 5 5 5 6 5 5 5 5 5 6 5 5 5 5 6 5 5 5 6 5 6 5 5 5 5 5 5 5 5 5 5 5 5 5 6 5 5 5 5 5 6 5 5 5 6 6 5 5 5 5 5 6 5 6 5 6 6 5 5 6 5 6 5 6 5 5 6 5 5 6 5 5 5 5 5 6 5 5 6 5 5 5 5 5 5 5 5 5 5 5 6 6 5 5 5 6 5 5 5 5 5 5 6 5 5 5 6 5 5 5 5 5 5 5 5 5 5 5 5 5 5 5 5 5 5 5 5 6 5 5 5 5 5 5 5 5 5 5 6 5 5 5 5 5 5 5 5 6 5 5 5 5 5 5 5 6 5 5 5 5 6 5 5 5 6 5 6 5 6 6 5 6 5 5 6 5 6 5 5 6 5 5 5 5 6 5 5 5 6 5 5 5 5 5 5 5 5 5 6 6 5 6 5 5 5 6 5 6 5 6 5 5 6 5 5 6 5 6 5 5 5 6 5 5 5 5 6 6 5 5 5 5 5 5 5 5 6 5 6 6 5 5 6 5 5 5 5 5 6 5 5 6 5 6 5 5 5 5 5 5 5 5 5 6 5 6 5 5 5 6 5 5 5 5 6 5 5 6 5 5 5 5 5 5 5 5 5 5 5 5 5 5 5 5 5 5 5 5 5 5 5 5 5 5 5 5 5 5 5 5 5 5 5 5 5 5 5 5 5 5 5 5 5 5 5 5 5 5 6 5 6 5 5 5 5 5 5 5 5 5 5 5 6 5 5 5 5 5 5 6 5 6 5 5 6 5 5 5 6 5 6 5 5 5 5 6 5 6 5 5 6 5 5 6 5 5 6 5 5 5 5 6 5 5 5 5 5 5 5 5 6 5 5 5 5 6 5 5 6 5 5 5 5 6 5 6 5 5 5 5 5 5 5 5 5 5 5 5 5 5 5 5 5 5 5 5 5 5 5 5 5 5 5 5 5 5 5 5 5 5 6 5 5 5 6 5 5 5 6 6 5 5 5 5 6 5 5 5 5 5 5 5 6 5 5 6 5 5 5 5 5 5 5 5 5 5 5 5 5 5 5 5 5 5 5 5 5 5 5 5 5 5 5 5 6 5 5 6 5 5 6 5 5 5 5 5 6 6 5 5 6 5 5 6 6 5 6 5 5 5 5 5 5 5 6 5 5 5 5 6 5 5 5 5 5 5 5 5 5 5 6 5 5 5 5 5 5 5 5 5 5 6 5 6 5 5 5 5 5 5 5 5 5 5 5 5 6 5 5 6 5 5 6 5 5 5 5 5 5 5 5 5 5 5 5 5 5 6 5 5 5 6 5 5 5 6 5 5 5 5 5 6 5 5 6 6 5 5 6 5 6 5 5 5 5 6 5 5 5 5 6 5 5 5 6 5 5 5 5 5 6 5 5 5 5 5 5 6 5 5 5 5 6 5 5 5 5 5 5 6 5 5 5 5 5 5 5 6 5 5 5 6 6 5 5 5 6 6 5 5 5 5 5 6 5 5 5 5 6 5 5 6 5 5 5 5 5 5 5 5 6 5 5 5 5 6 5 6 5 5 5 5 6 6 5 5 5 5 5 6 6 5 5 5 5 5 5 5 5 5 5 5 5 5 5 6 5 6 5 5 5 5 5 5 5 5 5 5 5 6 5 5 5 6 6 5 5 5 6 5 5 6 5 5 5 5 5 6 5 5 6 5 5 5 6 5 5 5 6 5 5 5 5 5 5 5 5 6 5 5 5 5 5 6 5 5 5 5 5 5 5 5 5 6 5 6 5 5 5 5 5 5 5 5 5 5 6 5 5 5 5 5 5 5 5 5 5 5 5 5 5 5 5 5 5 5 5 5 5 5 5 5 5 5 5 5 5 5 5 5 5 5 5 5 5 5 6 5 5 5 5 5 5 5 5 5 5 5 5 5 5 5 6 5 5 5 6 5 5 5 5 5 6 5 5 5 5 5 5 5 5 5 5 5 5 6 5 5 5 5 5 5 5 5 5 5 5 5 5 5 5 5 5 5 5 5 6 5 5 5 5 5 5 5 5 5 5 5 5 5 5 5 5 5 5 5 5 6 6 5 5 5 5 5 6 5 5 5 5 5 5 5 5 5 5 5 5 5 5 5 5 5 5 5 5 5 5 5 5 5 5 5 5 6 5 6 5 5 5 6 5 5 5 5 5 5 5 5 5 5 5 5 6 5 5 5 5 5 5 5 5 6 5 5 5 6 5 5 5 5 5 5 5 6 5 6 5 5 5 5 5 5 5 5 5 5 5 5 5 5 5 5 5 5 6 5 5 5 5 5 5 5 6 5 5 5 6 5 5 5 5 5 5 6 5 5 5 5 5 5 5 5 5 6 5 5 5 5 5 5 5 5 5 5 5 5 5 5 5 5 6 5 6 5 5 5 5 5 5 5 5 5 5 6 5 5 5 6 5 5 5 5 5 5 5 5 5 5 5 5 5 5 5 5 5 5 5 5 5 6 5 5 5 5 5 5 5 6 5 5 5 5 5 5 5 5 5 5 6 5 5 5 5 5 5 5 5 5 5 6 5 5 6 5 6 5 5 5 5 5 6 5 5 5 5 5 5 5 5 5 5 5 5 5 5 6 5 5 5 5 5 5 5 5 5 5 5 5 5 5 5 5 5 5 5 5 5 5 5 5 5 5 5 5 5 6 5 5 5 5 5 5 5 5 5 5 5 5 5 5 5 5 5 5 5 5 5 6 5 5 5 5 5 5 5 5 5 5 5 6 5 6 6 5 5 5 6 5 5 6 5 5 6 5 5 5 5 5 5 5 5 5 5 5 5 5 5 5 6 5 5 5 6 5 5 5 5 5 5 5 5 5 5 5 5 5 5 5 5 5 5 5 5 5 6 5 5 5 5 5 5 5 6 5 5 5 5 5 5 5 5 5 5 5 6 5 5 5 6 5 5 5 6 5 5 5 5 5 5 5 5 5 5 5 5 6 5 5 6 5 5 5 6 5 5 5 6 5 5 5 5 5 5 6 5 5 6 5 5 5 5 6 5 5 5 6 5 6 6 5 5 5 5 5 6 5 5 6 5 5 6 5 5 5 5 5 5 6 5 5 5 6 5 6 5 5 6 5 5 5 6 5 5 5 5 5 5 6 6 5 5 5 6 5 5 6 5 5 6 5 5 5 5 5 5 5 5 6 6 6 5 5 5 6 5 6 5 5 6 5 5 6 5 5 6 5 5 5 5 5 6 5 5 5 6 6 5 6 5 5 5 5 5 5 5 5 5 5 5 6 5 5 5 5 6 5 5 5 5 5 5 5 5 5 5 5 6 5 5 5 5 6 5 6 5 5 5 5 5 5 5 5 5 5 5 5 5 5 5 5 5 5 5 5 6 5 5 5 5 5 6 6 5 5 5 5 5 6 5 5 5 5 5 5 5 5 5 5 5 6 5 5 5 5 6 5 6 5 5 5 6 5 5 5 6 5 5 5 5 5 5 6 6 5 5 5 6 6 5 5 5 6 6 5 5 5 5 5 5 5 6 5 5 5 6 5 5 5 5 5 5 5 5 6 5 5 5 5 5 5 5 6 6 5 5 5 6 5 5 5 5 5 5 6 5 6 5 5 5 5 6 5 5 5 5 5 5 5 5 5 5 5 6 5 5 5 5 5 5 5 5 5 5 5 6 5 5 5 5 5 6 5 5 6 5 5 5 5 6 5 5 5 6 5 5 6 6 6 5 5 5 6 5 5 5 5 5 5 5 5 5 5 6 5 5 6 5 5 6 5 5 5 5 5 5 6 5 5 5 5 5 5 5 5 5 6 5 5 5 5 5 5 5 5 5 5 5 5 5 5 5 5 5 5 6 5 5 5 5 5 6 6 5 6 5 5 5 6 5 6 5 5 5 5 5 5 5 5 5 5 5 5 5 6 6 5 5 5 5 6 5 5 5 6 5 5 5 5 5 5 5 5 5 5 5 5 5 5 5 5 5 5 5 5 5 5 5 5 5 5 5 5 5 5 5 5 5 6 5 5 5 5 5 5 5 5 5 5 5 5 5 6 5 5 5 6 5 5 5 5 5 6 5 5 5 5 5 5 6 5 5 5 5 5 5 6 5 5 5 5 5 6 6 5 5 5 5 5 6 5 5 5 5 5 6 5 5 5 5 5 5 5 5 5 5 5 5 5 5 5 5 5 5 5 5 5 5 5 5 5 5 6 6 5 5 5 5 5 5 5 6 5 5 5 5 5 5 5 5 5 5 5 5 5 5 5 5 5 5 5 5 5 5 5 5 5 5 5 5 5 5 5 5 5 5 5 5 5 5 5 5 5 6 5 5 5 6 6 5 5 5 5 5 5 5 5 5 5 6 5 5 5 6 5 5 5 5 5 5 5 5 6 5 5 6 5 5 5 5 5 5 6 5 5 6 5 5 5 5 6 5 6 5 6 5 5 6 5 5 5 5 5 5 5 5 5 5 5 5 6 5 5 5 5 5 5 5 5 5 5 5 5 5 5 5 5 6 6 5 6 5 5 5 6 5 5 5 5 5 6 5 5 5 6 5 5 6 5 5 6 5 5 6 5 5 5 6 5 5 5 5 5 5 6 5 5 6 5 5 5 5 5 6 5 5 6 5 5 6 6 5 6 5 5 5 5 5 5 5 5 6 5 5 5 5 5 6 5 5 5 5 5 5 5 5 5 5 5 5 5 6 6 5 5 5 6 5 5 5 5 5 5 5 5 5 5 5 5 6 5 5 5 6 5 5 5 6 5 5 5 5 5 5 6 5 5 5 5 5 5 5 6 5 5 5 5 5 5 5 5 6 5 6 5 5 5 5 5 5 5 5 5 5 6 5 5 5 6 6 5 5 5 5 5 5 5 5 5 5 5 5 5 5 5 5 5 5 5 5 5 5 5 5 5 5 5 6 5 5 6 5 5 5 5 5 5 5 5 5 5 5 5 5 5 5 5 5 6 6 5 5 6 5 6 5 5 6 5 5 5 6 6 6 5 5 5 5 5 5 5 5 5 5 5 5 5 5 5 5 5 5 5 5 5 5 5 6 5 5 5 5 5 5 5 5 6 5 5 6 5 5 5 5 5 5 5 5 5 6 6 5 5 5 5 5 5 5 5 5 5 6 5 5 5 5 5 5 5 6 5 5 6 5 5 5 5 5 5 5 5 6 5 5 5 5 5 5 5 5 5 5 5 6 5 5 5 5 5 5 5 5 5 6 6 5 5 5 5 5 5 6 5 5 5 5 6 5 5 5 5 5 6 5 5 5 5 5 5 6 5 5 5 6 5 5 5 5 5 5 5 5 5 5 5 5 5 5 5 5 5 5 5 5 6 5 5 5 6 5 5 5 5 6 5 5 6 5 5 5 5 5 5 5 5 5 5 5 5 5 5 5 5 5 5 5 5 5 5 5 5 5 5 5 5 5 5 6 5 5 5 5 5 5 5 5 6 6 5 5 5 5 5 5 5 5 5 5 5 5 5 5 5 5 5 5 5 6 5 5 5 6 5 5 5 5 6 5 6 6 5 5 5 5 5 6 5 5 5 5 5 5 5 5 6 5 5 5 5 5 5 5 5 5 5 6 5 5 5 5 6 5 5 5 5 5 5 5 5 5 5 5 5 5 5 5 5 6 5 5 6 5 5 6 5 5 5 5 6 6 5 5 5 5 5 5 5 5 6 5 6 5 5 6 6 5 5 5 5 6 5 5 5 5 5 5 6 5 5 5 5 6 5 5 5 5 5 5 5 5 5 6 6 5 5 6 5 5 5 5 5 5 5 5 5 5 5 5 5 5 5 5 5 5 5 5 5 5 5 5 5 6 5 5 5 5 5 6 5 5 5 5 6 5 5 5 5 6 5 5 6 5 5 5 5 5 5 5 5 5 5 5 5 5 5 6 5 5 5 6 5 5 5 5 5 5 5 5 5 5 5 5 5 5 5 5 5 5 5 5 5 6 5 5 5 5 5 5 5 6 5 5 5 5 5 5 5 5 5 5 5 5 5 6 5 5 6 5 5 5 5 5 6 5 5 5 5 6 6 6 5 5 5 5 6 5 5 5 5 5 6 5 5 5 5 5 6 5 6 5 5 5 5 6 5 6 5 5 5 5 6 5 5 5 5 5 5 6 5 5 5 5 5 5 6 5 5 5 5 5 5 5 5 5 5 5 5 5 5 5 5 5 5 5 5 5 5 5 5 5 5 5 5 5 5 6 5 5 5 6 6 5 5 5 5 6 5 6 6 5 5 6 5 5 6 5 6 5 5 5 5 5 5 6 5 5 6 5 5 5 5 5 5 5 6 5 5 5 5 6 5 5 5 5 6 5 5 5 5 5 6 5 5 5 6 5 5 5 5 5 5 5 5 6 5 5 5 5 5 5 5 5 5 5 5 5 5 5 5 5 5 5 5 5 6 5 5 5 5 5 5 5 6 6 5 5 5 5 6 5 5 5 5 5 5 5 5 5 6 5 5 5 5 6 5 5 5 5 5 5 5 5 5 5 5 5 5 6 5 5 5 5 5 6 5 5 5 5 5 5 5 5 5 5 5 5 5 5 5 5 5 5 6 5 5 5 5 5 5 5 5 5 5 5 5 5 5 5 5 5 5 5 5 5 5 5 5 5 5 6 5 5 6 5 5 5 5 5 5 5 6 5 5 5 6 5 5 5 5 5 5 6 5 5 5 5 5 5 5 5 5 5 5 5 5 5 5 5 5 5 5 5 5 5 5 6 6 5 6 5 5 5 5 5 5 5 6 5 5 6 5 5 5 5 5 5 5 5 5 5 5 5 5 5 6 5 5 5 5 5 6 5 5 5 6 5 6 5 6 5 5 6 5 5 5 5 5 5 5 5 5 5 5 5 6 5 5 6 6 5 5 5 5 6 6 5 5 5 6 5 5 5 5 5 5 5 5 6 5 5 5 6 5 5 5 5 5 5 5 5 5 5 5 5 5 5 5 5 5 5 5 5 5 5 5 6 5 5 5 5 5 5 5 5 5 5 5 5 6 5 5 6 5 5 5 5 5 5 5 5 5 6 5 5 5 5 5 5 5 6 5 5 5 5 5 5 5 5 5 5 5 5 5 5 5 6 5 5 5 5 6 5 5 5 6 5 6 5 5 6 5 6 5 5 6 5 6 5 5 5 5 5 5 5 5 5 5 5 5 5 5 5 5 5 5 5 5 5 5 5 5 5 5 5 5 5 5 5 5 5 5 5 5 5 5 6 5 5 5 5 5 5 5 6 5 5 6 5 5 6 5 5 6 5 5 5 5 6 5 5 6 5 5 5 6 6 5 6 5 6 6 5 5 5 5 5 5 5 5 5 5 5 5 5 6 5 5 6 6 5 5 6 5 5 5 5 6 5 5 6 5 5 6 5 5 5 5 5 5 6 5 5 6 5 5 5 5 5 5 5 6 5 5 5 5 5 5 5 5 5 5 5 5 5 5 5 5 5 5 5 5 5 5 5 5 5 5 5 5 5 5 5 5 5 6 5 5 5 6 5 6 5 5 5 5 5 5 5 5 5 5 5 5 5 5 5 5 5 6 6 5 5 5 5 5 6 6 5 5 5 5 5 6 5 6 5 5 5 6 5 5 6 5 5 5 6 5 5 5 6 5 5 5 5 5 5 5 5 5 5 6 5 5 5 5 5 5 5 5 5 5 5 5 5 5 5 5 5 5 5 5 5 5 5 5 5 6 5 5 5 5 5 5 6 5 5 5 5 6 5 5 5 5 5 5 5 5 6 5 5 5 5 5 5 6 5 6 5 5 6 5 5 5 5 5 5 5 5 5 6 5 6 5 5 5 5 5 5 5 6 5 5 6 5 5 5 5 5 5 5 6 5 5 5 5 6 5 5 5 5 5 5 5 5 5 5 5 5 5 5 5 5 5 5 5 5 5 5 5 5 6 5 5 5 5 5 5 5 6 5 5 6 5 5 5 5 5 5 5 5 5 5 5 5 6 5 5 5 5 5 5 6 5 5 5 5 5 5 5 5 5 5 5 5 5 5 5 5 5 5 5 6 6 5 5 5 5 5 5 5 5 5 6 5 5 5 5 6 5 5 6 6 5 5 5 5 5 5 5 5 5 5 5 5 5 5 5 5 6 5 5 5 6 6 5 5 6 5 5 6 5 5 5 5 5 6 5 6 5 5 5 5 6 5 6 5 5 5 6 5 6 5 5 5 5 6 5 5 5 5 5 5 6 5 5 5 5 5 5 5 5 5 5 5 5 5 5 5 5 5 5 6 5 5 6 5 5 5 6 5 5 5 5 5 5 5 5 5 5 5 5 5 5 6 5 6 5 5 5 5 5 6 5 5 6 5 6 5 5 5 5 5 5 5 5 6 5 5 5 6 5 5 5 6 5 5 6 5 5 5 5 5 5 5 5 5 5 5 5 5 5 5 6 5 5 6 5 5 5 5 5 5 5 5 5 5 5 5 5 5 5 6 5 5 5 5 5 5 5 6 5 5 5 5 6 5 5 5 5 5 5 5 5 5 5 5 5 5 5 5 5 5 5 5 5 6 5 5 5 5 5 5 5 6 5 5 5 5 5 5 5 5 5 5 6 5 5 5 5 5 5 5 6 5 5 6 5 5 6 5 5 6 5 5 5 5 5 5 5 5 6 5 5 6 5 6 5 5 5 5 5 5 6 5 5 5 5 5 5 5 5 5 5 5 5 5 5 5 5 5 5 5 5 5 5 5 5 5 5 5 5 5 5 5 5 5 5 6 5 5 5 5 5 5 5 5 5 5 5 5 5 5 5 5 5 5 5 5 5 5 5 5 5 5 5 5 5 5 5 5 5 5 5 5 5 5 5 5 5 5 5 5 5 5 5 5 5 5 5 5 5 5 5 5 5 5 5 5 5 5 5 5 5 5 5 5 5 5 5 5 5 5 5 5 5 5 5 5 5 5 5 5 6 5 5 5 5 5 5 5 6 5 5 6 5 5 5 5 5 5 5 5 6 5 5 5 5 5 5 5 5 5 5 5 5 5 5 5 5 5 6 5 5 6 5 5 5 5 5 5 5 5 5 6 5 5 5 5 5 5 5 6 5 5 5 5 5 5 5 5 5 6 6 5 5 5 5 5 5 5 5 6 5 5 6 5 5 5 6 6 5 6 5 5 5 5 5 5 6 6 5 5 5 5 5 5 5 5 5 6 5 6 5 5 5 5 6 5 5 6 5 6 5 5 5 6 5 6 5 6 5 5 6 5 5 5 6 6 5 5 5 6 5 5 5 5 5 6 6 6 5 5 5 6 5 5 5 5 5 5 5 5 5 5 5 5 5 5 5 5 5 5 5 5 5 5 5 5 5 5 6 5 5 5 5 6 5 5 5 5 5 6 5 5 5 5 6 5 5 5 5 5 5 5 5 5 5 5 5 5 5 5 5 5 5 5 5 5 5 5 5 5 5 5 6 5 5 5 5 5 5 5 5 5 5 5 5 5 5 5 5 5 5 5 6 5 6 5 5 5 6 5 5 5 5 5 5 5 5 5 6 5 6 6 5 5 6 5 5 6 5 5 6 5 5 5 5 5 5 5 5 5 5 5 5 5 5 6 5 5 5 5 5 5 5 5 5 5 5 6 5 5 5 5 5 5 6 5 5 5 5 6 5 5 5 6 5 5 5 5 6 5 5 5 5 5 5 5 5 6 5 5 5 5 5 5 5 5 5 6 5 6 5 5 5 5 5 5 5 5 5 5 5 6 5 5 5 5 5 5 5 5 5 5 5 5 5 5 5 6 6 5 5 5 5 5 5 5 5 5 5 5 5 5 5 5 5 5 5 5 5 5 5 5 5 5 5 5 5 5 5 5 5 5 5 5 5 6 5 5 5 5 5 5 5 5 5 5 5 5 5 5 5 6 5 5 5 5 5 5 5 5 5 5 5 5 5 6 6 5 5 5 5 5 5 5 5 5 5 5 5 5 5 5 5 5 5 5 6 5 5 6 5 5 5 5 5 5 5 5 5 5 6 5 5 5 5 5 5 5 5 5 5 6 5 5 5 5 5 6 6 5 5 6 5 5 5 5 5 5 5 5 6 5 5 5 5 5 5 5 5 6 5 6 5 5 5 5 6 5 6 5 5 5 5 6 5 6 5 6 5 5 6 5 5 5 6 5 5 6 5 5 6 5 5 5 6 5 5 5 5 5 5 6 5 6 5 5 5 6 5 5 5 5 5 5 5 5 6 5 5 5 5 5 5 6 5 5 6 5 5 5 6 5 5 6 5 5 6 5 5 5 6 5 6 5 6 5 5 5 5 5 5 5 5 5 5 5 5 5 5 5 5 5 5 5 5 5 5 5 5 5 5 5 6 5 5 5 6 5 5 5 5 5 5 5 6 5 5 5 6 5 5 5 6 5 5 5 5 5 5 5 5 6 5 5 5 5 6 5 5 5 5 5 5 5 5 5 5 5 5 5 5 5 5 5 5 5 5 5 5 5 5 6 5 5 5 5 5 5 5 5 5 5 5 6 5 5 5 5 5 5 5 5 5 5 5 5 5 5 5 5 5 5 5 5 5 5 5 5 6 6 5 5 6 5 5 5 5 5 5 5 5 5 5 5 5 5 6 5 5 5 5 5 5 5 5 6 5 5 5 5 5 5 5 5 5 5 5 5 5 5 5 5 5 6 5 5 6 5 5 5 5 6 6 5 5 5 5 5 5 5 5 6 5 5 5 5 6 5 5 5 6 5 5 5 5 5 5 5 6 5 5 5 5 6 5 5 5 
</DataArray>
<DataArray type="Float64" Name="stress" NumberOfComponents="9" format="ascii">
2244.4838231515605 -135.19298638835565 0 -135.19298638835565 1.5980150510056323 0 0 0 0 4987.01257149499 -1321.4629009247897 0 -1321.4629009247897 -67.77639014401278 0 0 0 0 2723.2336266166531 -66.415414479826126 0 -66.415414479826126 -150.8312093743927 0 0 0 0 2430.9445379185345 -1113.3240028403729 0 -1113.3240028403729 291.73674252755109 0 0 0 0 1237.3388289007707 -1917.8141364461749 0 -1917.8141364461749 1055.3998185444261 0 0 0 0 -324.01106738462113 -1176.2837428051739 0 -1176.2837428051739 1214.3419598648052 0 0 0 0 2108.2836234206625 -90.935301538552906 0 -90.935301538552906 -35.229339387962909 0 0 0 0 436.94767896545818 -84.200531771409715 0 -84.200531771409715 209.3913650619113 0 0 0 0 718.27276207634714 -261.5251906657864 0 -261.5251906657864 261.7873394271345 0 0 0 0 579.13881583701004 247.04443321427345 0 247.04443321427345 -86.444343619531992 0 0 0 0 578.92520020724987 -1124.7498971236564 0 -1124.7498971236564 439.48036779735685 0 0 0 0 -210.78564129950246 284.71378028088748 0 284.71378028088748 -232.38930328452489 0 0 0 0 752.59436879063651 -181.13859266682979 0 -181.13859266682979 -122.47867214610778 0 0 0 0 -566.59739822370466 -619.95978047861854 0 -619.95978047861854 322.30485994042283 0 0 0 0 428.51912801031722 186.16862075914901 0 186.16862075914901 -771.80260597950473 0 0 0 0 -345.17226810893044 -562.35627736241258 0 -562.35627736241258 -1489.0945077970136 0 0 0 0 4.5832536268753756 294.34976556982053 0 294.34976556982053 -1081.5572137609033 0 0 0 0 28.078545335447416 -3.8206778426047094 0 -3.8206778426047094 -8.7229629324710913 0 0 0 0 29.691279230349778 5.2687577793565481 0 5.2687577793565481 -0.81798373408378211 0 0 0 0 43.337365995308744 -6.6645095056991366 0 -6.6645095056991366 -0.24920908289896282 0 0 0 0 68.592844984546758 -9.7333287222277534 0 -9.7333287222277534 -4.5023369986782491 0 0 0 0 8.776667798121661 -1.4030293792201576 0 -1.4030293792201576 -0.86950559435436503 0 0 0 0 4996.2472893133381 2034.355822835372 0 2034.355822835372 390.74507916194881 0 0 0 0 709.59294803265948 927.57450629879474 0 927.57450629879474 1263.7196477701659 0 0 0 0 -288.49840379619855 -360.23884987347969 0 -360.23884987347969 -1436.1112693976002 0 0 0 0 -3.3234364316563756 -4.0310365206272678 0 -4.0310365206272678 4.2833139474808313 0 0 0 0 20.658907870638302 -6.082747534819049 0 -6.082747534819049 8.0464640142487642 0 0 0 0 3382.7941241062945 2525.7966141682155 0 2525.7966141682155 1923.0758050867435 0 0 0 0 -262.64377512104693 -702.80745133390747 0 -702.80745133390747 849.64126596894539 0 0 0 0 25.829647163584013 130.92596161510551 0 130.92596161510551 -81.804104537735157 0 0 0 0 -13.804030516272178 201.22087548300237 0 201.22087548300237 -123.04362968394935 0 0 0 0 385.91625282596215 -223.57978975236551 0 -223.57978975236551 -1007.7084485082214 0 0 0 0 -142.93383223898127 -107.74358461075326 0 -107.74358461075326 -343.98796721003941 0 0 0 0 250.77837532438571 -114.64165932826245 0 -114.64165932826245 -422.06877583245819 0 0 0 0 308.58510415430646 298.43802245370102 0 298.43802245370102 -87.089448403163487 0 0 0 0 45.441552740201587 133.35894358209373 0 133.35894358209373 121.49343512991084 0 0 0 0 945.84759057540214 41.998119972085533 0 41.998119972085533 -21.829193150813666 0 0 0 0 333.07517099930556 442.39318064000446 0 442.39318064000446 453.03211298502788 0 0 0 0 -42.781766168627655 93.661970251403204 0 93.661970251403204 280.92251245014802 0 0 0 0 -6.2193812548139249 232.45237675365524 0 232.45237675365524 182.56633526610699 0 0 0 0 -30.006610930966417 140.11220556895518 0 140.11220556895518 122.08009256404648 0 0 0 0 24.101155977405142 38.399681728579509 0 38.399681728579509 153.26383143120867 0 0 0 0 11.118094750997216 1.1044841195599133 0 1.1044841195599133 -3.9338734676430676e-06 0 0 0 0 35.426882138097426 6.1721971360374539 0 6.1721971360374539 186.79019246239639 0 0 0 0 21.694563977391226 -9.4379542554184752 0 -9.4379542554184752 496.41701575190888 0 0 0 0 620.57372041245981 584.0761940397623 0 584.0761940397623 783.7303435817588 0 0 0 0 6.0046632767624146 0.43027450402308887 0 0.43027450402308887 0.43609410223027956 0 0 0 0 846.50807410033303 -693.78120516419949 0 -693.78120516419949 338.81226280688981 0 0 0 0 603.5224324158371 103.90476994627987 0 103.90476994627987 14.614333770508694 0 0 0 0 6.1393413431069348 -0.088771564134885919 0 -0.088771564134885919 -0.0016041099461793545 0 0 0 0 1.8473146312120434 0.54012099661767365 0 0.54012099661767365 -0.039072866559805672 0 0 0 0 4.5925515936833108 -1.456598372740886 0 -1.456598372740886 -0.079970599123066782 0 0 0 0 0.75135864916956052 -0.1746093749659503 0 -0.1746093749659503 0.0015329177876630151 0 0 0 0 9.9888677739654668 -4.0526961987493078 0 -4.0526961987493078 0.84359307082967516 0 0 0 0 1.4335526087849075 -0.97784080852413524 0 -0.97784080852413524 -0.16227626284837915 0 0 0 0 11.886051156718167 -7.3042272182966883 0 -7.3042272182966883 -8.9723089653201953 0 0 0 0 0.11642901588515997 0.12065107237360451 0 0.12065107237360451 0.09466734361055032 0 0 0 0 8.2741852151229978 -9.9529149945833879 0 -9.9529149945833879 5.951723065318518 0 0 0 0 45.134558124089381 -29.36495647766905 0 -29.36495647766905 14.604778455565372 0 0 0 0 18.942175585165387 0.40329127394408459 0 0.40329127394408459 -13.235228587773562 0 0 0 0 39.435027897474356 -11.050792614434485 0 -11.050792614434485 -5.8761938325063809 0 0 0 0 6.4032203686660978 -0.53782298141847595 0 -0.53782298141847595 -9.0626023992434597 0 0 0 0 5.9767042793391738 -17.646557179365715 0 -17.646557179365715 -2.1515820462004029 0 0 0 0 20.525908328971127 0.02029845235206551 0 0.02029845235206551 0.92757610146634795 0 0 0 0 8.4131353755107057 -1.8065538634042468 0 -1.8065538634042468 -0.66008852600312384 0 0 0 0 24.267245747083507 40.215882509300002 0 40.215882509300002 91.940097648866413 0 0 0 0 1.7506616882562867 1.0639034600501986 0 1.0639034600501986 0.53627451137617743 0 0 0 0 8.9899037527793553 9.7449253377387794 0 9.7449253377387794 -0.013292195100859772 0 0 0 0 8.9717917680586083 15.064193949543327 0 15.064193949543327 -6.2099089363094802 0 0 0 0 24.551329996378627 16.424047028223832 0 16.424047028223832 0.056463617331666438 0 0 0 0 50.014038925824934 7.5110989633459821 0 7.5110989633459821 -7.9491908651744012 0 0 0 0 24.993549431179417 10.294852854273685 0 10.294852854273685 -6.9440088173589718 0 0 0 0 24.11266009278188 7.4473145278718995 0 7.4473145278718995 -13.403529312163712 0 0 0 0 19.43300879112212 10.656944024945545 0 10.656944024945545 -14.078358667746537 0 0 0 0 44.896276098712406 -4.4195744030718487 0 -4.4195744030718487 -3.02943612301911 0 0 0 0 14.318671484023071 0.056850214289534406 0 0.056850214289534406 2.23322938166109 0 0 0 0 11.563849964300971 16.664252154730832 0 16.664252154730832 -6.3079508972969762 0 0 0 0 14.33942740162945 4.5470306652528905 0 4.5470306652528905 -1.6431661149601977 0 0 0 0 19.660617416579043 4.0936268520947579 0 4.0936268520947579 -6.4068202164878141 0 0 0 0 22.481156307534548 20.297065128560462 0 20.297065128560462 13.718614725850784 0 0 0 0 9.1562466161947782 5.9802399723776603 0 5.9802399723776603 -6.2217558735203813 0 0 0 0 21.808186388152535 21.648292446713072 0 21.648292446713072 11.16247556840608 0 0 0 0 30.59644152209512 18.760863519113855 0 18.760863519113855 2.9525390566653869 0 0 0 0 -3.7997568444532703 4.2769077206606312 0 4.2769077206606312 1.7285148633413066 0 0 0 0 29.826501273084432 14.331364176492105 0 14.331364176492105 1.1220154406696849 0 0 0 0 32.579780255196965 8.6531866763829157 0 8.6531866763829157 -0.67601933249557078 0 0 0 0 19.199193517157823 -0.026730092081862722 0 -0.026730092081862722 -4.4450090242549516 0 0 0 0 158.45521756171365 152.9554566334491 0 152.9554566334491 71.987767692225361 0 0 0 0 45.882917123031802 122.66192874844728 0 122.66192874844728 86.771893483343462 0 0 0 0 -19.141435516357888 123.21403313027895 0 123.21403313027895 121.51997154508726 0 0 0 0 134.3665186627768 -8.2443428699970127 0 -8.2443428699970127 1.661465985155246 0 0 0 0 8.464457190698738 0.68812557655382989 0 0.68812557655382989 -1.518008094340072 0 0 0 0 4.278158986475205 2.5052224216643992 0 2.5052224216643992 0.61323615100468976 0 0 0 0 7.0694415129255503 6.2258495777285816 0 6.2258495777285816 2.2927963840581924 0 0 0 0 7.6897605584206872 8.731030064167669 0 8.731030064167669 0.46748159235851183 0 0 0 0 0.26073372027803998 0.96147989214529161 0 0.96147989214529161 0.49155046633878507 0 0 0 0 18.050385433976771 70.512678128971856 0 70.512678128971856 203.82925694684582 0 0 0 0 14.001819939585403 36.305587231759091 0 36.305587231759091 86.845648427727156 0 0 0 0 81.646559441229329 126.9172700816589 0 126.9172700816589 32.581264621379205 0 0 0 0 97.774213098076871 164.50096671473671 0 164.50096671473671 114.91001506898397 0 0 0 0 224.24112616438651 12.823186277591049 0 12.823186277591049 -57.036125519968778 0 0 0 0 13.187594283110229 185.37519465603236 0 185.37519465603236 114.35653036581471 0 0 0 0 20.200551885878667 69.936063315398258 0 69.936063315398258 -67.580698722157194 0 0 0 0 59.694560831873332 -3.4073923799776225 0 -3.4073923799776225 -0.11634361269841009 0 0 0 0 162.44296654392383 21.989950650595347 0 21.989950650595347 -174.02377159140065 0 0 0 0 68.66222665773239 21.411765346388393 0 21.411765346388393 -1.2459207354422688 0 0 0 0 52.063887324118696 -5.6673608669939881 0 -5.6673608669939881 -5.445280567495729 0 0 0 0 37.12442993644288 5.7342811948412162 0 5.7342811948412162 -1.7105479615879353 0 0 0 0 50.79970510781277 -6.990099025411098 0 -6.990099025411098 13.726544922300718 0 0 0 0 34.674623832630459 -67.086612944458807 0 -67.086612944458807 109.46940815821745 0 0 0 0 23.879589287315994 5.595879587911611 0 5.595879587911611 2.7056292351621414 0 0 0 0 50.357610854349332 0.031900261885539294 0 0.031900261885539294 -0.95679666184105372 0 0 0 0 24.269684290571718 4.4172097640796295 0 4.4172097640796295 0.5471121636551397 0 0 0 0 38.478149144514163 -6.7802838821583578 0 -6.7802838821583578 1.569048164069849 0 0 0 0 68.312615841001389 46.778541433361056 0 46.778541433361056 -52.836929192334765 0 0 0 0 75.249097868465469 68.966053186134559 0 68.966053186134559 -21.891410316090287 0 0 0 0 75.654100556710887 19.238311008145828 0 19.238311008145828 -5.5017801043099439 0 0 0 0 7.2365214173638606 13.83124814099142 0 13.83124814099142 -9.1256586849161749 0 0 0 0 79.396589244090137 -98.599051908127649 0 -98.599051908127649 -4.1429316706784221 0 0 0 0 109.77512006103643 124.68409586707719 0 124.68409586707719 3.3082338554551143 0 0 0 0 105.55528783373302 -116.92714625210607 0 -116.92714625210607 -19.599395838554528 0 0 0 0 29.821451750831329 6.8663822623217357 0 6.8663822623217357 175.41362049863847 0 0 0 0 8.0883629490472799 11.384630651105574 0 11.384630651105574 -2.6412114077104554 0 0 0 0 -13.509999900008552 151.6196544348627 0 151.6196544348627 125.35104657456361 0 0 0 0 20.426869175572293 11.158903337440421 0 11.158903337440421 0.90170816363056616 0 0 0 0 159.08382153387356 -204.79966828573691 0 -204.79966828573691 -128.69734444150504 0 0 0 0 57.862184126577631 5.2404937764095507 0 5.2404937764095507 -4.4095860807269673 0 0 0 0 51.760890271223616 5.3648674135483816 0 5.3648674135483816 -4.2086024104978605 0 0 0 0 62.292946438616866 33.307418304434705 0 33.307418304434705 3.8275457001853184 0 0 0 0 89.389640474812666 17.082497693095263 0 17.082497693095263 -10.610841904699395 0 0 0 0 66.484818355354946 44.747757402523348 0 44.747757402523348 -17.228244308018475 0 0 0 0 0.17961324075167795 6.8919084862223645 0 6.8919084862223645 0.22254991815337605 0 0 0 0 23.512650021002628 -9.0523260382797162 0 -9.0523260382797162 -27.571007634656496 0 0 0 0 46.861004992702192 16.519792602759537 0 16.519792602759537 2.702237190230699 0 0 0 0 15.105002261196205 20.986231697371693 0 20.986231697371693 25.782816859147715 0 0 0 0 28.848761625180487 9.18335369403394 0 9.18335369403394 -4.1517852563847555 0 0 0 0 49.548899701304919 13.247353577508534 0 13.247353577508534 2.4017159905551484 0 0 0 0 29.045421855759628 9.1593507861649073 0 9.1593507861649073 6.2071001736759914 0 0 0 0 56.476074464939302 5.2055290464098789 0 5.2055290464098789 4.25750810725458 0 0 0 0 110.74095073554781 46.807494553201195 0 46.807494553201195 -14.021963582606304 0 0 0 0 138.29488894552924 83.912736894093541 0 83.912736894093541 30.252578113430445 0 0 0 0 7.7487640828032909 4.7888452728309829 0 4.7888452728309829 2.6587889496678629 0 0 0 0 189.21403105807985 -4.0218523439829141 0 -4.0218523439829141 -5.4416134138728012 0 0 0 0 33.702119564931991 11.958153452309674 0 11.958153452309674 5.799517387127036 0 0 0 0 53.985056875942973 1.6075625845305694 0 1.6075625845305694 0.78964628029916639 0 0 0 0 33.153065936232451 16.461038288844065 0 16.461038288844065 7.1093052628875739 0 0 0 0 16.142141924756288 53.217365644114921 0 53.217365644114921 23.997606685788924 0 0 0 0 48.967037671112564 17.274971415298921 0 17.274971415298921 0.8078941023895494 0 0 0 0 80.49443365130719 31.619162769354261 0 31.619162769354261 13.195680033332337 0 0 0 0 20.997662538268663 13.912739345657513 0 13.912739345657513 9.5652847967104293 0 0 0 0 21.742291509814095 23.882652608765056 0 23.882652608765056 -17.446420698397787 0 0 0 0 85.921803861664756 9.1502946313818825 0 9.1502946313818825 -7.807632199928964 0 0 0 0 62.109172613763434 24.959244668859668 0 24.959244668859668 1.0541676984651902 0 0 0 0 99.532189780002227 23.169905508117154 0 23.169905508117154 16.095603571866377 0 0 0 0 43.470183508878108 30.052154747405439 0 30.052154747405439 -23.075806976881864 0 0 0 0 104.10624450912292 36.141442450346403 0 36.141442450346403 27.218772195283236 0 0 0 0 35.281395432642967 4.5776959908488521 0 4.5776959908488521 13.113296243311197 0 0 0 0 65.734143071938888 -13.517538707866038 0 -13.517538707866038 16.494814711488061 0 0 0 0 39.048817185825726 10.552619549042078 0 10.552619549042078 1.9975271648097817 0 0 0 0 39.772441208322562 -27.620403772161296 0 -27.620403772161296 39.852507508234794 0 0 0 0 73.777116691635456 -26.615928668574043 0 -26.615928668574043 8.7019205297558528 0 0 0 0 60.873584925735486 -13.144036701016375 0 -13.144036701016375 -0.84999510571196879 0 0 0 0 41.649629029678181 -4.9444894986481813 0 -4.9444894986481813 11.458957186964653 0 0 0 0 69.69595547962308 -19.112331651555223 0 -19.112331651555223 -31.092141142435139 0 0 0 0 52.131408340176392 5.2636007358638537 0 5.2636007358638537 0.87535261696598443 0 0 0 0 23.748576812519559 -3.0590898719263464 0 -3.0590898719263464 14.118779508843605 0 0 0 0 65.220232403429691 -1.6472045329078355 0 -1.6472045329078355 14.137848179810931 0 0 0 0 7.2644744561754351 -5.5938354420820247 0 -5.5938354420820247 2.2075622911249462 0 0 0 0 1.3460451590435696 -43.389963824741912 0 -43.389963824741912 103.83388161127942 0 0 0 0 47.770826840289374 20.176662883691982 0 20.176662883691982 29.706607533176442 0 0 0 0 38.872172070701595 -22.155691543151278 0 -22.155691543151278 6.3302950228200636 0 0 0 0 31.92857483701664 -59.834987942458959 0 -59.834987942458959 30.486888192182221 0 0 0 0 76.649240781291155 -9.3826126884488446 0 -9.3826126884488446 13.576415142949813 0 0 0 0 75.364589614928263 -15.913920241712212 0 -15.913920241712212 68.362543035792839 0 0 0 0 135.19319669087417 -16.297734696824669 0 -16.297734696824669 58.140062784529363 0 0 0 0 4.2012432521390579 4.844455032567538 0 4.844455032567538 -0.066151171811188236 0 0 0 0 5001.7119480998444 -196.47211064137414 0 -196.47211064137414 -153.73059243894869 0 0 0 0 4443.1366435804812 47.219471979339957 0 47.219471979339957 -240.46389460222773 0 0 0 0 207.53939716771129 -36.143250944170831 0 -36.143250944170831 13.209251395756816 0 0 0 0 5.2122493605878084 15.032669818057144 0 15.032669818057144 0.31580404691480368 0 0 0 0 88.740737529340549 27.776638950850945 0 27.776638950850945 4.1467515653897209 0 0 0 0 124.00773432361757 -28.78416341187955 0 -28.78416341187955 -8.2411802237811855 0 0 0 0 4998.8114579803514 194.89001238650522 0 194.89001238650522 -346.7686765228583 0 0 0 0 3221.1687891205365 778.29214694731968 0 778.29214694731968 112.98421062003041 0 0 0 0 3339.6531130120275 705.43237653073561 0 705.43237653073561 18.715375919760362 0 0 0 0 41.681713266621898 -19.671899702387634 0 -19.671899702387634 3.4678253581473166 0 0 0 0 13.045030374345018 22.453923446344049 0 22.453923446344049 0.25889721590618431 0 0 0 0 38.671525942990229 -13.707693476005264 0 -13.707693476005264 0.43221992811106702 0 0 0 0 52.436831071129404 -13.856851601720891 0 -13.856851601720891 1.1288195078158365 0 0 0 0 59.812872301219613 -5.2446567704749896 0 -5.2446567704749896 -1.8458937631676235 0 0 0 0 57.086173823272759 -10.806857425457309 0 -10.806857425457309 1.2316084577606179 0 0 0 0 63.410988718416775 -13.264700485178878 0 -13.264700485178878 -10.707670555818368 0 0 0 0 114.20207722298801 -27.76675763323891 0 -27.76675763323891 -420.54131186005884 0 0 0 0 65.010391782245279 4.1921168820998762 0 4.1921168820998762 17.262556098140521 0 0 0 0 51.160962673588074 -14.031721574159178 0 -14.031721574159178 19.24846283306033 0 0 0 0 -13.241163527363824 -152.51724034120605 0 -152.51724034120605 -187.71727393256788 0 0 0 0 669.00955151737435 140.93758101125604 0 140.93758101125604 -62.417406196125285 0 0 0 0 -170.40948622044743 284.37286846464576 0 284.37286846464576 -48.053127513175241 0 0 0 0 43.838544967852158 12.286482216857641 0 12.286482216857641 -0.40562873486783246 0 0 0 0 24.575413763595861 67.349780126571659 0 67.349780126571659 -32.254025887127 0 0 0 0 65.173247400774983 11.232701479756415 0 11.232701479756415 -3.8896569590248982 0 0 0 0 -32.385469864937477 210.00901733559294 0 210.00901733559294 -169.98799248236901 0 0 0 0 41.682664992120351 3.3037775564654126 0 3.3037775564654126 0.36364554281128814 0 0 0 0 54.112740019379999 26.831719164224126 0 26.831719164224126 -83.436015510757684 0 0 0 0 40.589665035397047 7.3501716788342151 0 7.3501716788342151 -45.293606372586765 0 0 0 0 36.541222112660762 23.974853773420698 0 23.974853773420698 -23.860685581536558 0 0 0 0 42.795660536014111 28.422449594232372 0 28.422449594232372 -51.621875241738053 0 0 0 0 69.499266613362124 34.275996124089986 0 34.275996124089986 -30.13464654002729 0 0 0 0 48.732126437476836 30.929991427916974 0 30.929991427916974 -27.661699208855552 0 0 0 0 54.886544944951311 24.494911757633041 0 24.494911757633041 -28.422460030034379 0 0 0 0 53.509455826460908 32.062272080603954 0 32.062272080603954 -24.195654997375158 0 0 0 0 45.80430235183303 21.728920844317706 0 21.728920844317706 -13.455179012208667 0 0 0 0 72.443899148522178 22.580207199577249 0 22.580207199577249 -21.920320037687741 0 0 0 0 53.773453932837583 17.029324893241935 0 17.029324893241935 -21.646862318059704 0 0 0 0 52.736795071636152 18.528157967754147 0 18.528157967754147 -14.357416671179251 0 0 0 0 52.613120796297153 21.984747715477972 0 21.984747715477972 -0.036205596850918391 0 0 0 0 46.466256450366927 29.811156539545777 0 29.811156539545777 -31.774083181234722 0 0 0 0 41.981989504416561 8.9519666433027805 0 8.9519666433027805 -17.083976155190655 0 0 0 0 74.613158489155467 18.190633426245899 0 18.190633426245899 -18.279167956937997 0 0 0 0 87.428837889969145 -28.596875256139512 0 -28.596875256139512 -7.4044286377023951 0 0 0 0 144.46913612872595 30.913442897183664 0 30.913442897183664 0.22108151051679298 0 0 0 0 25.378586270611038 3.9575830422556457 0 3.9575830422556457 0.43691712326014354 0 0 0 0 47.524954090607935 -45.56963815365998 0 -45.56963815365998 -25.698530653488064 0 0 0 0 91.930189975821122 -4.9691430967309849 0 -4.9691430967309849 -82.767323681567063 0 0 0 0 26.565085837675724 3.1534583998881942 0 3.1534583998881942 -14.529794854123992 0 0 0 0 27.374066518445034 38.213580053334255 0 38.213580053334255 -40.322751740893025 0 0 0 0 35.579819519451121 -92.976059712581446 0 -92.976059712581446 -73.602625785939381 0 0 0 0 99.306468431983376 31.040097391157133 0 31.040097391157133 -28.814791810323641 0 0 0 0 -2.0216638286656234 74.332073728268824 0 74.332073728268824 102.45592413045253 0 0 0 0 64.602912351081613 12.125478513167764 0 12.125478513167764 -4.2633520158178726 0 0 0 0 8.6517317640592637 1.7228269828632801 0 1.7228269828632801 0.49587137594479214 0 0 0 0 159.31509183358867 200.91611425875681 0 200.91611425875681 321.47702692228108 0 0 0 0 572.70698066186014 39.921005074854975 0 39.921005074854975 -143.96721639581938 0 0 0 0 308.46068946015112 318.63800357720436 0 318.63800357720436 -120.80285458808081 0 0 0 0 287.70047341632016 -197.95667161216994 0 -197.95667161216994 -35.098942327678401 0 0 0 0 168.07032003666973 -206.0736967290789 0 -206.0736967290789 138.30340477309684 0 0 0 0 290.85250780348724 -88.202268105457293 0 -88.202268105457293 -38.726189647276804 0 0 0 0 277.20857836084178 -145.33296974890737 0 -145.33296974890737 -91.513742675962931 0 0 0 0 0.78415557122053769 0.61457835671379257 0 0.61457835671379257 0.14458667753163815 0 0 0 0 0.035069996687525418 -2.4450787874471205 0 -2.4450787874471205 7.5310433177526281 0 0 0 0 3.3718377659388352 7.1952451618245394 0 7.1952451618245394 -0.017607527186150562 0 0 0 0 26.028723464609357 3.0002943311472361 0 3.0002943311472361 0.035394378484322309 0 0 0 0 41.952655251021497 -14.660784556834244 0 -14.660784556834244 3.5512914640150939 0 0 0 0 3.8146598364896818 -0.61406771118592474 0 -0.61406771118592474 0.79911785338033015 0 0 0 0 -0.71051084157186217 -9.5057319024740536 0 -9.5057319024740536 3.2072233205719525 0 0 0 0 23.021927342284471 -0.89981772938617866 0 -0.89981772938617866 0.10296018321953948 0 0 0 0 27.019037774443859 -12.585138996900518 0 -12.585138996900518 -2.3559216472339393 0 0 0 0 2.3993314510905712 -9.8775195869466188 0 -9.8775195869466188 5.0095837541124899 0 0 0 0 45.449184305698509 -7.4750650630862907 0 -7.4750650630862907 4.9025065511214052 0 0 0 0 34.427306978148408 -8.4366983381586458 0 -8.4366983381586458 -3.5351491120153566 0 0 0 0 18.993530311851714 1.995105775791842 0 1.995105775791842 -3.8810947386907704 0 0 0 0 9.7864086278241302 2.5330302184497953 0 2.5330302184497953 0.018035211517806397 0 0 0 0 11.813081541720749 -4.2367279282229608 0 -4.2367279282229608 0.0087800200886390001 0 0 0 0 4.3713102471854199 -3.8954282283062867 0 -3.8954282283062867 2.339838567796229 0 0 0 0 13.057351790168493 -2.6548885608506225 0 -2.6548885608506225 0.12316998410008038 0 0 0 0 43.088800200261176 -21.961552644346437 0 -21.961552644346437 10.293395134543083 0 0 0 0 3.0006825008895248 9.9485177408407601 0 9.9485177408407601 -0.024321671096747988 0 0 0 0 31.523890840471722 -1.121243372462124 0 -1.121243372462124 -3.1263397803489568 0 0 0 0 9.1646245991105957 -1.5070563195990871 0 -1.5070563195990871 0.21424042456461356 0 0 0 0 13.276567080870279 4.6991131815888139 0 4.6991131815888139 -0.67564994929654576 0 0 0 0 52.589467921468895 -11.089561968836733 0 -11.089561968836733 1.4804083276885649 0 0 0 0 54.331656388436386 -16.374591859235622 0 -16.374591859235622 -0.54909386667850413 0 0 0 0 30.609444583678851 3.0255232565723134 0 3.0255232565723134 -9.6078696382753037 0 0 0 0 4.1362672477703768 1.3311007557255436 0 1.3311007557255436 -2.8729579578471092 0 0 0 0 70.225655442423886 -35.647847468505631 0 -35.647847468505631 8.8723160164232269 0 0 0 0 47.749096785926668 50.4622787356044 0 50.4622787356044 -22.404797940677895 0 0 0 0 5.6142518064221463 -2.3509557526776348 0 -2.3509557526776348 -0.67649679297776433 0 0 0 0 46.247774476360064 -19.485970772318126 0 -19.485970772318126 2.2294738155924279 0 0 0 0 42.32050990575226 38.116752434683804 0 38.116752434683804 68.30778849456874 0 0 0 0 -0.40942567257699736 -10.575667535157919 0 -10.575667535157919 0.35578997815252578 0 0 0 0 -512.82988965904224 -13.545829531065181 0 -13.545829531065181 449.73448895430033 0 0 0 0 298.83464492566418 -379.91970766154168 0 -379.91970766154168 -6.7136940712873638 0 0 0 0 72.426173110550735 8.7659546710779068 0 8.7659546710779068 -45.378960922686474 0 0 0 0 6.2981999266708613 -3.7299231410679852 0 -3.7299231410679852 -1.1444565911109628 0 0 0 0 8.9335320737856847 2.0379533019339533 0 2.0379533019339533 -0.90177363615871287 0 0 0 0 61.064151121507166 16.657012560993508 0 16.657012560993508 -4.4043786930981241 0 0 0 0 67.65897849376779 -61.340292474221428 0 -61.340292474221428 -14.99470867544062 0 0 0 0 42.29144116117385 -13.667718426195535 0 -13.667718426195535 -2.6678329293402316 0 0 0 0 119.16526058281306 -84.04311700482981 0 -84.04311700482981 4.7007457339955181 0 0 0 0 -5.855753299256321 -30.876109157383667 0 -30.876109157383667 -14.828301938268282 0 0 0 0 0.68981456989675394 -0.5951865565138803 0 -0.5951865565138803 -0.11914566133288673 0 0 0 0 45.939697507448727 -19.436591770052985 0 -19.436591770052985 6.6459813916596318 0 0 0 0 161.57799505761068 55.746382643917258 0 55.746382643917258 -3.6314048222641304 0 0 0 0 -249.6162032674456 -164.89632831032421 0 -164.89632831032421 -26.041749177810743 0 0 0 0 151.41911880637053 -146.8582322054358 0 -146.8582322054358 -133.59775543307683 0 0 0 0 15.280106446246933 -10.924201659558605 0 -10.924201659558605 -7.7008383855661231 0 0 0 0 46.529502966972416 2.2682056946569418 0 2.2682056946569418 -6.7193990212180772 0 0 0 0 51.649327584025286 -3.8104700063618608 0 -3.8104700063618608 -20.112750116237976 0 0 0 0 22.877079346129449 -3.268468001832332 0 -3.268468001832332 -7.9153512820216241 0 0 0 0 26.277857954434715 -6.3037946276484718 0 -6.3037946276484718 -8.3137318973990091 0 0 0 0 59.739130614168744 -12.287813477597595 0 -12.287813477597595 -10.281385957818749 0 0 0 0 49.732603230979294 -4.5604591225427384 0 -4.5604591225427384 -0.1740487651247804 0 0 0 0 113.68542423426879 30.150378312826994 0 30.150378312826994 -8.1176505473922589 0 0 0 0 78.920788565883413 -3.6996758986723535 0 -3.6996758986723535 -1.5027671276411638 0 0 0 0 59.481241799163399 -8.1636847585665748 0 -8.1636847585665748 -16.588051140556075 0 0 0 0 15.039244332950489 1.5955533953880945 0 1.5955533953880945 0.36470845113500316 0 0 0 0 33.928192967191052 -7.2550893954247329 0 -7.2550893954247329 -6.0294560389582585 0 0 0 0 110.11409036722034 -3.3665617145828719 0 -3.3665617145828719 -13.791230050174136 0 0 0 0 52.128691251898999 -3.8466750086236061 0 -3.8466750086236061 -18.413441513969246 0 0 0 0 78.411668935645139 36.309024715572036 0 36.309024715572036 10.646539359502185 0 0 0 0 31.867819762439467 -4.6429332944771886 0 -4.6429332944771886 -17.442413846569252 0 0 0 0 62.709649435920596 16.015519553986536 0 16.015519553986536 -4.5943536554643636 0 0 0 0 35.112482965529921 -4.1209388084545253 0 -4.1209388084545253 -6.3935782974527111 0 0 0 0 28.537249702843837 -5.3019883830579602 0 -5.3019883830579602 -15.369975238375446 0 0 0 0 46.195308064767744 5.5816903464651375 0 5.5816903464651375 -7.9513492353865125 0 0 0 0 54.248577653546818 7.5218515487904369 0 7.5218515487904369 -5.3366522915648602 0 0 0 0 37.556334415779787 2.9632404183590495 0 2.9632404183590495 -3.3574886030696351 0 0 0 0 63.704580903257011 11.714581706883109 0 11.714581706883109 -5.1413205842918615 0 0 0 0 27.544422777777072 -9.8223039357669677 0 -9.8223039357669677 -15.124649018159744 0 0 0 0 40.260049906723339 -2.1453293838488463 0 -2.1453293838488463 -5.4526931292520331 0 0 0 0 41.474814063171607 -6.8262912160588343 0 -6.8262912160588343 -9.2408278377282382 0 0 0 0 45.270497402671026 -0.3138052272191203 0 -0.3138052272191203 -22.10341228942923 0 0 0 0 37.997605417389423 -2.82645791685718 0 -2.82645791685718 -21.622119293784635 0 0 0 0 38.635564525553491 6.1804624454398436 0 6.1804624454398436 2.3452016692826874 0 0 0 0 99.678366511812783 27.052424459782287 0 27.052424459782287 9.1500269344141998 0 0 0 0 29.416324529503072 -2.7065985282308418 0 -2.7065985282308418 -4.3512440039980813 0 0 0 0 36.106864090659656 -8.2821442387703428 0 -8.2821442387703428 -17.395895086479868 0 0 0 0 100.08512472355505 26.406619709199731 0 26.406619709199731 9.4734584000634641 0 0 0 0 42.345940000542555 -0.63819413865218166 0 -0.63819413865218166 -6.283889151364054 0 0 0 0 29.489477412935997 11.211220685442328 0 11.211220685442328 5.3432509612492538 0 0 0 0 47.063638008554982 5.1205657298865219 0 5.1205657298865219 1.1862727960490673 0 0 0 0 64.554760003375122 15.525862256311484 0 15.525862256311484 4.5019395664547801 0 0 0 0 30.803897188913368 -1.6200370137290463 0 -1.6200370137290463 -4.7430961020863833 0 0 0 0 32.551580266503152 7.0284881590469013 0 7.0284881590469013 3.0223323070022161 0 0 0 0 61.697500315553043 10.755126170221047 0 10.755126170221047 6.8820332897957996 0 0 0 0 18.46301706010513 -9.0878420745807702 0 -9.0878420745807702 -7.885203585519859 0 0 0 0 29.936243582925499 -3.8609540191720839 0 -3.8609540191720839 -12.708053037384296 0 0 0 0 54.365341219033922 10.264386539292019 0 10.264386539292019 -5.4158829087108451 0 0 0 0 29.936483734240937 5.2777997827283798 0 5.2777997827283798 -1.397923382865538 0 0 0 0 16.192827290971763 2.839942186476037 0 2.839942186476037 -2.0508175758232028 0 0 0 0 41.66611129057128 9.7402367916629373 0 9.7402367916629373 14.435993894347121 0 0 0 0 -452.4242222943285 1001.7422162668208 0 1001.7422162668208 1013.8483781470909 0 0 0 0 186.38709419826046 50.858679132800944 0 50.858679132800944 -150.9545875755008 0 0 0 0 17.979077295756724 0.24557119707810671 0 0.24557119707810671 -15.97921713319738 0 0 0 0 538.57508817259804 68.735901417355763 0 68.735901417355763 -208.99521531748906 0 0 0 0 31.645351291139377 -18.633836601012945 0 -18.633836601012945 -105.9469970882601 0 0 0 0 31.769909448302798 -2.5258004364354179 0 -2.5258004364354179 -10.36171882551843 0 0 0 0 33.769813246247089 12.100280050500515 0 12.100280050500515 -0.053059809492736143 0 0 0 0 -671.70709665750474 -141.23241979569855 0 -141.23241979569855 315.90867815059482 0 0 0 0 63.088102142326534 13.442882849344642 0 13.442882849344642 -0.34650787264808969 0 0 0 0 -89.168547513545491 137.95035274917791 0 137.95035274917791 -292.90706145407603 0 0 0 0 64.42055806531053 6.7158430943428016 0 6.7158430943428016 -16.225622334240885 0 0 0 0 58.576665201647302 -8.7223909146211724 0 -8.7223909146211724 -7.4075147858997692 0 0 0 0 42.164891402644571 -2.6050553615951912 0 -2.6050553615951912 -12.11767635835713 0 0 0 0 41.297651872493361 -0.6873093011200524 0 -0.6873093011200524 -16.503543299212769 0 0 0 0 63.535126265378665 12.925093539302168 0 12.925093539302168 -1.4592875737394422 0 0 0 0 64.26722864950716 -34.944352933406208 0 -34.944352933406208 -34.848346918643983 0 0 0 0 57.37674639323086 -9.3288277480123725 0 -9.3288277480123725 -14.212280943604583 0 0 0 0 3.1181747253987737 4.1690465018366041 0 4.1690465018366041 3.196841687725823 0 0 0 0 364.84465021916549 -233.05725781708577 0 -233.05725781708577 103.4087361719603 0 0 0 0 18.246358127347776 -31.398410493522988 0 -31.398410493522988 -18.786808099986956 0 0 0 0 836.31378980290901 225.55079742900489 0 225.55079742900489 -360.41737142890997 0 0 0 0 64.841033016131405 9.8534795730424776 0 9.8534795730424776 3.2013805164351652 0 0 0 0 56.978743862346164 23.024776382788559 0 23.024776382788559 6.9256640804587732 0 0 0 0 61.540991065540652 7.3794283781261711 0 7.3794283781261711 -11.354677299750612 0 0 0 0 -32.037476784600585 41.127114442971447 0 41.127114442971447 5.825734414218914 0 0 0 0 59.153053839196218 46.214530934259528 0 46.214530934259528 -11.718157512327252 0 0 0 0 62.124831678482622 17.843310660797158 0 17.843310660797158 -4.6113325242580689 0 0 0 0 50.648155198723543 20.837313728649008 0 20.837313728649008 9.2979490568548613 0 0 0 0 20.000932638552456 5.6856615583963901 0 5.6856615583963901 -7.0174446619180806 0 0 0 0 68.612853853781417 37.192415421849773 0 37.192415421849773 -89.249628116180247 0 0 0 0 65.815402548563441 3.0097545126728704 0 3.0097545126728704 -8.9465702808099969 0 0 0 0 54.025820790724538 14.662582559098382 0 14.662582559098382 -46.790963856396047 0 0 0 0 66.900829497608356 -4.7243422963538251 0 -4.7243422963538251 -46.273177178300045 0 0 0 0 57.016906109891295 10.829568460661193 0 10.829568460661193 -20.571900410360971 0 0 0 0 87.856337044999236 -34.486475750610225 0 -34.486475750610225 -151.76443210309526 0 0 0 0 222.61894516528264 103.78196335738835 0 103.78196335738835 -210.93782889990325 0 0 0 0 -90.167098853853531 36.432103596425804 0 36.432103596425804 12.872308113766508 0 0 0 0 60.891174268039435 11.664727959300365 0 11.664727959300365 -4.9573992370857054 0 0 0 0 -27.158729588816641 24.721434061406399 0 24.721434061406399 -25.679377159564865 0 0 0 0 4.4218002464666597 -4.9960469803566525 0 -4.9960469803566525 4.4414011619185194 0 0 0 0 9.8839210766818724 171.13538649241576 0 171.13538649241576 -116.20018458268351 0 0 0 0 246.96974905114621 37.601644624013716 0 37.601644624013716 -18.036172283995256 0 0 0 0 -34.961207798347459 5.9800407996799549 0 5.9800407996799549 -62.689553481090115 0 0 0 0 0.029723604908213019 52.994496409158273 0 52.994496409158273 -95.455534423187601 0 0 0 0 -19.41792642519431 19.200063153273277 0 19.200063153273277 69.655570626557164 0 0 0 0 13.160628114214035 5.1516179297806559 0 5.1516179297806559 2.8587120412922786 0 0 0 0 1.4045739862045821 -0.27294913120908859 0 -0.27294913120908859 2.3619940971275284 0 0 0 0 22.21290308542666 -1.1080750130149681 0 -1.1080750130149681 -4.2852990092151231 0 0 0 0 8.0913054744014516 74.160597384086032 0 74.160597384086032 -43.487207733413015 0 0 0 0 93.515257993727573 12.447400152475893 0 12.447400152475893 -82.734263114019996 0 0 0 0 32.526820250059245 16.759898113503368 0 16.759898113503368 -17.499124347202269 0 0 0 0 37.171256264068973 10.193262772061658 0 10.193262772061658 -3.8146576723695436 0 0 0 0 49.846451960474951 -7.0403704731950256 0 -7.0403704731950256 -10.940437513605502 0 0 0 0 42.615492079145042 9.1652605142335233 0 9.1652605142335233 -16.419322687059775 0 0 0 0 42.895833775335632 35.202320065716378 0 35.202320065716378 -10.500863586256855 0 0 0 0 33.130223217191372 5.6633306004663808 0 5.6633306004663808 -14.970939137871124 0 0 0 0 27.204011625039129 -1.62389779383102 0 -1.62389779383102 -5.9962951167999563 0 0 0 0 95.488206807669485 18.503859098908379 0 18.503859098908379 -10.775240592332125 0 0 0 0 89.517601073326659 20.214139985391057 0 20.214139985391057 -25.180262173043502 0 0 0 0 50.162795465429326 14.521522214325444 0 14.521522214325444 -1.9885533379300089 0 0 0 0 -4.1564401546493173 -82.371734552752969 0 -82.371734552752969 -39.188605280429329 0 0 0 0 77.19487217272399 30.41128084638035 0 30.41128084638035 9.2496082114794262 0 0 0 0 69.693209212523755 -4.2244647385689547 0 -4.2244647385689547 -27.437806128182391 0 0 0 0 15.312860766884313 -6.6708344796284678 0 -6.6708344796284678 -15.562600069724578 0 0 0 0 -0.61941773848229786 -22.564674495421514 0 -22.564674495421514 -11.622704337261894 0 0 0 0 39.950723529298557 -71.390598454609972 0 -71.390598454609972 41.315091717180621 0 0 0 0 127.50927903570118 -48.355691967117764 0 -48.355691967117764 -29.431029931388366 0 0 0 0 49.929113270103699 -154.39948002179881 0 -154.39948002179881 -119.04580104710749 0 0 0 0 49.027462146019388 -16.258959008153852 0 -16.258959008153852 -34.162717662844443 0 0 0 0 316.87586279533571 -113.11235274613409 0 -113.11235274613409 -104.75905577360209 0 0 0 0 121.80202026991174 24.207553430318058 0 24.207553430318058 188.90044036227664 0 0 0 0 539.349252074986 -78.972620887338053 0 -78.972620887338053 -41.934426638098557 0 0 0 0 269.53616623074049 -76.291611770399868 0 -76.291611770399868 -1.3028161745532998 0 0 0 0 123.85100153283565 -148.08977455903869 0 -148.08977455903869 79.536790431960981 0 0 0 0 127.88142311334377 32.349314171339756 0 32.349314171339756 -24.146925171521616 0 0 0 0 77.75672414030123 8.8873263049981688 0 8.8873263049981688 -7.5342321187654306 0 0 0 0 -77.075401933820103 194.82369232015662 0 194.82369232015662 -175.13407494318426 0 0 0 0 -0.11189105357979656 -1.9357584648360273 0 -1.9357584648360273 1.8640627860995025 0 0 0 0 5.52850818124017 5.4387576003624503 0 5.4387576003624503 4.2531975255857741 0 0 0 0 28.180918940284755 71.988911634837677 0 71.988911634837677 14.862023333198067 0 0 0 0 438.47762816490285 -103.12235025683094 0 -103.12235025683094 -5.3109003902172844 0 0 0 0 -120.17600368439162 0.64891207480923185 0 0.64891207480923185 168.86952386047597 0 0 0 0 1.163937587845794 2.6135253357160906 0 2.6135253357160906 2.5203466841252506 0 0 0 0 318.65482775728742 -205.51469122548042 0 -205.51469122548042 82.486699254485302 0 0 0 0 142.30974378914107 41.502306394000072 0 41.502306394000072 -35.764204406185968 0 0 0 0 266.25808226491063 -44.33442975982598 0 -44.33442975982598 -63.146340678776141 0 0 0 0 309.98499058408925 212.36788251780115 0 212.36788251780115 141.96377069632035 0 0 0 0 394.55108501200448 54.612094276924836 0 54.612094276924836 -74.565938031478026 0 0 0 0 225.42643749648414 9.1272209151341031 0 9.1272209151341031 1.7171640465023756 0 0 0 0 206.49652127701847 -4.3540426236049825 0 -4.3540426236049825 -7.8826220302448746 0 0 0 0 232.73088599994026 -19.997044684110691 0 -19.997044684110691 -77.50995125279951 0 0 0 0 151.90500452426932 -36.182012151773279 0 -36.182012151773279 -24.900391349626801 0 0 0 0 276.72138288283168 -12.006456888118009 0 -12.006456888118009 -20.981079668761595 0 0 0 0 179.31707175010524 -223.96775704156244 0 -223.96775704156244 -373.67154910262525 0 0 0 0 158.62892511597792 19.881796788687804 0 19.881796788687804 -25.089874935727416 0 0 0 0 286.16162453222205 17.368271924954115 0 17.368271924954115 94.934592381148832 0 0 0 0 132.97225877296296 -0.0058204411225233343 0 -0.0058204411225233343 -170.98827147407428 0 0 0 0 28.370510442055149 22.262543978722867 0 22.262543978722867 7.3564320008990585 0 0 0 0 120.4955431179842 7.397183924977071 0 7.397183924977071 -45.280197854182006 0 0 0 0 73.383219042162807 2.60786951660101 0 2.60786951660101 -13.91665912465959 0 0 0 0 92.292278087057412 12.601929993283591 0 12.601929993283591 -15.221293243081918 0 0 0 0 111.24533901984796 31.077564394612523 0 31.077564394612523 -13.793488214034369 0 0 0 0 119.75484267216234 0.23907633973703923 0 0.23907633973703923 15.307413117927354 0 0 0 0 205.10305532238999 -71.614803316813777 0 -71.614803316813777 18.198452401763461 0 0 0 0 153.58493805384569 -2.1493632278096584 0 -2.1493632278096584 1.3233512547749342 0 0 0 0 93.280264523840742 -36.191823200450017 0 -36.191823200450017 38.569366328038086 0 0 0 0 107.05575371657324 39.266880338106148 0 39.266880338106148 14.585177076536638 0 0 0 0 127.67200556240277 40.882268060148931 0 40.882268060148931 -0.47090656786258478 0 0 0 0 95.44775300877518 23.686097073149995 0 23.686097073149995 -27.053135204659156 0 0 0 0 80.97867777243664 29.156573333980305 0 29.156573333980305 -2.3342418059983174 0 0 0 0 45.523078731785063 -12.39375154427762 0 -12.39375154427762 13.884059911659563 0 0 0 0 94.43215291913657 42.027463694692415 0 42.027463694692415 3.8080256619166448 0 0 0 0 101.07914983426599 36.829371406751989 0 36.829371406751989 3.2192051255824481 0 0 0 0 87.531533879373455 -0.846577992974062 0 -0.846577992974062 -35.283939721281968 0 0 0 0 83.022178338404615 18.118446388614622 0 18.118446388614622 -8.9391294818218263 0 0 0 0 42.674184501793931 24.107064935337618 0 24.107064935337618 9.2110335963274679 0 0 0 0 101.88082781923003 53.143328939469257 0 53.143328939469257 15.25228499252853 0 0 0 0 65.448550389439333 32.822542199354302 0 32.822542199354302 6.4440733530800571 0 0 0 0 55.504932644852488 32.488237511599323 0 32.488237511599323 20.26021819687594 0 0 0 0 5.7675724970048634 -0.92416851984434345 0 -0.92416851984434345 -2.8414738091997176 0 0 0 0 52.674977421977928 47.164997682222236 0 47.164997682222236 41.827259848463655 0 0 0 0 120.15988572117931 78.724532712443335 0 78.724532712443335 56.585495352882347 0 0 0 0 125.8793090658146 68.093955029066336 0 68.093955029066336 29.371371187660486 0 0 0 0 165.70465357493595 61.67018432086229 0 61.67018432086229 19.82590543095057 0 0 0 0 4.0117093710335894 0.11820328033662975 0 0.11820328033662975 -2.6161139712860737 0 0 0 0 -90.168301801662892 -186.71791301191672 0 -186.71791301191672 -203.56526957814003 0 0 0 0 174.81559256755281 -43.658201107102741 0 -43.658201107102741 -213.39437901664093 0 0 0 0 46.670876870557549 59.270067273596965 0 59.270067273596965 -120.09352442066415 0 0 0 0 9.5818189818237443 -71.3327598527394 0 -71.3327598527394 -203.26897241874315 0 0 0 0 53.375771342907683 58.851330486513461 0 58.851330486513461 -87.46816238671272 0 0 0 0 50.676602052320959 31.389283930234797 0 31.389283930234797 -158.6578840065157 0 0 0 0 -47.012342190195341 137.73379747729132 0 137.73379747729132 -103.35760034220151 0 0 0 0 217.46781930073485 -39.597097701732878 0 -39.597097701732878 -8.9085661056628851 0 0 0 0 -1.9865140425441581 -1.5445794864837836 0 -1.5445794864837836 1.7404103938043902 0 0 0 0 90.3213762397354 -7.3532056842640259 0 -7.3532056842640259 2.5200070144135225 0 0 0 0 91.166253764604335 0.19299677990966302 0 0.19299677990966302 -10.803538623876193 0 0 0 0 88.326611973563558 12.950786960879327 0 12.950786960879327 -26.223592655790526 0 0 0 0 92.224281727561902 -9.3915992838121838 0 -9.3915992838121838 -8.2257919311705336 0 0 0 0 87.15670599025907 0.093885695843255235 0 0.093885695843255235 -7.1215852811055811 0 0 0 0 72.546422973231529 47.060757416376077 0 47.060757416376077 -23.219077743056459 0 0 0 0 12.671582990908064 -27.282228443772055 0 -27.282228443772055 -119.41470781782505 0 0 0 0 44.793564311083173 14.00097892384656 0 14.00097892384656 15.780520996720952 0 0 0 0 5.9745822749644617 0.91498066126172262 0 0.91498066126172262 -2.7278216420463175 0 0 0 0 14.268070139220583 3.9143804516469771 0 3.9143804516469771 -1.0666959025667015 0 0 0 0 2.6574314027472354 -1.9236763685027256 0 -1.9236763685027256 0.11937407968354741 0 0 0 0 6.8606531880650437 -8.3578290982477483 0 -8.3578290982477483 -75.170008129118344 0 0 0 0 72.96742750332487 20.237500583875772 0 20.237500583875772 18.818376294638711 0 0 0 0 31.992005807202077 15.118416100171999 0 15.118416100171999 5.9278292224880715 0 0 0 0 35.783562990447876 6.3439773862112361 0 6.3439773862112361 1.7718234092906302 0 0 0 0 36.257222224477431 -4.510403198173961 0 -4.510403198173961 -10.240810362867453 0 0 0 0 27.864630289134027 22.86791798436046 0 22.86791798436046 15.225616966683667 0 0 0 0 47.688699460253702 42.231632363370409 0 42.231632363370409 22.120816271616945 0 0 0 0 67.928450305291335 8.7221082009750717 0 8.7221082009750717 -10.372746524248669 0 0 0 0 56.355542651552241 10.656816421279245 0 10.656816421279245 15.805356076713792 0 0 0 0 53.20987565536052 23.059665080381137 0 23.059665080381137 2.8121126913142689 0 0 0 0 81.832648569281446 21.364958748791423 0 21.364958748791423 3.9306212020870817 0 0 0 0 51.963730426941765 19.803817100500964 0 19.803817100500964 14.353009635064154 0 0 0 0 23.720486868209008 -3.4533322929996615 0 -3.4533322929996615 -3.926416921486485 0 0 0 0 27.172125691799977 -8.2460380895133483 0 -8.2460380895133483 -11.25108439353083 0 0 0 0 13.173527072324902 3.4016782656491813 0 3.4016782656491813 0.71860036416541462 0 0 0 0 94.060184309419128 9.9887774491990058 0 9.9887774491990058 1.2021581108301689 0 0 0 0 60.6327608069696 24.881659968147687 0 24.881659968147687 10.748871191779017 0 0 0 0 81.785241001205577 -5.5302323973194234 0 -5.5302323973194234 -0.83211975377344061 0 0 0 0 54.105311308318051 -6.8286921604103554 0 -6.8286921604103554 -3.4667982873725123 0 0 0 0 26.487990892246614 -1.7291095789044277 0 -1.7291095789044277 -6.3779856928139589 0 0 0 0 78.972680741571821 -8.9348718939727405 0 -8.9348718939727405 -7.7385806533925461 0 0 0 0 90.537651231163181 18.107709403179797 0 18.107709403179797 -14.495547059537785 0 0 0 0 77.632470728823137 9.7466001292725934 0 9.7466001292725934 -17.20994051586058 0 0 0 0 55.134010876878165 12.264507672051877 0 12.264507672051877 -5.1075522393630308 0 0 0 0 54.560728236960131 -2.3032582115893092 0 -2.3032582115893092 -16.00474552280798 0 0 0 0 9.5922182295666332 -0.62471487229939271 0 -0.62471487229939271 0.71101817252764832 0 0 0 0 48.449750996949206 15.755682854715161 0 15.755682854715161 -0.31908861295050883 0 0 0 0 52.213771832168277 10.631910845754192 0 10.631910845754192 4.298031667869509 0 0 0 0 58.43115235408186 13.152796416107776 0 13.152796416107776 -5.6582394944266525 0 0 0 0 27.005066495340799 6.5786272807851134 0 6.5786272807851134 4.0494779475143687 0 0 0 0 61.585630151923397 12.422704918071531 0 12.422704918071531 4.0737623447126339 0 0 0 0 35.323631292006382 -6.4398039314336017 0 -6.4398039314336017 -13.530375809801061 0 0 0 0 131.89441716284227 30.61938006916364 0 30.61938006916364 -0.71119362527224439 0 0 0 0 109.80816011941351 19.741475539656676 0 19.741475539656676 4.7070597029032797 0 0 0 0 104.90357790778216 5.0474656990043059 0 5.0474656990043059 16.931482136742716 0 0 0 0 88.107387006966746 71.951004834789671 0 71.951004834789671 23.443915364080567 0 0 0 0 236.10122273927846 38.058312538347081 0 38.058312538347081 -19.446158645313972 0 0 0 0 -0.87732773811620923 -2.6895381452065124 0 -2.6895381452065124 0.34216029316991836 0 0 0 0 -11.897084736956458 25.154919261753321 0 25.154919261753321 15.507164225758061 0 0 0 0 103.59058961507981 -1.9772783382268244 0 -1.9772783382268244 -13.968125385892108 0 0 0 0 70.974467199805076 64.511737933442305 0 64.511737933442305 -10.413966542477056 0 0 0 0 135.98071215786331 46.501351522205766 0 46.501351522205766 -6.1224965932451596 0 0 0 0 141.50823854007467 35.235000770479985 0 35.235000770479985 -39.117417794466803 0 0 0 0 142.22729531196819 62.990433616627584 0 62.990433616627584 -16.3934390130417 0 0 0 0 136.250667027085 46.593439634381753 0 46.593439634381753 -9.0850376320074133 0 0 0 0 13.304930236318313 0.43869238431609858 0 0.43869238431609858 -17.750545855381866 0 0 0 0 63.788620192630333 68.767866614578452 0 68.767866614578452 19.057639342109724 0 0 0 0 88.401187608542386 85.123313324218316 0 85.123313324218316 11.308790592186597 0 0 0 0 143.53565843935939 64.748610667652201 0 64.748610667652201 -45.620858023812559 0 0 0 0 17.673864522515117 -3.2360258647991174 0 -3.2360258647991174 -12.366221730326789 0 0 0 0 90.477326193222325 -7.3333242258576661 0 -7.3333242258576661 66.94907247917763 0 0 0 0 111.22053232498001 125.17212407062817 0 125.17212407062817 17.059002760666772 0 0 0 0 150.59860130841844 86.186748176549827 0 86.186748176549827 -4.5190137511908688 0 0 0 0 178.91279957066217 -11.781404280335209 0 -11.781404280335209 -51.206096530579998 0 0 0 0 9.1045825939320082 -2.9072665640239137 0 -2.9072665640239137 -6.6503415092559521 0 0 0 0 29.41975521731365 81.433770646562152 0 81.433770646562152 91.67550916942173 0 0 0 0 53.344288373329618 20.003515118943824 0 20.003515118943824 -1.7501084872424144 0 0 0 0 73.236964565076619 12.049929437464485 0 12.049929437464485 -17.604181483437763 0 0 0 0 69.094172179615271 76.835865922688527 0 76.835865922688527 62.133533745524801 0 0 0 0 67.743010673162644 63.284241494826347 0 63.284241494826347 26.374358604542067 0 0 0 0 19.348027029678889 -8.8544356764656982 0 -8.8544356764656982 -7.9698103074511799 0 0 0 0 68.218250352085306 60.836017730558979 0 60.836017730558979 37.782854834378668 0 0 0 0 72.610682171478402 48.468360302988003 0 48.468360302988003 19.28203953228558 0 0 0 0 69.474875493097642 11.634527385054156 0 11.634527385054156 -19.781832546322491 0 0 0 0 76.702060255222023 35.638877605803827 0 35.638877605803827 49.158638754433923 0 0 0 0 101.53803630817129 48.712689402446358 0 48.712689402446358 100.22209218166518 0 0 0 0 93.637901044268801 105.53909703939689 0 105.53909703939689 30.31569435471647 0 0 0 0 108.2579957052294 132.79539806566299 0 132.79539806566299 49.854074043777928 0 0 0 0 73.594320986994717 78.732338177982911 0 78.732338177982911 108.27262300355432 0 0 0 0 92.276459317421541 89.435055456285227 0 89.435055456285227 -110.91939022829439 0 0 0 0 64.039470313036873 98.637672735602337 0 98.637672735602337 55.950789236847868 0 0 0 0 49.022854081515106 93.037781176541671 0 93.037781176541671 28.61697959252524 0 0 0 0 112.31894647998706 42.418811222161935 0 42.418811222161935 -116.25235717748819 0 0 0 0 137.5890459366201 157.10774192946542 0 157.10774192946542 25.858642465780122 0 0 0 0 263.17409556901112 -84.919362912793787 0 -84.919362912793787 -200.50126873356658 0 0 0 0 100.80039018992102 -164.30462549254401 0 -164.30462549254401 -219.80925033115847 0 0 0 0 4.5478249485379081 1.7788633842842678 0 1.7788633842842678 -1.8063652010504061 0 0 0 0 84.563325818392514 50.760348173675482 0 50.760348173675482 147.918815158896 0 0 0 0 293.88836414344405 28.493315313859966 0 28.493315313859966 93.13450871012401 0 0 0 0 106.96349890314696 90.740423013406229 0 90.740423013406229 104.51390158955473 0 0 0 0 177.524776803235 39.594968144027916 0 39.594968144027916 49.521486970638762 0 0 0 0 189.15028758807603 129.80089916567158 0 129.80089916567158 101.05440503414047 0 0 0 0 294.65852055520469 268.32707260436177 0 268.32707260436177 239.45973863793597 0 0 0 0 137.02220777279581 127.72225828499245 0 127.72225828499245 124.26827380104805 0 0 0 0 131.764809475324 104.64473260023647 0 104.64473260023647 86.642222155712034 0 0 0 0 162.17237959782869 110.97174265146941 0 110.97174265146941 48.458542396339908 0 0 0 0 136.17288892778015 157.03026682930431 0 157.03026682930431 117.78455385225698 0 0 0 0 26.869145623408258 45.441876855581086 0 45.441876855581086 71.136781393997808 0 0 0 0 112.09104398191266 116.13495242236559 0 116.13495242236559 101.94413734516911 0 0 0 0 8.8700609114975464 1.3003233268435643 0 1.3003233268435643 -2.3660394651947083 0 0 0 0 75.057765212823142 -9.3225744542716029 0 -9.3225744542716029 -237.87065889647238 0 0 0 0 102.98077197784733 71.23349962735108 0 71.23349962735108 -144.53066600021975 0 0 0 0 97.41637160565233 104.20376090602353 0 104.20376090602353 -115.07258206201095 0 0 0 0 91.118527775033726 29.010175612904959 0 29.010175612904959 -44.736364571488366 0 0 0 0 -352.90148138201039 -188.16895403893966 0 -188.16895403893966 387.41416333201914 0 0 0 0 -487.95847649790448 455.6928145244309 0 455.6928145244309 -141.66880091662574 0 0 0 0 87.315514300891664 34.869798381739145 0 34.869798381739145 22.480745693208519 0 0 0 0 7.5650798576099305 9.5572211923863506 0 9.5572211923863506 8.9076438673528546 0 0 0 0 -3.4529943591696792 -0.86310658595516543 0 -0.86310658595516543 36.95010015092538 0 0 0 0 22.999668918004261 7.3144351093803266 0 7.3144351093803266 0.58128239681191562 0 0 0 0 191.09792186565755 873.82720691699274 0 873.82720691699274 -300.67812033130588 0 0 0 0 583.44631512467458 -645.09837367951661 0 -645.09837367951661 -371.40690880041393 0 0 0 0 4968.7300849463918 709.89854591914116 0 709.89854591914116 -367.46734630017698 0 0 0 0 376.75486408270081 402.73310846332242 0 402.73310846332242 860.16730384807704 0 0 0 0 301.10059002040089 -199.48640079133983 0 -199.48640079133983 95.730746801837313 0 0 0 0 21.342026489932266 4.9495236525523438 0 4.9495236525523438 3.4652850099575865 0 0 0 0 2922.2720085373294 -1798.208031943142 0 -1798.208031943142 748.94753635466577 0 0 0 0 4991.3733195334871 -567.1181600722357 0 -567.1181600722357 -281.47032377640556 0 0 0 0 4492.0621668924286 -526.00668342339327 0 -526.00668342339327 -250.22087895764435 0 0 0 0 311.79633923279016 -213.33004245350992 0 -213.33004245350992 243.75287234571229 0 0 0 0 -63.860401708181598 241.92867825877073 0 241.92867825877073 417.44198461577321 0 0 0 0 27.419599198387004 291.66801457169458 0 291.66801457169458 -100.30231748396295 0 0 0 0 80.337492254904646 -63.643815007795958 0 -63.643815007795958 35.592553566441651 0 0 0 0 -95.024371069841436 -271.58402337058328 0 -271.58402337058328 249.65641714963817 0 0 0 0 45.745423167887054 17.728895240518305 0 17.728895240518305 6.6878743949790529 0 0 0 0 94.175438094371202 -33.561746625599056 0 -33.561746625599056 -86.297748504104902 0 0 0 0 62.951022721045604 22.11008740920343 0 22.11008740920343 11.317186750459252 0 0 0 0 -49.464583806679002 1.0227293097995087 0 1.0227293097995087 98.313747633937467 0 0 0 0 -11.985607712369529 69.708306029728789 0 69.708306029728789 13.920811683738426 0 0 0 0 103.29561377278878 14.776403359905089 0 14.776403359905089 201.21702791716689 0 0 0 0 81.898871787700045 -84.742161302443719 0 -84.742161302443719 -12.948377407155931 0 0 0 0 11.476810310214773 -9.1561921152516064 0 -9.1561921152516064 -8.3953984207169619 0 0 0 0 71.587138616121905 4.4010056182427348 0 4.4010056182427348 -0.92494071857944249 0 0 0 0 37.062482901412295 10.354622493575789 0 10.354622493575789 1.5778843221232819 0 0 0 0 33.629417877441085 6.1031959611111546 0 6.1031959611111546 1.1897714789025731 0 0 0 0 527.58136137615656 -406.34193914279649 0 -406.34193914279649 533.17512681620246 0 0 0 0 -186.78453757523675 554.30377052731774 0 554.30377052731774 -118.14020303156258 0 0 0 0 22.800877728023352 -3.6102475686931683 0 -3.6102475686931683 -1.3890915972705713 0 0 0 0 641.58772105393291 386.70764347255681 0 386.70764347255681 -315.14057383526369 0 0 0 0 296.42329148734279 188.26376612296031 0 188.26376612296031 -9.5691290432848746 0 0 0 0 17.334662050316183 216.36387756478891 0 216.36387756478891 -1.4459378646333789 0 0 0 0 673.80949706184356 -144.32359627711409 0 -144.32359627711409 -83.451713722831755 0 0 0 0 -284.9381538368616 126.10918711278828 0 126.10918711278828 253.06970245668484 0 0 0 0 2.5852939981239444 3.4902135121894986 0 3.4902135121894986 4.5405634398592287 0 0 0 0 -96.760243222073768 347.85878165883065 0 347.85878165883065 144.99353831905557 0 0 0 0 106.62977781469817 30.828675336481524 0 30.828675336481524 -5.2270458665734623 0 0 0 0 94.44990052909634 37.0044945691061 0 37.0044945691061 1.4094734749041891 0 0 0 0 34.529075534592266 6.081784911893692 0 6.081784911893692 14.061901475013656 0 0 0 0 56.014420048901229 6.2100479191356044 0 6.2100479191356044 8.8927652943789326 0 0 0 0 8.5367031599382557 14.147061318937773 0 14.147061318937773 2.2322046628131922 0 0 0 0 3.8247946779838458 53.018128996938188 0 53.018128996938188 41.015144521484217 0 0 0 0 21.327200766071144 -6.3711552864338898 0 -6.3711552864338898 2.9383069403371884 0 0 0 0 101.91421877411904 38.955413260873271 0 38.955413260873271 -5.9795535832436144 0 0 0 0 27.850505242080544 28.049685409917174 0 28.049685409917174 10.717760432370824 0 0 0 0 12.450500131774021 7.4435189971784723 0 7.4435189971784723 -19.800164453328161 0 0 0 0 54.899437152824248 -9.9734664602905525 0 -9.9734664602905525 2.2793704635664973 0 0 0 0 3.8658973509067494 5.4506600552458053 0 5.4506600552458053 21.957659744452858 0 0 0 0 256.85107027525737 60.280333312098776 0 60.280333312098776 12.119243505335817 0 0 0 0 10.319528537589576 61.410845822454462 0 61.410845822454462 21.72884153596442 0 0 0 0 54.825741081149317 25.835064141486555 0 25.835064141486555 6.4305524745781213 0 0 0 0 363.02897929094615 -25.920215993802685 0 -25.920215993802685 20.193937223708417 0 0 0 0 107.61144640466955 -3.5877582453556442 0 -3.5877582453556442 29.637812848988005 0 0 0 0 138.0861656851921 61.772440019784426 0 61.772440019784426 30.013245748063355 0 0 0 0 136.77344354389061 8.0053934970198313 0 8.0053934970198313 42.324609396105657 0 0 0 0 237.95958817106293 68.72725550064888 0 68.72725550064888 29.494834929743888 0 0 0 0 111.09437724296731 50.600293449096014 0 50.600293449096014 0.29482178530685133 0 0 0 0 677.19409420071315 118.36139128013758 0 118.36139128013758 -71.146665705736154 0 0 0 0 561.51797078074014 -507.61747976964148 0 -507.61747976964148 -309.97584977403824 0 0 0 0 42.575166882219492 274.03547494197699 0 274.03547494197699 45.078155741534829 0 0 0 0 54.856023342809124 6.506722117402191 0 6.506722117402191 -14.192377905215249 0 0 0 0 -135.85546619790875 -157.61759933098489 0 -157.61759933098489 -81.286043971853246 0 0 0 0 9.2504453737928998 79.970152134439559 0 79.970152134439559 111.23160839211641 0 0 0 0 -42.250497104265378 5.1202642148336395 0 5.1202642148336395 52.619213263708161 0 0 0 0 -49.579367497688509 -18.241430183027092 0 -18.241430183027092 172.82053617101315 0 0 0 0 -0.62510082332502748 -0.71019469658401135 0 -0.71019469658401135 8.6067747764723137 0 0 0 0 -144.45900039421394 355.93825841314856 0 355.93825841314856 114.92066121120433 0 0 0 0 -117.82925452025665 99.904370610672004 0 99.904370610672004 305.69191661881428 0 0 0 0 30.227734221210994 69.078833802569534 0 69.078833802569534 -38.028246465938992 0 0 0 0 -117.07178842859423 165.19572907349348 0 165.19572907349348 53.834896317652465 0 0 0 0 19.507433224236593 119.18618797699344 0 119.18618797699344 27.892637089003301 0 0 0 0 68.288418647367507 10.379981705470527 0 10.379981705470527 -45.163241075976686 0 0 0 0 54.719281668731128 -19.625542570717698 0 -19.625542570717698 -47.134778450812348 0 0 0 0 53.494842455305701 11.184016176687798 0 11.184016176687798 -15.572377935928465 0 0 0 0 57.402697590310709 147.66256133573711 0 147.66256133573711 -279.44234282311663 0 0 0 0 66.688883037408232 20.766829344405323 0 20.766829344405323 -6.5175458539415558 0 0 0 0 15.983170535648242 0.57258847847788275 0 0.57258847847788275 12.63157471373961 0 0 0 0 88.767539956126711 42.455063309730576 0 42.455063309730576 41.781696680987807 0 0 0 0 45.023822009313363 17.728152802117663 0 17.728152802117663 -0.053593296304395466 0 0 0 0 27.1317475882704 26.114308061462651 0 26.114308061462651 19.555768666359882 0 0 0 0 47.665859347209334 19.933472611597608 0 19.933472611597608 1.2899798511139124 0 0 0 0 35.811336955113802 21.377823363340212 0 21.377823363340212 0.38507892686175182 0 0 0 0 47.956466583629663 55.639750451722989 0 55.639750451722989 47.689842778263483 0 0 0 0 46.538922563278504 47.513097184302126 0 47.513097184302126 28.3786336454069 0 0 0 0 46.733919933727307 30.24655917981368 0 30.24655917981368 16.790931832073099 0 0 0 0 83.739336410293618 8.6939949728491683 0 8.6939949728491683 -29.35710700108848 0 0 0 0 68.413016457811395 17.367216129231409 0 17.367216129231409 -13.795785558980914 0 0 0 0 88.843242806942726 46.649960426506368 0 46.649960426506368 26.50885217531777 0 0 0 0 41.423309462239814 2.9218632865522949 0 2.9218632865522949 -11.453221647086691 0 0 0 0 58.640557581158646 66.249509999220209 0 66.249509999220209 59.334801334752228 0 0 0 0 84.113433909835294 20.605118226238119 0 20.605118226238119 -46.156327334534581 0 0 0 0 115.27670346057857 -9.1891954813268057 0 -9.1891954813268057 -18.065433462319561 0 0 0 0 24.273227957968629 20.317494948354806 0 20.317494948354806 -0.5497133840681272 0 0 0 0 7.6953271433559678 3.2907948144061976 0 3.2907948144061976 1.4306383909885234 0 0 0 0 5.3001898064143802 7.2082747798374669 0 7.2082747798374669 2.9210950378181284 0 0 0 0 82.847377429716289 62.607674613684139 0 62.607674613684139 57.695432044320114 0 0 0 0 67.051561972126365 105.20091900088914 0 105.20091900088914 102.33846208238492 0 0 0 0 45.105374790611677 99.88440503372658 0 99.88440503372658 130.24771708259277 0 0 0 0 51.772840771009214 75.661909313554133 0 75.661909313554133 109.48691493130173 0 0 0 0 101.84413070121082 51.70587201183389 0 51.70587201183389 7.5435737989428162 0 0 0 0 65.405488406831864 85.4320542961309 0 85.4320542961309 20.027007653347027 0 0 0 0 2.9510961422041007 4.1351206030702485 0 4.1351206030702485 1.1993335117280122 0 0 0 0 64.01032890661736 48.564671367192659 0 48.564671367192659 16.923081205344488 0 0 0 0 32.195638345210597 9.133044809869844 0 9.133044809869844 -5.9842838593762284 0 0 0 0 19.78850945263493 11.330122458100334 0 11.330122458100334 4.7165097740655781 0 0 0 0 63.696507787943119 64.239028166353592 0 64.239028166353592 42.659638024596461 0 0 0 0 4.7280243041168433 17.466207327097436 0 17.466207327097436 11.412198897479811 0 0 0 0 50.782869163725991 -1.2869936329416305 0 -1.2869936329416305 15.790314687780665 0 0 0 0 44.91057234982145 8.173536980683366 0 8.173536980683366 6.4708788956331773 0 0 0 0 22.772794335574872 0.72782913605921351 0 0.72782913605921351 -9.8545090446807357 0 0 0 0 139.48761570880015 35.217429891113625 0 35.217429891113625 65.431285365529618 0 0 0 0 93.77521693779272 50.1173812347688 0 50.1173812347688 18.57127792789106 0 0 0 0 117.8667831364437 66.506638503153681 0 66.506638503153681 23.541776804360325 0 0 0 0 96.987703122424136 48.165904281554731 0 48.165904281554731 15.576239864517447 0 0 0 0 82.047433842312671 45.820003316557255 0 45.820003316557255 43.14218162846646 0 0 0 0 81.493492487235926 24.714743318184446 0 24.714743318184446 6.773559131833963 0 0 0 0 21.813094820077907 -6.8882516671771015 0 -6.8882516671771015 -9.677708410857166 0 0 0 0 50.94332530100337 7.0120957392274121 0 7.0120957392274121 -13.867343204796299 0 0 0 0 52.872385937822401 16.862273756502873 0 16.862273756502873 44.189730368266282 0 0 0 0 61.417574818598951 65.681214557576595 0 65.681214557576595 41.546868857105437 0 0 0 0 95.097343554909457 70.451101334863779 0 70.451101334863779 65.942773724229482 0 0 0 0 11.484051758656278 -39.377886727619504 0 -39.377886727619504 -29.432038074239813 0 0 0 0 43.739532796000191 10.217127158106933 0 10.217127158106933 -11.218816780062387 0 0 0 0 39.52825284556539 1.3047510835915546 0 1.3047510835915546 1.9817239666381568 0 0 0 0 2554.9053402704376 1103.6262118455875 0 1103.6262118455875 869.53763812953571 0 0 0 0 4992.0948213284109 135.18022226795892 0 135.18022226795892 -698.45047675520937 0 0 0 0 18.139931543247599 4.6462820849392088 0 4.6462820849392088 3.0179981950498136 0 0 0 0 -1649.1125380658195 489.38148118243089 0 489.38148118243089 -110.18164016949285 0 0 0 0 4125.4951256524027 167.45015996370483 0 167.45015996370483 -581.9803731866582 0 0 0 0 4093.0790349229937 -235.38319511696136 0 -235.38319511696136 -619.34529848505781 0 0 0 0 -1014.8862308387761 514.85586901239412 0 514.85586901239412 839.22120735965268 0 0 0 0 110.66385167608678 45.781462307635593 0 45.781462307635593 32.940976578998743 0 0 0 0 61.995584865275305 19.453049671873941 0 19.453049671873941 74.704207106379727 0 0 0 0 56.947874423725153 37.333913710758949 0 37.333913710758949 25.071606409356313 0 0 0 0 9.8628430925040078 9.0379626961596955 0 9.0379626961596955 2.2248960726292748 0 0 0 0 118.46825871797046 50.659670465056479 0 50.659670465056479 29.494788373018537 0 0 0 0 5.4412053933179862 11.218503465624707 0 11.218503465624707 15.459167698462631 0 0 0 0 103.30298430997937 401.51163090619673 0 401.51163090619673 1808.349427181814 0 0 0 0 13.638849172286854 12.305887618917737 0 12.305887618917737 14.804248726849483 0 0 0 0 4994.0535398220673 -206.68722429127851 0 -206.68722429127851 -630.80334422370595 0 0 0 0 4159.670597234217 -1033.8011910459873 0 -1033.8011910459873 283.46005742692802 0 0 0 0 2921.1093389385933 2485.4699692211052 0 2485.4699692211052 798.15605930686399 0 0 0 0 993.76984607594932 867.78677595201623 0 867.78677595201623 334.51501558354448 0 0 0 0 -4.6305696628808448 2.397287220765989 0 2.397287220765989 20.884931922818097 0 0 0 0 4989.3261146278019 1748.7373866451201 0 1748.7373866451201 -540.77110212467471 0 0 0 0 2957.019163610239 1285.0224393586441 0 1285.0224393586441 -645.08773070937309 0 0 0 0 5000.8197706554056 618.4618149125173 0 618.4618149125173 -1008.589566049623 0 0 0 0 3025.5261064019969 878.38537518643477 0 878.38537518643477 -80.254331838301368 0 0 0 0 2782.4264573899054 237.1264186240935 0 237.1264186240935 -299.07350049016065 0 0 0 0 2841.2280978904164 88.305027192088744 0 88.305027192088744 -1013.6640634464453 0 0 0 0 188.57289953711006 160.74186848143268 0 160.74186848143268 78.617958020799961 0 0 0 0 119.31562604054488 73.666174304561991 0 73.666174304561991 11.485395769966999 0 0 0 0 1506.1566730061531 319.16074926994207 0 319.16074926994207 -115.4712223810792 0 0 0 0 -1.5687607158576071 1.2762660802698065 0 1.2762660802698065 18.209049754059439 0 0 0 0 -19.171081076405244 66.825061854127625 0 66.825061854127625 125.93461950875053 0 0 0 0 74.70790554073028 163.76490831587148 0 163.76490831587148 202.58437717080142 0 0 0 0 123.30914670065977 -210.47923902341449 0 -210.47923902341449 137.20823370641074 0 0 0 0 -3.3458410135876733 1.5316206107588783 0 1.5316206107588783 9.6177309914624249 0 0 0 0 58.61011555512232 -5.4820046710365204 0 -5.4820046710365204 -115.11092103070831 0 0 0 0 79.928008729657449 51.099162461964902 0 51.099162461964902 34.447983831429042 0 0 0 0 1043.5699026670882 128.26781860949214 0 128.26781860949214 -117.57706517337624 0 0 0 0 587.33681233711468 -340.3974108909818 0 -340.3974108909818 144.37798783722099 0 0 0 0 945.85923562677453 -569.78196220570146 0 -569.78196220570146 236.68423483198472 0 0 0 0 629.92179829969609 139.52433037135711 0 139.52433037135711 -144.32980535466515 0 0 0 0 3.0848238110416304 12.503014563087717 0 12.503014563087717 -1.8304573009915188 0 0 0 0 -122.48089200081449 -41.871161725170168 0 -41.871161725170168 215.68524639924908 0 0 0 0 5000.1759703690223 -480.52849855217028 0 -480.52849855217028 -1015.958806176007 0 0 0 0 2679.0030542196691 -855.24871674850476 0 -855.24871674850476 -566.84555827374004 0 0 0 0 2561.0227731607374 -194.2523370593797 0 -194.2523370593797 -336.63466498631828 0 0 0 0 1051.2967781899497 -364.87598159791071 0 -364.87598159791071 76.231807215887613 0 0 0 0 1598.5482210773844 -1435.7836511087628 0 -1435.7836511087628 970.7713888654265 0 0 0 0 4989.2289375373139 -2538.0616516797691 0 -2538.0616516797691 19.767776648930649 0 0 0 0 3108.1232340145216 -1092.1188411123462 0 -1092.1188411123462 -461.78918084689087 0 0 0 0 1275.7731067834538 -1620.5458722293872 0 -1620.5458722293872 1571.3776598535032 0 0 0 0 21.634591216259537 -11.425462336428012 0 -11.425462336428012 7.2820920034503924 0 0 0 0 4996.3150084641275 2571.092582187669 0 2571.092582187669 1078.5038479673683 0 0 0 0 -916.09565731568728 -1489.6646702390544 0 -1489.6646702390544 2182.8944949258303 0 0 0 0 13.751102036887687 3.9889351280862897 0 3.9889351280862897 2.0948955937582512 0 0 0 0 -159.86837060569087 316.84250069704012 0 316.84250069704012 1447.9572837002347 0 0 0 0 707.17847603118207 1763.0688017222269 0 1763.0688017222269 -967.17256989334601 0 0 0 0 572.69544012127517 -230.94399835542328 0 -230.94399835542328 594.96585048717895 0 0 0 0 872.99288287822856 -191.64991090727005 0 -191.64991090727005 -185.1930443550732 0 0 0 0 49.328169085158152 -348.89717313708206 0 -348.89717313708206 453.84090353541706 0 0 0 0 35.847976596312805 15.068010301979841 0 15.068010301979841 3.4126809891090772 0 0 0 0 52.926387266632076 221.30938118387076 0 221.30938118387076 -102.05717157959612 0 0 0 0 86.107586857549904 130.57378728592721 0 130.57378728592721 198.76774461085222 0 0 0 0 132.55199690412337 147.28888996278636 0 147.28888996278636 62.857029535323363 0 0 0 0 136.20651485874987 153.82199087225592 0 153.82199087225592 -66.513674057337539 0 0 0 0 72.60334381415305 75.095431722663022 0 75.095431722663022 -32.11669438325842 0 0 0 0 119.81834625913689 50.058272096613429 0 50.058272096613429 -128.02398188398683 0 0 0 0 46.537123901711311 73.084865676551544 0 73.084865676551544 68.993479965089591 0 0 0 0 113.26688968258532 83.308240324645027 0 83.308240324645027 -0.94638182697548245 0 0 0 0 92.649836328964739 9.9842212846474467 0 9.9842212846474467 -84.739807921357396 0 0 0 0 49.444837220016069 26.879325988597877 0 26.879325988597877 14.367583717435497 0 0 0 0 87.737861798952508 29.389922011656218 0 29.389922011656218 -90.370920650782878 0 0 0 0 50.519513297713587 -24.925483620372162 0 -24.925483620372162 -1.8389136518312319 0 0 0 0 88.703471957669535 -12.874970101142026 0 -12.874970101142026 -110.35502351261908 0 0 0 0 2647.8184468244435 1076.8880552355895 0 1076.8880552355895 76.084871685399435 0 0 0 0 994.05970331594654 94.116231875429833 0 94.116231875429833 188.87871664774798 0 0 0 0 3161.5637662332556 185.81680414911301 0 185.81680414911301 -815.52904627828946 0 0 0 0 4998.8974217485484 1194.102790776546 0 1194.102790776546 -506.82256463753112 0 0 0 0 2875.177950413794 1615.7388803717299 0 1615.7388803717299 680.94994471731195 0 0 0 0 45.209142127090658 -28.197630885826442 0 -28.197630885826442 5.2450164783456366 0 0 0 0 2586.8671165270716 705.65339355451158 0 705.65339355451158 133.44795901513089 0 0 0 0 160.94805723873287 -458.31160810796825 0 -458.31160810796825 -980.40191293221767 0 0 0 0 5.7738219482343993 197.60882649012456 0 197.60882649012456 42.727009182091933 0 0 0 0 140.00939820337044 287.47389726035181 0 287.47389726035181 152.35769986926425 0 0 0 0 -35.033948474214412 208.12547183731658 0 208.12547183731658 168.34616791755252 0 0 0 0 155.44191832084471 183.93623547370771 0 183.93623547370771 76.171087733702734 0 0 0 0 -81.127288799994858 102.81249608677899 0 102.81249608677899 51.07926511468122 0 0 0 0 85.96170150269063 117.43646036622886 0 117.43646036622886 -8.8917585275048623 0 0 0 0 92.19685864522468 -21.992342255458865 0 -21.992342255458865 34.076241560237577 0 0 0 0 52.268605428173032 107.54454717638737 0 107.54454717638737 70.591089291759999 0 0 0 0 4.1720313601456809 0.98397002421495472 0 0.98397002421495472 -4.0414693139250124 0 0 0 0 238.0374354220512 135.94968371220239 0 135.94968371220239 48.38891291661821 0 0 0 0 158.53954611339213 228.42820559534255 0 228.42820559534255 286.03423898780727 0 0 0 0 4.4841720730978452 1.2035705824455718 0 1.2035705824455718 -4.5250746526666212 0 0 0 0 -184.07236882320285 -4.3049449315421953 0 -4.3049449315421953 4.4565236486914728 0 0 0 0 -28.059863052436413 3.5589608317914099 0 3.5589608317914099 -2.5006825364178553 0 0 0 0 -63.930388258831954 74.016919890868621 0 74.016919890868621 10.356549235030911 0 0 0 0 -0.90135500119504286 46.350679504533218 0 46.350679504533218 -3.9060549310715942 0 0 0 0 51.510627369854006 35.577280842312035 0 35.577280842312035 21.07204364833402 0 0 0 0 127.48257130406637 213.8588217222316 0 213.8588217222316 -98.310204292566141 0 0 0 0 43.994124519078468 43.063958998625253 0 43.063958998625253 24.389209165914963 0 0 0 0 -0.25739529656857485 107.63821689851648 0 107.63821689851648 -37.138062041045487 0 0 0 0 -84.374855286703678 18.99922136884561 0 18.99922136884561 97.17915721207055 0 0 0 0 -93.591106817431864 49.492702082812684 0 49.492702082812684 10.832923765632586 0 0 0 0 52.844723968219817 43.823454234810846 0 43.823454234810846 26.497303867292032 0 0 0 0 -62.196738361901225 119.5482049533864 0 119.5482049533864 -2.5775522977110086 0 0 0 0 -102.30852002363827 65.443097584510042 0 65.443097584510042 73.609238558243305 0 0 0 0 8.9281391881668242 39.691037769297509 0 39.691037769297509 20.190509086607562 0 0 0 0 -43.626992408393562 60.17678349713583 0 60.17678349713583 16.554529478977202 0 0 0 0 23.757636051817826 26.188098991899096 0 26.188098991899096 20.001092143369533 0 0 0 0 10.012759653156479 2.1841049662978662 0 2.1841049662978662 2.5665458905542913 0 0 0 0 -10.091428954227013 4.3995500369301226 0 4.3995500369301226 55.754058029231601 0 0 0 0 0.82672689366154373 33.397067467720262 0 33.397067467720262 21.542911793920211 0 0 0 0 29.478926312416917 27.862653900457101 0 27.862653900457101 9.470064598489623 0 0 0 0 8.3009359988209326 30.578208326024651 0 30.578208326024651 22.286198312948727 0 0 0 0 -14.564133010815567 63.429644190424369 0 63.429644190424369 14.468414311768356 0 0 0 0 35.38830319455883 60.512975142265077 0 60.512975142265077 13.549428430338594 0 0 0 0 19.951029619940869 43.589347508011336 0 43.589347508011336 -3.8776209278104883 0 0 0 0 43.946689969221154 54.988305636705064 0 54.988305636705064 5.1632707529395949 0 0 0 0 79.397683954775857 137.29227129545779 0 137.29227129545779 38.32882161760142 0 0 0 0 51.220354426754056 59.508971534280136 0 59.508971534280136 15.803598182203132 0 0 0 0 127.57944994543868 76.62155702502514 0 76.62155702502514 -45.595869251761542 0 0 0 0 139.31537376068081 98.308580722211445 0 98.308580722211445 -79.897653880353573 0 0 0 0 10.279852457901335 53.482300893056191 0 53.482300893056191 3.0187535255152724 0 0 0 0 110.88806097271481 83.547030938394528 0 83.547030938394528 -5.3680122371533798 0 0 0 0 110.62095742102247 139.91220062882167 0 139.91220062882167 -40.245728442372638 0 0 0 0 -1.1045194926438526 33.279699748669579 0 33.279699748669579 -32.425225442203924 0 0 0 0 75.891273696752023 119.5957154152245 0 119.5957154152245 -10.558925199971782 0 0 0 0 26.868990383169148 104.66552094240615 0 104.66552094240615 -62.659818500957044 0 0 0 0 10.813638872983574 75.361366815353449 0 75.361366815353449 8.7777686498538969 0 0 0 0 -17.242589141632262 43.823743096025041 0 43.823743096025041 38.387235347684992 0 0 0 0 63.664240244492248 114.72600736689492 0 114.72600736689492 -4.9281569113554724 0 0 0 0 -25.235287117822736 215.06966845012357 0 215.06966845012357 -116.52177829750872 0 0 0 0 14.872837181094024 8.0109912582505771 0 8.0109912582505771 1.8610857824626663 0 0 0 0 125.77089779484595 191.95465848892945 0 191.95465848892945 27.128218088793801 0 0 0 0 122.46442315126592 88.170891375618297 0 88.170891375618297 92.898177112843314 0 0 0 0 50.991109212322954 138.93562516958696 0 138.93562516958696 60.596139891954408 0 0 0 0 97.241220347423223 189.7995721188945 0 189.7995721188945 34.183882433169856 0 0 0 0 52.358337666952139 144.53417909772634 0 144.53417909772634 -12.601242765176721 0 0 0 0 114.67429138736952 126.84539525928722 0 126.84539525928722 -7.701167909304786 0 0 0 0 100.12805427001149 179.0358377723669 0 179.0358377723669 -57.761264905787357 0 0 0 0 102.43699460041353 120.29264309447171 0 120.29264309447171 -72.210232752988304 0 0 0 0 57.914454364152334 164.5637304047932 0 164.5637304047932 -109.36890341682283 0 0 0 0 2.3555406075811334 78.496507078176364 0 78.496507078176364 -114.61018775744378 0 0 0 0 66.023172992017862 143.14028160049997 0 143.14028160049997 -82.041352747219207 0 0 0 0 116.62817915337473 90.511370692685887 0 90.511370692685887 -78.189016112923127 0 0 0 0 123.27155869443231 13.602500616163525 0 13.602500616163525 -231.31083667708663 0 0 0 0 93.598654745470412 38.370548973986843 0 38.370548973986843 1.5314716017619503 0 0 0 0 19.376607330174515 1.4544405582189981 0 1.4544405582189981 -1.9939588559753361 0 0 0 0 -39.899832562598021 184.47577531046181 0 184.47577531046181 -256.8498484496813 0 0 0 0 90.580715339739982 30.134351074533278 0 30.134351074533278 5.5530767261539538 0 0 0 0 9.129988349434818 24.412441506100919 0 24.412441506100919 9.3414325444288515 0 0 0 0 78.623535097820422 30.907957581095388 0 30.907957581095388 14.330487631524193 0 0 0 0 49.526030908076791 4.7294246537599065 0 4.7294246537599065 24.88995155644443 0 0 0 0 18.202389087767063 8.1696565189686083 0 8.1696565189686083 3.0211183312935876 0 0 0 0 61.499241935860482 1.6956738637700255 0 1.6956738637700255 23.459604386582214 0 0 0 0 49.075829813446035 44.246675895970782 0 44.246675895970782 14.986624701210431 0 0 0 0 44.938139340814814 45.279343578210899 0 45.279343578210899 35.222194578171241 0 0 0 0 66.080236995294399 55.035566510192638 0 55.035566510192638 28.890229827409797 0 0 0 0 75.153779259417206 64.557374460512847 0 64.557374460512847 15.300584996808084 0 0 0 0 7.6696861632999855 10.403032010472302 0 10.403032010472302 0.46712820961793167 0 0 0 0 67.106310494178615 66.473851961093942 0 66.473851961093942 24.780808931188176 0 0 0 0 74.385724271422077 16.449579604951396 0 16.449579604951396 -146.04369339728282 0 0 0 0 0.78742601302852222 0.61115415050703348 0 0.61115415050703348 -3.8253764748476264 0 0 0 0 -1.8262178462464362 73.052461981520537 0 73.052461981520537 298.06915566641919 0 0 0 0 0.91083464828574279 1.8769973487595593 0 1.8769973487595593 2.3084703668992663 0 0 0 0 230.43861048147937 286.60822440425926 0 286.60822440425926 -19.839919862288752 0 0 0 0 13.652743337708671 29.862662773341754 0 29.862662773341754 30.725780367513835 0 0 0 0 -5.2548318483677576 38.671650777543164 0 38.671650777543164 33.040202890235832 0 0 0 0 -1.1473402892160109 20.908567722720264 0 20.908567722720264 10.618491244682961 0 0 0 0 18.828621062479215 10.045533594333392 0 10.045533594333392 0.86401455171289854 0 0 0 0 45.316367248735304 21.103625770846328 0 21.103625770846328 3.789147870228657 0 0 0 0 36.707755615905626 16.476997688798292 0 16.476997688798292 8.3618804873904082 0 0 0 0 -0.18140746642404793 6.5038472972505161 0 6.5038472972505161 8.4711376138887644 0 0 0 0 234.58025349361014 -17.600234129317926 0 -17.600234129317926 -16.973322560938868 0 0 0 0 36.731159843620844 17.082589285791528 0 17.082589285791528 23.281978475426286 0 0 0 0 -4.1029059241473078 1.06193861777205 0 1.06193861777205 5.4735706000723034 0 0 0 0 69.867767414587433 46.977127087609915 0 46.977127087609915 30.083855055137974 0 0 0 0 82.009586156782461 52.374832581107057 0 52.374832581107057 27.339009852221352 0 0 0 0 107.72231463799835 46.702254306114355 0 46.702254306114355 10.063598982074382 0 0 0 0 83.573764079632383 38.918535718435351 0 38.918535718435351 26.46748863789071 0 0 0 0 78.167449699798453 49.185803195249719 0 49.185803195249719 15.572372050921331 0 0 0 0 92.210678119587101 51.459750379385696 0 51.459750379385696 30.705742479764012 0 0 0 0 97.319418949682586 42.869747444599398 0 42.869747444599398 9.8434637142827341 0 0 0 0 13.229082341374436 7.4495508685223157 0 7.4495508685223157 12.438736562569254 0 0 0 0 88.7887943414662 48.22394306133765 0 48.22394306133765 28.165943756094748 0 0 0 0 84.704853380146233 50.751548662424284 0 50.751548662424284 28.616022774508565 0 0 0 0 76.725429228765279 38.346939283671873 0 38.346939283671873 24.534756974713673 0 0 0 0 118.0657301393403 44.205856844757363 0 44.205856844757363 23.09844663277363 0 0 0 0 82.494699091635994 48.306792084062181 0 48.306792084062181 46.588478945699535 0 0 0 0 79.566096808615839 48.830641562017263 0 48.830641562017263 34.837456767510048 0 0 0 0 77.503577818948543 27.116944335007247 0 27.116944335007247 88.82834713698503 0 0 0 0 76.710379511863721 44.394791205576439 0 44.394791205576439 51.180081571757 0 0 0 0 96.477829199471671 34.682231200585647 0 34.682231200585647 -16.694049767691467 0 0 0 0 69.671300494568612 11.636396987646375 0 11.636396987646375 -18.002450521312621 0 0 0 0 86.693583726348152 12.503937803064588 0 12.503937803064588 -25.60751339645293 0 0 0 0 68.415610571239085 17.959976953216824 0 17.959976953216824 -9.4323626967216114 0 0 0 0 87.059638807026204 46.306506298440581 0 46.306506298440581 58.570709353791244 0 0 0 0 73.950126986296127 12.370714727751771 0 12.370714727751771 -16.689300754890102 0 0 0 0 71.447414560756442 12.893831812697613 0 12.893831812697613 -16.698120863543295 0 0 0 0 64.137292931604009 9.9932342727711845 0 9.9932342727711845 -20.016117599710284 0 0 0 0 112.51996713862172 13.432713697166491 0 13.432713697166491 -84.32304436911727 0 0 0 0 56.822356405986284 100.65954354737369 0 100.65954354737369 35.34747422754981 0 0 0 0 60.230872708947572 11.465140457864436 0 11.465140457864436 16.843146497320049 0 0 0 0 58.74925874649125 44.455404816252667 0 44.455404816252667 37.894081931288383 0 0 0 0 99.630268199616694 46.621764647409691 0 46.621764647409691 7.4397425303845921 0 0 0 0 91.734197169338586 68.278531432132695 0 68.278531432132695 154.70954339206173 0 0 0 0 71.599228460047016 49.668269259735098 0 49.668269259735098 80.488862770524065 0 0 0 0 105.65301194378844 66.234485113674054 0 66.234485113674054 81.205314772490965 0 0 0 0 65.947920151920698 73.636070756878325 0 73.636070756878325 80.389621907945184 0 0 0 0 79.642067562976081 29.965071410850896 0 29.965071410850896 131.96042123637562 0 0 0 0 4.2110815559115906 -7.1622843683082991 0 -7.1622843683082991 -1.7647142178029256 0 0 0 0 38.064895291339781 79.894613552878127 0 79.894613552878127 179.53854736080575 0 0 0 0 88.29672506854422 52.843358063422329 0 52.843358063422329 106.41332550914285 0 0 0 0 65.702429998581209 36.882315961762771 0 36.882315961762771 103.14444637063389 0 0 0 0 60.638414322795143 67.02597294275165 0 67.02597294275165 160.44142469426879 0 0 0 0 10.635023961269326 100.0571154921704 0 100.0571154921704 -329.49112223873544 0 0 0 0 163.11929675251304 -3.114222324759794 0 -3.114222324759794 -486.72014708275697 0 0 0 0 48.296359258148357 1.3632836778724204 0 1.3632836778724204 -1.3272179381228897 0 0 0 0 101.50016046341807 -15.684751316551569 0 -15.684751316551569 -221.25841336490794 0 0 0 0 32.85395318643009 -22.699824765773201 0 -22.699824765773201 -337.04683598710835 0 0 0 0 76.758734457345781 136.20936240605124 0 136.20936240605124 -188.58859677558667 0 0 0 0 175.03728722111919 87.001945628259818 0 87.001945628259818 -359.58913171290067 0 0 0 0 100.32306202935069 83.394898546324839 0 83.394898546324839 -295.8424048885372 0 0 0 0 82.881140697181763 103.66831211915542 0 103.66831211915542 -325.9125028976423 0 0 0 0 58.513889545093676 9.2107402052000502 0 9.2107402052000502 2.1060887645802691 0 0 0 0 11.421045080281829 75.680057384890006 0 75.680057384890006 -294.0382188982021 0 0 0 0 65.818859692230035 63.114990108012535 0 63.114990108012535 -294.93790523093139 0 0 0 0 70.164712076230899 120.32339893018093 0 120.32339893018093 -209.91250399098135 0 0 0 0 80.571570543334019 115.73664497809841 0 115.73664497809841 -210.80520141731768 0 0 0 0 53.69564257998536 138.67581578910449 0 138.67581578910449 -225.15572486722704 0 0 0 0 114.64373620077822 5.4265593133686707 0 5.4265593133686707 -96.02713903003314 0 0 0 0 11.626515100226243 121.62861070242707 0 121.62861070242707 -210.61419746150273 0 0 0 0 68.485727267592281 18.319475781361753 0 18.319475781361753 4.1486925757949438 0 0 0 0 20.937314793591213 139.6758475672068 0 139.6758475672068 -224.03626694935156 0 0 0 0 62.203961499038996 125.52330046837596 0 125.52330046837596 -254.34063940967496 0 0 0 0 72.710933916994691 111.10329998946236 0 111.10329998946236 -250.82513519191798 0 0 0 0 123.11529048115244 -121.17584430998949 0 -121.17584430998949 17.541965074880864 0 0 0 0 58.381924644418177 34.757883571775892 0 34.757883571775892 134.9827323620616 0 0 0 0 139.41518729183372 66.639041594811118 0 66.639041594811118 52.363074602115375 0 0 0 0 61.911753247775778 136.99601900984817 0 136.99601900984817 8.9705371037721306 0 0 0 0 4.9490409212008757 9.2456801599127871 0 9.2456801599127871 -1.2746612227041099 0 0 0 0 143.0965662112385 9.2495942418093193 0 9.2495942418093193 68.532634298471748 0 0 0 0 67.025733172020409 10.344964407135194 0 10.344964407135194 103.65004020321749 0 0 0 0 31.340221241175186 36.751083028988319 0 36.751083028988319 89.862921909318175 0 0 0 0 75.147471102138979 4.8074478235846811 0 4.8074478235846811 -16.541645224068123 0 0 0 0 -137.22274182242472 450.1820297163199 0 450.1820297163199 525.16089061407911 0 0 0 0 29.868933670966726 102.01984431576489 0 102.01984431576489 184.52750673242554 0 0 0 0 334.51834798649361 -111.15654642892741 0 -111.15654642892741 -71.946680533849758 0 0 0 0 130.96451637669816 120.94101859747752 0 120.94101859747752 174.04917291822767 0 0 0 0 -101.17594649738749 124.11264565149372 0 124.11264565149372 233.56605535648441 0 0 0 0 32.756917323281812 11.297469507403314 0 11.297469507403314 3.6193254383698514 0 0 0 0 81.586683450414782 1.7008273031328436 0 1.7008273031328436 -15.406559040862998 0 0 0 0 170.07897828506975 63.422372949366945 0 63.422372949366945 -45.061257352111625 0 0 0 0 134.56345513606902 103.64115430256521 0 103.64115430256521 94.943561780595701 0 0 0 0 35.70111748998994 -3.8588651532642473 0 -3.8588651532642473 2.6040737151303688 0 0 0 0 69.711562276046607 10.791783406586092 0 10.791783406586092 -9.2948231902829548 0 0 0 0 71.707322880584996 5.1182522389954279 0 5.1182522389954279 -21.152800906697031 0 0 0 0 76.765249879859766 10.892729107718765 0 10.892729107718765 -11.393519716419178 0 0 0 0 129.0629729661141 -43.80907968899055 0 -43.80907968899055 -142.72412449468538 0 0 0 0 36.692318472993975 127.02980436581947 0 127.02980436581947 275.91340547128334 0 0 0 0 181.9517879056084 48.292743739963043 0 48.292743739963043 100.90827503836499 0 0 0 0 174.16474543724053 -218.50783324367967 0 -218.50783324367967 -478.68268673287866 0 0 0 0 29.571221389573246 -0.70983791869724655 0 -0.70983791869724655 -0.9298782196633395 0 0 0 0 63.479578631961886 393.56807519980407 0 393.56807519980407 729.40379548616556 0 0 0 0 10.364242069917271 0.83951507201328734 0 0.83951507201328734 -0.24906435850081632 0 0 0 0 20.574489704878943 -263.61161632349126 0 -263.61161632349126 -90.362477766558982 0 0 0 0 188.34163219639049 178.27203945938254 0 178.27203945938254 12.93482910888406 0 0 0 0 -3.7656466929877865 -10.135573839792491 0 -10.135573839792491 -3.8540949060483412 0 0 0 0 6.552289615869995 -296.98081617465107 0 -296.98081617465107 -247.93416886507839 0 0 0 0 40.494993622443872 -170.3542771462221 0 -170.3542771462221 29.110592599207848 0 0 0 0 69.446323575250631 -16.21000143320019 0 -16.21000143320019 -25.85200422146746 0 0 0 0 -305.35575022603257 -577.19694744922026 0 -577.19694744922026 229.35526479640021 0 0 0 0 744.59580618644759 404.0886734892506 0 404.0886734892506 -251.86744559916559 0 0 0 0 103.93921104048786 48.391241694044311 0 48.391241694044311 -77.208384750930236 0 0 0 0 107.43782819315857 13.518194585369145 0 13.518194585369145 14.217558817280405 0 0 0 0 67.871129892815617 -21.907152734763265 0 -21.907152734763265 -20.983503830797353 0 0 0 0 260.92707581734066 136.33408048831836 0 136.33408048831836 -70.803797709806531 0 0 0 0 45.923356359104218 144.35566622438091 0 144.35566622438091 76.585015720644833 0 0 0 0 68.428618401460426 -26.765364071047543 0 -26.765364071047543 -296.24295291327053 0 0 0 0 31.413430360229142 -62.387312186498178 0 -62.387312186498178 101.16336849873278 0 0 0 0 60.910454431330834 84.5464305030265 0 84.5464305030265 28.907778767561922 0 0 0 0 10.109247129383869 -6.5061582485488536 0 -6.5061582485488536 -3.2214174465823029 0 0 0 0 280.84011405754427 424.1779378127826 0 424.1779378127826 -11.504443905643825 0 0 0 0 -12.761221549670154 85.606009571930144 0 85.606009571930144 10.486175585755745 0 0 0 0 -20.154261924454659 -140.19167283558045 0 -140.19167283558045 -120.18310246652072 0 0 0 0 139.37599363444133 -148.52725582277162 0 -148.52725582277162 -255.78194180359333 0 0 0 0 11.567899388875965 -2.8236785351364304 0 -2.8236785351364304 -0.052629577343121126 0 0 0 0 208.95274128753081 -210.08894969914616 0 -210.08894969914616 -103.51565880528506 0 0 0 0 321.13397711923835 -305.62222589465114 0 -305.62222589465114 -101.61769222631699 0 0 0 0 -16.343738516713813 -66.495485267125019 0 -66.495485267125019 -220.68403893424784 0 0 0 0 396.43496960844732 208.94377742643337 0 208.94377742643337 -166.07567561896957 0 0 0 0 5.296656136397587 -0.77020977239831456 0 -0.77020977239831456 0.015998834481762536 0 0 0 0 -11.964616178454321 -207.30385878067244 0 -207.30385878067244 176.75097724735861 0 0 0 0 42.673795188865938 194.93875630704383 0 194.93875630704383 4.5331419610115518 0 0 0 0 356.60601429127018 124.70391224702212 0 124.70391224702212 20.059732230509326 0 0 0 0 422.40010351667888 40.320623390565174 0 40.320623390565174 12.0658243830934 0 0 0 0 196.97341197054629 53.642855112378584 0 53.642855112378584 25.059744200276782 0 0 0 0 264.59342350128111 -106.29384364453864 0 -106.29384364453864 94.30727349671406 0 0 0 0 320.2086044836571 -97.592671643623419 0 -97.592671643623419 4.9048480697699688 0 0 0 0 -83.716847391239867 -75.356741898810697 0 -75.356741898810697 110.20741630755856 0 0 0 0 445.29060655103001 -78.416947665984139 0 -78.416947665984139 -502.51316981806713 0 0 0 0 -194.32172886403407 -46.097749925351422 0 -46.097749925351422 188.32907674603211 0 0 0 0 0.38696837683754481 -0.98376505654735635 0 -0.98376505654735635 3.983106395465084 0 0 0 0 -16.114305659269121 30.521070720936905 0 30.521070720936905 58.225618089688169 0 0 0 0 -18.546080324137392 -39.702144499282667 0 -39.702144499282667 19.266166767789855 0 0 0 0 -28.234294618555055 -56.994162060944291 0 -56.994162060944291 35.228802688747237 0 0 0 0 -81.975228743800585 -131.84112220772852 0 -131.84112220772852 -101.24620512154684 0 0 0 0 10.181394547063515 -2.8499231703701025 0 -2.8499231703701025 0.2136247966070417 0 0 0 0 67.051164233679629 130.4908262928858 0 130.4908262928858 95.068890045102535 0 0 0 0 106.46421315026419 61.768037811988961 0 61.768037811988961 113.17752046699843 0 0 0 0 69.763168166540709 144.89120317798643 0 144.89120317798643 5.0412294884181392 0 0 0 0 62.873263073513954 93.570218926260168 0 93.570218926260168 41.581564131060986 0 0 0 0 48.54031834838861 137.62263755395043 0 137.62263755395043 3.3269637706171125 0 0 0 0 31.916538315281286 124.56004632315489 0 124.56004632315489 0.52635701037524996 0 0 0 0 54.546792490689768 117.26916144816755 0 117.26916144816755 -136.39852134996181 0 0 0 0 60.069269876290491 119.30250273868478 0 119.30250273868478 -136.88904256912429 0 0 0 0 97.843544813906192 124.99071250883799 0 124.99071250883799 -210.8839596715535 0 0 0 0 40.669452875648858 128.55675001594022 0 128.55675001594022 -106.15037361723807 0 0 0 0 86.056052015887872 118.69203620988173 0 118.69203620988173 -104.22760835457484 0 0 0 0 64.581175634718875 147.72987176678419 0 147.72987176678419 66.131670503106761 0 0 0 0 75.71258812789597 74.820238961224561 0 74.820238961224561 -122.50592555687035 0 0 0 0 144.35810569521618 130.58021983564709 0 130.58021983564709 -105.7657482223525 0 0 0 0 409.42783664164426 130.09074504291993 0 130.09074504291993 -190.33226663729238 0 0 0 0 243.62723141654078 -65.926448641254524 0 -65.926448641254524 206.96540559654457 0 0 0 0 120.49827230018445 143.68656938025651 0 143.68656938025651 175.84905976643358 0 0 0 0 156.44448249442667 87.607177284969225 0 87.607177284969225 91.854712912456762 0 0 0 0 493.35983485134898 13.62017605330243 0 13.62017605330243 -38.158344655599194 0 0 0 0 355.88036965398896 97.183371953419055 0 97.183371953419055 -14.598629865226258 0 0 0 0 363.16187204138225 106.31842285390223 0 106.31842285390223 -3.2776065077487146 0 0 0 0 373.07402856704812 154.32705832982208 0 154.32705832982208 41.799834713126188 0 0 0 0 377.14398034700343 113.05764433782963 0 113.05764433782963 -5.8948771924895027 0 0 0 0 160.31821593188579 110.30040334625755 0 110.30040334625755 100.42659197535579 0 0 0 0 282.41583910036036 82.592601578798366 0 82.592601578798366 87.677737811759016 0 0 0 0 283.47304196214282 110.78777382731937 0 110.78777382731937 24.987761985437373 0 0 0 0 8.3210028187787426 1.7914908848994227 0 1.7914908848994227 -11.217254573127843 0 0 0 0 89.353368471966192 -131.44644994457639 0 -131.44644994457639 -223.18169782184805 0 0 0 0 164.10079628397853 85.323042676224645 0 85.323042676224645 104.23876670308778 0 0 0 0 129.20983817455726 119.62854750892154 0 119.62854750892154 97.493373742035146 0 0 0 0 164.51071886549198 68.489136849300621 0 68.489136849300621 110.38972513251542 0 0 0 0 -4.1130888239299352 12.112825340740166 0 12.112825340740166 -23.415710431640441 0 0 0 0 73.916190479979377 152.33758556800501 0 152.33758556800501 128.65304158403927 0 0 0 0 92.210004575254061 105.88436280463952 0 105.88436280463952 114.32878694021827 0 0 0 0 222.90512807235154 158.75872965936423 0 158.75872965936423 -37.304091719559096 0 0 0 0 0.97444959679296517 59.244597428453943 0 59.244597428453943 220.4222879551744 0 0 0 0 226.57984368792893 414.01912855881704 0 414.01912855881704 303.8706524299464 0 0 0 0 4.7027927489067913 1.1291142780724277 0 1.1291142780724277 1.7633099238477825 0 0 0 0 28.554171376846959 5.1455717451485192 0 5.1455717451485192 -1.3221808029249331 0 0 0 0 1.0071228060271018 19.698817876649734 0 19.698817876649734 0.87890931716759058 0 0 0 0 -6.9498742850628332 5.8440624840109194 0 5.8440624840109194 37.56430582997109 0 0 0 0 17.05022224172717 24.831988528309438 0 24.831988528309438 -81.485635028234128 0 0 0 0 -7.9493314731034843 343.23813793674816 0 343.23813793674816 514.94690504828634 0 0 0 0 -418.8360222904297 222.83557705415711 0 222.83557705415711 1158.7569407636597 0 0 0 0 2.6708405018985673 4.0353544761236497 0 4.0353544761236497 0.59278164450467419 0 0 0 0 30.898678308604616 -75.532652581834313 0 -75.532652581834313 252.56728384065866 0 0 0 0 4.9752164892172868 2.1246510230185098 0 2.1246510230185098 -0.68259694800550141 0 0 0 0 2.7069750672176598 1.6000357013451669 0 1.6000357013451669 -1.2248939858022356 0 0 0 0 11.905312198835087 15.367221856753279 0 15.367221856753279 -3.5470126434894316 0 0 0 0 271.01237740416929 110.9432832170319 0 110.9432832170319 259.39770855933625 0 0 0 0 143.75778408407575 491.75204919425801 0 491.75204919425801 -313.48703812073745 0 0 0 0 -552.22660305611441 625.03497014587833 0 625.03497014587833 668.93040768969161 0 0 0 0 355.80318654244957 199.97557766569511 0 199.97557766569511 108.12165592705129 0 0 0 0 256.8052838702406 164.84764755807709 0 164.84764755807709 106.56505972105685 0 0 0 0 10.966342510748932 -4.3319970395542686 0 -4.3319970395542686 -1.9785796929722395 0 0 0 0 -130.13055368346568 -234.59630901500114 0 -234.59630901500114 720.26609956568473 0 0 0 0 548.88464828560063 146.15763465997003 0 146.15763465997003 10.633528225508684 0 0 0 0 363.99638013185518 119.37243095561655 0 119.37243095561655 19.369245308393602 0 0 0 0 358.23352052404061 212.71604210849722 0 212.71604210849722 146.26763160427004 0 0 0 0 737.80660360035336 509.67152129791288 0 509.67152129791288 312.13503174154994 0 0 0 0 676.95269285569759 -821.98818555228684 0 -821.98818555228684 320.01764496157722 0 0 0 0 852.93736389763649 441.63805188090345 0 441.63805188090345 -742.99245195463038 0 0 0 0 557.11973616271439 -113.23239250411297 0 -113.23239250411297 22.271005278120924 0 0 0 0 298.9905860797636 34.279488388584355 0 34.279488388584355 -232.80103112903021 0 0 0 0 -246.25498102427787 226.39786552100139 0 226.39786552100139 -384.99329546311458 0 0 0 0 247.3935702590361 119.35493597239923 0 119.35493597239923 -362.97615008979994 0 0 0 0 5.0480279978002658 -2.4015079020905832 0 -2.4015079020905832 0.63097230372471802 0 0 0 0 -6.9037920975549838 -291.09170251568867 0 -291.09170251568867 -199.4775990304185 0 0 0 0 -215.67269849713094 -223.83762398503984 0 -223.83762398503984 -220.6059538209106 0 0 0 0 177.25944165316287 -137.76032128473577 0 -137.76032128473577 -18.122978343670752 0 0 0 0 575.1096572574578 -225.0699625727365 0 -225.0699625727365 -209.69952823904879 0 0 0 0 241.92642528127794 -40.849625079997111 0 -40.849625079997111 -253.45854262046873 0 0 0 0 94.686369292123118 -70.78994981063579 0 -70.78994981063579 -221.37499875510872 0 0 0 0 131.75645098416635 17.750904266092363 0 17.750904266092363 -363.5988151019717 0 0 0 0 79.270718267722714 14.824974287359936 0 14.824974287359936 -502.04001601326138 0 0 0 0 -22.564522373830982 -89.655481279989374 0 -89.655481279989374 -442.53441509732784 0 0 0 0 139.75048682686111 37.262651275883741 0 37.262651275883741 -378.06436060755459 0 0 0 0 235.76687542453919 -104.83492011982844 0 -104.83492011982844 -538.81298676501501 0 0 0 0 55.347779235957205 -232.32366428565479 0 -232.32366428565479 -588.04601576241373 0 0 0 0 -3.9426256666423569 -12.728021714288275 0 -12.728021714288275 9.5817635126377354 0 0 0 0 4.9166540142052781 -28.084197458386143 0 -28.084197458386143 -17.277573894170928 0 0 0 0 3.2169502154383736 -9.1319108891066207 0 -9.1319108891066207 9.0760631495340931 0 0 0 0 -7.4780852758808578 -21.706673630729256 0 -21.706673630729256 -0.37034886444280346 0 0 0 0 -28.627723813470993 -17.442017586537077 0 -17.442017586537077 18.759495587432866 0 0 0 0 0.42316441929302895 -2.2935409102752899 0 -2.2935409102752899 11.141278493141481 0 0 0 0 -51.482012591153705 -8.8095249117397429 0 -8.8095249117397429 15.555870486659387 0 0 0 0 333.43049836394721 82.927624153065238 0 82.927624153065238 -56.495354380198833 0 0 0 0 83.125989442659616 -65.855708474955236 0 -65.855708474955236 107.7773781748034 0 0 0 0 356.70674608811873 -32.046284289191817 0 -32.046284289191817 -34.283783170758511 0 0 0 0 364.76501605744227 34.269147420240579 0 34.269147420240579 28.148077508625192 0 0 0 0 456.72696907860313 0.68012941965270102 0 0.68012941965270102 -16.311625133953839 0 0 0 0 882.81018677938209 220.99590726726501 0 220.99590726726501 -3.3255762462689131 0 0 0 0 519.33427299808511 -230.45797404468485 0 -230.45797404468485 108.19704910985163 0 0 0 0 594.66483244898859 125.57931282300177 0 125.57931282300177 76.803139209515365 0 0 0 0 743.2077645709403 -37.943975156894226 0 -37.943975156894226 -154.21613381276882 0 0 0 0 170.03435500352202 -126.11759929319891 0 -126.11759929319891 12.402055169304077 0 0 0 0 131.57598586366851 108.45668489826551 0 108.45668489826551 -48.843674272906924 0 0 0 0 -36.206204900810064 -74.863419530913248 0 -74.863419530913248 152.92060896694136 0 0 0 0 1.1946621642480295 -16.176178027973492 0 -16.176178027973492 9.3133677232614787 0 0 0 0 0.88492654844513541 -2.6890494348102818 0 -2.6890494348102818 16.047761384589933 0 0 0 0 5.8009669400132218 0.44994456809808669 0 0.44994456809808669 4.8845475413108952 0 0 0 0 41.345928986052968 -12.729561059395564 0 -12.729561059395564 17.421641468676512 0 0 0 0 10.662171840434439 -20.017025812961947 0 -20.017025812961947 22.61313807184149 0 0 0 0 0.90911186145056533 -2.4892355015407164 0 -2.4892355015407164 1.006511624671532 0 0 0 0 -2.406007594518087 -17.35227118274679 0 -17.35227118274679 20.506565711130861 0 0 0 0 28.694254470217857 28.347764086971438 0 28.347764086971438 -40.100099247294338 0 0 0 0 77.250541280318885 -6.7378811763746853 0 -6.7378811763746853 -28.850826752074681 0 0 0 0 23.018033864402241 28.167511845200352 0 28.167511845200352 -39.328296418636228 0 0 0 0 31.97600149312542 5.1246855436943646 0 5.1246855436943646 0.26616764352286815 0 0 0 0 34.628529036075633 28.702057329675881 0 28.702057329675881 -41.376386005646054 0 0 0 0 30.104739867834724 27.279911213892774 0 27.279911213892774 -40.556319290313695 0 0 0 0 7.5068502165576323 -2.740850626761826 0 -2.740850626761826 2.2559399451891835 0 0 0 0 19.047874424017209 27.605913575094746 0 27.605913575094746 -40.148762531985994 0 0 0 0 7.3282645190774929 32.245309309751974 0 32.245309309751974 -40.083965552021255 0 0 0 0 11.782119505383889 30.363381240815215 0 30.363381240815215 -41.096511803865724 0 0 0 0 26.386485247086966 -12.083844351915104 0 -12.083844351915104 4.1085346527015645 0 0 0 0 25.054353009658371 -17.105847967235604 0 -17.105847967235604 2.1790097051275552 0 0 0 0 3.1800540510048183 -2.416823467178753 0 -2.416823467178753 1.7640971701265045 0 0 0 0 21.822608364158071 -22.450308081037761 0 -22.450308081037761 10.958989578932233 0 0 0 0 21.047000245728142 7.1277085535674303 0 7.1277085535674303 26.114717729772565 0 0 0 0 44.266634481711378 -12.93178398099478 0 -12.93178398099478 19.460999952729253 0 0 0 0 42.644670716427456 10.698642088508024 0 10.698642088508024 24.795256635376973 0 0 0 0 20.714033014120105 -21.159355285681613 0 -21.159355285681613 16.831489598342159 0 0 0 0 24.939863578463473 -14.057876736903836 0 -14.057876736903836 13.825742825061752 0 0 0 0 -0.83991340902298361 -23.574717235220533 0 -23.574717235220533 -3.806820630909499 0 0 0 0 2.7112172292943963 -6.309141525912457 0 -6.309141525912457 13.667458738238423 0 0 0 0 21.18423009331309 -15.809735055608598 0 -15.809735055608598 28.275483274268026 0 0 0 0 25.805954494879643 -12.363738169893622 0 -12.363738169893622 7.3835787526350032 0 0 0 0 23.668437809080615 -13.805143441023915 0 -13.805143441023915 20.011968151674409 0 0 0 0 6.055648077013811 -7.7831247174549842 0 -7.7831247174549842 11.297058979169501 0 0 0 0 4.3593717233816536 1.1435814759327663 0 1.1435814759327663 4.9445581657754865 0 0 0 0 8.5408360191140673 26.653245590532606 0 26.653245590532606 -39.486636846012061 0 0 0 0 452.98115277669126 74.954059642999653 0 74.954059642999653 -14.161630219980452 0 0 0 0 58.773964364927224 50.851052743581533 0 50.851052743581533 52.778424641365262 0 0 0 0 83.226064329090946 -70.942560804777884 0 -70.942560804777884 31.6366456485556 0 0 0 0 74.705749058365868 113.11843387889454 0 113.11843387889454 66.43113875970198 0 0 0 0 40.915007841234456 -48.190223913401667 0 -48.190223913401667 9.679903742484953 0 0 0 0 2.3063170793118175 0.92890318715554088 0 0.92890318715554088 0.31410662836432124 0 0 0 0 701.36366322392769 -140.26326500015887 0 -140.26326500015887 -32.465687361011135 0 0 0 0 421.83549614739081 -114.84471084498284 0 -114.84471084498284 96.822820944031832 0 0 0 0 708.20919352691703 -48.472653145320351 0 -48.472653145320351 -157.3301325810682 0 0 0 0 522.30944305248602 -213.60750283256974 0 -213.60750283256974 -17.456742082588221 0 0 0 0 395.65048106801191 -153.52230229361118 0 -153.52230229361118 -45.953730354701747 0 0 0 0 323.99603330709772 -90.819856936533171 0 -90.819856936533171 -19.141492672025606 0 0 0 0 340.20617307944076 -127.8169378669372 0 -127.8169378669372 5.2306406063496524 0 0 0 0 347.58803063994037 -127.7632791817843 0 -127.7632791817843 3.9378098556585428 0 0 0 0 323.01235743514553 -107.41272995630038 0 -107.41272995630038 62.553130506812522 0 0 0 0 313.12468780604792 -115.42961222272781 0 -115.42961222272781 66.497540258566914 0 0 0 0 283.00464364228571 -59.866341513283444 0 -59.866341513283444 43.644694889061839 0 0 0 0 165.79803135439215 101.9869497676882 0 101.9869497676882 179.68030478776336 0 0 0 0 277.80766132933695 -71.153252880714035 0 -71.153252880714035 197.63317769956507 0 0 0 0 -42.144566499850043 -146.536665723135 0 -146.536665723135 448.50374577047319 0 0 0 0 149.73091125341261 -256.06220065939033 0 -256.06220065939033 158.74651344432715 0 0 0 0 39.243707596898275 -59.074231927872916 0 -59.074231927872916 14.947001682523251 0 0 0 0 -6.8132030208107608 90.499951757197778 0 90.499951757197778 -127.80542339204021 0 0 0 0 8.4846751901085682 7.0547218529341755 0 7.0547218529341755 4.9068425919105518 0 0 0 0 -39.786790239012589 85.008767092846028 0 85.008767092846028 -63.855906072633843 0 0 0 0 0.83072755987495928 1.3060227945072445 0 1.3060227945072445 1.1729495720391214 0 0 0 0 1.458438219551681 37.034212120588109 0 37.034212120588109 -60.775859861338176 0 0 0 0 -22.496413267386743 63.32776525923282 0 63.32776525923282 -58.877094378346555 0 0 0 0 -44.520374490713948 33.041579064318057 0 33.041579064318057 -48.824946843655198 0 0 0 0 -3.1728387978255341 28.18031359667475 0 28.18031359667475 -64.212880609465628 0 0 0 0 -57.276358881377746 58.48062579188354 0 58.48062579188354 -42.927219687063371 0 0 0 0 343.73606384798569 -126.09924273339212 0 -126.09924273339212 -33.725649666190861 0 0 0 0 35.844780936282987 3.1771022478104669 0 3.1771022478104669 38.528159911018975 0 0 0 0 14.585279432581979 5.9337831812846211 0 5.9337831812846211 7.0133486472092708 0 0 0 0 24.710176868220515 -8.2380132598764249 0 -8.2380132598764249 28.479710133075969 0 0 0 0 4.0355016254179645 46.073860733065885 0 46.073860733065885 -50.189267641610058 0 0 0 0 4.2932966561420471 40.474530949342807 0 40.474530949342807 -58.32127605972164 0 0 0 0 0.26806315472625819 -1.2590816626957242 0 -1.2590816626957242 4.9693469768231369 0 0 0 0 -1.4321376008774678 42.96782814062135 0 42.96782814062135 -42.098326167233608 0 0 0 0 -4.7366306648327736 42.231813476144453 0 42.231813476144453 -38.812102120362397 0 0 0 0 -4.3082824922130385 33.838311977703597 0 33.838311977703597 -39.144283086206997 0 0 0 0 4.1944466722998186 39.240748090373017 0 39.240748090373017 -40.146910606370511 0 0 0 0 -7.0056067813238769 39.602724999054772 0 39.602724999054772 -38.360655341872189 0 0 0 0 5.663926650178837 30.509610963369596 0 30.509610963369596 -38.376922198847751 0 0 0 0 11.022486175497761 39.238196170378615 0 39.238196170378615 -44.087870624316565 0 0 0 0 10.941317263506789 39.122227898267738 0 39.122227898267738 -43.824920665181708 0 0 0 0 9.5878841777230264 36.439250344073571 0 36.439250344073571 -44.038043045817176 0 0 0 0 8.5728573203832639 44.769257393196312 0 44.769257393196312 -48.259948484093911 0 0 0 0 15.100083740333503 39.901574716627692 0 39.901574716627692 -49.229392559547705 0 0 0 0 17.837075168385127 35.127638572199885 0 35.127638572199885 -47.427775185455175 0 0 0 0 19.077843103263149 38.966306551748858 0 38.966306551748858 -52.826640989543648 0 0 0 0 15.992089035673416 43.021710854311095 0 43.021710854311095 -57.72041737519703 0 0 0 0 10.827852464330135 46.864584413124248 0 46.864584413124248 -52.490646264739553 0 0 0 0 23.002231606964415 35.621593541075526 0 35.621593541075526 -61.926415030075532 0 0 0 0 0.18585072474297704 38.124026927392492 0 38.124026927392492 -52.870992706948527 0 0 0 0 -1.013156930365767 33.406627710591692 0 33.406627710591692 -45.551493214312359 0 0 0 0 41.802964813366998 29.467107215351007 0 29.467107215351007 -51.575538747899827 0 0 0 0 20.702391251066274 30.84038086204805 0 30.84038086204805 -46.276070544073264 0 0 0 0 38.049036221244023 29.469579013337807 0 29.469579013337807 -52.522994964914687 0 0 0 0 39.319992139987789 25.409794979253149 0 25.409794979253149 -42.490824369300299 0 0 0 0 56.737763401000848 21.805413903285626 0 21.805413903285626 -49.586383251267762 0 0 0 0 35.501046868561389 23.292389560900119 0 23.292389560900119 -44.031753735428538 0 0 0 0 43.251931265418534 26.139400777020455 0 26.139400777020455 -46.576334692825185 0 0 0 0 49.063733407992913 22.487980466628869 0 22.487980466628869 -48.232719750514661 0 0 0 0 41.971900689824906 21.693430623637596 0 21.693430623637596 -43.818346736245985 0 0 0 0 21.153639154785196 35.862266063101742 0 35.862266063101742 -49.737982521126014 0 0 0 0 20.151692226951127 34.574842103203991 0 34.574842103203991 -45.684114383453561 0 0 0 0 19.295615825074492 32.765746302973639 0 32.765746302973639 -44.413546930522898 0 0 0 0 33.290400126687018 30.793069258575997 0 30.793069258575997 -49.030412400115893 0 0 0 0 31.536336650653539 26.690329272684721 0 26.690329272684721 -43.944749418955325 0 0 0 0 31.664138950836787 26.671727194142477 0 26.671727194142477 -44.374172076164541 0 0 0 0 21.38371215385996 34.268834195008822 0 34.268834195008822 -45.507440246307851 0 0 0 0 17.137521634947916 30.535722756292671 0 30.535722756292671 -42.499117983017641 0 0 0 0 10.934494574052223 33.51328873937382 0 33.51328873937382 -41.680766566380044 0 0 0 0 18.904018662808085 27.020480380559093 0 27.020480380559093 -41.57655528322357 0 0 0 0 16.693298529029562 31.953128946960533 0 31.953128946960533 -43.315442311337392 0 0 0 0 28.054283266556013 30.570204845470471 0 30.570204845470471 -44.642033817091942 0 0 0 0 22.640661991768866 31.079715974571172 0 31.079715974571172 -43.516829190468343 0 0 0 0 32.186285518278055 27.69379076234236 0 27.69379076234236 -42.764098147404184 0 0 0 0 40.534402244375087 26.28327529001217 0 26.28327529001217 -44.081457537169172 0 0 0 0 245.10705376518513 -135.11929038097878 0 -135.11929038097878 -1.2321894173463761 0 0 0 0 234.35981579722838 8.9103813440084743 0 8.9103813440084743 19.189856353689265 0 0 0 0 88.540553190999162 -69.160325644304834 0 -69.160325644304834 -19.644421239277278 0 0 0 0 210.99216194872997 1.0169848016732317 0 1.0169848016732317 -177.59006996936193 0 0 0 0 290.58199902658544 -77.710342692440236 0 -77.710342692440236 -74.154156689808701 0 0 0 0 243.41993626152771 -145.94624826808422 0 -145.94624826808422 8.3694676766384646 0 0 0 0 167.88543217427974 -97.061604285854713 0 -97.061604285854713 -70.74831410244667 0 0 0 0 399.0187714347536 -185.74092068953854 0 -185.74092068953854 -62.06308769946483 0 0 0 0 404.14140312310451 -174.73987820067953 0 -174.73987820067953 3.9696484742240727 0 0 0 0 281.23783275031531 -95.396637474606933 0 -95.396637474606933 42.090292070181818 0 0 0 0 389.7922736178366 -187.46634531423939 0 -187.46634531423939 -0.93812022601150602 0 0 0 0 442.5693173450677 -81.135910419667283 0 -81.135910419667283 41.028279328416943 0 0 0 0 398.2419314008996 -162.47219604766403 0 -162.47219604766403 49.816122771541814 0 0 0 0 408.36797186635295 -152.74968175557319 0 -152.74968175557319 0.56184007159156124 0 0 0 0 365.56116003446391 -166.25780326725717 0 -166.25780326725717 65.200912974446055 0 0 0 0 413.40763309127669 -232.43938811284113 0 -232.43938811284113 158.49304999929132 0 0 0 0 309.06281516742479 -135.48715632536266 0 -135.48715632536266 68.482148065392266 0 0 0 0 399.67422374913036 -136.39395746351033 0 -136.39395746351033 71.063605942980189 0 0 0 0 637.36164331567352 -164.94574825567514 0 -164.94574825567514 61.102292138942744 0 0 0 0 467.5257068047772 13.415988415350682 0 13.415988415350682 160.37782793405268 0 0 0 0 303.34757744954391 -45.696161803859695 0 -45.696161803859695 145.75628678895285 0 0 0 0 199.36059357820795 -39.988720588329556 0 -39.988720588329556 72.754563687172862 0 0 0 0 371.83395531472172 39.484162037378155 0 39.484162037378155 108.97473814389497 0 0 0 0 214.44307519784275 85.168796717111661 0 85.168796717111661 194.82692457741257 0 0 0 0 -12.447776903623435 211.74486663753945 0 211.74486663753945 295.79320226633422 0 0 0 0 137.97509698252452 183.2589186763947 0 183.2589186763947 301.1741847844076 0 0 0 0 92.218632562222808 131.28394495186507 0 131.28394495186507 245.6571713410051 0 0 0 0 101.97625647546181 98.947917969247854 0 98.947917969247854 253.22476896185506 0 0 0 0 147.44027298550691 97.144557736680213 0 97.144557736680213 176.91878965359825 0 0 0 0 238.47733180983153 98.536397004320307 0 98.536397004320307 174.9677633093508 0 0 0 0 145.44548348768285 50.019453374680154 0 50.019453374680154 72.971212905388711 0 0 0 0 126.39928683087768 58.786012109811566 0 58.786012109811566 -106.59738289853908 0 0 0 0 67.792187476116567 63.917708191101269 0 63.917708191101269 94.973856954207122 0 0 0 0 48.288389147463249 26.212189948120226 0 26.212189948120226 73.983010224266351 0 0 0 0 162.96341276774262 -8.954914379326766 0 -8.954914379326766 -137.21619992525905 0 0 0 0 367.73642106317482 137.1861925535591 0 137.1861925535591 -302.97632005276409 0 0 0 0 622.28717832510233 280.02805726256247 0 280.02805726256247 -255.13043524094451 0 0 0 0 312.76826515255397 44.379358491627983 0 44.379358491627983 46.914125025593023 0 0 0 0 171.34932598338787 174.25944851169584 0 174.25944851169584 -70.124902405941896 0 0 0 0 186.65431343760667 59.393192979737961 0 59.393192979737961 86.806153000549571 0 0 0 0 189.22783892698243 128.17317374726102 0 128.17317374726102 99.412948660663389 0 0 0 0 445.95855024631544 233.42273117018095 0 233.42273117018095 244.95877279554719 0 0 0 0 307.42095830278436 1.9198819122190791 0 1.9198819122190791 234.22332963779132 0 0 0 0 159.66955657177556 52.100123886420221 0 52.100123886420221 305.18542509396985 0 0 0 0 548.10909269167905 13.605503175648096 0 13.605503175648096 272.02752443854638 0 0 0 0 234.14879768091484 158.8047325267101 0 158.8047325267101 358.09568179494954 0 0 0 0 817.1209689697132 292.99972716996422 0 292.99972716996422 293.4872314367675 0 0 0 0 1931.1723818419919 550.69612309914964 0 550.69612309914964 93.742591427024195 0 0 0 0 1077.8029815569278 35.000078510584615 0 35.000078510584615 212.92990223807385 0 0 0 0 1305.6884004508197 441.3464237310194 0 441.3464237310194 104.9426855298608 0 0 0 0 1067.5108026022367 611.80688774924988 0 611.80688774924988 376.19538492354684 0 0 0 0 638.99177806626039 64.395332316415477 0 64.395332316415477 307.94584451391654 0 0 0 0 3084.9243665532849 296.83089871855418 0 296.83089871855418 -886.9178210556579 0 0 0 0 2962.5200271057374 5.606509462273209 0 5.606509462273209 -308.54566877244395 0 0 0 0 5000.4883159508818 919.09575094577269 0 919.09575094577269 -804.63967717259413 0 0 0 0 2516.2123985110679 1503.2542115381275 0 1503.2542115381275 -398.81797350369163 0 0 0 0 2598.2910583633734 1111.4589607831981 0 1111.4589607831981 58.768688641518054 0 0 0 0 796.6556882699756 1123.4343797586043 0 1123.4343797586043 612.39485942506667 0 0 0 0 440.78968573459952 195.16198264605623 0 195.16198264605623 104.50633383345303 0 0 0 0 4990.4829177398879 2513.4007289333008 0 2513.4007289333008 -66.562732854246363 0 0 0 0 1118.4700536477185 2737.668494563919 0 2737.668494563919 2602.4580246120759 0 0 0 0 353.42198069422375 -80.346252182097714 0 -80.346252182097714 69.881471355716769 0 0 0 0 529.08328913363175 119.81747379460069 0 119.81747379460069 295.37050125944103 0 0 0 0 -34.373503868815533 -159.37725262436993 0 -159.37725262436993 -214.5147263551504 0 0 0 0 446.19892344707841 760.2294407775762 0 760.2294407775762 -840.85768920504688 0 0 0 0 533.14780086575615 279.2822907089444 0 279.2822907089444 -43.641031538758625 0 0 0 0 -631.71735573293881 700.16170721871106 0 700.16170721871106 1265.6899848230039 0 0 0 0 8.0805663160740657 6.694194124618071 0 6.694194124618071 1.6740798860859774 0 0 0 0 602.03306363807792 45.412254184533481 0 45.412254184533481 -1225.7743264646203 0 0 0 0 21.765887098808655 13.961765446154907 0 13.961765446154907 3.083650672639993 0 0 0 0 167.26595432684917 463.12903064223769 0 463.12903064223769 -273.99939600531525 0 0 0 0 836.35784758681984 789.53114278368503 0 789.53114278368503 -997.32051828938188 0 0 0 0 79.813176454707985 16.778558756666136 0 16.778558756666136 2.1227599734583302 0 0 0 0 1106.8445686331252 234.79386855977938 0 234.79386855977938 -754.72978277237473 0 0 0 0 32.532464368374363 4.1609805430430624 0 4.1609805430430624 3.0443997566674512 0 0 0 0 12.648498003292232 10.432005613110615 0 10.432005613110615 3.2614753445021614 0 0 0 0 4956.2056593486195 1194.7960330634451 0 1194.7960330634451 -1107.4663421326268 0 0 0 0 -453.25846995831307 116.44025088524404 0 116.44025088524404 1171.7742358523155 0 0 0 0 117.26183141539877 381.43658544336176 0 381.43658544336176 -94.013693010448605 0 0 0 0 2181.5682961207895 -2273.8586087229637 0 -2273.8586087229637 930.01845796356224 0 0 0 0 -41.925964972573638 -31.896823562513134 0 -31.896823562513134 339.92149153224165 0 0 0 0 4988.976591834682 -1161.9662287453625 0 -1161.9662287453625 -622.6797011714583 0 0 0 0 2862.8773150916022 -902.59453890324289 0 -902.59453890324289 -653.74689905074092 0 0 0 0 698.67969487929076 -457.68915308502659 0 -457.68915308502659 583.23078066638686 0 0 0 0 1647.1751238491706 -524.29166155559665 0 -524.29166155559665 521.72741090589955 0 0 0 0 2828.8207145419146 -56.374726039825809 0 -56.374726039825809 -100.40426332091124 0 0 0 0 1652.1898203103483 312.75142080977673 0 312.75142080977673 175.32264196164817 0 0 0 0 5000.8736152197689 -12.047025317803911 0 -12.047025317803911 -949.6648510040834 0 0 0 0 -712.22477660089135 -166.17643906119793 0 -166.17643906119793 815.59155507833304 0 0 0 0 9.8689932773982605 3.6836052842548845 0 3.6836052842548845 -1.4879577906788919 0 0 0 0 -46.070880540165035 -82.82048980410903 0 -82.82048980410903 8.7482626664365739 0 0 0 0 144.60707357484353 11.234191220448849 0 11.234191220448849 -55.771194387450862 0 0 0 0 419.3378270302419 142.13086017519447 0 142.13086017519447 1051.6526773985765 0 0 0 0 1257.8096182557674 206.95326650303028 0 206.95326650303028 51.744400611188667 0 0 0 0 829.28464764991077 692.70380740075871 0 692.70380740075871 856.53339051108537 0 0 0 0 504.93282170768362 201.04401783407639 0 201.04401783407639 40.992702219867624 0 0 0 0 976.13687858364574 406.05873961407275 0 406.05873961407275 24.526428515730231 0 0 0 0 9.5410953927615054 -6.08666508616718 0 -6.08666508616718 -3.0701185639555741 0 0 0 0 209.64097896753083 203.57595427808269 0 203.57595427808269 43.929699157003768 0 0 0 0 1025.146681569835 -104.24179368368698 0 -104.24179368368698 49.586916125997732 0 0 0 0 806.60522882984333 291.61389107367427 0 291.61389107367427 -19.902715770127543 0 0 0 0 909.92943567944894 -47.99332918762218 0 -47.99332918762218 482.98017111759361 0 0 0 0 9.1902915429091081 35.825837308363134 0 35.825837308363134 6.94131097296804 0 0 0 0 5.9214283165298411 10.15152101667875 0 10.15152101667875 -3.0573884384218424 0 0 0 0 -41.416078923393798 -33.995596795304436 0 -33.995596795304436 34.273237034417129 0 0 0 0 16.700285644430551 42.899866778857756 0 42.899866778857756 6.2999012448338405 0 0 0 0 11.984637262693468 49.237382514491912 0 49.237382514491912 15.757385282936866 0 0 0 0 1.1384301138350565 35.307985001707266 0 35.307985001707266 32.118822388173157 0 0 0 0 -2.6611201750565669 7.3825479732735744 0 7.3825479732735744 48.282297441674835 0 0 0 0 -2.6042876306897824 19.349728606624698 0 19.349728606624698 1.2217734492472148 0 0 0 0 3.3185744915735427 1.788919221954032 0 1.788919221954032 3.8603823711188081 0 0 0 0 -233.95319267130981 -428.25680249912784 0 -428.25680249912784 -343.21526718401776 0 0 0 0 -19.714536409555876 49.989770948972136 0 49.989770948972136 21.972150081938253 0 0 0 0 -8.8488101980310603 6.6477421675813755 0 6.6477421675813755 28.373425773409565 0 0 0 0 -12.273561136313219 23.707820973056684 0 23.707820973056684 13.062718643322938 0 0 0 0 -32.192721569842433 -8.3047133421443959 0 -8.3047133421443959 12.704366066181592 0 0 0 0 13.871300441984204 17.71735422382244 0 17.71735422382244 19.081394837031894 0 0 0 0 -28.036775271448278 76.410494998349918 0 76.410494998349918 -39.997818209406773 0 0 0 0 55.305887248214276 297.28184797522221 0 297.28184797522221 -164.57289795408255 0 0 0 0 -4.4658240218777792 -22.353569440201113 0 -22.353569440201113 -9.8300527683985308 0 0 0 0 -26.983972819949486 13.148055906211312 0 13.148055906211312 61.135489912341654 0 0 0 0 -2.9184582946326429 19.246276533123684 0 19.246276533123684 1.9867405714984794 0 0 0 0 63.638387208761856 13.170073735583674 0 13.170073735583674 1.7881757845862052 0 0 0 0 143.97641552208611 40.677579563274321 0 40.677579563274321 -806.31542863303866 0 0 0 0 -12.92067016929775 82.359361202764489 0 82.359361202764489 -402.10725212632974 0 0 0 0 51.637914404092498 -50.605879397312833 0 -50.605879397312833 -404.28376913538182 0 0 0 0 38.330208243382458 -17.796027417937125 0 -17.796027417937125 -137.63808373543475 0 0 0 0 97.808207338494526 -27.52311289698946 0 -27.52311289698946 -382.67886661817602 0 0 0 0 -41.927789849683904 14.983487883608859 0 14.983487883608859 -106.19163255747455 0 0 0 0 -13.389137349249808 70.242098262214313 0 70.242098262214313 -93.054252155112522 0 0 0 0 100.564288661135 91.432667177060353 0 91.432667177060353 -272.53669939819065 0 0 0 0 181.0574412872661 432.80079307940264 0 432.80079307940264 -10.333364435630301 0 0 0 0 879.18003575628427 -617.65704572622531 0 -617.65704572622531 -418.84804595174683 0 0 0 0 398.59092486516505 287.40655260160179 0 287.40655260160179 -1188.5064336964313 0 0 0 0 88.168701458995642 18.966148633852836 0 18.966148633852836 1.9464968941451222 0 0 0 0 745.30387498872733 584.14642675377263 0 584.14642675377263 -579.66900960935664 0 0 0 0 303.55553579037223 1119.8787608075636 0 1119.8787608075636 148.64338496304373 0 0 0 0 -142.53054920198383 -132.34678903449321 0 -132.34678903449321 -328.0648319147349 0 0 0 0 20.394096930274827 67.758807643476302 0 67.758807643476302 -28.403319163477363 0 0 0 0 -7.3686791965155862 -16.903285053051036 0 -16.903285053051036 43.06380761846674 0 0 0 0 168.49412975630185 27.121045454717432 0 27.121045454717432 23.625555306362003 0 0 0 0 32.725588144413905 18.729712881635521 0 18.729712881635521 91.61856321794312 0 0 0 0 22.146449022506204 44.300779344038972 0 44.300779344038972 69.808882018804525 0 0 0 0 195.67230913156527 -14.957314129335373 0 -14.957314129335373 -26.396464026698368 0 0 0 0 141.06532338557554 1.6757055245279844 0 1.6757055245279844 6.1965057454685848 0 0 0 0 20.61295252624371 3.5948579258210955 0 3.5948579258210955 1.7557873914030253 0 0 0 0 397.17606299913678 -108.65198969253871 0 -108.65198969253871 -185.99122679946163 0 0 0 0 87.805002587079798 -278.17742806181707 0 -278.17742806181707 516.93995672328401 0 0 0 0 4.8421442216117505 -4.0986661693243107 0 -4.0986661693243107 5.0852775273231581 0 0 0 0 4099.0055759671041 191.12533775632892 0 191.12533775632892 -148.019667156369 0 0 0 0 1470.0398003400114 -886.11863186310632 0 -886.11863186310632 305.86429501024634 0 0 0 0 2429.8569640994074 -157.41169967540895 0 -157.41169967540895 -77.012915263809418 0 0 0 0 2259.0556528823527 7.3993041792974168 0 7.3993041792974168 943.74252721966423 0 0 0 0 41.516730809862068 57.2616652815084 0 57.2616652815084 -6.9421732094248663 0 0 0 0 792.38786700779383 31.620358783980919 0 31.620358783980919 -80.416525880466679 0 0 0 0 107.81294122887266 149.55090859300867 0 149.55090859300867 408.43575537126662 0 0 0 0 890.50570521761256 -402.73293595468078 0 -402.73293595468078 75.09196816332971 0 0 0 0 1553.8844437363659 -219.44861793443067 0 -219.44861793443067 -405.28955735708257 0 0 0 0 37.918797549664028 4.6866476014286071 0 4.6866476014286071 -6.1539429502357237 0 0 0 0 2306.4036963124177 -193.10331424177119 0 -193.10331424177119 -296.7036022091666 0 0 0 0 2136.4788718408417 -726.7334453504468 0 -726.7334453504468 -74.231320622490344 0 0 0 0 1899.1005822391053 -440.7050111192234 0 -440.7050111192234 -186.09275712304179 0 0 0 0 1897.5846422998529 -461.7675094592654 0 -461.7675094592654 -104.55154232873156 0 0 0 0 2269.1688243612562 -967.4699921006536 0 -967.4699921006536 454.68974795686881 0 0 0 0 1986.0601079989792 -509.13235786428027 0 -509.13235786428027 -385.96399184498875 0 0 0 0 920.19437974337052 -48.145275177845406 0 -48.145275177845406 -158.7986530162475 0 0 0 0 2749.9618208184729 -80.146968550256133 0 -80.146968550256133 -265.36821748792886 0 0 0 0 969.37459707853623 164.54747865582635 0 164.54747865582635 -167.40520270557585 0 0 0 0 4.9234882788186951 -38.290272103648931 0 -38.290272103648931 328.4258993980402 0 0 0 0 43.622585697781872 53.163278659905252 0 53.163278659905252 -7.4605134368787054 0 0 0 0 -51.777918489713556 111.23331809503406 0 111.23331809503406 33.738653207356037 0 0 0 0 149.01469896187427 62.480036691979862 0 62.480036691979862 -134.05667676677376 0 0 0 0 108.36030182937793 105.28443142173614 0 105.28443142173614 6.2050409953899361 0 0 0 0 28.022528216542923 42.365033743536969 0 42.365033743536969 -31.158200758828571 0 0 0 0 44.286763419098861 120.95699761495098 0 120.95699761495098 -21.364132681070373 0 0 0 0 50.608825263993666 46.485204188897015 0 46.485204188897015 -22.911157000323414 0 0 0 0 370.56137288835453 78.634449453374145 0 78.634449453374145 -41.124826187815415 0 0 0 0 35.264751177190192 21.246158942795773 0 21.246158942795773 -42.990745101375069 0 0 0 0 227.12627269160384 -164.8920246237152 0 -164.8920246237152 53.205566137775804 0 0 0 0 732.27115212398166 -226.88271008813638 0 -226.88271008813638 6.544859229046267 0 0 0 0 111.99794017924796 22.753621534599233 0 22.753621534599233 76.720235145624429 0 0 0 0 5.3326837128987066 5.3476326283765445 0 5.3476326283765445 3.9383236326837405 0 0 0 0 328.96662061590905 269.14430345649862 0 269.14430345649862 -506.46058056560651 0 0 0 0 2.1551697981054794 -0.28564202358756319 0 -0.28564202358756319 2.0180349772856285 0 0 0 0 6.8431041782114335 17.03888995890793 0 17.03888995890793 -36.062131957927249 0 0 0 0 307.97826638027072 -109.68619148948392 0 -109.68619148948392 -46.512155011455889 0 0 0 0 3.1072650074510584 2.1208496729169717 0 2.1208496729169717 0.42866592152859084 0 0 0 0 -18.362708092434332 -80.704990806142405 0 -80.704990806142405 -38.861972011204884 0 0 0 0 30.454699430518303 -28.396248903846981 0 -28.396248903846981 -33.852469673287487 0 0 0 0 42.474061115628501 -23.590377359187187 0 -23.590377359187187 -59.44042233642358 0 0 0 0 178.05544380129868 -31.234385382042547 0 -31.234385382042547 1.3616817062443261 0 0 0 0 101.50634010087401 -70.650757074237944 0 -70.650757074237944 -15.960467793564021 0 0 0 0 120.07092965998527 -72.526955902089867 0 -72.526955902089867 -39.063611926595016 0 0 0 0 106.91349457412582 28.302392131069936 0 28.302392131069936 0.53980838108509488 0 0 0 0 235.43026666050355 16.702121005315803 0 16.702121005315803 -11.778454865040885 0 0 0 0 3.8139705016196785 170.84070877626675 0 170.84070877626675 -8.027917443140268 0 0 0 0 351.02448922224994 185.91824216567449 0 185.91824216567449 -7.7971618546403079 0 0 0 0 229.22910913039414 13.606915040889703 0 13.606915040889703 38.880068861441941 0 0 0 0 234.85047961648888 50.323433642145119 0 50.323433642145119 76.866377087081901 0 0 0 0 213.52402978670307 -90.729078804053756 0 -90.729078804053756 28.996077284066359 0 0 0 0 171.59020260776015 -31.198981111350122 0 -31.198981111350122 14.387459391887205 0 0 0 0 284.7746244986447 6.7939063309438552 0 6.7939063309438552 23.522719540686694 0 0 0 0 175.93726491632333 -6.4482009576111068 0 -6.4482009576111068 164.84506980453796 0 0 0 0 410.26790720536883 123.55308191099527 0 123.55308191099527 80.363802141422639 0 0 0 0 444.10423008436555 90.771767859782585 0 90.771767859782585 54.788912289256587 0 0 0 0 327.81097881671485 -69.310009702509092 0 -69.310009702509092 57.815773476884033 0 0 0 0 193.81826526135092 -22.696869012542948 0 -22.696869012542948 85.116626991703015 0 0 0 0 209.70684468901527 -83.715672949844929 0 -83.715672949844929 47.348784091456878 0 0 0 0 287.33350139216418 60.58356415308981 0 60.58356415308981 52.941868120188019 0 0 0 0 198.84610255884763 -21.676198906842785 0 -21.676198906842785 164.80481083472932 0 0 0 0 236.02625462897868 -64.433122167301462 0 -64.433122167301462 11.1683538957368 0 0 0 0 248.07687355999951 -71.754291845887565 0 -71.754291845887565 -8.9832227898723431 0 0 0 0 176.73216551884616 -93.416028783188494 0 -93.416028783188494 7.9458524582585142 0 0 0 0 235.7342460341988 -90.462800333187488 0 -90.462800333187488 -227.94090759550681 0 0 0 0 186.15258695284865 -60.798253689417834 0 -60.798253689417834 10.995791430997201 0 0 0 0 197.61021388687732 -66.51556226267212 0 -66.51556226267212 22.986128926322181 0 0 0 0 204.58904828826235 -81.474028544678049 0 -81.474028544678049 -25.408280175925483 0 0 0 0 212.81465452423072 -61.050049186998422 0 -61.050049186998422 24.675192250875625 0 0 0 0 264.02291542504827 4.4792434053392753 0 4.4792434053392753 -8.4000816958323412 0 0 0 0 278.94931756515871 -47.806700274677951 0 -47.806700274677951 42.13306461181628 0 0 0 0 -77.880277937292703 -96.74904794764052 0 -96.74904794764052 246.27408513008436 0 0 0 0 -2.5273211958738102 121.04007232359072 0 121.04007232359072 348.39307420471789 0 0 0 0 4.5905580140988533 2.4782837481860156 0 2.4782837481860156 2.0957867169247764 0 0 0 0 564.25637001257928 89.598816362575235 0 89.598816362575235 23.602175293622622 0 0 0 0 341.97918950784515 -149.94148826521678 0 -149.94148826521678 282.39774435602607 0 0 0 0 340.36576395377233 185.82184188878159 0 185.82184188878159 347.55037838825092 0 0 0 0 245.15019006467969 -15.273626121202909 0 -15.273626121202909 120.61501559054159 0 0 0 0 323.38543197280524 -95.569225258160486 0 -95.569225258160486 -40.044079851097649 0 0 0 0 230.67223433525578 15.976306232107618 0 15.976306232107618 -173.32783464901468 0 0 0 0 330.81729500261645 91.79513850676949 0 91.79513850676949 -112.05707196838102 0 0 0 0 552.28078098758851 -77.811298516319312 0 -77.811298516319312 14.104597872473278 0 0 0 0 9.6934742302728409 168.39163789811914 0 168.39163789811914 32.425267644529868 0 0 0 0 77.414237950975803 351.52192726174326 0 351.52192726174326 -181.42474475624658 0 0 0 0 431.44263172100182 381.66721173237943 0 381.66721173237943 68.067414958680047 0 0 0 0 476.36120576475514 20.783703175973642 0 20.783703175973642 -274.31070691137393 0 0 0 0 229.00760798593546 5.5576981354025747 0 5.5576981354025747 -184.33288075122528 0 0 0 0 170.11361486854366 71.645305346983378 0 71.645305346983378 -219.18026490682132 0 0 0 0 225.59864590695361 59.705792411081347 0 59.705792411081347 -230.7441906006743 0 0 0 0 230.12155670216578 -30.848857075351987 0 -30.848857075351987 -202.0873265078344 0 0 0 0 148.75347727928965 3.6018151603509523 0 3.6018151603509523 -208.50370762145621 0 0 0 0 100.70547926599004 37.557562370495418 0 37.557562370495418 -15.235899964902288 0 0 0 0 47.393803291872558 16.096170301473173 0 16.096170301473173 -14.759727798846821 0 0 0 0 145.6160513789946 33.755117208400407 0 33.755117208400407 -170.82487289902747 0 0 0 0 149.84469145068942 25.951124085092488 0 25.951124085092488 -160.7616719874668 0 0 0 0 -6.1418967403931504 12.389860616695069 0 12.389860616695069 -0.64977670062022597 0 0 0 0 -178.48495294997338 188.3668389505201 0 188.3668389505201 170.27111724504721 0 0 0 0 206.6933160177432 59.331225324558545 0 59.331225324558545 -30.991839656680895 0 0 0 0 237.79230262049532 99.036736157105224 0 99.036736157105224 19.693192831011402 0 0 0 0 205.54423718216458 -53.474753106852688 0 -53.474753106852688 -8.3376933495237608 0 0 0 0 257.34006283683993 -44.857095126954619 0 -44.857095126954619 -24.369919248213137 0 0 0 0 214.19682382316751 -11.97751192974988 0 -11.97751192974988 24.150665501953881 0 0 0 0 261.35616613869297 -24.593138701521809 0 -24.593138701521809 -57.559356942370869 0 0 0 0 257.60909992268671 -44.27513619355841 0 -44.27513619355841 -89.786387359547007 0 0 0 0 291.91116606065771 3.1893908323027063 0 3.1893908323027063 -51.127355689379328 0 0 0 0 -11.268683076603338 -228.43084900591066 0 -228.43084900591066 -213.49349615374993 0 0 0 0 144.44893397527812 0.52871991146707842 0 0.52871991146707842 -145.0711784576979 0 0 0 0 419.08865451681231 204.38365538225099 0 204.38365538225099 61.892960006693102 0 0 0 0 -4.1545318941914289 0.78698668052490106 0 0.78698668052490106 4.8949503990543874 0 0 0 0 206.70734729411197 -68.710226922083166 0 -68.710226922083166 -70.947838518313802 0 0 0 0 152.27504439032055 100.47066787362428 0 100.47066787362428 78.164202340943831 0 0 0 0 144.58217991195124 161.98830310053677 0 161.98830310053677 -108.90490163516409 0 0 0 0 159.39982867562867 45.320543033838192 0 45.320543033838192 -6.5091511133955464 0 0 0 0 106.78708399130844 18.969819339069602 0 18.969819339069602 -14.011410674992881 0 0 0 0 200.6695710239328 117.20566171410542 0 117.20566171410542 -100.49461519954684 0 0 0 0 43.297589245070412 113.05000769091521 0 113.05000769091521 -26.381516011345184 0 0 0 0 152.90918818965292 14.561920985686356 0 14.561920985686356 -41.858655868494225 0 0 0 0 111.72275228475337 -37.98971475264625 0 -37.98971475264625 -95.7797673614009 0 0 0 0 247.6281045595515 -29.73289854818654 0 -29.73289854818654 -23.078490158189652 0 0 0 0 181.16581189388125 -65.53988483126102 0 -65.53988483126102 -15.24034001919199 0 0 0 0 198.51244974381189 -118.73649506959691 0 -118.73649506959691 31.669993769767203 0 0 0 0 202.74465852742287 -51.855919424330523 0 -51.855919424330523 -9.2433986055493733 0 0 0 0 98.582267299600062 3.2763532162260844 0 3.2763532162260844 -2.2229660080447502 0 0 0 0 150.96666402946721 -30.094206033989963 0 -30.094206033989963 -8.080739130563984 0 0 0 0 149.00521153803129 -5.3205593107156801 0 -5.3205593107156801 -60.25052623079273 0 0 0 0 148.55251698185839 -1.1752836116352086 0 -1.1752836116352086 -6.5100471912342073 0 0 0 0 93.99570824899547 23.17631128858838 0 23.17631128858838 -29.197103750089354 0 0 0 0 277.54873251727258 -105.118895770682 0 -105.118895770682 -27.45000918606047 0 0 0 0 -2.6735089143133521 0.4427282010075011 0 0.4427282010075011 -1.2484368155944319 0 0 0 0 112.75341449304324 -43.725697392149868 0 -43.725697392149868 -95.238485869339684 0 0 0 0 251.39543729679644 -63.198189333979144 0 -63.198189333979144 -75.339288060065883 0 0 0 0 272.47497866088088 5.1101678380105113 0 5.1101678380105113 -89.935357390714842 0 0 0 0 53.323104449222228 -24.328649432171119 0 -24.328649432171119 38.183099978568407 0 0 0 0 97.354624831215915 -93.139827811239115 0 -93.139827811239115 61.369398596435076 0 0 0 0 118.19912827620283 -20.35670283772788 0 -20.35670283772788 -3.8861920319000092 0 0 0 0 118.37242491853976 -14.066863700350495 0 -14.066863700350495 4.4112989610885052 0 0 0 0 123.28336402249806 8.6741631380793365 0 8.6741631380793365 -3.3269715567103049 0 0 0 0 147.17504123408798 7.1122291246524583 0 7.1122291246524583 -12.067444963345224 0 0 0 0 88.338908320140035 33.189009524099447 0 33.189009524099447 -1.7364855072974024 0 0 0 0 52.579581844454992 0.028851321305765509 0 0.028851321305765509 16.910968126268926 0 0 0 0 144.41491532398504 39.003867883269095 0 39.003867883269095 -11.236726698265556 0 0 0 0 -3.6106803023877916 -0.58725749773751446 0 -0.58725749773751446 1.8224667274781083 0 0 0 0 197.67376235327538 -67.103144012136454 0 -67.103144012136454 18.812878257764964 0 0 0 0 56.822260749055673 -2.6704060113260439 0 -2.6704060113260439 16.588291479743766 0 0 0 0 2090.8421486205425 -125.26830006706359 0 -125.26830006706359 -27.500446791828836 0 0 0 0 2349.0671202044086 -268.44870995830934 0 -268.44870995830934 51.72513345387506 0 0 0 0 2346.313669244777 -319.47875681327639 0 -319.47875681327639 -344.72962893457952 0 0 0 0 2443.3080709269125 61.799251248376322 0 61.799251248376322 -45.10978679037089 0 0 0 0 61.498137572424568 55.393212747258971 0 55.393212747258971 -8.3826776643489929 0 0 0 0 161.29381041648139 7.5624292780794917 0 7.5624292780794917 -21.056157722625358 0 0 0 0 259.68806985178162 37.628315134365636 0 37.628315134365636 -39.420680515114398 0 0 0 0 188.04442477968769 22.707933985853174 0 22.707933985853174 -22.084293861247602 0 0 0 0 63.416765710653891 -32.476907884444209 0 -32.476907884444209 -43.647178932702815 0 0 0 0 169.43594747336101 -8.164964441171719 0 -8.164964441171719 -23.755814322725655 0 0 0 0 147.53718140012279 15.760715282202227 0 15.760715282202227 -4.366970993148243 0 0 0 0 79.725855533652236 99.85770100393168 0 99.85770100393168 63.611258758554825 0 0 0 0 1557.3502756755452 -272.81810197122832 0 -272.81810197122832 97.680018393371938 0 0 0 0 2001.5787857427135 -983.97875515949409 0 -983.97875515949409 199.16383926196249 0 0 0 0 350.42975048934022 237.90009444218231 0 237.90009444218231 43.511216325505302 0 0 0 0 283.82836128047347 -48.80234025603022 0 -48.80234025603022 -0.53926197571593093 0 0 0 0 438.29257952138141 68.125559777634408 0 68.125559777634408 80.642849583654879 0 0 0 0 616.25060679083617 301.55996521623001 0 301.55996521623001 -22.103355695247956 0 0 0 0 192.60053199825779 18.175227157096629 0 18.175227157096629 -34.771886759021527 0 0 0 0 28.443403428642775 -46.984341986898293 0 -46.984341986898293 -32.937523088197771 0 0 0 0 64.008422486580926 93.015444009628865 0 93.015444009628865 58.41462001986671 0 0 0 0 -30.307553895348974 345.45441801209199 0 345.45441801209199 53.613587149649902 0 0 0 0 3255.1201073665025 -847.15206553493454 0 -847.15206553493454 -109.9936436898015 0 0 0 0 2012.546132539032 125.84853858128417 0 125.84853858128417 1174.7995572988502 0 0 0 0 13.689891947118483 -10.767867754607092 0 -10.767867754607092 8.2779796679268856 0 0 0 0 4722.2198035501715 873.17651081215013 0 873.17651081215013 -133.56556971394639 0 0 0 0 3729.5433410674714 -1332.1947129381242 0 -1332.1947129381242 -55.117301537728963 0 0 0 0 -374.85948831619305 -1250.383951025281 0 -1250.383951025281 504.48725849107188 0 0 0 0 -163.25100900279529 77.770507139058282 0 77.770507139058282 13.627662102537215 0 0 0 0 1108.0488373609855 -298.54519388139113 0 -298.54519388139113 156.35622427318594 0 0 0 0 461.88332234136715 -409.70258005984851 0 -409.70258005984851 326.80620280382391 0 0 0 0 1493.1723949772918 -1689.6707423873104 0 -1689.6707423873104 434.36865255012424 0 0 0 0 351.27393237837805 -19.458958324009473 0 -19.458958324009473 222.49350521834276 0 0 0 0 508.78000322954176 78.058258484196813 0 78.058258484196813 -30.983964376166114 0 0 0 0 125.12054029185674 180.93272484111594 0 180.93272484111594 27.55888327084358 0 0 0 0 243.23370524971233 -17.173491933465812 0 -17.173491933465812 220.01302075870171 0 0 0 0 380.93651767388474 150.91861017710562 0 150.91861017710562 11.455821981558984 0 0 0 0 101.85356575682579 125.11395275976395 0 125.11395275976395 -33.057574283448048 0 0 0 0 95.573096375764408 93.582305771926144 0 93.582305771926144 30.970870979061146 0 0 0 0 327.36841015928439 90.077794305308089 0 90.077794305308089 -138.45027521257543 0 0 0 0 339.01631919965973 105.22850543335608 0 105.22850543335608 -451.22597210797721 0 0 0 0 253.63386413879198 -11.926435464738461 0 -11.926435464738461 -62.426339445169106 0 0 0 0 -5.3790747748348622 -98.51917562138442 0 -98.51917562138442 -185.12277745998819 0 0 0 0 300.8440736416818 -171.2928041768746 0 -171.2928041768746 -559.97163748128332 0 0 0 0 321.65307782930722 -79.468574634396646 0 -79.468574634396646 -186.55852159230199 0 0 0 0 22.456193032933811 26.585928154753447 0 26.585928154753447 -148.43606189052662 0 0 0 0 102.31412481839743 19.099603913713509 0 19.099603913713509 -157.65426614790795 0 0 0 0 117.52123356208085 40.680528907023017 0 40.680528907023017 -146.7003170634398 0 0 0 0 15.725097683943545 -9.1908867415531859 0 -9.1908867415531859 -57.218126234980446 0 0 0 0 15.03533972750356 -5.0531371546618553 0 -5.0531371546618553 -29.849565224020516 0 0 0 0 4.9520293150696553 -2.0510061826617925 0 -2.0510061826617925 -2.7484807745483657 0 0 0 0 11.281293602861918 -13.812006898196358 0 -13.812006898196358 -9.1336585211115278 0 0 0 0 21.298499686087947 9.5335120773272859 0 9.5335120773272859 -45.980150281699252 0 0 0 0 5.8822666170208322 15.527352763321687 0 15.527352763321687 -29.475048515179878 0 0 0 0 351.67856328582889 118.29441850463445 0 118.29441850463445 -326.58841975911855 0 0 0 0 26.076597476060215 -104.48077137208929 0 -104.48077137208929 37.105494461062335 0 0 0 0 -179.5986472593122 -169.5000107234149 0 -169.5000107234149 93.501516868212093 0 0 0 0 2.5046477560487439 -4.2561957295841637 0 -4.2561957295841637 -1.1343809512446441 0 0 0 0 38.557370670157589 -39.757329958961691 0 -39.757329958961691 25.386230732451089 0 0 0 0 -200.09358461738884 -93.817387429202881 0 -93.817387429202881 266.07751336348883 0 0 0 0 99.891696420098015 -96.223317833881993 0 -96.223317833881993 136.84461926633594 0 0 0 0 98.559844795920071 -108.45220048353713 0 -108.45220048353713 234.15066472798753 0 0 0 0 755.15060582412843 26.890609896426213 0 26.890609896426213 55.670459887978723 0 0 0 0 922.43829915671813 111.5167767199473 0 111.5167767199473 -111.02141983990373 0 0 0 0 79.599059391071933 95.316092283575472 0 95.316092283575472 78.767069001605705 0 0 0 0 1441.2382259858259 -413.99968775522166 0 -413.99968775522166 -147.19767463532389 0 0 0 0 1129.4395892761931 -260.03595064513502 0 -260.03595064513502 31.502746011497948 0 0 0 0 998.08612141624508 -406.23687703534119 0 -406.23687703534119 47.496339796636676 0 0 0 0 2756.8580409196002 -104.61662040867077 0 -104.61662040867077 -288.45723202976478 0 0 0 0 2535.5631831593146 -536.63712779612524 0 -536.63712779612524 -265.66070866865266 0 0 0 0 1693.6682169067517 -193.86276345270926 0 -193.86276345270926 -196.79271154928392 0 0 0 0 2363.3496261370492 -166.66175290899628 0 -166.66175290899628 -237.21152792951671 0 0 0 0 2255.9143857601839 472.1217186342401 0 472.1217186342401 -32.622883985806766 0 0 0 0 2312.8910356226897 -265.00503261846688 0 -265.00503261846688 -426.22921626978314 0 0 0 0 3195.0587706959141 -393.76671310623442 0 -393.76671310623442 -436.14045026398753 0 0 0 0 30.160632408182259 -28.061746055285234 0 -28.061746055285234 22.276746894238563 0 0 0 0 -268.61225317127867 -617.39304273819334 0 -617.39304273819334 -135.43839850829318 0 0 0 0 1002.5431709935438 -198.91454362122113 0 -198.91454362122113 -35.328081168535618 0 0 0 0 1060.1773852806273 47.119132340851138 0 47.119132340851138 65.816499238048891 0 0 0 0 41.606287340986455 15.621228757764584 0 15.621228757764584 -38.845731241422982 0 0 0 0 43.669543223337314 17.618824247926796 0 17.618824247926796 -37.156779993618329 0 0 0 0 60.570623897680889 7.2269586859686115 0 7.2269586859686115 -38.768951776277845 0 0 0 0 46.815393943561048 16.566848757161893 0 16.566848757161893 -41.265726300687675 0 0 0 0 64.454376211066119 9.6291978543358709 0 9.6291978543358709 -41.458034123769949 0 0 0 0 70.294155072444482 13.223257082507189 0 13.223257082507189 -47.219774000947382 0 0 0 0 54.944778236582351 15.460925066954985 0 15.460925066954985 -42.712777169460423 0 0 0 0 80.135702090788982 14.161785814251971 0 14.161785814251971 -47.44088929417876 0 0 0 0 79.014700755773447 6.9376641248329634 0 6.9376641248329634 -51.623796767721274 0 0 0 0 73.320689333105975 -2.4910864214670312 0 -2.4910864214670312 -37.374956163825573 0 0 0 0 110.54171432883231 3.0654635775481438 0 3.0654635775481438 -51.60039429805488 0 0 0 0 41.68895817225166 52.071889547231422 0 52.071889547231422 -86.745366623586506 0 0 0 0 5.54669451141935 1.5150041733908495 0 1.5150041733908495 -8.0468531262087097 0 0 0 0 105.89400001386105 -41.257564702112759 0 -41.257564702112759 -27.511143361985887 0 0 0 0 79.367000780715898 -2.7671282401158805 0 -2.7671282401158805 -38.760356386361764 0 0 0 0 56.28477578892489 -22.071752798355192 0 -22.071752798355192 -23.571613063314089 0 0 0 0 45.236668138530376 9.7117549163045851 0 9.7117549163045851 -44.48236786547568 0 0 0 0 18.456483906091087 -4.3294107008840328 0 -4.3294107008840328 -33.027501035779579 0 0 0 0 30.582352349124903 -19.107400856207505 0 -19.107400856207505 -33.265031740609629 0 0 0 0 -121.83053717292387 1.0393015057588855 0 1.0393015057588855 -87.30341128181135 0 0 0 0 9.4665389432489384 -12.531507447842586 0 -12.531507447842586 -20.300687896821717 0 0 0 0 18.019705183509359 16.665418741081226 0 16.665418741081226 -27.319805102361897 0 0 0 0 -185.84438041809881 20.927232438308238 0 20.927232438308238 87.568002906737092 0 0 0 0 -160.95956505525828 17.333722240826319 0 17.333722240826319 88.03798646703126 0 0 0 0 7.9145705858967546 3.901671156142239 0 3.901671156142239 -44.192288883368334 0 0 0 0 -224.2087507461456 -38.961276270606504 0 -38.961276270606504 2.9932148058906023 0 0 0 0 -72.536710062584461 60.017570785223143 0 60.017570785223143 -21.756787689122575 0 0 0 0 -159.75716743858902 3.6660737614929531 0 3.6660737614929531 82.377210479102359 0 0 0 0 -177.08282199708992 3.8075014418100182 0 3.8075014418100182 90.241026252335359 0 0 0 0 -56.325616207035637 30.093350630384521 0 30.093350630384521 83.864090060252238 0 0 0 0 -128.97218822982177 65.2588412163459 0 65.2588412163459 112.66761711077561 0 0 0 0 -67.935037896679205 111.91062961766329 0 111.91062961766329 113.79259285960552 0 0 0 0 -66.640293471757104 79.463961262901648 0 79.463961262901648 -34.607169713539406 0 0 0 0 -60.385265977960444 126.6309472160865 0 126.6309472160865 -72.047406359442334 0 0 0 0 -1.6717741333836784 12.253401010674224 0 12.253401010674224 -19.100829918160343 0 0 0 0 10.734491562863582 42.729650762046617 0 42.729650762046617 -55.152337363988408 0 0 0 0 27.969135502504628 2.5002186619021813 0 2.5002186619021813 -67.415935792698292 0 0 0 0 80.195578758205556 24.790734087975807 0 24.790734087975807 61.962462387426058 0 0 0 0 9.5209726485463761 2.2535195085765736 0 2.2535195085765736 -61.849231270738983 0 0 0 0 3.18349137219775 -61.190795791235587 0 -61.190795791235587 31.863020500224593 0 0 0 0 -10.853057745680871 -4.5736028202973102 0 -4.5736028202973102 -59.434409550721284 0 0 0 0 25.007599222808494 -16.047308964678109 0 -16.047308964678109 -14.034799148525224 0 0 0 0 15.199888740597594 -6.4478050705452254 0 -6.4478050705452254 -13.268110852481616 0 0 0 0 -33.49905423183418 39.43840490768082 0 39.43840490768082 -50.047724667634611 0 0 0 0 4.0687356554275667 -6.4420092461791789 0 -6.4420092461791789 -12.030018480189675 0 0 0 0 2.0718781657185019 -0.99641262127279795 0 -0.99641262127279795 -1.5832656710684132 0 0 0 0 23.349303913386393 -20.193972473166468 0 -20.193972473166468 -1.0206615866493394 0 0 0 0 -2.9173660680908142 -103.17082352719808 0 -103.17082352719808 75.586655665067042 0 0 0 0 24.430828581234778 -16.126754048667081 0 -16.126754048667081 -17.279834056597359 0 0 0 0 146.33378790735333 -46.771362565084928 0 -46.771362565084928 -79.868266071739527 0 0 0 0 14.990457977832193 59.949968890965465 0 59.949968890965465 -107.45197390130943 0 0 0 0 36.604686550670522 4.9761886115661582 0 4.9761886115661582 -111.32391732783719 0 0 0 0 25.64178193159114 -19.05805184843166 0 -19.05805184843166 -54.993492590362621 0 0 0 0 58.545210225378469 4.6823864663988388 0 4.6823864663988388 -34.318849611397127 0 0 0 0 60.678851558648603 2.217100294611555 0 2.217100294611555 -31.741313540996089 0 0 0 0 65.264152597901557 8.8774762518023635 0 8.8774762518023635 -34.578902498537445 0 0 0 0 17.945385165161184 -7.1798336562811054 0 -7.1798336562811054 -28.554070602779902 0 0 0 0 19.819546881934002 -38.16037014711867 0 -38.16037014711867 22.08595625291855 0 0 0 0 7.8296785908412669 -2.1423350291732559 0 -2.1423350291732559 0.0030275294937744945 0 0 0 0 29.081866378256109 -37.438204223670255 0 -37.438204223670255 30.712740162487535 0 0 0 0 115.90423669378697 61.389160156532853 0 61.389160156532853 -48.46671865729877 0 0 0 0 0.57855282966418109 0.28255838275611289 0 0.28255838275611289 0.29669282003798259 0 0 0 0 41.219140647757129 5.2374783713861985 0 5.2374783713861985 -4.8793533655610073 0 0 0 0 27.930609264436043 -121.2227048411296 0 -121.2227048411296 56.682117883238789 0 0 0 0 34.896102193579281 8.3593890049287438 0 8.3593890049287438 -33.446753711336441 0 0 0 0 64.103963975388069 7.5378883895882609 0 7.5378883895882609 -39.752555779958129 0 0 0 0 28.439007600098194 25.060312395748497 0 25.060312395748497 -37.0270797421108 0 0 0 0 133.98717757033978 -160.13888631289956 0 -160.13888631289956 33.496287500273866 0 0 0 0 -0.99632514639091996 0.41630120976028095 0 0.41630120976028095 1.3146429924941891 0 0 0 0 36.302207421195817 -18.292303359749667 0 -18.292303359749667 31.849664420460613 0 0 0 0 228.17936731276586 -18.744664545341493 0 -18.744664545341493 -24.725856918521686 0 0 0 0 104.34136682337385 -13.777332369621945 0 -13.777332369621945 3.8035786524596915 0 0 0 0 102.23139746983793 1.6089414333850982 0 1.6089414333850982 -15.579630111470578 0 0 0 0 22.48718902752762 -7.4903672130469658 0 -7.4903672130469658 -32.041952240436331 0 0 0 0 14.338208574751661 -34.916407016406993 0 -34.916407016406993 -18.101731271296558 0 0 0 0 33.412373268352553 -97.156745047188224 0 -97.156745047188224 59.798004097943704 0 0 0 0 -64.861962386949926 -55.196113823826408 0 -55.196113823826408 42.00648195742815 0 0 0 0 28.10816745461716 -20.164948428788193 0 -20.164948428788193 -9.8854875239318289 0 0 0 0 64.805294622994552 -23.544900114419306 0 -23.544900114419306 -10.136803396964439 0 0 0 0 36.38226346807869 -13.175373289836443 0 -13.175373289836443 -13.227885100370258 0 0 0 0 35.097729847360142 -30.295156500666963 0 -30.295156500666963 -19.038979880074294 0 0 0 0 12.437439147168107 -18.333229400316213 0 -18.333229400316213 -10.591533078462533 0 0 0 0 11.826181870680557 -4.1543873992197007 0 -4.1543873992197007 -17.233397048521852 0 0 0 0 4.203665507137214 -3.3896202353493203 0 -3.3896202353493203 -13.833657944582846 0 0 0 0 31.618735726827481 -5.804699908685393 0 -5.804699908685393 -10.255708764691917 0 0 0 0 -1.5551461197132745 -3.5888672562823825 0 -3.5888672562823825 -0.73107772692688755 0 0 0 0 39.631776424111195 -11.335745547730767 0 -11.335745547730767 -10.363079500952082 0 0 0 0 -31.129555652888484 -26.616656339795895 0 -26.616656339795895 -6.6726357302445649 0 0 0 0 -8.6694684951685304 -29.523112988826711 0 -29.523112988826711 -13.068516345047556 0 0 0 0 55.334539931614017 -33.555013524035758 0 -33.555013524035758 -38.641161370413101 0 0 0 0 39.025291886604585 -24.836246430097169 0 -24.836246430097169 -1.4101162212266196 0 0 0 0 -35.116251060248032 -90.99913755514649 0 -90.99913755514649 16.355511675900061 0 0 0 0 48.767355313766529 -15.209628484297127 0 -15.209628484297127 56.720788438185082 0 0 0 0 98.663297657030853 15.509091700339013 0 15.509091700339013 -47.281521320957381 0 0 0 0 95.004814612102109 -79.562996058447652 0 -79.562996058447652 8.2125397458339648 0 0 0 0 161.95376109424615 -10.443373606170098 0 -10.443373606170098 -7.2990934974895936 0 0 0 0 -0.56583244130139487 -0.080980892310440922 0 -0.080980892310440922 1.1841530424608475 0 0 0 0 41.001981155162412 -8.7033223503499357 0 -8.7033223503499357 -5.3359780173577747 0 0 0 0 72.143402629990305 -77.561924148214075 0 -77.561924148214075 25.478143612003578 0 0 0 0 10.728478047174121 -52.837312057245981 0 -52.837312057245981 35.866400561000773 0 0 0 0 66.610050079010392 -120.04710499247136 0 -120.04710499247136 50.292282493055609 0 0 0 0 67.126389121343436 -38.221341429649328 0 -38.221341429649328 -46.692144982243917 0 0 0 0 58.461514028928832 -28.61829800559849 0 -28.61829800559849 -8.7234563200418052 0 0 0 0 70.946967982456044 -9.1426848728706318 0 -9.1426848728706318 -13.739136111422113 0 0 0 0 24.282046396683199 -47.029535368424376 0 -47.029535368424376 -8.2108719504605006 0 0 0 0 24.380862274166702 -46.979478669659329 0 -46.979478669659329 -13.83297170688229 0 0 0 0 11.178076355359281 -18.164921507396343 0 -18.164921507396343 -8.6490768424528142 0 0 0 0 123.07790100553029 -64.349384795415972 0 -64.349384795415972 105.05798693804536 0 0 0 0 26.441274625644837 -6.8291042321470741 0 -6.8291042321470741 -46.913944094036196 0 0 0 0 0.6122061122132223 -0.24907987918202101 0 -0.24907987918202101 -1.2689856265147874 0 0 0 0 474.61615876546421 533.75513959611817 0 533.75513959611817 166.27231946999609 0 0 0 0 11.335792708872226 3.7410377081792028 0 3.7410377081792028 -0.11008541875923772 0 0 0 0 -216.39962575691698 -313.39727138321979 0 -313.39727138321979 72.467039909629875 0 0 0 0 2783.095093110398 142.56206280526021 0 142.56206280526021 638.91175054372343 0 0 0 0 2473.9974186100085 -705.19727962077059 0 -705.19727962077059 376.28667054049311 0 0 0 0 2258.198302271423 744.5546880802674 0 744.5546880802674 -67.800717801771555 0 0 0 0 2697.6669501581309 -586.68391502293866 0 -586.68391502293866 13.362707625555601 0 0 0 0 2790.9845937834216 -433.40392722195929 0 -433.40392722195929 408.21632480131507 0 0 0 0 1749.9082596245498 -458.75730497410359 0 -458.75730497410359 71.422320508980647 0 0 0 0 2898.5883066127753 -365.28138719348931 0 -365.28138719348931 -99.083510195237068 0 0 0 0 990.55348500270338 -696.21257670082855 0 -696.21257670082855 385.28841289026241 0 0 0 0 1659.4833039181503 -275.34931079394073 0 -275.34931079394073 -118.344380313074 0 0 0 0 517.85177417234081 -288.51958337486121 0 -288.51958337486121 164.29183256197939 0 0 0 0 1252.9041872382695 -695.01506241486322 0 -695.01506241486322 166.21810240383456 0 0 0 0 325.65039130032528 -554.76621794810671 0 -554.76621794810671 452.21097042466499 0 0 0 0 18.70871806271316 -282.35032143580429 0 -282.35032143580429 325.11989996695229 0 0 0 0 -68.85219706254793 347.15340433122583 0 347.15340433122583 -188.46330616548312 0 0 0 0 -290.33961147939317 272.41113691893878 0 272.41113691893878 45.948850804998074 0 0 0 0 -305.31570205375692 100.9645303418946 0 100.9645303418946 159.26827178176973 0 0 0 0 -65.570435143428767 162.85433307731364 0 162.85433307731364 50.972436488002131 0 0 0 0 -169.7242546131165 -22.589747225294559 0 -22.589747225294559 257.4589339722279 0 0 0 0 -75.381765070385882 113.25613125505697 0 113.25613125505697 181.93205431082242 0 0 0 0 -38.212661478028167 216.50469655329994 0 216.50469655329994 -23.860013080320641 0 0 0 0 31.880071971747384 -2.1318645675464722 0 -2.1318645675464722 -39.098221760243177 0 0 0 0 99.561175686190836 3.3046053118014243 0 3.3046053118014243 47.786215638072463 0 0 0 0 12.73242278862017 39.163421319937697 0 39.163421319937697 139.58418259872269 0 0 0 0 89.517039119247784 21.098880391683906 0 21.098880391683906 206.37205831715983 0 0 0 0 359.22955719511083 -161.2745663936721 0 -161.2745663936721 182.1699157167368 0 0 0 0 76.281838402268477 -139.04392018408453 0 -139.04392018408453 303.24438638552874 0 0 0 0 554.27767451759792 -180.13014749177569 0 -180.13014749177569 139.84171793348469 0 0 0 0 68.169564433821506 16.554868773273483 0 16.554868773273483 54.527354127363651 0 0 0 0 140.48340363361058 -89.300436583764167 0 -89.300436583764167 88.765266414361577 0 0 0 0 -89.659590441573528 -77.094229755722154 0 -77.094229755722154 206.64550749929003 0 0 0 0 3.9716177255995717 -19.069807996967256 0 -19.069807996967256 -11.121182979176865 0 0 0 0 -77.786983989470173 -42.225874272658984 0 -42.225874272658984 -118.6905808101028 0 0 0 0 -39.935875040449901 38.541564865581677 0 38.541564865581677 92.810575818106372 0 0 0 0 -41.357818460724957 -14.462690141451276 0 -14.462690141451276 -113.55331810937787 0 0 0 0 -112.89001278759315 43.194913564621856 0 43.194913564621856 9.6198305171201355 0 0 0 0 -170.04811523166427 -10.033422320691898 0 -10.033422320691898 -39.445561070326221 0 0 0 0 -79.916522112329403 -91.928347150421359 0 -91.928347150421359 19.05947835801453 0 0 0 0 -126.44956079250733 31.695119179176118 0 31.695119179176118 -95.755962658453427 0 0 0 0 -7.1767955079119332 -16.187870490055516 0 -16.187870490055516 4.2073718704590597 0 0 0 0 -114.64126554429458 -33.834993372035569 0 -33.834993372035569 -78.128512435347147 0 0 0 0 8.5067195045558037 -27.737366039150288 0 -27.737366039150288 2.4456954531416386 0 0 0 0 -5.1846477686150934 -10.611661911859194 0 -10.611661911859194 -2.6328411122222937 0 0 0 0 49.588072384838597 145.61510357657562 0 145.61510357657562 -277.58923056847198 0 0 0 0 80.519624219665275 -80.225966936845339 0 -80.225966936845339 33.866722377210635 0 0 0 0 26.41030794715698 -25.780225757956941 0 -25.780225757956941 46.620760394660465 0 0 0 0 14.57253847253704 -14.040351872421558 0 -14.040351872421558 -7.9655394357351508 0 0 0 0 26.134878039687464 26.98107815297783 0 26.98107815297783 -19.969098013419199 0 0 0 0 90.049021617930975 1.594106458405804 0 1.594106458405804 -68.075648381141946 0 0 0 0 16.301484213383446 -12.109237494531499 0 -12.109237494531499 -7.7016077045882412 0 0 0 0 32.58291913038682 -21.341413328468871 0 -21.341413328468871 -22.397780014525633 0 0 0 0 35.453986463692836 -18.898543635843009 0 -18.898543635843009 -17.97486187915359 0 0 0 0 24.396103761432851 -5.5526501979971048 0 -5.5526501979971048 -14.637413437471983 0 0 0 0 14.44601316099579 -9.9160166031525705 0 -9.9160166031525705 29.082268477235175 0 0 0 0 8.4412068636263768 -1.7678921524147153 0 -1.7678921524147153 -6.2322637716941767 0 0 0 0 38.784470545895601 -71.628604612233971 0 -71.628604612233971 43.73861203443596 0 0 0 0 153.72692697315506 -15.313842205166964 0 -15.313842205166964 -67.779319722779121 0 0 0 0 -12.096602205832824 -47.70763868205421 0 -47.70763868205421 1.2184191709793311 0 0 0 0 26.708264592442106 -11.09047804730889 0 -11.09047804730889 -6.5248037250503161 0 0 0 0 6.6874338327634177 -23.839127904417069 0 -23.839127904417069 -23.685386025112507 0 0 0 0 -115.90601013515891 75.121663748820183 0 75.121663748820183 136.2314625440662 0 0 0 0 -132.99583282637525 -198.65799141915213 0 -198.65799141915213 17.921618804494187 0 0 0 0 27.875253551679748 -18.874210845736638 0 -18.874210845736638 -3.1431214324812262 0 0 0 0 25.043969634853056 6.9659488462863521 0 6.9659488462863521 -52.352679881359407 0 0 0 0 2.405434112786029 -17.833495844787212 0 -17.833495844787212 -16.40371586749561 0 0 0 0 38.092759016142736 -50.223071376228461 0 -50.223071376228461 -34.960958043859577 0 0 0 0 48.270847047373536 -16.812139753760562 0 -16.812139753760562 -37.283005849069468 0 0 0 0 9.1810355003356321 -7.1840807575268322 0 -7.1840807575268322 -6.3974297958481436 0 0 0 0 -103.82127115781623 68.757874199273374 0 68.757874199273374 -0.60050479774150745 0 0 0 0 -60.129673972951423 -31.267105102573964 0 -31.267105102573964 133.91254946126219 0 0 0 0 521.32528899995305 177.0874130358703 0 177.0874130358703 29.481801884595455 0 0 0 0 471.28332093435392 -20.663756494905357 0 -20.663756494905357 -80.698086278627216 0 0 0 0 769.79837842935558 -132.79566715388859 0 -132.79566715388859 67.709217753591929 0 0 0 0 500.11889076166699 101.61396650125289 0 101.61396650125289 142.66954916162717 0 0 0 0 609.78837233616287 166.98355332448293 0 166.98355332448293 -56.329516542052296 0 0 0 0 637.9169608454331 104.60556789080007 0 104.60556789080007 25.547350983210151 0 0 0 0 1650.5671917537984 -278.12244172622439 0 -278.12244172622439 -241.05886872662387 0 0 0 0 1475.7660372756727 287.31807813664352 0 287.31807813664352 -102.25471334789302 0 0 0 0 1329.4458173702424 25.209074828723146 0 25.209074828723146 260.56509691476367 0 0 0 0 1134.9956559288858 -198.71236468877953 0 -198.71236468877953 122.88432899674399 0 0 0 0 1401.5390583193002 -43.50957264640283 0 -43.50957264640283 66.121462602094653 0 0 0 0 1064.7785200014168 214.84696574669488 0 214.84696574669488 79.490613936500722 0 0 0 0 673.06210306064168 242.41415131403551 0 242.41415131403551 -100.54748723335501 0 0 0 0 723.57335555506506 47.638290292216197 0 47.638290292216197 169.46339250495157 0 0 0 0 458.64131582606933 -125.11862312279845 0 -125.11862312279845 45.269787021582033 0 0 0 0 963.87504635771256 127.4415690051481 0 127.4415690051481 -79.54093137838754 0 0 0 0 -2.0576088314970775 -1.2250316676883415 0 -1.2250316676883415 -1.0646819164829946 0 0 0 0 19.210081550891118 69.511478953838719 0 69.511478953838719 -32.138823299121668 0 0 0 0 162.49586113868281 194.96263701935391 0 194.96263701935391 19.260968674676064 0 0 0 0 95.491965851466375 -19.62066871551815 0 -19.62066871551815 -42.328861658571668 0 0 0 0 64.988802447198395 -43.400969189125249 0 -43.400969189125249 -24.563659256988103 0 0 0 0 145.22309183144262 -44.988572157010367 0 -44.988572157010367 -0.91914018260740704 0 0 0 0 228.91747844177735 91.040997092634598 0 91.040997092634598 133.49812606794694 0 0 0 0 261.0931730891607 16.355862400585238 0 16.355862400585238 -27.652151824078828 0 0 0 0 303.91490123593667 31.737771214763313 0 31.737771214763313 107.03035273147361 0 0 0 0 343.00626964337698 134.62492894078224 0 134.62492894078224 176.00991011592669 0 0 0 0 255.94358242841554 68.308669953020853 0 68.308669953020853 92.333188283755845 0 0 0 0 122.73875636322555 1.8085013356746913 0 1.8085013356746913 93.464406059715202 0 0 0 0 137.76880574372808 19.114377133162634 0 19.114377133162634 124.60757053057523 0 0 0 0 151.14739615602775 1.6029376766337577 0 1.6029376766337577 52.146979874103181 0 0 0 0 264.9587116424882 55.926951796200001 0 55.926951796200001 97.22171898859915 0 0 0 0 180.01759967934777 10.442301526001529 0 10.442301526001529 81.517492460928224 0 0 0 0 179.95966476171452 43.331943888538035 0 43.331943888538035 138.40962144186778 0 0 0 0 422.89221290153 83.386192420185921 0 83.386192420185921 116.89159902299639 0 0 0 0 260.1475284708722 92.335298793686434 0 92.335298793686434 176.87329217931756 0 0 0 0 433.42723412278428 120.02066593795575 0 120.02066593795575 161.71558741660783 0 0 0 0 600.60175537388568 93.666593165606628 0 93.666593165606628 105.93086984991987 0 0 0 0 618.19757203502741 123.61661060341589 0 123.61661060341589 139.71578136557855 0 0 0 0 801.02355742224972 40.109174441108053 0 40.109174441108053 97.079475997340978 0 0 0 0 841.88172558190126 88.014722626867751 0 88.014722626867751 91.292702879565809 0 0 0 0 1112.6425701012995 25.013440035272652 0 25.013440035272652 50.501923573444174 0 0 0 0 815.71715628621314 134.13750796701402 0 134.13750796701402 77.737901294258336 0 0 0 0 1183.9436554309286 105.90021606441701 0 105.90021606441701 54.398554181186228 0 0 0 0 1086.7235217159578 34.553654093031355 0 34.553654093031355 34.647535701744346 0 0 0 0 571.77864639581094 193.73680324771567 0 193.73680324771567 125.49787419336397 0 0 0 0 693.01429142737834 49.009784606702851 0 49.009784606702851 102.11714026479513 0 0 0 0 3.8239911649302698 -1.0587580610396534 0 -1.0587580610396534 0.12538994167702389 0 0 0 0 -10.202434973091044 -71.77271172217462 0 -71.77271172217462 69.39144214145108 0 0 0 0 115.34815821734355 -78.174773496580428 0 -78.174773496580428 -3.163691776481528 0 0 0 0 91.274591043715418 -11.469626663809265 0 -11.469626663809265 -40.138257198135761 0 0 0 0 198.79766138173909 -49.908577836744371 0 -49.908577836744371 -26.904317108889245 0 0 0 0 61.167931609809784 59.394163558793025 0 59.394163558793025 6.3851988273199822 0 0 0 0 -203.91212773498137 239.08067966165254 0 239.08067966165254 243.08268149020182 0 0 0 0 291.10243757065984 60.726401211615979 0 60.726401211615979 6.2895869844305707 0 0 0 0 302.60070036065463 -42.966843121929742 0 -42.966843121929742 -33.75120792999769 0 0 0 0 98.3007679913635 -142.87930550997294 0 -142.87930550997294 110.95173914697807 0 0 0 0 156.97060792127741 25.858035933085375 0 25.858035933085375 -194.82272774839635 0 0 0 0 501.6015970703229 -173.39750009955287 0 -173.39750009955287 -119.30543702711475 0 0 0 0 19.485724849586404 -101.07345303887723 0 -101.07345303887723 -48.692556255956106 0 0 0 0 28.07569697087456 -40.739678695233124 0 -40.739678695233124 -88.041027998730442 0 0 0 0 32.282269381139486 -68.990134900214343 0 -68.990134900214343 -7.6982041617156938 0 0 0 0 45.229771604252164 -58.645840752221829 0 -58.645840752221829 -19.504280671128981 0 0 0 0 90.890571341362829 -29.931695425375381 0 -29.931695425375381 -90.034084842435277 0 0 0 0 -4.832002904155047 -82.20267033549834 0 -82.20267033549834 -72.083023465984752 0 0 0 0 42.902156863879036 -23.631290522412538 0 -23.631290522412538 1.395366784707198 0 0 0 0 -125.00325771000581 -130.67149206937671 0 -130.67149206937671 30.327945496386292 0 0 0 0 -1.1205788734696398 -81.729457065302313 0 -81.729457065302313 -16.465040793481421 0 0 0 0 22.424140962619276 -23.186185224707515 0 -23.186185224707515 -30.470425853840197 0 0 0 0 83.097849062069145 -17.279401735806914 0 -17.279401735806914 -12.714314994734423 0 0 0 0 50.39509436165099 -59.530394255676129 0 -59.530394255676129 -47.096025358205225 0 0 0 0 50.201827508841234 -32.963444561275537 0 -32.963444561275537 14.054892142755079 0 0 0 0 48.124652479426004 -70.979247255911332 0 -70.979247255911332 -1.2826427476620665 0 0 0 0 78.467015684709622 -18.26684898878375 0 -18.26684898878375 71.273828327147839 0 0 0 0 87.908656482271908 -35.471640644811032 0 -35.471640644811032 8.0171008005418116 0 0 0 0 47.679486408444063 -47.020495840770309 0 -47.020495840770309 35.14327262164079 0 0 0 0 43.933529544621706 -7.8568429698489126 0 -7.8568429698489126 53.66542911235274 0 0 0 0 81.483874260702578 -7.2439040867961921 0 -7.2439040867961921 99.873711364493829 0 0 0 0 145.80035410430355 28.808892099229297 0 28.808892099229297 85.59592621337606 0 0 0 0 96.198773637297563 26.964157793570166 0 26.964157793570166 108.03607775477894 0 0 0 0 89.173383877012384 -0.3962574290237626 0 -0.3962574290237626 71.987167233059608 0 0 0 0 90.312522264161089 -16.612839903177019 0 -16.612839903177019 47.425984023494493 0 0 0 0 42.322991203662241 -4.0166686892678172 0 -4.0166686892678172 92.420913058829683 0 0 0 0 43.57059085560013 -13.964710353066948 0 -13.964710353066948 50.467745845181526 0 0 0 0 41.533979467982135 12.008978934715515 0 12.008978934715515 65.380719289865056 0 0 0 0 18.94176711957698 -2.3280798133878307 0 -2.3280798133878307 78.865721702410383 0 0 0 0 21.090967067333622 2.5406656949068065 0 2.5406656949068065 37.960929555486018 0 0 0 0 19.337714395856892 -11.878346946216425 0 -11.878346946216425 60.34407721702928 0 0 0 0 17.418014315587243 -33.010760644392008 0 -33.010760644392008 32.230771704482322 0 0 0 0 20.31229699092728 -41.751599867787377 0 -41.751599867787377 3.522521579556269 0 0 0 0 16.124591635889374 -23.432506571224621 0 -23.432506571224621 23.633702447741598 0 0 0 0 35.603394987163483 -39.9408067678105 0 -39.9408067678105 37.394326397548866 0 0 0 0 33.163277125488094 -20.356941546720009 0 -20.356941546720009 -2.5918048672874647 0 0 0 0 -0.060634504319750704 -57.098959510969166 0 -57.098959510969166 8.7359608727310842 0 0 0 0 -33.957892757116497 -36.969644302994539 0 -36.969644302994539 4.8809677157341866 0 0 0 0 -5.7766596408328041 -40.365107332753269 0 -40.365107332753269 23.98738771241824 0 0 0 0 172.40846407801473 -36.386260779530403 0 -36.386260779530403 -175.92436973309464 0 0 0 0 41.081849109658272 -22.492214840552343 0 -22.492214840552343 -1.1192195901573978 0 0 0 0 -21.521703810486088 -82.974569359341018 0 -82.974569359341018 -5.4531123318593018 0 0 0 0 17.90324204213448 -46.192826524589861 0 -46.192826524589861 -33.821623238843586 0 0 0 0 3.4631085734654334 -30.859939400903386 0 -30.859939400903386 37.849240212029144 0 0 0 0 7.2607153676181042 -6.5359844530732971 0 -6.5359844530732971 15.201355391334801 0 0 0 0 8.9814237716163916 1.2919813894371828 0 1.2919813894371828 58.858265473477331 0 0 0 0 16.142757402987627 -11.691588628688805 0 -11.691588628688805 18.17885414505804 0 0 0 0 7.255509752445505 -32.806202067117738 0 -32.806202067117738 7.1606785847633319 0 0 0 0 40.794636750654583 -16.908311564411793 0 -16.908311564411793 -3.2071466722885447 0 0 0 0 109.7565948568581 55.622180872829176 0 55.622180872829176 -182.03054978936848 0 0 0 0 -46.067604432961616 -15.588160877975156 0 -15.588160877975156 25.078978697702951 0 0 0 0 66.498019949428596 16.843188127654017 0 16.843188127654017 -9.8430916958702603 0 0 0 0 35.132206450482045 -19.304863405653805 0 -19.304863405653805 -27.067003492606545 0 0 0 0 476.54513830413634 -249.83855163236876 0 -249.83855163236876 -266.89347461181569 0 0 0 0 -33.615736813788317 34.57595042577293 0 34.57595042577293 21.577232559903678 0 0 0 0 34.115956658839949 14.085015327001294 0 14.085015327001294 5.3522588264297051 0 0 0 0 39.767838258463598 -14.99823656579099 0 -14.99823656579099 -3.9403896764773663 0 0 0 0 43.348732052065799 11.943435214008723 0 11.943435214008723 5.8075517338854024 0 0 0 0 20.798447872104589 7.3376112890994136 0 7.3376112890994136 34.376080824072233 0 0 0 0 27.411004190973472 10.642416142386992 0 10.642416142386992 27.492911754368833 0 0 0 0 18.517535633669468 19.00384174721421 0 19.00384174721421 44.655762543286642 0 0 0 0 16.051463642732415 49.270647136200523 0 49.270647136200523 42.647931405928375 0 0 0 0 27.351502257803944 30.397916663276362 0 30.397916663276362 56.63685609057984 0 0 0 0 48.509310891495261 52.602571589612012 0 52.602571589612012 25.004792478721583 0 0 0 0 12.857221964681891 17.666639841048394 0 17.666639841048394 6.659811961390508 0 0 0 0 20.519292539174785 50.05380493085363 0 50.05380493085363 -40.112833157272462 0 0 0 0 57.192007942256168 16.824498143397477 0 16.824498143397477 27.738443762471341 0 0 0 0 -64.768050511451293 166.42130088794954 0 166.42130088794954 -23.941255541020634 0 0 0 0 57.000621373656926 44.137806703830194 0 44.137806703830194 29.64479937985152 0 0 0 0 -167.1791655324887 117.25568239129882 0 117.25568239129882 100.30046105547348 0 0 0 0 5.9219060622781399 31.673350020880434 0 31.673350020880434 71.085686239582401 0 0 0 0 3.8270656887179939 37.490420060805377 0 37.490420060805377 96.774421881999388 0 0 0 0 -38.924694283763529 93.390293428855557 0 93.390293428855557 44.073516556389222 0 0 0 0 18.609779368678574 37.2467372798003 0 37.2467372798003 66.86226244133195 0 0 0 0 17.521514458976526 41.98736984713824 0 41.98736984713824 74.806982818786764 0 0 0 0 18.325491454666917 18.801877310919224 0 18.801877310919224 84.895915672045703 0 0 0 0 44.644195255540581 1.3430668478447387 0 1.3430668478447387 99.787943767372781 0 0 0 0 22.607217529190166 11.297166817109911 0 11.297166817109911 99.361696378733086 0 0 0 0 68.42810113417363 15.056856656654645 0 15.056856656654645 78.144402681831934 0 0 0 0 117.79308872776528 4.2344266937675457 0 4.2344266937675457 78.412281969128344 0 0 0 0 67.240435319654352 11.776732778176893 0 11.776732778176893 94.569941167902698 0 0 0 0 72.280270269031462 30.758599371016771 0 30.758599371016771 90.869237010663255 0 0 0 0 187.97059243262629 41.008010114313265 0 41.008010114313265 93.614394162043482 0 0 0 0 131.27627303928966 4.4455236482340297 0 4.4455236482340297 106.39774671590749 0 0 0 0 127.69955960614425 33.761743813410703 0 33.761743813410703 112.02744007816091 0 0 0 0 228.66974733331881 26.925623500403844 0 26.925623500403844 60.921486365441297 0 0 0 0 167.52560936973168 22.887040535528087 0 22.887040535528087 70.987099129677972 0 0 0 0 58.814514186520682 -25.525314688481558 0 -25.525314688481558 78.759556367028836 0 0 0 0 169.96263088144042 15.382387448837108 0 15.382387448837108 67.842875045353821 0 0 0 0 101.70878342508513 3.3848572322118571 0 3.3848572322118571 63.750031909306529 0 0 0 0 -183.67430400486046 -76.807423689634646 0 -76.807423689634646 167.58956896816414 0 0 0 0 151.1700067299862 -73.128077462924637 0 -73.128077462924637 31.911556756480422 0 0 0 0 293.22102091235138 51.619902860415834 0 51.619902860415834 41.56424487965819 0 0 0 0 -719.97640335981851 -869.11394278319312 0 -869.11394278319312 1360.1014595493325 0 0 0 0 18.16699982081289 17.292348541023127 0 17.292348541023127 17.680685123967237 0 0 0 0 907.31231980633311 -121.19317028745468 0 -121.19317028745468 40.052774686512748 0 0 0 0 715.04993998997088 41.449159591566854 0 41.449159591566854 -32.078011163687449 0 0 0 0 347.56125280961714 -16.73639978758753 0 -16.73639978758753 -34.894753172580522 0 0 0 0 350.83434178977041 -31.842289851958867 0 -31.842289851958867 18.098269328887312 0 0 0 0 42.34383236573558 -217.00106303149465 0 -217.00106303149465 83.637057517096608 0 0 0 0 370.95665642314998 -207.55884699005748 0 -207.55884699005748 41.562296496161494 0 0 0 0 -766.48498830076278 -967.08010076266328 0 -967.08010076266328 1188.2079568540316 0 0 0 0 -177.5834487973334 -151.99932160112257 0 -151.99932160112257 227.37551031076146 0 0 0 0 13.100655891660267 13.582893240076281 0 13.582893240076281 13.947356515904438 0 0 0 0 305.7208046381711 -399.04045733851763 0 -399.04045733851763 159.11102922718692 0 0 0 0 97.989110533635539 141.40049699583233 0 141.40049699583233 -119.31774301129462 0 0 0 0 485.26215502076957 -186.23749357962879 0 -186.23749357962879 -409.17585708218394 0 0 0 0 75.793303662445396 146.37618020379159 0 146.37618020379159 -238.10176521948142 0 0 0 0 340.14481270630495 39.126248611993105 0 39.126248611993105 -498.69878162873829 0 0 0 0 1102.9559870899247 49.425525621458291 0 49.425525621458291 -231.67468655646917 0 0 0 0 1649.669793866844 934.4777148758003 0 934.4777148758003 148.28752103885199 0 0 0 0 -407.95195771414001 -319.53916362514246 0 -319.53916362514246 970.70094309550041 0 0 0 0 -408.35146298581731 -300.50229752383621 0 -300.50229752383621 469.73393960484464 0 0 0 0 -418.68204627341765 432.34255985828895 0 432.34255985828895 1476.5299036835995 0 0 0 0 -614.71194733999801 2.9704641019873179 0 2.9704641019873179 630.00642754168803 0 0 0 0 133.08424409446525 294.68628416168031 0 294.68628416168031 -316.44868129785209 0 0 0 0 76.154644747366547 488.1016168892138 0 488.1016168892138 -321.03961297681701 0 0 0 0 468.21497834650654 844.88391399316151 0 844.88391399316151 581.03250115960509 0 0 0 0 93.703607791241666 42.084088610134131 0 42.084088610134131 11.650320283193196 0 0 0 0 518.16337356744771 209.86156454976845 0 209.86156454976845 68.51161050272276 0 0 0 0 -809.55037810539216 281.56007724497113 0 281.56007724497113 578.62048335010149 0 0 0 0 -1.1824799046433441 0.0052805007213834187 0 0.0052805007213834187 5.9148444481756002 0 0 0 0 634.48677053906431 20.011559914756162 0 20.011559914756162 125.16516975298509 0 0 0 0 414.93314588487556 85.799054819419553 0 85.799054819419553 189.51326364536965 0 0 0 0 449.16838517496399 -22.602424856870584 0 -22.602424856870584 171.61410826674501 0 0 0 0 568.19162549153407 39.533882494375348 0 39.533882494375348 133.3311215472977 0 0 0 0 584.22996669948043 -47.42057846455009 0 -47.42057846455009 121.0387175264849 0 0 0 0 768.74176874063778 -46.706695956994508 0 -46.706695956994508 70.106448085097782 0 0 0 0 770.89210383333739 -65.221276934293428 0 -65.221276934293428 75.582679560233828 0 0 0 0 744.38478061026944 2.2943565116821674 0 2.2943565116821674 104.3761982060023 0 0 0 0 634.69821457671787 20.074170304882273 0 20.074170304882273 122.11901183604118 0 0 0 0 806.03035426660426 28.807971526056022 0 28.807971526056022 89.672865415810975 0 0 0 0 801.09168404645698 -19.241423635310298 0 -19.241423635310298 117.75724748244284 0 0 0 0 631.98183257058554 75.023646926318179 0 75.023646926318179 133.6362159082521 0 0 0 0 624.76671358622298 59.812330437181458 0 59.812330437181458 125.12517069369551 0 0 0 0 477.30728969037955 90.138416821577948 0 90.138416821577948 150.05956701943683 0 0 0 0 321.06308475973856 108.46743023957424 0 108.46743023957424 166.70824729813501 0 0 0 0 410.73549378589814 116.52658882184119 0 116.52658882184119 137.25889075616442 0 0 0 0 448.96958963845464 61.707841971209746 0 61.707841971209746 159.21473808736528 0 0 0 0 186.81571769776201 39.55597805139314 0 39.55597805139314 109.42383474342796 0 0 0 0 312.29335651915062 70.06859479226614 0 70.06859479226614 100.05527503581425 0 0 0 0 261.791150739351 93.382353262662491 0 93.382353262662491 120.02871351209387 0 0 0 0 258.55351975818485 88.622242504921701 0 88.622242504921701 137.77722274570385 0 0 0 0 265.63662388825469 90.329687763896231 0 90.329687763896231 97.694129955455793 0 0 0 0 331.70465923728625 141.59482003119956 0 141.59482003119956 82.746926093841353 0 0 0 0 415.91316128065228 207.31458382594099 0 207.31458382594099 54.802240033275723 0 0 0 0 344.90716965561296 157.27744114341976 0 157.27744114341976 98.950329724583071 0 0 0 0 320.13215569384192 43.736532772682267 0 43.736532772682267 8.9526746510093744 0 0 0 0 369.63789666665252 94.040439919317919 0 94.040439919317919 191.3394640529383 0 0 0 0 318.45128751328048 140.97606254986556 0 140.97606254986556 177.04147420996924 0 0 0 0 330.07116741036589 150.33643035288969 0 150.33643035288969 166.99937480809433 0 0 0 0 238.87032399041345 208.38181348367971 0 208.38181348367971 174.32686285927099 0 0 0 0 234.09817259792544 67.812259506464727 0 67.812259506464727 216.40972346915282 0 0 0 0 277.38001659198198 141.37864883232533 0 141.37864883232533 290.44680635947202 0 0 0 0 21.154120867073289 442.14043377864948 0 442.14043377864948 404.22806873297299 0 0 0 0 -50.153319768091023 105.73774239976927 0 105.73774239976927 296.1899719829517 0 0 0 0 167.11363668194826 2.7741871494456234 0 2.7741871494456234 303.32334042017305 0 0 0 0 524.92873822080583 105.80251307485906 0 105.80251307485906 2.8406995846682008 0 0 0 0 422.37869007295012 203.14279995378436 0 203.14279995378436 33.119388934215635 0 0 0 0 666.43174122324854 254.25047067278621 0 254.25047067278621 22.040424090724343 0 0 0 0 332.35115479318483 283.26718684983376 0 283.26718684983376 173.9942196651657 0 0 0 0 367.44588725003268 378.07448278168681 0 378.07448278168681 186.92661856872994 0 0 0 0 138.44827572668146 663.60121312206161 0 663.60121312206161 576.60199016095112 0 0 0 0 149.22815878327674 955.82159654956797 0 955.82159654956797 59.667654867867896 0 0 0 0 423.33606923751358 436.74023386412966 0 436.74023386412966 48.248043281877472 0 0 0 0 781.70772218020284 229.17961038445583 0 229.17961038445583 -74.545075755601715 0 0 0 0 968.20782761853479 606.17750370872113 0 606.17750370872113 100.75170474896413 0 0 0 0 601.33689816955666 197.77387904365253 0 197.77387904365253 -21.506931217021531 0 0 0 0 -1773.4191013772725 -575.47130241525724 0 -575.47130241525724 1236.4614540991315 0 0 0 0 1688.2109655429631 818.38452163050442 0 818.38452163050442 340.42653551970568 0 0 0 0 1665.1578334787628 254.12397631869931 0 254.12397631869931 -163.2794203804433 0 0 0 0 -1840.7222333125683 635.76367546408301 0 635.76367546408301 878.14929476368116 0 0 0 0 1948.0419623522121 1326.7171260942982 0 1326.7171260942982 -155.40025088597258 0 0 0 0 331.41618403780012 2363.0222895893294 0 2363.0222895893294 714.18077582625892 0 0 0 0 159.91935952410859 -207.240775488282 0 -207.240775488282 252.12796832360277 0 0 0 0 197.37908453187265 -120.07809823047273 0 -120.07809823047273 178.48509403182197 0 0 0 0 -93.431460780946509 -35.307584904897737 0 -35.307584904897737 297.75731502034438 0 0 0 0 -486.25715716166815 -363.04424930166294 0 -363.04424930166294 284.12264969514354 0 0 0 0 -12.999938538581773 -252.34705135092418 0 -252.34705135092418 262.1158915754761 0 0 0 0 96.37343684235384 -78.558529636613116 0 -78.558529636613116 225.47543545822964 0 0 0 0 346.1143485756329 -97.527755254344356 0 -97.527755254344356 189.18910420415662 0 0 0 0 264.20210522649722 -150.96196268954714 0 -150.96196268954714 216.35821347750493 0 0 0 0 532.67546520034375 -104.95999682586223 0 -104.95999682586223 149.44859517700434 0 0 0 0 375.23797724436736 -140.33348685532627 0 -140.33348685532627 189.45584059527687 0 0 0 0 215.7720642462773 -73.038113987799861 0 -73.038113987799861 210.71420731781234 0 0 0 0 369.92450170913799 -84.853220899011944 0 -84.853220899011944 196.18913882217478 0 0 0 0 159.64434924505986 -22.777089310747527 0 -22.777089310747527 230.36611161323657 0 0 0 0 369.03589453764835 -91.291795836505443 0 -91.291795836505443 162.10977200931265 0 0 0 0 546.69206403117278 -51.733990904007214 0 -51.733990904007214 138.77697070208501 0 0 0 0 385.61083947457519 -11.463372122439381 0 -11.463372122439381 176.40841310266944 0 0 0 0 385.37125837684289 -5.0367274476143393 0 -5.0367274476143393 221.72987988349075 0 0 0 0 712.41825119326677 -79.863669230579035 0 -79.863669230579035 92.896780115780984 0 0 0 0 666.85494759950961 -67.247081048986843 0 -67.247081048986843 97.039512698089865 0 0 0 0 556.54650993925998 -119.43094468622949 0 -119.43094468622949 149.16315173942525 0 0 0 0 746.87071222826489 -142.98092540964916 0 -142.98092540964916 98.155896705590408 0 0 0 0 727.11274669039267 -101.47247689822828 0 -101.47247689822828 94.299801560591902 0 0 0 0 536.69266198186961 -82.888404831051389 0 -82.888404831051389 136.54794841011403 0 0 0 0 652.18383211659966 -159.19257854250446 0 -159.19257854250446 140.5758111202465 0 0 0 0 709.46326870694611 -85.819229368897368 0 -85.819229368897368 125.1768005261853 0 0 0 0 704.65329461761939 -100.92647326620352 0 -100.92647326620352 202.79436926957737 0 0 0 0 738.34335411170468 -73.776745224394858 0 -73.776745224394858 180.74675920726861 0 0 0 0 763.33293124234478 -159.57912958197949 0 -159.57912958197949 182.77336586270792 0 0 0 0 791.92992977659742 -161.03310038412098 0 -161.03310038412098 83.815810074487899 0 0 0 0 703.71140277335508 -124.71339278835683 0 -124.71339278835683 283.85200132428918 0 0 0 0 727.46331488076248 -83.429324230691236 0 -83.429324230691236 227.85261293201165 0 0 0 0 932.56826337084567 -258.17484762686854 0 -258.17484762686854 76.879230327387461 0 0 0 0 887.1765810703655 -126.89840913609328 0 -126.89840913609328 507.6892875011431 0 0 0 0 981.48562331075664 -408.43599232053248 0 -408.43599232053248 235.02732001117568 0 0 0 0 851.99791446933523 -266.49180739571341 0 -266.49180739571341 263.94439287636544 0 0 0 0 933.95536349495706 -257.37253134847276 0 -257.37253134847276 41.343200178511893 0 0 0 0 999.84944225210347 -201.53457409924795 0 -201.53457409924795 -58.478997372053755 0 0 0 0 996.21550747362926 -173.16859395854067 0 -173.16859395854067 -227.52849903518768 0 0 0 0 944.98724584982847 -195.97712875201387 0 -195.97712875201387 1.2529339701686695 0 0 0 0 928.13095696947858 -161.55696713921671 0 -161.55696713921671 4.1163112912594499 0 0 0 0 804.62431738927989 -110.14619599221714 0 -110.14619599221714 53.074381702951058 0 0 0 0 819.85946754266479 -118.12794704429962 0 -118.12794704429962 55.335777058854376 0 0 0 0 853.2275843542011 -177.10762061781614 0 -177.10762061781614 87.010177861471675 0 0 0 0 1153.8746174667685 -487.33451943802083 0 -487.33451943802083 916.8321726007041 0 0 0 0 2.1912249603597473 -0.78722509448282096 0 -0.78722509448282096 4.0183552263101703 0 0 0 0 1106.9593796217741 -350.34456339161437 0 -350.34456339161437 40.054209665633721 0 0 0 0 6.7513162887786358 -13.488169191120683 0 -13.488169191120683 12.975712270790138 0 0 0 0 945.30052266112943 -392.07504021556878 0 -392.07504021556878 597.38702158923434 0 0 0 0 996.25635684143663 -54.838312868330974 0 -54.838312868330974 -381.02136568865933 0 0 0 0 1011.3278093372319 -294.40529561077796 0 -294.40529561077796 -58.894758745808986 0 0 0 0 0.14609744418746473 -11.541003737215391 0 -11.541003737215391 14.868687861310447 0 0 0 0 3931.5466177112685 16.181266109825174 0 16.181266109825174 -458.88435920068196 0 0 0 0 65.272223319792829 -49.986291213268714 0 -49.986291213268714 106.452840374468 0 0 0 0 -248.39495778408127 -418.26748166918799 0 -418.26748166918799 501.07756444197639 0 0 0 0 4.9534123014644393 -6.7696482828189346 0 -6.7696482828189346 7.3231462240756864 0 0 0 0 3858.2745063289258 247.40440462686661 0 247.40440462686661 -1147.6163069497989 0 0 0 0 471.99711051896884 182.89955497619985 0 182.89955497619985 -146.12389193020226 0 0 0 0 750.33213955398605 -174.25112761016192 0 -174.25112761016192 36.273244556577083 0 0 0 0 948.47231737425318 -169.69966512542624 0 -169.69966512542624 36.157956413199827 0 0 0 0 640.52432284935639 -255.21393800190731 0 -255.21393800190731 339.81367751383186 0 0 0 0 1290.7090356792614 -658.36882801123693 0 -658.36882801123693 526.99485439195723 0 0 0 0 1046.4423759502497 -292.04420654657224 0 -292.04420654657224 256.66975068598867 0 0 0 0 1286.4673051466525 -718.88738566923575 0 -718.88738566923575 353.4239743800008 0 0 0 0 816.09147820208818 -1022.7078909246693 0 -1022.7078909246693 679.27344695465899 0 0 0 0 122.09918071269567 -30.103027767116146 0 -30.103027767116146 13.592165838510482 0 0 0 0 1.110604286055791 -21.439021248854743 0 -21.439021248854743 23.226498163058604 0 0 0 0 2547.0513536101862 -1896.0073582760651 0 -1896.0073582760651 2189.6055943130486 0 0 0 0 1791.5091486078527 -1388.837288537321 0 -1388.837288537321 629.35110579782895 0 0 0 0 145.28226140268816 -41.624766393703794 0 -41.624766393703794 -36.253753626388061 0 0 0 0 975.84072661631217 -104.91407990801576 0 -104.91407990801576 8.275987266370862 0 0 0 0 955.00351923640847 -46.107515863311392 0 -46.107515863311392 52.300581221376888 0 0 0 0 885.08220138905017 -90.212824876821855 0 -90.212824876821855 33.952196461102176 0 0 0 0 836.34814056158939 -23.37090041771512 0 -23.37090041771512 67.945490301906517 0 0 0 0 895.14378734770798 -84.079647946943169 0 -84.079647946943169 30.211898072213444 0 0 0 0 924.31575136598258 -134.38580225215969 0 -134.38580225215969 -6.3917691976117226 0 0 0 0 994.27233219715708 -122.61965313190171 0 -122.61965313190171 -103.0128955559104 0 0 0 0 974.51429366788943 -99.782737424619199 0 -99.782737424619199 6.6101073609665946 0 0 0 0 937.93246641969381 -111.36520269847256 0 -111.36520269847256 -2.7079008244663783 0 0 0 0 906.96497611536324 -47.634863487764505 0 -47.634863487764505 -130.12400572130321 0 0 0 0 1022.5372573412606 -128.37777977138057 0 -128.37777977138057 0.02771169149718844 0 0 0 0 976.1257152003418 -69.255937702686936 0 -69.255937702686936 98.676287120490997 0 0 0 0 1082.3590031279728 -114.36134745675947 0 -114.36134745675947 91.823374772337502 0 0 0 0 1104.4709173473457 -280.58270666735143 0 -280.58270666735143 219.3806797454248 0 0 0 0 915.55195345002176 -122.90305555900602 0 -122.90305555900602 157.61257922619689 0 0 0 0 992.10994708290309 -120.83117394856345 0 -120.83117394856345 180.37080776624862 0 0 0 0 891.19870867810823 -58.019903970837504 0 -58.019903970837504 92.583317099517899 0 0 0 0 901.05473592034832 -41.678493224359954 0 -41.678493224359954 65.132959429253958 0 0 0 0 1033.9905403664234 -83.453288554978826 0 -83.453288554978826 65.160491493674044 0 0 0 0 926.2534443021832 13.860914603539641 0 13.860914603539641 81.979401173196038 0 0 0 0 1000.9901578618737 -68.619216551012983 0 -68.619216551012983 114.8730504101145 0 0 0 0 1143.4253845889334 -207.13696578306849 0 -207.13696578306849 157.04481167166978 0 0 0 0 1095.4279859875824 -45.775647922391045 0 -45.775647922391045 59.484029213747817 0 0 0 0 1112.6901201662408 -109.70144147072614 0 -109.70144147072614 113.62880627132927 0 0 0 0 1410.7374745278285 -316.27530168142698 0 -316.27530168142698 92.251013661975321 0 0 0 0 1267.9595577866312 -115.74192631991946 0 -115.74192631991946 -0.17508317385863847 0 0 0 0 1533.8332088904281 -185.89991508148523 0 -185.89991508148523 14.597164864440856 0 0 0 0 1675.6946468854367 -463.31329674838435 0 -463.31329674838435 58.271516362797669 0 0 0 0 1355.2907029301277 -371.70850889357735 0 -371.70850889357735 62.592665249029423 0 0 0 0 1445.7573209662223 -496.33296772252334 0 -496.33296772252334 225.55101603581079 0 0 0 0 1216.7441669112377 -221.22107569381251 0 -221.22107569381251 137.53030843434601 0 0 0 0 1183.0341274167331 -287.75089512360159 0 -287.75089512360159 282.91914103972977 0 0 0 0 1474.0369053603499 -491.18415885997456 0 -491.18415885997456 298.80978654531805 0 0 0 0 1463.7068926593747 -543.23470812031542 0 -543.23470812031542 119.83034317166675 0 0 0 0 1780.4564922469654 -902.16229828670885 0 -902.16229828670885 369.39987143035404 0 0 0 0 2100.5726269139595 -751.35714487148903 0 -751.35714487148903 -99.270092811285394 0 0 0 0 13.553298492394518 -5.9580668775168544 0 -5.9580668775168544 2.3967127691319785 0 0 0 0 1957.6378077874469 -568.83618360691844 0 -568.83618360691844 -177.73655848990279 0 0 0 0 1977.7728948197619 -488.53966780449946 0 -488.53966780449946 117.04117825869071 0 0 0 0 2643.5213923114534 -1190.5875805356739 0 -1190.5875805356739 -0.60583479753177016 0 0 0 0 97.593486164964816 -56.061288377160167 0 -56.061288377160167 -150.97342093506086 0 0 0 0 337.85156915004882 243.70640767409338 0 243.70640767409338 242.31224050818855 0 0 0 0 15.221242506799069 -3.3531406482093544 0 -3.3531406482093544 -1.0497447414934165 0 0 0 0 1516.7942121546039 -332.61721342902558 0 -332.61721342902558 472.88786127908679 0 0 0 0 1466.1312709806516 -176.33663628954628 0 -176.33663628954628 -125.96442747289893 0 0 0 0 1498.3536358824495 -667.97567122181226 0 -667.97567122181226 140.93322289210937 0 0 0 0 372.74862913839388 28.48277344499229 0 28.48277344499229 60.982389846583033 0 0 0 0 1272.029386190472 -380.71145164876407 0 -380.71145164876407 -103.00938704945702 0 0 0 0 304.76211385730858 240.7281710435941 0 240.7281710435941 -126.53870694455154 0 0 0 0 1069.3214753993561 -436.49380769556342 0 -436.49380769556342 176.57600035752421 0 0 0 0 41.132935712989152 37.405934669891963 0 37.405934669891963 -23.837739414236562 0 0 0 0 -101.23424300782426 20.897251089239717 0 20.897251089239717 -4.8186801762658433 0 0 0 0 14.019953129820351 172.98839194407333 0 172.98839194407333 191.40634846787862 0 0 0 0 250.29187599691068 178.07634015405119 0 178.07634015405119 -8.7691982266196646 0 0 0 0 50.122266554434795 18.640466278522617 0 18.640466278522617 -8.0831333532807506 0 0 0 0 115.41683943386215 89.984415777136292 0 89.984415777136292 -138.12899748411382 0 0 0 0 536.69588239471341 -832.62580556817784 0 -832.62580556817784 599.60510321792208 0 0 0 0 -23.373985036550948 62.82815354766467 0 62.82815354766467 -18.294613695631597 0 0 0 0 282.4723877856577 -147.88228546717278 0 -147.88228546717278 -250.34955248152801 0 0 0 0 30.596974067508938 22.845479847582698 0 22.845479847582698 -9.9295371940850838 0 0 0 0 14.200747713827688 -1.9391814893208834 0 -1.9391814893208834 -0.47190337271180027 0 0 0 0 1024.8400888295109 854.00891285515013 0 854.00891285515013 333.91668637758994 0 0 0 0 1755.9796290279228 -1410.4698049462472 0 -1410.4698049462472 707.65428852070181 0 0 0 0 3100.2154262473923 -328.10596144499095 0 -328.10596144499095 -38.91755396274857 0 0 0 0 1865.7700557504613 128.11412092173578 0 128.11412092173578 1254.051091490898 0 0 0 0 1660.2202439392768 -317.29436285644169 0 -317.29436285644169 289.91603600661574 0 0 0 0 2074.0159846275674 -260.10364336736666 0 -260.10364336736666 -73.584685357610397 0 0 0 0 1561.948480679006 135.33986495795898 0 135.33986495795898 247.61251829374365 0 0 0 0 1469.2747214102928 -262.29143621139792 0 -262.29143621139792 -70.972701475954636 0 0 0 0 1458.2049019781316 -653.14336763204312 0 -653.14336763204312 -40.850066052307739 0 0 0 0 1886.1051052261573 -586.04898382022679 0 -586.04898382022679 -97.761300759592359 0 0 0 0 1782.2514720279505 -468.71793930696367 0 -468.71793930696367 -43.908964222860746 0 0 0 0 162.32755925636411 405.10582320033382 0 405.10582320033382 324.89028412170228 0 0 0 0 326.93335568290877 385.65393433870668 0 385.65393433870668 21.64922481172573 0 0 0 0 3.1290202343403166 1.6307196344284414 0 1.6307196344284414 2.3876714315076359 0 0 0 0 -0.075965819753946562 1.8780786289455591 0 1.8780786289455591 6.8463969700337657 0 0 0 0 450.215182462558 -630.17261841213633 0 -630.17261841213633 1342.1917450462661 0 0 0 0 158.64912145077142 524.24867699255185 0 524.24867699255185 111.0260371168074 0 0 0 0 1760.3012285181321 -770.56087652274527 0 -770.56087652274527 -1142.6523099427577 0 0 0 0 318.92024207950817 49.299891705892605 0 49.299891705892605 11.222456038067378 0 0 0 0 1427.9445566726281 -113.35067638672081 0 -113.35067638672081 -1112.722477385515 0 0 0 0 255.75560634070098 -309.9692569137344 0 -309.9692569137344 235.43364918087173 0 0 0 0 716.99104320777406 -1011.0015931348121 0 -1011.0015931348121 635.32466490654315 0 0 0 0 12.104567518125734 2.0782862879504229 0 2.0782862879504229 0.82758508052920465 0 0 0 0 129.95646851570564 -115.37705155997264 0 -115.37705155997264 -38.695574606811533 0 0 0 0 34.862197200615036 0.40336346995915129 0 0.40336346995915129 0.38463550841124872 0 0 0 0 252.67566810314383 -29.956062839252354 0 -29.956062839252354 -205.41338196659126 0 0 0 0 -14.879899564116386 0.69889738839219717 0 0.69889738839219717 -96.951924483282937 0 0 0 0 -72.837153272223304 -41.279791476714308 0 -41.279791476714308 53.42502801401497 0 0 0 0 56.953686955005651 -76.277156992569871 0 -76.277156992569871 -27.270324427077867 0 0 0 0 134.12566743388197 29.19759555973701 0 29.19759555973701 -153.95588047747685 0 0 0 0 331.93679391649584 -134.5276352509876 0 -134.5276352509876 -19.826896293518075 0 0 0 0 33.101645797319065 64.844596620169028 0 64.844596620169028 370.6806730231724 0 0 0 0 32.680692312726023 41.977271015184471 0 41.977271015184471 -69.212176620433638 0 0 0 0 49.101898694858264 40.301753619998863 0 40.301753619998863 -6.9623897326827091 0 0 0 0 129.35795800637425 -21.511810991210496 0 -21.511810991210496 21.478956713013758 0 0 0 0 46.663851506063594 13.492604100381229 0 13.492604100381229 -13.382492598068961 0 0 0 0 -62.801736460338361 18.311603017177504 0 18.311603017177504 35.909909238156388 0 0 0 0 -92.356933737611143 217.76073847450743 0 217.76073847450743 131.6297875674727 0 0 0 0 65.569077370537343 40.344677596382439 0 40.344677596382439 -82.956351821663247 0 0 0 0 367.34361263138089 288.69308259211414 0 288.69308259211414 91.392162877706824 0 0 0 0 205.30620526670646 -11.811319476574681 0 -11.811319476574681 -84.578612192089508 0 0 0 0 505.25216619477396 -158.11754934895907 0 -158.11754934895907 -20.443238461711474 0 0 0 0 214.50999667860651 -197.67134903565938 0 -197.67134903565938 193.90722740212834 0 0 0 0 330.77729654882751 477.59148641578332 0 477.59148641578332 -219.94502040211114 0 0 0 0 5.9044944512309172 2.1124890659057076 0 2.1124890659057076 -0.86928761207618555 0 0 0 0 -36.40575724437349 -27.193450057054903 0 -27.193450057054903 46.598877355894217 0 0 0 0 5.0320892148874261 -1.8670572768011269 0 -1.8670572768011269 -0.91071275389572626 0 0 0 0 17.373583791551184 -1.7813421940622618 0 -1.7813421940622618 0.15013522965117376 0 0 0 0 29.736903623517719 -42.012029664835666 0 -42.012029664835666 -55.246735987187805 0 0 0 0 193.98751112740501 -122.77929944599919 0 -122.77929944599919 -15.160495507903306 0 0 0 0 75.969956894150528 -120.55707621553805 0 -120.55707621553805 77.831834435607504 0 0 0 0 119.81555044210654 -63.369160221405991 0 -63.369160221405991 -59.613531147264439 0 0 0 0 128.25803899608491 -25.502046816666194 0 -25.502046816666194 -50.57717027495255 0 0 0 0 130.29117942563516 -39.415074690952451 0 -39.415074690952451 -87.402189336980427 0 0 0 0 94.936348480551345 21.213449734025392 0 21.213449734025392 -9.4548676344102134 0 0 0 0 141.27523081955633 16.780924190974218 0 16.780924190974218 -126.57040347392376 0 0 0 0 100.12706115635956 19.173779599910631 0 19.173779599910631 -37.219519548542735 0 0 0 0 85.474644383823033 57.228639584421671 0 57.228639584421671 -42.0716638489817 0 0 0 0 104.5089437826864 -8.1933270061521171 0 -8.1933270061521171 -93.617862255687442 0 0 0 0 60.122706068088533 17.921723588599477 0 17.921723588599477 -21.177928026015177 0 0 0 0 78.931501751399622 -15.68246541516093 0 -15.68246541516093 -18.901323318016676 0 0 0 0 44.227793783997186 -35.585778523284375 0 -35.585778523284375 -72.682243502311849 0 0 0 0 67.238068799031069 -14.22542738603514 0 -14.22542738603514 -20.42780976175743 0 0 0 0 83.922611156631319 0.49863580037003885 0 0.49863580037003885 -31.85878030269464 0 0 0 0 11.622241838485117 3.1290278829489822 0 3.1290278829489822 -4.8291194538302227 0 0 0 0 68.704893334885128 52.592460002354528 0 52.592460002354528 -39.738473519306353 0 0 0 0 152.9978496164149 18.954485863179798 0 18.954485863179798 -27.699439179274123 0 0 0 0 45.741317018285514 24.089766069998966 0 24.089766069998966 -11.12620872231517 0 0 0 0 169.73410778152174 -8.8891098123140182 0 -8.8891098123140182 3.3779688499089389 0 0 0 0 83.315966306858172 35.026841972089187 0 35.026841972089187 -27.574136684030236 0 0 0 0 74.743879025082904 34.820214358012564 0 34.820214358012564 -3.8337086634904693 0 0 0 0 156.97693478077235 202.07868066816741 0 202.07868066816741 -196.41883525682897 0 0 0 0 128.13077178006279 7.7696614147180298 0 7.7696614147180298 -14.130514937371117 0 0 0 0 75.924305401240417 48.347367986255449 0 48.347367986255449 6.9394403515989325 0 0 0 0 36.513165902723479 31.861768937742845 0 31.861768937742845 -4.0683622585059389 0 0 0 0 70.909914561210826 11.087925941342633 0 11.087925941342633 1.4621381896631647 0 0 0 0 225.14647178390442 25.897800562343946 0 25.897800562343946 -34.150590765837478 0 0 0 0 227.60245552928245 -43.310457120143838 0 -43.310457120143838 -41.360209438870697 0 0 0 0 200.7262198983417 126.89626280545463 0 126.89626280545463 54.176387048181823 0 0 0 0 10.603223273511816 2.5847438125559847 0 2.5847438125559847 -0.50420526013077716 0 0 0 0 504.88895627613238 -724.49041946193756 0 -724.49041946193756 709.64651190702716 0 0 0 0 145.16218710095563 -169.2318186505272 0 -169.2318186505272 295.45945988162566 0 0 0 0 100.0233081302722 -13.115472052489054 0 -13.115472052489054 -32.379600180459995 0 0 0 0 82.857116179186704 2.3026652604827085 0 2.3026652604827085 -10.228458967861904 0 0 0 0 225.33998795524531 -97.827495975047441 0 -97.827495975047441 -55.094707213131187 0 0 0 0 17.911178500136259 7.2485932040529377 0 7.2485932040529377 -20.991681116577269 0 0 0 0 60.531317891745857 -35.007449121417267 0 -35.007449121417267 82.596139705738096 0 0 0 0 3.3173514356458327 174.68767441073146 0 174.68767441073146 -74.482024541281248 0 0 0 0 472.91809439889039 -334.34157996190424 0 -334.34157996190424 72.064405374601847 0 0 0 0 220.97826203498698 -74.443522673918324 0 -74.443522673918324 -119.72124204699503 0 0 0 0 1130.577445621333 245.8070909019475 0 245.8070909019475 -980.23014879279617 0 0 0 0 59.797038726033861 -29.093123867017255 0 -29.093123867017255 -72.1957390677685 0 0 0 0 104.70416729279532 -18.806695894750987 0 -18.806695894750987 -23.72592189748616 0 0 0 0 108.29445487660996 -18.892948613176941 0 -18.892948613176941 -46.716923521137005 0 0 0 0 28.037510584847183 12.783561419905638 0 12.783561419905638 -26.711197300705589 0 0 0 0 55.024395850341534 25.8173110849566 0 25.8173110849566 -23.245282843184214 0 0 0 0 19.115655848518202 -11.210320182009667 0 -11.210320182009667 -13.749695373397181 0 0 0 0 59.040855033021998 40.671939606733183 0 40.671939606733183 -21.259112711337021 0 0 0 0 66.245450718607785 -17.92418529136647 0 -17.92418529136647 -10.339009924703703 0 0 0 0 103.25918427258148 -13.918769071006409 0 -13.918769071006409 -35.594317493451854 0 0 0 0 92.983891156258323 29.507231539563691 0 29.507231539563691 13.445796983751279 0 0 0 0 99.9534180163173 -3.6339787500437524 0 -3.6339787500437524 -33.186494567404225 0 0 0 0 19.112766128365891 7.1077365426029573 0 7.1077365426029573 -9.41989875867813 0 0 0 0 76.666865596242133 -39.825238475097649 0 -39.825238475097649 -49.797633980895625 0 0 0 0 100.13203860119393 -14.207562142089841 0 -14.207562142089841 -25.40230581300807 0 0 0 0 89.528647449347773 -10.217996032172323 0 -10.217996032172323 -26.731940705086799 0 0 0 0 95.150802464340813 -9.875070494156887 0 -9.875070494156887 -12.74781672664983 0 0 0 0 100.04082973962795 -13.564003181036583 0 -13.564003181036583 -21.863933648872262 0 0 0 0 99.577124400289904 -12.874607536684834 0 -12.874607536684834 -10.719229868609773 0 0 0 0 99.066801225617382 -11.746214034617779 0 -11.746214034617779 -11.195424307913072 0 0 0 0 101.86710164491342 -5.4367567955829799 0 -5.4367567955829799 -11.094546994117991 0 0 0 0 97.056628723366885 -0.61965388704925317 0 -0.61965388704925317 -15.855969100288888 0 0 0 0 115.19824316114318 -5.8600400446955518 0 -5.8600400446955518 -21.032664710874087 0 0 0 0 100.6113497306942 -17.726122524250059 0 -17.726122524250059 -21.824897346926946 0 0 0 0 102.11351064379778 -17.223530256490335 0 -17.223530256490335 -44.621812269915608 0 0 0 0 127.58450143426307 -24.61574694405499 0 -24.61574694405499 -17.83721020652024 0 0 0 0 27.219263367340815 3.736380186444535 0 3.736380186444535 -18.795914180223207 0 0 0 0 114.41282493614563 -13.2622912910129 0 -13.2622912910129 -8.0097302093665803 0 0 0 0 28.400319966824441 -11.946146820855006 0 -11.946146820855006 -52.335661615519378 0 0 0 0 284.3911707371517 -157.63393412818834 0 -157.63393412818834 -175.78010424567492 0 0 0 0 197.30057088368631 -32.638793215075566 0 -32.638793215075566 -63.570346514510675 0 0 0 0 98.618141866300107 -20.626282274319372 0 -20.626282274319372 -13.129890919629737 0 0 0 0 158.19488812112832 -46.026418836816447 0 -46.026418836816447 -65.682430966860011 0 0 0 0 133.64095812362211 -7.7738084352408805 0 -7.7738084352408805 -44.684457642350026 0 0 0 0 216.71022343989171 -32.108319526869309 0 -32.108319526869309 -20.007710033747571 0 0 0 0 176.51638494884537 -0.62057970446312538 0 -0.62057970446312538 -43.738669191774534 0 0 0 0 9.2256128655535576 102.82915193408098 0 102.82915193408098 -90.491999325588495 0 0 0 0 518.97144740034128 -193.03425447891004 0 -193.03425447891004 -129.17717169103287 0 0 0 0 3.7545777567956264 1.0255654103001461 0 1.0255654103001461 -29.291372290392868 0 0 0 0 637.99305860331515 -542.27686663413988 0 -542.27686663413988 -443.61136639435017 0 0 0 0 372.98138191945327 -30.874002046581609 0 -30.874002046581609 -52.473639596504654 0 0 0 0 -24.008634903562779 227.63456564238732 0 227.63456564238732 -266.81171116528276 0 0 0 0 2131.5814363227546 -1351.0620311286175 0 -1351.0620311286175 662.00785367449816 0 0 0 0 424.26763235221733 -729.55419111932679 0 -729.55419111932679 624.52132514820551 0 0 0 0 317.05603388743475 -585.05726424198713 0 -585.05726424198713 650.32068731251456 0 0 0 0 483.44359389596502 -1119.8834120049924 0 -1119.8834120049924 89.949577408718142 0 0 0 0 14.633614728110842 -31.86098278602185 0 -31.86098278602185 132.87670943846956 0 0 0 0 17.180873632703282 -14.093465873459042 0 -14.093465873459042 10.418925678824507 0 0 0 0 173.38484776364112 -792.34833711181932 0 -792.34833711181932 1582.1492360390189 0 0 0 0 2075.5519355741962 648.3425195696916 0 648.3425195696916 26.28217776305155 0 0 0 0 286.482351268206 -127.2363306116325 0 -127.2363306116325 -21.443939544223099 0 0 0 0 55.866140209531864 -29.179936059678582 0 -29.179936059678582 5.4428418868991191 0 0 0 0 245.40034969926637 14.756110434699735 0 14.756110434699735 -7.7910193292422605 0 0 0 0 224.92866792056157 -63.516225553074719 0 -63.516225553074719 -61.717477689477164 0 0 0 0 179.4595716591939 -94.343002882664905 0 -94.343002882664905 -24.851523654500284 0 0 0 0 126.91250375508753 -60.201923797847144 0 -60.201923797847144 -42.520893558449075 0 0 0 0 413.61898810149432 -32.453196077623488 0 -32.453196077623488 41.193273999551593 0 0 0 0 2662.8995601042798 -423.03028669519 0 -423.03028669519 -1015.7952936492534 0 0 0 0 2604.1303281233595 397.21408660889176 0 397.21408660889176 326.07941480323007 0 0 0 0 831.72983172419481 -148.23580111570311 0 -148.23580111570311 858.67049298130894 0 0 0 0 3313.686985296903 -154.58091704224671 0 -154.58091704224671 -2434.8517793648934 0 0 0 0 -769.89127699799428 -1137.1653946770009 0 -1137.1653946770009 1211.4788131187966 0 0 0 0 2.6469202449505929 -3.4167295778041549 0 -3.4167295778041549 6.8263850480900237 0 0 0 0 2456.2397028941632 -809.56934255084821 0 -809.56934255084821 210.43529752610175 0 0 0 0 944.77680929058624 -1857.2560252020276 0 -1857.2560252020276 1328.6001052886877 0 0 0 0 741.46338021557767 31.295359051434602 0 31.295359051434602 327.32472083450057 0 0 0 0 589.60966267980984 135.97282482746618 0 135.97282482746618 255.85257660551702 0 0 0 0 521.69118889130914 -48.900085675417131 0 -48.900085675417131 518.53707305094349 0 0 0 0 815.00435159524932 -254.28038341684629 0 -254.28038341684629 433.37331021832279 0 0 0 0 834.72656594474392 -791.76323810007148 0 -791.76323810007148 -278.92137733218533 0 0 0 0 -331.86474896517029 -1065.6874411440181 0 -1065.6874411440181 -110.31456474922174 0 0 0 0 -115.65219227080524 -69.251520605386759 0 -69.251520605386759 14.825620223915394 0 0 0 0 580.44639200177153 121.17448165498666 0 121.17448165498666 218.67787860875342 0 0 0 0 309.63437199869077 -265.30798167828016 0 -265.30798167828016 -25.419824239120771 0 0 0 0 424.00048933100334 139.04312693891131 0 139.04312693891131 187.25854025447188 0 0 0 0 596.08840045274246 -86.553425026691144 0 -86.553425026691144 397.12480000069854 0 0 0 0 649.94945282288245 31.002282398706029 0 31.002282398706029 197.16062554665132 0 0 0 0 620.35862889545388 -156.40217869668686 0 -156.40217869668686 -85.230212155487834 0 0 0 0 166.70054237633303 -38.659840892799821 0 -38.659840892799821 -42.792413174860485 0 0 0 0 576.41589024475979 -308.70327896713616 0 -308.70327896713616 -269.36547896048751 0 0 0 0 17.579489937144899 -396.2208841504621 0 -396.2208841504621 -116.21882979574912 0 0 0 0 -585.32851503613347 120.19721646035691 0 120.19721646035691 -198.47349911440733 0 0 0 0 -493.28749979781423 -294.63649887818929 0 -294.63649887818929 -91.769856358417655 0 0 0 0 18.890441500456966 7.7228625785106715 0 7.7228625785106715 -44.910062458855315 0 0 0 0 -64.697354485940195 -276.16222891846854 0 -276.16222891846854 -406.87090516452099 0 0 0 0 -45.437055170099484 -99.968810859630423 0 -99.968810859630423 -94.273892045989669 0 0 0 0 288.91138070538727 -278.02911761096266 0 -278.02911761096266 -271.73128819069257 0 0 0 0 331.18079837855475 -16.699531847050366 0 -16.699531847050366 -34.977473071595796 0 0 0 0 1820.1724626318319 -1087.6960697232416 0 -1087.6960697232416 1697.9077763542946 0 0 0 0 2189.5918311528803 112.98513418906623 0 112.98513418906623 1044.0514737086914 0 0 0 0 -1386.8581992787877 -630.67532984260356 0 -630.67532984260356 329.170362205743 0 0 0 0 3161.9826530383766 -2929.2657040147869 0 -2929.2657040147869 2896.9931679852125 0 0 0 0 2656.1683274811367 -68.647074679114667 0 -68.647074679114667 -1194.9669578441326 0 0 0 0 -1.5244423277580488 -2.9169815724536221 0 -2.9169815724536221 -8.7515140541245486 0 0 0 0 2433.835004722554 -1314.7349198336228 0 -1314.7349198336228 -117.14213841805213 0 0 0 0 1850.6486096643785 1041.4237319159402 0 1041.4237319159402 -661.30121781142498 0 0 0 0 1866.9749777797406 163.28154427193476 0 163.28154427193476 162.25449385776119 0 0 0 0 2672.5741347485236 214.42903436905203 0 214.42903436905203 -28.056574201113108 0 0 0 0 785.1156793415721 267.26403682388809 0 267.26403682388809 773.12628474367375 0 0 0 0 1720.5596558157558 -184.09955443667923 0 -184.09955443667923 -182.34481274928839 0 0 0 0 44.157298608843121 54.009820773409956 0 54.009820773409956 -88.794979691861954 0 0 0 0 1401.3858692996228 1489.3254472346862 0 1489.3254472346862 966.2011673153138 0 0 0 0 13.710655695652576 0.6131335491726233 0 0.6131335491726233 -4.212800848351975 0 0 0 0 1180.4677309144772 715.0114845895564 0 715.0114845895564 -126.19508199778647 0 0 0 0 733.92378353955428 580.05786808854464 0 580.05786808854464 367.10876792209456 0 0 0 0 1108.3501347339989 -64.094245148620757 0 -64.094245148620757 -1058.3628153281534 0 0 0 0 173.54531984149799 -115.18394668871224 0 -115.18394668871224 -36.358618233691232 0 0 0 0 342.44544722598221 -369.77201169495999 0 -369.77201169495999 -600.78348855026002 0 0 0 0 -323.32717307431449 -325.46168045108959 0 -325.46168045108959 270.30182723919825 0 0 0 0 1087.6282620131897 -6.0208691112475208 0 -6.0208691112475208 -266.56553162322984 0 0 0 0 -186.87032547878334 -12.888667890952433 0 -12.888667890952433 -264.31969309840292 0 0 0 0 156.01908899389309 112.40875659650737 0 112.40875659650737 -94.539532810653327 0 0 0 0 -0.77609766955514203 53.202125871186986 0 53.202125871186986 -15.380384461797746 0 0 0 0 138.21006843011699 31.472543886312863 0 31.472543886312863 -30.152499415198744 0 0 0 0 112.13616061368521 93.479250337300073 0 93.479250337300073 -23.990876301041681 0 0 0 0 185.84933956457098 168.45542569938516 0 168.45542569938516 -22.279761003728709 0 0 0 0 1892.3364306699768 250.29553499363283 0 250.29553499363283 -799.30831720601418 0 0 0 0 -18.310174834426878 47.793819107021278 0 47.793819107021278 -59.740695087813783 0 0 0 0 642.56347393503529 389.10304772604763 0 389.10304772604763 -35.214978163719934 0 0 0 0 28.934952867188258 143.52680559938563 0 143.52680559938563 -49.805049970598702 0 0 0 0 155.77965288012638 -597.47772155027997 0 -597.47772155027997 -1130.4557587665331 0 0 0 0 -292.04360993800219 -808.18114330989192 0 -808.18114330989192 -1056.4084072038095 0 0 0 0 -30.208051303234242 -777.0116197251009 0 -777.0116197251009 -1710.5266576550421 0 0 0 0 68.080499930577844 -787.47639165782664 0 -787.47639165782664 -1543.8535895723762 0 0 0 0 91.598630952094936 -139.40209641479419 0 -139.40209641479419 -791.14309034107282 0 0 0 0 320.23109587462386 -38.740556482898683 0 -38.740556482898683 124.07324324911133 0 0 0 0 297.85713843569647 202.22004228827382 0 202.22004228827382 -571.03558614953363 0 0 0 0 -81.275196303526172 -503.86892929814348 0 -503.86892929814348 -837.92245109485521 0 0 0 0 -750.15250266437943 -6.6248815425860812 0 -6.6248815425860812 -910.0177955373365 0 0 0 0 1079.3989695480705 -463.29154241811193 0 -463.29154241811193 -519.07475469264682 0 0 0 0 558.50291105937504 20.196985411170317 0 20.196985411170317 -910.31127758369257 0 0 0 0 380.40607405739138 -588.78584617246815 0 -588.78584617246815 -794.99655923915998 0 0 0 0 446.44492052160786 -398.44847290244434 0 -398.44847290244434 -679.29409550788114 0 0 0 0 735.67203514673747 -468.63117577293451 0 -468.63117577293451 -815.75530922258622 0 0 0 0 73.714588347618701 -289.36222856890163 0 -289.36222856890163 -1426.1677123607224 0 0 0 0 164.62726627284428 -609.68596280980273 0 -609.68596280980273 -688.24250141828088 0 0 0 0 -658.8773728936867 -1378.8171548280134 0 -1378.8171548280134 -1404.71361228155 0 0 0 0 -496.6545268166501 -673.6182205490536 0 -673.6182205490536 142.7487891662422 0 0 0 0 66.157815109791756 -27.551857300585034 0 -27.551857300585034 -1.6948748904556794 0 0 0 0 535.52161470643478 873.27919058301268 0 873.27919058301268 648.91541899466756 0 0 0 0 -10.941711471106544 -13.125729888199501 0 -13.125729888199501 12.507049054910624 0 0 0 0 631.4299438779708 4.101590610909625 0 4.101590610909625 912.25765538543055 0 0 0 0 444.59513403923484 262.28800818542368 0 262.28800818542368 745.09136463783216 0 0 0 0 940.81956460897345 -104.79009047803993 0 -104.79009047803993 663.82005092522013 0 0 0 0 -1225.6751659344736 -885.81224181270227 0 -885.81224181270227 -636.84488314277405 0 0 0 0 329.47393944708165 420.76995623395487 0 420.76995623395487 981.41087233586586 0 0 0 0 470.44674230436794 233.19891158757673 0 233.19891158757673 219.22619265585672 0 0 0 0 406.539922862401 596.39895555713883 0 596.39895555713883 526.68994859656959 0 0 0 0 315.83683773683151 345.57823614026711 0 345.57823614026711 61.59300935491774 0 0 0 0 322.3094698007917 637.56108149617648 0 637.56108149617648 352.09887856611749 0 0 0 0 428.61015607300214 213.64258134191186 0 213.64258134191186 12.349113077449147 0 0 0 0 125.7329792441451 159.30735578424719 0 159.30735578424719 71.434452144862007 0 0 0 0 305.79068403560086 409.67888235181454 0 409.67888235181454 -219.27241324213537 0 0 0 0 409.74634820638221 166.79229082209099 0 166.79229082209099 18.313494378890027 0 0 0 0 383.49232210142145 452.76620047245888 0 452.76620047245888 289.42341600767395 0 0 0 0 702.91321175554185 230.42259406885205 0 230.42259406885205 443.98550930171768 0 0 0 0 869.33519465928839 662.48891275086862 0 662.48891275086862 225.44077891561392 0 0 0 0 -840.30983694008319 -666.66417402744264 0 -666.66417402744264 -1441.7901397196256 0 0 0 0 -1395.0810786593211 -1682.313028038312 0 -1682.313028038312 -2386.0222173612783 0 0 0 0 39.386275323842881 -39.357994791930302 0 -39.357994791930302 10.438967089339599 0 0 0 0 675.82712519678171 693.05991627749609 0 693.05991627749609 869.04220689223439 0 0 0 0 283.52438198545133 382.0632917078583 0 382.0632917078583 916.09256777885457 0 0 0 0 -986.57305417272983 -1877.7298617119914 0 -1877.7298617119914 -1724.9984457736136 0 0 0 0 374.55028758158733 623.97699605519301 0 623.97699605519301 853.21767352904681 0 0 0 0 38.933622031066818 -28.036139614603183 0 -28.036139614603183 10.973669911216689 0 0 0 0 -825.83991830061132 -809.93655723596021 0 -809.93655723596021 -869.84810229866707 0 0 0 0 -782.86627646295528 -700.56661278806132 0 -700.56661278806132 -1345.3098082134748 0 0 0 0 1041.2932232164312 705.58046067228679 0 705.58046067228679 716.2228398358784 0 0 0 0 601.31360417285759 329.21705801175995 0 329.21705801175995 649.73344828201607 0 0 0 0 111.84924778483401 308.60887461693346 0 308.60887461693346 673.42061995181211 0 0 0 0 -645.31722430115042 -18.710889263104036 0 -18.710889263104036 72.762459552833207 0 0 0 0 934.06959992627526 -166.1917348803745 0 -166.1917348803745 79.637480121295084 0 0 0 0 332.14583592224517 551.21622687664058 0 551.21622687664058 352.32821636340668 0 0 0 0 325.26252293746802 268.70524731970909 0 268.70524731970909 -1162.6355132126628 0 0 0 0 40.727533779506302 -9.3618677645298565 0 -9.3618677645298565 1.4751692215974117 0 0 0 0 2712.2533797659562 -1188.1750127741689 0 -1188.1750127741689 -609.35292218526956 0 0 0 0 675.95584950179909 -1650.4597391519746 0 -1650.4597391519746 -711.83508877977329 0 0 0 0 2512.2134358796247 2602.4278088129577 0 2602.4278088129577 2914.0569017900962 0 0 0 0 3675.5322037954174 -533.66338580501179 0 -533.66338580501179 300.62761809526273 0 0 0 0 2633.8170316396572 -1690.3152444531552 0 -1690.3152444531552 1637.7659389570326 0 0 0 0 -647.18720765699982 -582.98023784255565 0 -582.98023784255565 1628.3158429732648 0 0 0 0 5993.2292722091661 -914.12281112959317 0 -914.12281112959317 -53.49958769720979 0 0 0 0 1017.6310803762171 1121.7306473147528 0 1121.7306473147528 1701.851522872108 0 0 0 0 1549.487638916471 -217.1702076980182 0 -217.1702076980182 -371.18787310912717 0 0 0 0 3639.8677689649339 -66.592265362643957 0 -66.592265362643957 -375.66267941891419 0 0 0 0 2371.5251570829569 -805.35695075910553 0 -805.35695075910553 -236.78767854200123 0 0 0 0 1399.6696568519255 -437.62563318730827 0 -437.62563318730827 -355.44440368864161 0 0 0 0 982.8823834463692 -131.01823300007163 0 -131.01823300007163 95.599923697773193 0 0 0 0 1486.2364828455611 -1177.3123748880862 0 -1177.3123748880862 -278.75032523307891 0 0 0 0 1902.0890408763371 -644.18955580794318 0 -644.18955580794318 54.081674954279151 0 0 0 0 2365.0827411895152 -842.69422165667129 0 -842.69422165667129 -152.6094429759778 0 0 0 0 2426.7254618275038 -79.32181510072769 0 -79.32181510072769 75.716406654782986 0 0 0 0 2307.1239644411471 -1242.0776659890962 0 -1242.0776659890962 756.72938014653846 0 0 0 0 3854.4122704782058 -424.56426243335591 0 -424.56426243335591 -49.138438403135297 0 0 0 0 1051.4614458395154 -130.22658641259477 0 -130.22658641259477 44.705007887037937 0 0 0 0 510.19957268959843 272.75819136165228 0 272.75819136165228 -151.15861926384241 0 0 0 0 988.75410426972667 -282.44575042736324 0 -282.44575042736324 293.40939864518077 0 0 0 0 377.93655541974294 339.30708154842614 0 339.30708154842614 592.19753285213665 0 0 0 0 4.0905366256225761 3.7694759192491745 0 3.7694759192491745 -10.404671969109785 0 0 0 0 -172.75515298586106 2314.464122371759 0 2314.464122371759 1353.3742254110111 0 0 0 0 -884.82336014568864 331.77448841495334 0 331.77448841495334 794.01141427463881 0 0 0 0 894.36014776352386 156.27499612269276 0 156.27499612269276 185.16725631887675 0 0 0 0 340.79036121739773 -322.08028106684196 0 -322.08028106684196 1410.1260226736667 0 0 0 0 1614.0222197754701 258.00798534632668 0 258.00798534632668 108.55228123782581 0 0 0 0 -19.987928649308742 -1927.6640270991484 0 -1927.6640270991484 41.525101760606049 0 0 0 0 1573.7152913281002 -1411.5860928775569 0 -1411.5860928775569 112.08970443017824 0 0 0 0 885.4046102596476 -869.09187530184136 0 -869.09187530184136 349.31921461305683 0 0 0 0 -55.564333483431255 -320.50751029796083 0 -320.50751029796083 55.56434141122736 0 0 0 0 -451.5232070513448 -1109.2603117851468 0 -1109.2603117851468 -109.82435251022616 0 0 0 0 441.12774239428472 -372.8213931423652 0 -372.8213931423652 -1088.9030439540074 0 0 0 0 -290.25034853839315 -559.18617670707317 0 -559.18617670707317 -1615.6604989108328 0 0 0 0 3074.7270665825999 1287.8999559803915 0 1287.8999559803915 811.06222480388533 0 0 0 0 -1329.9741862102674 -1699.0343551860587 0 -1699.0343551860587 11.656727737525216 0 0 0 0 13.006244156227666 -11.247594788129469 0 -11.247594788129469 9.9600674337234238 0 0 0 0 -46.816906872729305 137.09952578399862 0 137.09952578399862 -94.981240566342422 0 0 0 0 34.91699850736768 106.41853191136875 0 106.41853191136875 -76.237114488227007 0 0 0 0 35.952527236921014 119.56470533503568 0 119.56470533503568 -125.72200646251372 0 0 0 0 -49.268984571826877 36.789738220455547 0 36.789738220455547 -12.905203400777282 0 0 0 0 -289.93486146983923 73.532995692855479 0 73.532995692855479 -6.1170546929814833 0 0 0 0 -47.408077663785662 61.448712690665161 0 61.448712690665161 -11.785352621813217 0 0 0 0 -83.549018429563148 87.008258500785814 0 87.008258500785814 -29.745849866382741 0 0 0 0 15.112375316195539 97.497065972596829 0 97.497065972596829 -69.732052807604305 0 0 0 0 24.846357874597743 38.586781579087869 0 38.586781579087869 -74.833774925567013 0 0 0 0 27.141355119878426 84.129139074867908 0 84.129139074867908 -117.82761662137136 0 0 0 0 12.891463080089238 3.2367783947253521 0 3.2367783947253521 -2.0880144413130264 0 0 0 0 64.05315028710902 14.431805700598943 0 14.431805700598943 2.5644549689277483 0 0 0 0 0.48604691536456812 42.154715014929025 0 42.154715014929025 -55.171603117290942 0 0 0 0 63.678519490003964 55.718729878477461 0 55.718729878477461 40.12947769204311 0 0 0 0 -291.90207935512444 377.132350071151 0 377.132350071151 -299.65595742770074 0 0 0 0 2.0775680610289982 4.2071970296627796 0 4.2071970296627796 8.263511344440488 0 0 0 0 -0.011290997698978344 9.2856978718060823 0 9.2856978718060823 -2.5694543541485686 0 0 0 0 -3.8223334602771502 111.39729781624283 0 111.39729781624283 -401.39821735812984 0 0 0 0 7.7048996853458931 11.726798461006879 0 11.726798461006879 -0.46830026302341921 0 0 0 0 20.115778017701814 16.24153943749252 0 16.24153943749252 -27.521703311668034 0 0 0 0 36.978948659996604 14.043815626125024 0 14.043815626125024 -17.487912382585819 0 0 0 0 49.954431648395257 38.305072712175388 0 38.305072712175388 4.3918707306038414 0 0 0 0 36.051583914762887 17.737516967930787 0 17.737516967930787 2.9240078229140636 0 0 0 0 100.97306897242379 184.25688820321557 0 184.25688820321557 119.41274159854493 0 0 0 0 284.24521215546702 -233.97563721618053 0 -233.97563721618053 -1076.5534596293037 0 0 0 0 -0.47551013092927974 2.0183235529862547 0 2.0183235529862547 -1.6924103786462972 0 0 0 0 -29.21279406267422 51.912818472283107 0 51.912818472283107 -482.32422240710366 0 0 0 0 -20.414319865645666 -41.069611390262253 0 -41.069611390262253 -133.00634483774775 0 0 0 0 -28.435348112587235 291.55781878962989 0 291.55781878962989 -551.63899813018361 0 0 0 0 112.87454405493918 -119.74808537959143 0 -119.74808537959143 -543.1463634280808 0 0 0 0 161.34788949499489 145.19783794744853 0 145.19783794744853 -521.90481766277833 0 0 0 0 51.28734242846258 27.032095847251185 0 27.032095847251185 -72.42157961760131 0 0 0 0 6.2546722310653422 -33.560640340403097 0 -33.560640340403097 -56.852354394823578 0 0 0 0 6.8765978876430154 -3.2843855913602624 0 -3.2843855913602624 -2.901736270818521 0 0 0 0 416.90637058529683 110.54475469683689 0 110.54475469683689 62.105434501255331 0 0 0 0 624.45605410262215 394.52235667416107 0 394.52235667416107 61.551188872662351 0 0 0 0 38.927583186901757 -10.272455422270923 0 -10.272455422270923 -10.940319222974949 0 0 0 0 33.0999346875833 7.7285086756510282 0 7.7285086756510282 -3.2275826151171714 0 0 0 0 8.3867328916164325 9.1207658277243553 0 9.1207658277243553 -4.4057382825474107 0 0 0 0 440.42893449311669 156.45289543803415 0 156.45289543803415 11.691483378817793 0 0 0 0 13.455815359071295 -6.9089001571277464 0 -6.9089001571277464 -1.3229545470684361 0 0 0 0 420.5525311283418 90.017863544817146 0 90.017863544817146 47.745768008853815 0 0 0 0 389.19421947038791 21.562262148136824 0 21.562262148136824 -96.379054021929107 0 0 0 0 388.78393142371351 188.26692298708804 0 188.26692298708804 -61.49722713379515 0 0 0 0 4.0696333698942908 227.08901315446201 0 227.08901315446201 -194.27168382812104 0 0 0 0 164.00485435654991 -11.831032325202386 0 -11.831032325202386 -186.36066278297153 0 0 0 0 14.046136219491018 90.615775734152407 0 90.615775734152407 -194.45397693140512 0 0 0 0 -320.1675342982453 83.318466761332729 0 83.318466761332729 -12.47379784187433 0 0 0 0 74.612277688931499 273.53925836417966 0 273.53925836417966 -3.332721549101052 0 0 0 0 244.95183349400759 14.69689738058787 0 14.69689738058787 -53.680618421587496 0 0 0 0 158.8713130630058 459.68585182509196 0 459.68585182509196 244.93527522040949 0 0 0 0 427.55031743910149 56.694107171411588 0 56.694107171411588 84.666718238838257 0 0 0 0 229.092570495377 210.59497375757019 0 210.59497375757019 -377.51130757572173 0 0 0 0 815.14697681028338 655.16579621426536 0 655.16579621426536 -62.848556096049833 0 0 0 0 3.2452881166460088 -0.87830962631697673 0 -0.87830962631697673 -2.4728564864342921 0 0 0 0 44.083039199889939 34.7519176234523 0 34.7519176234523 23.227989320258107 0 0 0 0 -21.348860077752533 -190.15899725111706 0 -190.15899725111706 -545.08211702956032 0 0 0 0 105.83992815865713 84.909300045205327 0 84.909300045205327 -505.11281674085876 0 0 0 0 7.1696481031840591 -6.2129241410268463 0 -6.2129241410268463 -15.437347292813262 0 0 0 0 151.56304353329051 -183.26576102315761 0 -183.26576102315761 212.91721713408151 0 0 0 0 398.83097651258868 124.57707127856474 0 124.57707127856474 -418.59931516587676 0 0 0 0 -40.126638293513679 -0.022260177810494497 0 -0.022260177810494497 7.8130689616918971 0 0 0 0 21.704677456290213 18.264671283335218 0 18.264671283335218 13.72673021308078 0 0 0 0 -367.89096544837048 432.63012129765366 0 432.63012129765366 -36.22154693280936 0 0 0 0 16.788558319331059 11.723384441183953 0 11.723384441183953 1.9612369682054123 0 0 0 0 -1.6356027454239666 23.899531855519797 0 23.899531855519797 133.84386226633569 0 0 0 0 6.1042827457980025 1.4093247860179616 0 1.4093247860179616 0.27315341682185412 0 0 0 0 508.82488532724528 -202.8012498986605 0 -202.8012498986605 147.02904395943756 0 0 0 0 201.64466437020747 -34.933295927147697 0 -34.933295927147697 136.36795340044182 0 0 0 0 11.44199245271578 7.2151153337796465 0 7.2151153337796465 3.1602838490135552 0 0 0 0 191.54952475070161 -304.61176744549431 0 -304.61176744549431 293.90814121165931 0 0 0 0 820.00895805581968 -172.62767421653939 0 -172.62767421653939 139.24375142351238 0 0 0 0 755.29008747861644 -6.6558520527692906 0 -6.6558520527692906 147.79913423925791 0 0 0 0 712.81990079243769 -51.421531380628949 0 -51.421531380628949 101.34002923664184 0 0 0 0 825.51863375409994 282.65118900649895 0 282.65118900649895 313.93810536146475 0 0 0 0 1322.2621601247229 -7.1737736670743288 0 -7.1737736670743288 103.23245777196202 0 0 0 0 996.11497301864438 -490.22193710951751 0 -490.22193710951751 313.66090893021283 0 0 0 0 998.08699034914025 -173.55531125317111 0 -173.55531125317111 -113.30348868653755 0 0 0 0 -428.59059143413469 347.77119135761734 0 347.77119135761734 -215.50488764980219 0 0 0 0 8.3711306773864678 11.948814471965193 0 11.948814471965193 11.986173325458005 0 0 0 0 747.13260337433167 233.78788717317207 0 233.78788717317207 32.815520446406026 0 0 0 0 -290.98337254487706 110.16474232715279 0 110.16474232715279 -136.33561354323689 0 0 0 0 975.70974725585438 -429.46484138970686 0 -429.46484138970686 -89.377313651627446 0 0 0 0 701.0086754741551 -97.521712347727032 0 -97.521712347727032 -67.98223533974442 0 0 0 0 3.4347334062825041 3.855747657413005 0 3.855747657413005 4.1225482775210498 0 0 0 0 -599.84376096261985 536.75492456113921 0 536.75492456113921 -349.24667129866111 0 0 0 0 1561.0205713226896 -452.56362329823833 0 -452.56362329823833 -343.47143216021141 0 0 0 0 -116.37666765574977 286.86179622722068 0 286.86179622722068 -473.3787136324944 0 0 0 0 146.98269663889334 29.232668170925749 0 29.232668170925749 -21.653304305892842 0 0 0 0 457.49142495966225 349.94254034123298 0 349.94254034123298 -713.65536742890004 0 0 0 0 215.68032758546178 -40.719562232867247 0 -40.719562232867247 -324.63493089440817 0 0 0 0 515.21130193287536 -44.892835715780166 0 -44.892835715780166 -110.61131592479978 0 0 0 0 109.07680489728864 83.568632658815886 0 83.568632658815886 161.11534994849717 0 0 0 0 5.660623470985513 3.7154967101526246 0 3.7154967101526246 -0.63625493561033863 0 0 0 0 278.98327349847386 386.25682043203778 0 386.25682043203778 7.5332271543327352 0 0 0 0 93.108415124650492 -218.69515820388142 0 -218.69515820388142 -86.96571831708934 0 0 0 0 525.26855003405944 212.59690417659294 0 212.59690417659294 -153.85137482659229 0 0 0 0 5.9271819124551257 -110.69023285218555 0 -110.69023285218555 -149.53437508482784 0 0 0 0 13.250814104692836 3.5403309005572758 0 3.5403309005572758 -1.3127585749368391 0 0 0 0 386.4041497236758 116.08726243758974 0 116.08726243758974 -520.50154833110389 0 0 0 0 199.08054584175989 -131.08402981737436 0 -131.08402981737436 -390.63014102405577 0 0 0 0 153.43000735855094 -49.426322124713749 0 -49.426322124713749 -123.68649166131752 0 0 0 0 138.55012905917101 -22.98591504837384 0 -22.98591504837384 -170.30472390442691 0 0 0 0 147.79214534435278 29.722730018574687 0 29.722730018574687 -22.619954979262506 0 0 0 0 118.84691891454167 -66.903692451743439 0 -66.903692451743439 -226.37928131723811 0 0 0 0 -95.734200095954293 197.64674135403288 0 197.64674135403288 -304.32214305693958 0 0 0 0 325.45213148313633 -20.01118827830021 0 -20.01118827830021 -175.53277638332676 0 0 0 0 216.95117364217367 88.66771326743816 0 88.66771326743816 -93.460477644662433 0 0 0 0 -181.67453477698291 226.62798428120064 0 226.62798428120064 -261.58653134910605 0 0 0 0 626.70739634273195 -27.6238711517517 0 -27.6238711517517 -119.15617395948198 0 0 0 0 1.2370573080433473 -1.6133319018483547 0 -1.6133319018483547 1.1640935480017127 0 0 0 0 6.5494135129039108 0.67648755998604315 0 0.67648755998604315 -4.5678535063682801 0 0 0 0 -114.11982700307271 310.17149819253734 0 310.17149819253734 -167.94260591672236 0 0 0 0 210.20060989083504 172.75160978414692 0 172.75160978414692 -187.96058448989243 0 0 0 0 252.78572230256395 100.46854587417886 0 100.46854587417886 -126.63933460695227 0 0 0 0 442.63615226515685 138.20023428147849 0 138.20023428147849 -166.595684863977 0 0 0 0 -86.015794822815224 62.709439265350738 0 62.709439265350738 49.718606084934436 0 0 0 0 230.35781028128258 128.9218604844516 0 128.9218604844516 -93.802791895612245 0 0 0 0 149.59486186977529 29.554442943238069 0 29.554442943238069 -22.251858710138052 0 0 0 0 9.3590176719444571 195.10146677491502 0 195.10146677491502 -203.75301519837194 0 0 0 0 141.86547591950512 -33.97095699903366 0 -33.97095699903366 -492.79394307118855 0 0 0 0 13.662816642652274 3.1963512662029991 0 3.1963512662029991 -1.3953207292041663 0 0 0 0 108.63695378680131 -111.4835727007312 0 -111.4835727007312 -505.39789984787842 0 0 0 0 -89.126663223083597 -192.00210583157059 0 -192.00210583157059 -40.225889867382648 0 0 0 0 49.012282853131182 -184.46018857125819 0 -184.46018857125819 -228.96701019113607 0 0 0 0 156.68851655987004 28.45104812838948 0 28.45104812838948 -21.225354622066 0 0 0 0 40.839363078288443 85.18123729353124 0 85.18123729353124 138.55461401161244 0 0 0 0 6.0508228807411228 3.1919780300819554 0 3.1919780300819554 -0.82285356754115835 0 0 0 0 667.20633216903661 186.90802489943235 0 186.90802489943235 -493.66765565804235 0 0 0 0 195.3265155130066 -223.6891331749066 0 -223.6891331749066 -214.64664927443164 0 0 0 0 109.02043157460048 186.38222155885944 0 186.38222155885944 -215.91663831584083 0 0 0 0 -267.11242709474755 -9.4063377222701092 0 -9.4063377222701092 256.7406595065313 0 0 0 0 156.81714613611985 24.100341071025468 0 24.100341071025468 99.427343115033182 0 0 0 0 146.48640779883135 -9.7533695792566277 0 -9.7533695792566277 0.5428311048544856 0 0 0 0 167.9901798209994 46.938570161761135 0 46.938570161761135 -32.068436529647897 0 0 0 0 46.280197412648704 -36.684908940062371 0 -36.684908940062371 -89.456133766228419 0 0 0 0 3.2969518056343077 -13.866486028762665 0 -13.866486028762665 37.882594831943379 0 0 0 0 48.568608949062764 113.13132910222583 0 113.13132910222583 -82.758705505843835 0 0 0 0 -66.222053177527414 235.77266221630174 0 235.77266221630174 -346.00594919464106 0 0 0 0 -185.89481231167156 -8.9959952274440411 0 -8.9959952274440411 -135.90625970410485 0 0 0 0 77.978131948359078 119.124650797188 0 119.124650797188 -170.39709858824142 0 0 0 0 148.8168214198231 34.999213894868092 0 34.999213894868092 -104.51868076344044 0 0 0 0 -7.0869114312663442 101.2382104346828 0 101.2382104346828 -92.512867886544882 0 0 0 0 54.448470998337143 -8.7666130919130865 0 -8.7666130919130865 -1.0501611641527688 0 0 0 0 311.08024251455936 41.840250365231668 0 41.840250365231668 147.13693077739026 0 0 0 0 3.9806633813432768 -0.012124420258572854 0 -0.012124420258572854 8.5012590689774186 0 0 0 0 84.073321440795553 -30.921157950839643 0 -30.921157950839643 -9.1323830427295434 0 0 0 0 70.034998957067728 -33.658081281354043 0 -33.658081281354043 13.82784773499543 0 0 0 0 92.022444425636422 -30.838605025531479 0 -30.838605025531479 -9.8870964067427849 0 0 0 0 96.123096642244491 -9.1226007353934619 0 -9.1226007353934619 -8.4826638521258246 0 0 0 0 20.723984277989075 4.3999790709965509 0 4.3999790709965509 28.501842225139626 0 0 0 0 -0.94402146445418111 -0.1273785974360635 0 -0.1273785974360635 3.5654283685574555 0 0 0 0 197.23098041779303 60.68188701042709 0 60.68188701042709 43.512000592882941 0 0 0 0 420.26514273080102 175.06148642758308 0 175.06148642758308 -39.440345064928806 0 0 0 0 238.94940108361698 128.0130976353073 0 128.0130976353073 -36.639041220028957 0 0 0 0 469.03123285222682 -76.06732486553301 0 -76.06732486553301 -151.10555737814138 0 0 0 0 149.14729922288097 -117.68985661983606 0 -117.68985661983606 -29.186508272743595 0 0 0 0 82.218740658368915 -104.68660050733024 0 -104.68660050733024 86.785600127541329 0 0 0 0 96.732625552074751 -94.130266899324852 0 -94.130266899324852 -8.8746724137472484 0 0 0 0 126.61501612580469 -31.749706387638525 0 -31.749706387638525 -19.5712976568866 0 0 0 0 61.464116735194693 -149.96748292271604 0 -149.96748292271604 25.06099223640922 0 0 0 0 -102.72729606663052 -43.706716646443908 0 -43.706716646443908 -9.4551664957980393 0 0 0 0 134.715882000899 -160.05735826321552 0 -160.05735826321552 -35.683644719858421 0 0 0 0 294.59070785827498 192.86752539895087 0 192.86752539895087 161.44450858956043 0 0 0 0 -51.420914064656245 -160.51905203615524 0 -160.51905203615524 72.573189398613977 0 0 0 0 73.924708645772625 3.059723592436967 0 3.059723592436967 148.45654957001625 0 0 0 0 210.08057833506609 86.234030944588085 0 86.234030944588085 -5.2838087974400878 0 0 0 0 214.89563936224295 -26.603387572152769 0 -26.603387572152769 124.9918348876854 0 0 0 0 168.28520145550647 25.757709244367788 0 25.757709244367788 80.886052329355152 0 0 0 0 19.892074684117688 -21.035091070415547 0 -21.035091070415547 66.695068069555418 0 0 0 0 0.27343313121920687 -1.5204125375916533 0 -1.5204125375916533 0.1310594094743891 0 0 0 0 287.46588085154508 21.649083552129468 0 21.649083552129468 31.417310472370445 0 0 0 0 183.66847168817185 -119.15869506281803 0 -119.15869506281803 -154.27418714419565 0 0 0 0 34.164639791063578 -2.6600209988667132 0 -2.6600209988667132 -2.0098812759718783 0 0 0 0 204.83033825000894 14.783281991498711 0 14.783281991498711 -104.25534797295495 0 0 0 0 154.79151638384639 -28.024974096911635 0 -28.024974096911635 0.94449127242833919 0 0 0 0 221.93555875803577 -78.254339419362452 0 -78.254339419362452 -203.85109947393531 0 0 0 0 173.11729532286637 -26.790451653045764 0 -26.790451653045764 2.6627274413224464 0 0 0 0 174.32925288271508 -25.962863076350516 0 -25.962863076350516 -122.67016488376333 0 0 0 0 213.00136773576378 -12.575248468077405 0 -12.575248468077405 -132.65597486127433 0 0 0 0 186.81866626046889 -28.462192414595119 0 -28.462192414595119 4.4718481844410771 0 0 0 0 245.05969361614189 -166.69188898730908 0 -166.69188898730908 -45.165618831503707 0 0 0 0 272.14550798696291 -62.64744563590375 0 -62.64744563590375 -166.2042820902318 0 0 0 0 158.87529392109718 -61.79610114335992 0 -61.79610114335992 68.34020824169329 0 0 0 0 537.94885293429979 -201.18286867004372 0 -201.18286867004372 103.54224175179115 0 0 0 0 -67.441925021150382 194.72091615316594 0 194.72091615316594 1.5642310429511781 0 0 0 0 42.969608513049025 239.24828013621982 0 239.24828013621982 0.72281126232974202 0 0 0 0 -6.3481571213319512 3.0139717556132126 0 3.0139717556132126 7.6948824231583544 0 0 0 0 259.13555387190718 60.6814648244208 0 60.6814648244208 -162.33234610957521 0 0 0 0 240.76843527843084 26.070811830504681 0 26.070811830504681 -195.24633101557811 0 0 0 0 229.31409433171211 71.571326563760522 0 71.571326563760522 -155.94402335585255 0 0 0 0 242.98586736343714 4.6702711520924822 0 4.6702711520924822 -167.73917592104362 0 0 0 0 245.18176139073876 -0.83781482399820106 0 -0.83781482399820106 -262.57338890598476 0 0 0 0 211.03730149052353 -27.609256294997969 0 -27.609256294997969 1.1017930802364253 0 0 0 0 40.373765396002682 -10.086800715294558 0 -10.086800715294558 9.8021743045404008 0 0 0 0 174.07198627881007 68.898932001328831 0 68.898932001328831 -162.23612926252406 0 0 0 0 202.49563867061079 9.2116406956404262 0 9.2116406956404262 -108.23266774715603 0 0 0 0 193.21562530538358 20.156350664815221 0 20.156350664815221 -171.05168256929767 0 0 0 0 49.422182773718419 -21.024578884652101 0 -21.024578884652101 -3.391953615948367 0 0 0 0 303.0364422108396 -196.22098010654645 0 -196.22098010654645 -70.001351464681591 0 0 0 0 196.48507504894224 -11.918830618322261 0 -11.918830618322261 -43.552016019364601 0 0 0 0 502.66417417011689 -230.96505041563205 0 -230.96505041563205 112.95632255854883 0 0 0 0 46.171956239122665 277.1893841428568 0 277.1893841428568 -290.81492588508468 0 0 0 0 449.52947867874173 25.366083271931871 0 25.366083271931871 -193.65397753666321 0 0 0 0 -4.074029545084386 -0.54385434802154009 0 -0.54385434802154009 3.4507506690878009 0 0 0 0 717.93772572823218 -296.45473975629898 0 -296.45473975629898 90.022124865308939 0 0 0 0 246.89793558674864 -3.667611787112719 0 -3.667611787112719 -125.52582195306525 0 0 0 0 154.2177855149348 -34.824778999801651 0 -34.824778999801651 -128.7536880105489 0 0 0 0 242.4578007782693 -66.499487184141685 0 -66.499487184141685 -31.916729568395112 0 0 0 0 362.5453570150712 17.938692494275827 0 17.938692494275827 7.4665332972433944 0 0 0 0 538.1335619311285 34.689917990441842 0 34.689917990441842 -22.3320107343568 0 0 0 0 273.38890866233851 85.215510392121786 0 85.215510392121786 10.66471807387245 0 0 0 0 373.27014546277496 -0.019326462202197803 0 -0.019326462202197803 29.921684082553583 0 0 0 0 629.05774394338368 64.492702241768683 0 64.492702241768683 16.894536584251981 0 0 0 0 397.41745604004245 -70.971503243914782 0 -70.971503243914782 0.14387145478771615 0 0 0 0 261.39235448140971 -82.811597044208327 0 -82.811597044208327 35.753930599123834 0 0 0 0 352.18634243277484 -29.981360921558931 0 -29.981360921558931 49.505105554691227 0 0 0 0 269.22051659255521 -101.78840496978142 0 -101.78840496978142 0.027042913901231952 0 0 0 0 262.87847993601463 -99.156390150413614 0 -99.156390150413614 47.381718959141892 0 0 0 0 301.09946246800246 -100.85072898258534 0 -100.85072898258534 47.227543988653366 0 0 0 0 246.76322945897118 -84.118859124158817 0 -84.118859124158817 -0.21189578621169858 0 0 0 0 218.10450261758524 -103.28033274254246 0 -103.28033274254246 72.518634943398865 0 0 0 0 225.1928486112447 -41.535255220269335 0 -41.535255220269335 -6.8969826358347177 0 0 0 0 239.47001496818848 -46.072860747845937 0 -46.072860747845937 -120.02162426480038 0 0 0 0 225.94644181572949 -71.291215660573926 0 -71.291215660573926 -42.554923580047785 0 0 0 0 216.61071277131123 -92.374158029571674 0 -92.374158029571674 -36.289702246897718 0 0 0 0 193.73659099123324 -28.308062421879185 0 -28.308062421879185 -37.043638257932571 0 0 0 0 182.68933795497287 -18.873544829451475 0 -18.873544829451475 -116.19913658395569 0 0 0 0 148.74637707965667 -127.95282712659997 0 -127.95282712659997 -41.055875948703374 0 0 0 0 200.24730259913485 -82.382166370675179 0 -82.382166370675179 -15.33304563214736 0 0 0 0 75.235642038787773 -73.160460423437485 0 -73.160460423437485 -27.846208023796635 0 0 0 0 181.45490997162415 -188.15478412484282 0 -188.15478412484282 74.60772440997647 0 0 0 0 111.58871503418777 -46.999334306822902 0 -46.999334306822902 -47.057999364870113 0 0 0 0 63.612518181995256 -172.71570059993451 0 -172.71570059993451 145.06030881992456 0 0 0 0 2.3833868236065427 -13.783372381427023 0 -13.783372381427023 2.3242355287480971 0 0 0 0 32.493322479596827 -5.0041093713070097 0 -5.0041093713070097 -70.765682895612485 0 0 0 0 91.127367099747062 -93.5393899276296 0 -93.5393899276296 45.684836500166966 0 0 0 0 6.5990551932522976 -5.0172456656953699 0 -5.0172456656953699 1.9910540499448863 0 0 0 0 148.75060690447572 -97.030294312739329 0 -97.030294312739329 -20.819381416139322 0 0 0 0 170.68119140941417 -154.56791054829739 0 -154.56791054829739 130.00220717153729 0 0 0 0 235.88124493026407 -171.59994608503411 0 -171.59994608503411 109.03589409035919 0 0 0 0 247.25461358015309 -55.348532317813124 0 -55.348532317813124 -2.7375333182983468 0 0 0 0 325.65993043407252 -300.51694853740349 0 -300.51694853740349 219.26807405097384 0 0 0 0 0.62708578030310491 0.32241484870480974 0 0.32241484870480974 0.41237021367005428 0 0 0 0 77.792362827167381 61.465511914219462 0 61.465511914219462 -182.98953323265792 0 0 0 0 126.02914459156455 -72.244710697392307 0 -72.244710697392307 -0.058189637155990154 0 0 0 0 318.86235717912496 -81.338741817315565 0 -81.338741817315565 -100.52420007904783 0 0 0 0 93.959027957738726 -17.407326414646946 0 -17.407326414646946 -54.160865621910403 0 0 0 0 62.266854226516443 -48.811138743177956 0 -48.811138743177956 -33.674161154328793 0 0 0 0 48.109944998632272 -49.881822379212934 0 -49.881822379212934 -76.527567974964512 0 0 0 0 42.325630190956872 -17.147350325851278 0 -17.147350325851278 -54.153481977136366 0 0 0 0 3.5481451352243312 -34.901262901388776 0 -34.901262901388776 -59.707668321808484 0 0 0 0 44.362733831221703 -45.774014812961056 0 -45.774014812961056 -75.70495219125209 0 0 0 0 120.02045752498088 38.103648746450126 0 38.103648746450126 -27.050516022243983 0 0 0 0 23.890886755048996 -23.430504488614758 0 -23.430504488614758 -28.580499922942465 0 0 0 0 11.427844940823434 0.5593866092724511 0 0.5593866092724511 -1.2025794168513158 0 0 0 0 44.339090808090987 -46.75721576122784 0 -46.75721576122784 -77.891841616646587 0 0 0 0 11.108201539609581 -59.959744976685911 0 -59.959744976685911 -59.013023177730361 0 0 0 0 50.730067624623189 -40.492789928884505 0 -40.492789928884505 -81.542765317377388 0 0 0 0 37.816273992619244 -11.397677966503819 0 -11.397677966503819 -36.148333643222905 0 0 0 0 50.279571985563962 -30.203618363915233 0 -30.203618363915233 -51.017590538075829 0 0 0 0 32.539772783115041 -31.806248266883099 0 -31.806248266883099 -0.021869139640644571 0 0 0 0 48.463856454880442 5.2823043528230347 0 5.2823043528230347 -0.028483298141297353 0 0 0 0 38.453128134045983 -14.343825145439528 0 -14.343825145439528 -26.572292890525205 0 0 0 0 114.71841751778265 27.665886148798332 0 27.665886148798332 -38.625570164962653 0 0 0 0 71.429883101023734 8.5806777111625188 0 8.5806777111625188 -45.587987164281586 0 0 0 0 74.21428414969705 31.186519216844964 0 31.186519216844964 -34.671993006236775 0 0 0 0 73.605215858275187 24.968715542777762 0 24.968715542777762 -26.499370942000382 0 0 0 0 56.342231950752421 14.25329339857711 0 14.25329339857711 -0.31887704324234623 0 0 0 0 109.34696054173401 22.31007266655244 0 22.31007266655244 -35.970757540725394 0 0 0 0 111.83604712405213 11.890493084586756 0 11.890493084586756 1.887321882938096 0 0 0 0 -27.588447542046197 11.876926877035885 0 11.876926877035885 31.034483560615413 0 0 0 0 7.5955906989676691 -2.8964429685628375 0 -2.8964429685628375 1.1684086630779205 0 0 0 0 41.785092281410471 -3.1662700278513967 0 -3.1662700278513967 -5.7524630897387397 0 0 0 0 45.367624553735368 -9.120014574514471 0 -9.120014574514471 -6.608616496562945 0 0 0 0 33.780434720064477 -23.121108214532597 0 -23.121108214532597 3.7307206774701496 0 0 0 0 35.770801466851367 -2.318310410613222 0 -2.318310410613222 -10.989564543816932 0 0 0 0 59.56000668484063 4.5336969909878064 0 4.5336969909878064 -4.846263516946582 0 0 0 0 31.801870364230126 -204.61963897008172 0 -204.61963897008172 -76.781094329861958 0 0 0 0 60.736359916424874 -9.5200515421531833 0 -9.5200515421531833 -4.6209387669449251 0 0 0 0 27.491744470666163 -15.420763837014192 0 -15.420763837014192 -16.840930513162903 0 0 0 0 95.758656019787225 -13.481404519680208 0 -13.481404519680208 -8.4253931362440575 0 0 0 0 91.246474958141334 -118.54209121844451 0 -118.54209121844451 28.792410817750351 0 0 0 0 22.238009506896304 -31.063543567439069 0 -31.063543567439069 7.1547615539140317 0 0 0 0 51.066307823741226 -129.97519679144091 0 -129.97519679144091 97.549986975641332 0 0 0 0 47.264590160670778 -37.968904714451213 0 -37.968904714451213 7.0117495920951605 0 0 0 0 81.616082564367389 -21.520102495014555 0 -21.520102495014555 3.933517622821455 0 0 0 0 54.422542959349983 -22.730462464578398 0 -22.730462464578398 6.5378988969963405 0 0 0 0 44.918937237060163 -118.79368542702468 0 -118.79368542702468 268.51827483034731 0 0 0 0 431.71362185457838 137.48074137291223 0 137.48074137291223 -313.5922290305034 0 0 0 0 72.986291188157452 2.0100963844966628 0 2.0100963844966628 -3.8651186119597418 0 0 0 0 -0.2240263514473213 -0.95067585940491739 0 -0.95067585940491739 5.4702202548981358 0 0 0 0 377.81112458225107 -254.61259971676736 0 -254.61259971676736 -13.828943743979835 0 0 0 0 487.46144495416956 -200.39431351454778 0 -200.39431351454778 -1.4057036257036089 0 0 0 0 454.74579569118214 -42.13199324004654 0 -42.13199324004654 -141.42203844547475 0 0 0 0 70.059471758198924 52.541164626613863 0 52.541164626613863 -20.195256309887554 0 0 0 0 404.44119441763905 323.45869161133396 0 323.45869161133396 -1712.7327524795946 0 0 0 0 -131.82777891602746 58.695889762655042 0 58.695889762655042 -1263.3959665081966 0 0 0 0 61.613386325833687 18.461237897208775 0 18.461237897208775 -2.378498195165438 0 0 0 0 279.18105756966906 -975.90058747152716 0 -975.90058747152716 -2037.3974449003363 0 0 0 0 2202.9088063368108 2078.6321063896539 0 2078.6321063896539 682.91208800999539 0 0 0 0 19.911588359509665 8.748847118013316 0 8.748847118013316 -11.052149031315452 0 0 0 0 5.3387906782057826 13.718864189477898 0 13.718864189477898 -0.78861280483503293 0 0 0 0 2840.6352799930464 1433.7340516479044 0 1433.7340516479044 684.43809450053004 0 0 0 0 1290.0088100131907 -294.26790454765478 0 -294.26790454765478 -1880.3966404626626 0 0 0 0 478.45476422792126 211.52117619571118 0 211.52117619571118 -476.63824152593952 0 0 0 0 708.46976164809894 124.80234533782368 0 124.80234533782368 -1273.5276179736802 0 0 0 0 149.26918394972745 644.89529288935978 0 644.89529288935978 -169.48006145424552 0 0 0 0 -95.943784739531111 41.640865302575548 0 41.640865302575548 -849.92246824984613 0 0 0 0 387.94722930848366 754.8835839136691 0 754.8835839136691 -1467.5587169848513 0 0 0 0 91.957656618382316 364.03184003721071 0 364.03184003721071 213.14107691652316 0 0 0 0 -545.18884812349279 355.05494834213096 0 355.05494834213096 239.87750001530367 0 0 0 0 292.5359030537511 146.00628214491917 0 146.00628214491917 -286.57168909810207 0 0 0 0 384.57487019219843 285.32568309206181 0 285.32568309206181 -75.949941210659745 0 0 0 0 47.242379534836289 15.871522224495251 0 15.871522224495251 3.748879154515933 0 0 0 0 -14.261583524639718 115.72700183336201 0 115.72700183336201 -18.335034817152518 0 0 0 0 9.8603149713162566 1.632878997046646 0 1.632878997046646 10.046164724910341 0 0 0 0 973.29402781763929 174.35814304992346 0 174.35814304992346 67.860151852020863 0 0 0 0 76.14234166614915 105.76443971894878 0 105.76443971894878 173.58301671859954 0 0 0 0 1894.7048241185694 -1539.3381093653106 0 -1539.3381093653106 480.39179348865582 0 0 0 0 1731.0557016291277 -20.225355598864553 0 -20.225355598864553 115.5577259415295 0 0 0 0 6.4930191659445313 1.0587709162559449 0 1.0587709162559449 -6.074592483026791 0 0 0 0 -931.20405740813294 1445.2936778424537 0 1445.2936778424537 3104.8955213969675 0 0 0 0 1457.2693955774157 1446.5697250110989 0 1446.5697250110989 162.29199777932081 0 0 0 0 206.58553765795659 -714.7004942598287 0 -714.7004942598287 -1402.0746812844518 0 0 0 0 115.33109126620531 -33.797760763517701 0 -33.797760763517701 3.935974361867693 0 0 0 0 1071.4824790762141 1671.9803225206997 0 1671.9803225206997 906.86023847895194 0 0 0 0 3.1261189944827379 18.909337064002138 0 18.909337064002138 -16.524773886565114 0 0 0 0 653.72120808000909 463.32749090480502 0 463.32749090480502 251.89496886842971 0 0 0 0 202.35293385559635 1126.9655738655247 0 1126.9655738655247 1950.0550785931191 0 0 0 0 1430.9009441598027 1402.4290215343135 0 1402.4290215343135 816.21357555121722 0 0 0 0 1699.7384073088288 -814.85569650433536 0 -814.85569650433536 -65.136787052411819 0 0 0 0 622.62172497468418 1760.1633474645605 0 1760.1633474645605 2761.2706713393054 0 0 0 0 1963.9564602946048 1950.9635132314779 0 1950.9635132314779 1369.4563266629011 0 0 0 0 253.68381139915437 103.93802016949485 0 103.93802016949485 -849.80678066587279 0 0 0 0 -126.47961378016043 184.12977831415628 0 184.12977831415628 -525.36814831532683 0 0 0 0 -463.53209986444563 -342.84999659978348 0 -342.84999659978348 -345.24493605591124 0 0 0 0 99.902579835405049 234.44298202445134 0 234.44298202445134 161.94923946687777 0 0 0 0 236.41949451240362 -147.589888462011 0 -147.589888462011 -666.61215574060043 0 0 0 0 361.65009483347239 201.26237416828371 0 201.26237416828371 -265.02949710817484 0 0 0 0 325.21190100820968 99.97639182589046 0 99.97639182589046 273.18828697364734 0 0 0 0 532.12474950044998 273.57059822478914 0 273.57059822478914 13.352575502416585 0 0 0 0 673.38774134358391 97.467897316339076 0 97.467897316339076 -234.76098040380748 0 0 0 0 481.53041986300377 -122.45629490097781 0 -122.45629490097781 -659.03704117119196 0 0 0 0 57.062936053291196 -47.6547161945673 0 -47.6547161945673 -234.30140776546614 0 0 0 0 432.62659262974194 18.361807072386 0 18.361807072386 -241.58750926087669 0 0 0 0 400.4465743797482 -24.753187880443875 0 -24.753187880443875 -270.53034488009871 0 0 0 0 479.85627165879123 113.2126300160744 0 113.2126300160744 -153.34726155865064 0 0 0 0 529.16514229256427 -83.23490852265968 0 -83.23490852265968 -468.41302761027691 0 0 0 0 404.20333937057876 3.7893169245144236 0 3.7893169245144236 -183.93117705031182 0 0 0 0 550.23477670969442 -45.924760024805437 0 -45.924760024805437 -212.48147082637297 0 0 0 0 591.98310294025578 139.50295249601186 0 139.50295249601186 -174.57470306454343 0 0 0 0 509.04420207469957 131.03349072646233 0 131.03349072646233 -72.937993098807056 0 0 0 0 526.46072602659115 199.81745815782779 0 199.81745815782779 -41.552560676209396 0 0 0 0 386.944210386544 137.04026900460303 0 137.04026900460303 -53.639494984148769 0 0 0 0 620.54667150232126 282.09733212011633 0 282.09733212011633 -40.247393829427892 0 0 0 0 659.84947672230192 302.65660105390998 0 302.65660105390998 39.613837345939828 0 0 0 0 705.7779266545549 305.65813188193715 0 305.65813188193715 -20.692162485756853 0 0 0 0 768.28596863226267 484.68119462454342 0 484.68119462454342 94.962611920433119 0 0 0 0 917.4025866035372 344.46492891816888 0 344.46492891816888 19.956322668389475 0 0 0 0 683.65210898576333 120.44104621760107 0 120.44104621760107 -95.549523393041454 0 0 0 0 630.64892965537729 210.70542156697775 0 210.70542156697775 42.564894068520516 0 0 0 0 879.159100754885 166.78778508302639 0 166.78778508302639 42.782943505262665 0 0 0 0 838.48738860076992 83.283361811278155 0 83.283361811278155 341.77989474951755 0 0 0 0 580.69465290853987 129.0838779396654 0 129.0838779396654 338.74566270312062 0 0 0 0 1227.6321364744799 197.13105512520997 0 197.13105512520997 221.71724015229847 0 0 0 0 809.91258988704067 341.08020094453968 0 341.08020094453968 159.35801688471111 0 0 0 0 1040.4550620293303 424.39591316946462 0 424.39591316946462 76.507030871813186 0 0 0 0 846.81127868313342 301.94807031957316 0 301.94807031957316 198.99921099987114 0 0 0 0 590.59577589621767 666.7056934315915 0 666.7056934315915 386.37955928454176 0 0 0 0 0.49716197800297834 -3.3829835965841752 0 -3.3829835965841752 3.4481191364000097 0 0 0 0 968.09563079496729 518.13392003929403 0 518.13392003929403 160.48984088757425 0 0 0 0 73.899946025897023 -40.743182017479647 0 -40.743182017479647 6.8646994221261792 0 0 0 0 -900.11531550838845 -1016.2570251719226 0 -1016.2570251719226 873.68359979132947 0 0 0 0 69.01675995333062 -986.62775624304049 0 -986.62775624304049 -962.69219977521789 0 0 0 0 -115.73300885789376 66.832401677966573 0 66.832401677966573 -982.28444185742046 0 0 0 0 612.9696777536883 627.7212581121421 0 627.7212581121421 224.01546457514632 0 0 0 0 768.33148837042972 615.47614185976272 0 615.47614185976272 159.48788321952452 0 0 0 0 715.40892119680939 466.51636982366836 0 466.51636982366836 96.50154514843598 0 0 0 0 777.52721366111655 464.07500943439663 0 464.07500943439663 75.475755533901975 0 0 0 0 -199.97558564755309 -946.65664124918112 0 -946.65664124918112 -378.04465401219204 0 0 0 0 263.26330619130749 536.6410706857132 0 536.6410706857132 725.7864704586791 0 0 0 0 182.58700783422682 162.23400227254024 0 162.23400227254024 872.03042108850786 0 0 0 0 269.90954286383931 191.37513959122589 0 191.37513959122589 268.84141392572201 0 0 0 0 358.26562755322084 288.7287128726166 0 288.7287128726166 126.0847591158672 0 0 0 0 502.00099515879992 346.82844809081871 0 346.82844809081871 69.353526499544387 0 0 0 0 576.02308188864845 425.30925924399344 0 425.30925924399344 96.943810748169199 0 0 0 0 403.65476242307341 523.53872951080848 0 523.53872951080848 330.67265972931636 0 0 0 0 438.78226757040829 519.94015939083329 0 519.94015939083329 303.48936561364098 0 0 0 0 413.72924655152019 468.31762725480075 0 468.31762725480075 231.0029962133849 0 0 0 0 338.24970832650433 393.68436206911429 0 393.68436206911429 319.07113912672503 0 0 0 0 292.32294864935102 292.75153977566515 0 292.75153977566515 199.59791992043029 0 0 0 0 278.81713348749327 372.5754037421284 0 372.5754037421284 535.31577035780356 0 0 0 0 292.59068213024875 271.30126669077436 0 271.30126669077436 231.66435657136026 0 0 0 0 237.04079011385329 172.10256895283237 0 172.10256895283237 139.42511737868335 0 0 0 0 326.93663260038011 137.72227657085023 0 137.72227657085023 -28.663318780454574 0 0 0 0 401.91044078415143 316.85942609336053 0 316.85942609336053 113.16522047918988 0 0 0 0 475.6092530018941 226.67020375319407 0 226.67020375319407 -23.498840998712694 0 0 0 0 259.10504344920628 89.643219102508738 0 89.643219102508738 -4.2336599833251967 0 0 0 0 197.00292664214919 -54.284697555460816 0 -54.284697555460816 11.270729319975462 0 0 0 0 226.5640103497426 -12.507281817983312 0 -12.507281817983312 -171.53731027655886 0 0 0 0 207.42026845959481 -163.03751631551131 0 -163.03751631551131 -493.8113319379554 0 0 0 0 435.69951967007364 -146.80608743023913 0 -146.80608743023913 -701.38518111325175 0 0 0 0 162.66714356379816 -23.597241079434752 0 -23.597241079434752 -25.863902588491328 0 0 0 0 221.45810552639887 45.339597228099592 0 45.339597228099592 89.896735540314694 0 0 0 0 251.72396393377858 164.67831934327478 0 164.67831934327478 294.7012420228566 0 0 0 0 271.26276598195545 83.12636425394885 0 83.12636425394885 -87.839642390114022 0 0 0 0 271.81782697273411 52.814464334724562 0 52.814464334724562 -124.54365436648368 0 0 0 0 263.7346198961659 -64.876975591655082 0 -64.876975591655082 -310.49308237130754 0 0 0 0 -232.44908508987282 -123.46727811343226 0 -123.46727811343226 -234.23981425160309 0 0 0 0 144.92872632497165 -172.71535988662981 0 -172.71535988662981 -280.84058140820707 0 0 0 0 92.563021415437106 0.65028714461368509 0 0.65028714461368509 -69.418278600460326 0 0 0 0 469.57239425819716 -145.3982104485076 0 -145.3982104485076 107.92934998482815 0 0 0 0 352.24127805093303 -168.01675279482151 0 -168.01675279482151 531.12692814305774 0 0 0 0 373.31228285684483 -64.653418016765499 0 -64.653418016765499 -38.490535405246192 0 0 0 0 370.06482723844238 23.693415772955632 0 23.693415772955632 152.65032963383419 0 0 0 0 436.2680082002189 -7.6768226664789836 0 -7.6768226664789836 -285.49268173796008 0 0 0 0 376.72419905365678 -156.24823478664621 0 -156.24823478664621 -362.7219731562509 0 0 0 0 533.10974131745752 -92.074050747803994 0 -92.074050747803994 -232.61852226838528 0 0 0 0 309.022987704142 -240.57765872669916 0 -240.57765872669916 -482.11921128618269 0 0 0 0 268.06312429989339 45.802573669410776 0 45.802573669410776 -620.84845783825585 0 0 0 0 -31.792050816380652 77.853078021813417 0 77.853078021813417 -379.01775437372271 0 0 0 0 -183.46069125452777 -451.37052007422244 0 -451.37052007422244 -630.37853395010097 0 0 0 0 32.269837685404184 23.471350767867861 0 23.471350767867861 -26.93255517322595 0 0 0 0 178.8941123218481 -51.25807245144884 0 -51.25807245144884 8.0965452352098879 0 0 0 0 340.40798781771446 -273.2585674641341 0 -273.2585674641341 -718.07290716496755 0 0 0 0 296.62164988555014 -526.97087879102037 0 -526.97087879102037 -833.15403634736867 0 0 0 0 -18.531151298344355 -25.454992909428348 0 -25.454992909428348 12.775985873737696 0 0 0 0 296.73663450789172 -196.16695431229891 0 -196.16695431229891 -132.25577820123726 0 0 0 0 -79.061978107318282 -9.0259086640726309 0 -9.0259086640726309 -86.430184172109875 0 0 0 0 185.87534417179995 834.12136592685783 0 834.12136592685783 1765.7544669867111 0 0 0 0 56.846422015871212 -438.23809226691628 0 -438.23809226691628 30.458378359217022 0 0 0 0 449.88481803750619 -267.50128365970158 0 -267.50128365970158 -936.43890682803249 0 0 0 0 382.77766176246223 -254.19664719009597 0 -254.19664719009597 -507.13019883743254 0 0 0 0 -114.84001458907733 -477.73366945535963 0 -477.73366945535963 -369.40824684764084 0 0 0 0 280.26160378399072 -279.56326305959374 0 -279.56326305959374 -432.47457652900084 0 0 0 0 136.03823367349105 -155.40372368546377 0 -155.40372368546377 -168.37747140235297 0 0 0 0 265.40789232731004 -13.933769494417902 0 -13.933769494417902 -194.28977556732752 0 0 0 0 -283.73455195926635 -155.37942577801959 0 -155.37942577801959 420.74517003051005 0 0 0 0 -293.27750416207527 365.88309055560694 0 365.88309055560694 919.88923739368329 0 0 0 0 111.51281087036986 -44.409406568222352 0 -44.409406568222352 -6.7192943694185772 0 0 0 0 17.583207268734178 53.356637208147689 0 53.356637208147689 -85.475215689768504 0 0 0 0 798.48630857622629 -237.05062480120614 0 -237.05062480120614 -719.04858639919439 0 0 0 0 180.65633853530744 155.87821469936898 0 155.87821469936898 -71.733258674750687 0 0 0 0 427.65378472180237 164.99218251134994 0 164.99218251134994 -145.22569990352349 0 0 0 0 97.108460793118866 50.177718381798059 0 50.177718381798059 -217.92403397961425 0 0 0 0 145.7745631459984 -1.4386419072488934 0 -1.4386419072488934 -172.0534430943917 0 0 0 0 226.63566337125116 -27.201949575830216 0 -27.201949575830216 -11.943801168764502 0 0 0 0 364.14027613717917 27.845470823689141 0 27.845470823689141 -119.57965585421152 0 0 0 0 58.550507031727903 -6.9196191075052411 0 -6.9196191075052411 -43.087312520997415 0 0 0 0 438.67438167860382 -70.258364189736312 0 -70.258364189736312 -222.25667898531856 0 0 0 0 217.94840524646861 -11.124072205103403 0 -11.124072205103403 -195.69400289203259 0 0 0 0 223.61577725112147 -47.723267544409282 0 -47.723267544409282 -358.83062601749407 0 0 0 0 142.23974229285736 -5.2694176537185911 0 -5.2694176537185911 -63.193987283566891 0 0 0 0 82.293453034770209 -58.9872510980058 0 -58.9872510980058 -69.897913167929801 0 0 0 0 259.3434721864333 -9.1454938397875054 0 -9.1454938397875054 -78.026866476453762 0 0 0 0 135.28833149566293 -56.47348196926675 0 -56.47348196926675 -10.744530012856334 0 0 0 0 202.28354745788965 79.712491115259127 0 79.712491115259127 -29.262456125602284 0 0 0 0 206.80603079219497 -50.387790045087542 0 -50.387790045087542 -14.43305165939023 0 0 0 0 206.10269162786972 -104.77276857964171 0 -104.77276857964171 -69.60824417607364 0 0 0 0 180.6394088624802 -211.43469166410978 0 -211.43469166410978 -235.26443962469057 0 0 0 0 -35.536893422176945 -239.94735360984987 0 -239.94735360984987 -107.65539423339305 0 0 0 0 293.43850134458626 -312.38015711373146 0 -312.38015711373146 -162.24573286280884 0 0 0 0 330.48082403483568 52.294101254803991 0 52.294101254803991 40.424456943897894 0 0 0 0 737.50709030743747 217.93896405407213 0 217.93896405407213 -381.02994561637206 0 0 0 0 1593.2118561238749 686.41806918967541 0 686.41806918967541 -144.72423122484906 0 0 0 0 94.302147922862787 378.87408932909239 0 378.87408932909239 668.3161065055865 0 0 0 0 310.30100964347366 133.76274892792208 0 133.76274892792208 -162.81256034107355 0 0 0 0 96.802140033745673 -8.5056578984913358 0 -8.5056578984913358 -39.420716709788394 0 0 0 0 120.46289410244208 -54.794055298323656 0 -54.794055298323656 -180.48696248498163 0 0 0 0 112.78530901268823 -99.437491064229107 0 -99.437491064229107 -137.06942080453882 0 0 0 0 367.39470909023657 -94.508815296841931 0 -94.508815296841931 -377.80800119851847 0 0 0 0 209.87781201984035 -254.70194231937421 0 -254.70194231937421 -464.00977757260625 0 0 0 0 140.34434727944608 -134.52674131523736 0 -134.52674131523736 -163.99940855766181 0 0 0 0 348.90440533481888 -167.58886598736717 0 -167.58886598736717 -187.26968063887398 0 0 0 0 641.51963347216952 203.16711397229119 0 203.16711397229119 -101.52089789414367 0 0 0 0 369.39783992675075 -66.72314791757708 0 -66.72314791757708 -137.4984840759671 0 0 0 0 605.08756996781449 -174.25774913223995 0 -174.25774913223995 -244.24202206422251 0 0 0 0 1240.5814924334409 154.97879580423705 0 154.97879580423705 -374.04024731631625 0 0 0 0 1300.0854099075659 185.94692779945944 0 185.94692779945944 -686.28633573022125 0 0 0 0 1040.3104742422729 -8.3717822282458201 0 -8.3717822282458201 6.5599662564309256 0 0 0 0 1168.1631776602953 -145.64033066821344 0 -145.64033066821344 -263.68175387504562 0 0 0 0 1022.9607212176561 -72.864577747221006 0 -72.864577747221006 426.43957648775165 0 0 0 0 311.51054190077411 -289.58307089609639 0 -289.58307089609639 151.75893719801206 0 0 0 0 1034.1348614516901 91.892363088843467 0 91.892363088843467 -129.64695575476799 0 0 0 0 1421.1298988329363 -246.64272994748808 0 -246.64272994748808 150.11036702398451 0 0 0 0 1872.8600107368256 577.39626941514393 0 577.39626941514393 522.66973981894171 0 0 0 0 -1.1034457927796097 -7.9082890273484452 0 -7.9082890273484452 -25.126760974228386 0 0 0 0 656.76237269202829 54.413336262074807 0 54.413336262074807 -141.04421672468629 0 0 0 0 727.10057579239947 -72.490695124627109 0 -72.490695124627109 70.567844786565416 0 0 0 0 -489.43124978881679 -289.98301516385709 0 -289.98301516385709 19.947076101116636 0 0 0 0 367.26389524443948 -349.92556516878278 0 -349.92556516878278 -210.10873922190785 0 0 0 0 -1134.1279216247785 -200.50278627524222 0 -200.50278627524222 199.72161777155179 0 0 0 0 2.5133717804618954 -6.9188251044001277 0 -6.9188251044001277 -11.583604494203865 0 0 0 0 632.0241420717648 166.25448962418045 0 166.25448962418045 -34.366526249443488 0 0 0 0 438.40909747780825 -0.89394064775956394 0 -0.89394064775956394 99.971317034675849 0 0 0 0 71.889600486727431 -303.53526242509207 0 -303.53526242509207 -245.04106309958433 0 0 0 0 63.453455268463586 -400.37038702694753 0 -400.37038702694753 596.8822757937653 0 0 0 0 589.72642016100872 299.19623101596233 0 299.19623101596233 -218.58728343318876 0 0 0 0 -1508.2670990519509 -55.8965460029453 0 -55.8965460029453 272.1173611995406 0 0 0 0 0.15318563083181402 -2.8111007963378825 0 -2.8111007963378825 -2.7225868692579915 0 0 0 0 -67.756252314953599 -475.66217557203169 0 -475.66217557203169 -1.1884254186728904 0 0 0 0 1548.4630737682455 1190.8245415937731 0 1190.8245415937731 1006.2479083181172 0 0 0 0 3098.1627919136517 234.4771636010438 0 234.4771636010438 130.53175597363133 0 0 0 0 564.26069158027531 176.95458757939855 0 176.95458757939855 592.98525590425868 0 0 0 0 3029.9216483446362 -239.81523368234161 0 -239.81523368234161 4.4358173288983025 0 0 0 0 3608.4970440042634 2703.4351796967085 0 2703.4351796967085 1551.8202636333262 0 0 0 0 15.939743314384373 -0.23561953619486076 0 -0.23561953619486076 -0.9469232702839594 0 0 0 0 29.322232454636833 -3.6633443122138054 0 -3.6633443122138054 -0.0049695144414920664 0 0 0 0 36.615642488643061 1.8428572157851695 0 1.8428572157851695 2.2830339756872808 0 0 0 0 42.904706459346926 -7.0842649664990542 0 -7.0842649664990542 -1.263574449663011 0 0 0 0 28.761134565778775 -3.1410718687372641 0 -3.1410718687372641 0.002567750676224544 0 0 0 0 2557.3771420519042 1396.7459198400147 0 1396.7459198400147 676.10413818151926 0 0 0 0 46.412109364609933 2.3732051298936216 0 2.3732051298936216 2.2830339756874114 0 0 0 0 15.214514247888815 -4.1547306106023427 0 -4.1547306106023427 -1.5578705802578676 0 0 0 0 52.701173335306521 -6.5539170524193793 0 -6.5539170524193793 -1.2635744496629355 0 0 0 0 16.213345755371847 0.60860068653764188 0 0.60860068653764188 5.4621873333882522 0 0 0 0 1752.626186742913 803.24190311268899 0 803.24190311268899 500.51250953650992 0 0 0 0 35.916410374009217 -7.4642511651817074 0 -7.4642511651817074 -0.872002176176635 0 0 0 0 1608.7527240324853 1253.9115978201019 0 1253.9115978201019 1062.1071126465874 0 0 0 0 1256.8319002882927 771.30334406146267 0 771.30334406146267 935.06068488866254 0 0 0 0 1564.970356212114 -101.00343359534736 0 -101.00343359534736 1224.4793234656472 0 0 0 0 1401.4361652771622 1205.4000918114727 0 1205.4000918114727 2174.3905029973726 0 0 0 0 141.67146024093381 703.99589702935214 0 703.99589702935214 2533.9140937656343 0 0 0 0 1806.0636651956593 1118.9966271135768 0 1118.9966271135768 868.69114898337466 0 0 0 0 532.58761011488241 460.84991339909038 0 460.84991339909038 598.26886679756717 0 0 0 0 1322.9766957826214 302.40626169843426 0 302.40626169843426 -471.69541506791006 0 0 0 0 1480.1262643091322 -217.69581997415116 0 -217.69581997415116 -607.0494554155523 0 0 0 0 1006.8723233779165 -156.30508642325049 0 -156.30508642325049 87.975759854110947 0 0 0 0 1511.6780043005674 404.10590808802829 0 404.10590808802829 306.78238785653593 0 0 0 0 355.22953012533389 1303.1278701060971 0 1303.1278701060971 880.99321847255305 0 0 0 0 111.1658244437761 -40.049097733598259 0 -40.049097733598259 4.6670787348546012 0 0 0 0 746.81440624661627 653.40509603174155 0 653.40509603174155 -175.28955905642624 0 0 0 0 282.0508010621852 390.09171791374126 0 390.09171791374126 1160.8957328082383 0 0 0 0 270.80111834913259 649.28463781280277 0 649.28463781280277 1322.5305323801631 0 0 0 0 72.896886062793442 -17.38606920353871 0 -17.38606920353871 -4.0869889571558859 0 0 0 0 148.03735984779632 29.115724644929728 0 29.115724644929728 48.769309021632068 0 0 0 0 114.88820149956155 -17.629528545511885 0 -17.629528545511885 -3.4013446461166126 0 0 0 0 117.48602313221636 -23.933764295635186 0 -23.933764295635186 11.645352416274974 0 0 0 0 267.34168673900422 -21.390605968743731 0 -21.390605968743731 -0.20109727773969785 0 0 0 0 -0.079026660245176572 -0.28589124082128592 0 -0.28589124082128592 1.0892568649278245 0 0 0 0 184.56276493319456 45.807068839546112 0 45.807068839546112 0.097333199492816658 0 0 0 0 0.43879040957167348 0.29462727530304278 0 0.29462727530304278 -0.11104419566473347 0 0 0 0 255.89487992138311 16.341332958123196 0 16.341332958123196 0.0089160798526510907 0 0 0 0 335.6832603631774 30.965074163156793 0 30.965074163156793 -39.203955238617098 0 0 0 0 291.72028575821605 18.526603578747789 0 18.526603578747789 -38.150073472628513 0 0 0 0 170.52747119455307 47.055318064657584 0 47.055318064657584 18.154196949816225 0 0 0 0 105.72514266165672 -38.901174402092408 0 -38.901174402092408 13.152604926342889 0 0 0 0 186.7601004462922 4.7517687591227054 0 4.7517687591227054 -0.028799711634479221 0 0 0 0 240.82505828129797 -16.345092503885535 0 -16.345092503885535 -20.185427773551911 0 0 0 0 197.54273710373673 -11.92595306448564 0 -11.92595306448564 -14.248864328415998 0 0 0 0 188.43163407696011 -43.630578364863638 0 -43.630578364863638 -1.2175191665631822 0 0 0 0 65.365080596588086 -23.740638248061096 0 -23.740638248061096 19.783275242866562 0 0 0 0 306.94738075456553 -32.556712501546784 0 -32.556712501546784 -25.034419477287088 0 0 0 0 297.92310874728719 -43.057997342823334 0 -43.057997342823334 -33.658086418623228 0 0 0 0 234.53322584625857 -126.24954255097602 0 -126.24954255097602 37.27913471866384 0 0 0 0 285.36450944468379 -151.49519652473612 0 -151.49519652473612 47.371738943989158 0 0 0 0 7.797312431677426 0.8616111307394938 0 0.8616111307394938 0.29765885108425771 0 0 0 0 11.888168211822631 -67.445598622935961 0 -67.445598622935961 70.358314301511982 0 0 0 0 -8.8826731675853807 41.349303971486371 0 41.349303971486371 15.316527977199115 0 0 0 0 0.43566341014545173 0.15752145343685697 0 0.15752145343685697 -0.13684818072749205 0 0 0 0 196.32387889226084 3.1543532436917232 0 3.1543532436917232 21.513610461468438 0 0 0 0 215.96775021920621 57.132197059408071 0 57.132197059408071 88.591956818614051 0 0 0 0 470.43221621075645 -46.150568093116931 0 -46.150568093116931 -31.674535126015897 0 0 0 0 338.55134476980311 215.46123548007421 0 215.46123548007421 240.9867080365658 0 0 0 0 695.01862091443036 81.355319121731583 0 81.355319121731583 29.185002946438686 0 0 0 0 439.38537659612484 303.50148713441172 0 303.50148713441172 311.44736847644918 0 0 0 0 290.25798226346524 287.24197668382271 0 287.24197668382271 -200.22402011805485 0 0 0 0 66.558680664551503 1168.3277457737586 0 1168.3277457737586 -85.716265577499144 0 0 0 0 16.928216415298436 9.981629356899191 0 9.981629356899191 4.0881114458456693 0 0 0 0 804.96452740070526 1112.0461577978408 0 1112.0461577978408 -118.83214441349446 0 0 0 0 600.6847339644446 -472.26148911355631 0 -472.26148911355631 134.89331654781927 0 0 0 0 2277.6226203684346 -1133.1163808843849 0 -1133.1163808843849 146.1564411565214 0 0 0 0 1094.4607284346421 -580.47588924664706 0 -580.47588924664706 -11.164107752287237 0 0 0 0 -378.18015105207451 562.80807921459382 0 562.80807921459382 331.86635855981513 0 0 0 0 1216.5038251048536 615.29173756576711 0 615.29173756576711 135.18712594697536 0 0 0 0 2032.1918376815884 -254.83568359126184 0 -254.83568359126184 -215.22763159019087 0 0 0 0 565.97070470117615 -399.7214846463981 0 -399.7214846463981 424.78456235758466 0 0 0 0 152.20077022013481 -65.198322142490852 0 -65.198322142490852 18.578176749489835 0 0 0 0 2841.9547541908396 -381.83840344174314 0 -381.83840344174314 -337.96656727929803 0 0 0 0 392.47083508234937 -315.0337687802089 0 -315.0337687802089 396.38129643475622 0 0 0 0 2514.6605495215626 1988.5598647992265 0 1988.5598647992265 425.53137836093083 0 0 0 0 214.31012556122732 422.13728409874579 0 422.13728409874579 335.52779321232759 0 0 0 0 237.03869123033655 266.166352145671 0 266.166352145671 219.5511035268924 0 0 0 0 142.79322382830287 -69.890422595103558 0 -69.890422595103558 111.50394635162442 0 0 0 0 173.90257310321411 -83.84600415017313 0 -83.84600415017313 33.027082420651716 0 0 0 0 319.1888013343123 33.948267050156574 0 33.948267050156574 -76.695639797799231 0 0 0 0 -76.636908229731489 -376.59388301263425 0 -376.59388301263425 -79.370082085984905 0 0 0 0 172.26070901834464 206.31691338660676 0 206.31691338660676 237.71072369399917 0 0 0 0 260.23105220182333 180.58248453427223 0 180.58248453427223 243.44534281958477 0 0 0 0 244.99882952836924 151.95632260075945 0 151.95632260075945 602.165157058349 0 0 0 0 22.03348972225649 -4.4810676193856125 0 -4.4810676193856125 213.95307588856667 0 0 0 0 245.90085707517574 -358.71913941374441 0 -358.71913941374441 -380.12776714635038 0 0 0 0 248.66497748014808 249.05082164987834 0 249.05082164987834 513.21656484572304 0 0 0 0 399.20837725879392 237.31293935607391 0 237.31293935607391 161.2803486166149 0 0 0 0 135.49253213818156 551.95144986714058 0 551.95144986714058 1458.2629209806619 0 0 0 0 848.55406021644012 497.06727646994841 0 497.06727646994841 511.45968774239941 0 0 0 0 162.4917907481431 161.48378440837405 0 161.48378440837405 601.12074429138011 0 0 0 0 273.90198199117003 378.08196840750225 0 378.08196840750225 660.3438236719594 0 0 0 0 81.898261743423063 272.97891415061531 0 272.97891415061531 761.29860836147782 0 0 0 0 78.33313089737203 365.79556722691268 0 365.79556722691268 861.90245729243907 0 0 0 0 90.184368863192503 224.39571087576041 0 224.39571087576041 797.81472631859651 0 0 0 0 -43.215015214402229 142.36529348675685 0 142.36529348675685 863.61312522962544 0 0 0 0 75.006702830083668 18.71619499658118 0 18.71619499658118 756.49525600258858 0 0 0 0 225.41148767998675 -1.5699030566611327 0 -1.5699030566611327 759.22913926988258 0 0 0 0 0.080776132963364944 -8.9918111852966831 0 -8.9918111852966831 773.97244135035726 0 0 0 0 170.8654513990914 -159.64014671337645 0 -159.64014671337645 784.9432200906449 0 0 0 0 290.66373695431685 -30.322092088463251 0 -30.322092088463251 568.86790216089867 0 0 0 0 706.1009466238902 -338.52085301937041 0 -338.52085301937041 428.68079433040839 0 0 0 0 451.77206894166011 -293.23069501996724 0 -293.23069501996724 792.9183930152285 0 0 0 0 192.97419985075248 -163.88386945805541 0 -163.88386945805541 750.17163157553659 0 0 0 0 327.48798527818872 -311.3091416157913 0 -311.3091416157913 867.22621188120684 0 0 0 0 194.79855058601242 -225.02157640098449 0 -225.02157640098449 970.89819841541612 0 0 0 0 242.93226707664871 -436.69616413704716 0 -436.69616413704716 1180.6523993564624 0 0 0 0 1566.1946420740278 -1303.0907329726761 0 -1303.0907329726761 984.08513642391335 0 0 0 0 252.93625150134903 -811.31639316914516 0 -811.31639316914516 1790.6495023190801 0 0 0 0 993.58236190129537 -751.97305664024316 0 -751.97305664024316 621.69776267578709 0 0 0 0 811.52863026669365 -488.22850227240633 0 -488.22850227240633 450.98465073188345 0 0 0 0 1121.0299235156926 -333.82029413216151 0 -333.82029413216151 191.11970545259828 0 0 0 0 1109.7117341433768 -391.29179097333326 0 -391.29179097333326 -100.68105502348772 0 0 0 0 1282.2765604240267 -621.64047053333707 0 -621.64047053333707 146.48455533364177 0 0 0 0 1272.0056203862332 -330.76372980304222 0 -330.76372980304222 -104.349721314622 0 0 0 0 1173.850745318603 -191.59194958290573 0 -191.59194958290573 -110.72406488017441 0 0 0 0 934.15101948709344 -113.74728445256915 0 -113.74728445256915 -20.771696532759961 0 0 0 0 935.12613643865916 -56.787323020209442 0 -56.787323020209442 242.68373798961693 0 0 0 0 196.06606065264714 264.23048277800717 0 264.23048277800717 295.5124867914783 0 0 0 0 746.46367385005578 192.48416753570928 0 192.48416753570928 268.44350819297688 0 0 0 0 543.61409590346739 -43.744080901578855 0 -43.744080901578855 567.78199042183769 0 0 0 0 329.62689637603762 216.39399090192092 0 216.39399090192092 400.72474645462353 0 0 0 0 681.64937604713487 -67.109637981149717 0 -67.109637981149717 253.63080896037718 0 0 0 0 767.93684606434545 -258.26649121110313 0 -258.26649121110313 365.0338808714987 0 0 0 0 105.92128809270798 -117.1472386604247 0 -117.1472386604247 -90.981947889184084 0 0 0 0 148.2531444117194 33.544340901881355 0 33.544340901881355 -39.700394724265038 0 0 0 0 59.615027719802868 -21.613922537691877 0 -21.613922537691877 7.1543477457644435 0 0 0 0 -25.187560152902734 -10.696091621407902 0 -10.696091621407902 436.13983445286874 0 0 0 0 -11.344637456611963 -101.37180814428143 0 -101.37180814428143 187.76595895204292 0 0 0 0 -20.527951960015344 -64.344165339618058 0 -64.344165339618058 219.62691773896034 0 0 0 0 -46.656462278517211 5.8157383062769625 0 5.8157383062769625 102.16520307768735 0 0 0 0 144.40107226280088 -98.925135071768921 0 -98.925135071768921 137.8455027705769 0 0 0 0 -70.502618184895255 -161.19485516685222 0 -161.19485516685222 110.35084118881423 0 0 0 0 -20.002725085854763 22.062608143134185 0 22.062608143134185 376.58225966055807 0 0 0 0 -24.274485923262546 -188.87776780775039 0 -188.87776780775039 83.331637742127327 0 0 0 0 46.74045880700578 -37.780838580439195 0 -37.780838580439195 126.24849196206037 0 0 0 0 111.09917997266911 -61.037528462123447 0 -61.037528462123447 38.752906218052921 0 0 0 0 167.86918156534375 -538.3888384334914 0 -538.3888384334914 -916.92224209800224 0 0 0 0 237.06393780298822 487.24061284117488 0 487.24061284117488 -23.360608384125953 0 0 0 0 135.70262740341872 -27.840680945253581 0 -27.840680945253581 5.8638730558311281 0 0 0 0 128.65672375953 216.49856668541361 0 216.49856668541361 478.04024894972827 0 0 0 0 413.62987643029192 552.55879650105999 0 552.55879650105999 237.57783022889453 0 0 0 0 583.33591772401996 193.08154953176199 0 193.08154953176199 -226.84276583601968 0 0 0 0 180.73920743572253 -92.217850855213584 0 -92.217850855213584 41.304318228987732 0 0 0 0 455.31931501429062 -87.881066847357374 0 -87.881066847357374 -16.428115208648805 0 0 0 0 25.596052352692766 -2.3842874510027627 0 -2.3842874510027627 3.3449658695290494 0 0 0 0 109.71639823856717 -47.569954532624791 0 -47.569954532624791 27.668220395420178 0 0 0 0 67.399223810352851 -55.086651234016244 0 -55.086651234016244 -13.746371392306173 0 0 0 0 103.58638899630751 157.17883267843166 0 157.17883267843166 406.53475424586293 0 0 0 0 92.387784628338522 -44.121838335662105 0 -44.121838335662105 31.493954323458908 0 0 0 0 99.794342174369376 98.449943813298574 0 98.449943813298574 103.8755971682009 0 0 0 0 -70.404764988081297 -113.86224455052655 0 -113.86224455052655 850.73125442246055 0 0 0 0 427.9541548609559 -596.76826385920344 0 -596.76826385920344 346.45984162464026 0 0 0 0 -26.77564095595153 370.62052233159682 0 370.62052233159682 544.4780454600716 0 0 0 0 137.619784046532 -127.21117793653303 0 -127.21117793653303 -83.502570921836423 0 0 0 0 158.57453317499312 -200.42443160887302 0 -200.42443160887302 762.91795825737381 0 0 0 0 76.849967871501576 -2.1329871865526684 0 -2.1329871865526684 414.54040725331652 0 0 0 0 90.711149111128179 101.54572202471871 0 101.54572202471871 436.90743822439146 0 0 0 0 117.31570560466935 75.203497210411172 0 75.203497210411172 -63.045670357672293 0 0 0 0 141.00915672435076 6.5614585184142129 0 6.5614585184142129 -35.607150368197267 0 0 0 0 20.06100732893276 0.41146877662776227 0 0.41146877662776227 -0.85793891787235577 0 0 0 0 -80.044009291130351 -31.315143252228552 0 -31.315143252228552 4.6555490973726137 0 0 0 0 39.495231243461603 -52.673728115600312 0 -52.673728115600312 98.538822826767841 0 0 0 0 6.7990431807523919 -2.1956614030500532 0 -2.1956614030500532 -2.7734083976284123 0 0 0 0 -4.1300718551501632 24.772840006868933 0 24.772840006868933 10.595582354430803 0 0 0 0 91.37294558348367 -88.229858267931149 0 -88.229858267931149 121.66706805588126 0 0 0 0 -22.830024036637042 -65.164152830594844 0 -65.164152830594844 225.06762740740436 0 0 0 0 19.524393918802673 -2.7964973463162526 0 -2.7964973463162526 -0.30368182031896668 0 0 0 0 198.48860971111571 -239.62651829859144 0 -239.62651829859144 88.830698500412268 0 0 0 0 45.194952639052644 -261.65184860865833 0 -261.65184860865833 433.08270143846499 0 0 0 0 -53.208311654088902 -130.04237167129722 0 -130.04237167129722 388.80857658963663 0 0 0 0 10.279165371437557 -198.60479700549871 0 -198.60479700549871 357.38162768279847 0 0 0 0 -70.357542604100672 -122.62404383876729 0 -122.62404383876729 376.48698207018492 0 0 0 0 -36.093635308090597 -181.82116450723709 0 -181.82116450723709 446.64434196885759 0 0 0 0 -37.363446901421412 -113.70574345342403 0 -113.70574345342403 305.41035087627813 0 0 0 0 -21.783456011267845 -146.75246487098778 0 -146.75246487098778 289.71724768277051 0 0 0 0 133.47220484091667 -192.77156899799127 0 -192.77156899799127 341.91671731285686 0 0 0 0 -23.191568961308803 -95.099654458050679 0 -95.099654458050679 436.73726250387477 0 0 0 0 49.597130983165698 -76.290643308876781 0 -76.290643308876781 350.49098404941765 0 0 0 0 15.971786673335316 -2.121199228994449 0 -2.121199228994449 0.33127262977104366 0 0 0 0 18.289337937399978 0.6554164753712044 0 0.6554164753712044 -5.411441215333717 0 0 0 0 15.884132268751273 -1.5022017544582127 0 -1.5022017544582127 -0.45962964741734424 0 0 0 0 26.50212891260162 -6.9235373317142717 0 -6.9235373317142717 -4.6556083563476642 0 0 0 0 25.338764140426065 -7.2055605429294722 0 -7.2055605429294722 6.1398194859392419 0 0 0 0 28.819417236722074 -3.5218815993636525 0 -3.5218815993636525 -2.6220960328974776 0 0 0 0 43.670126070734113 -11.022876911174007 0 -11.022876911174007 -1.4655957592153452 0 0 0 0 -0.21799897630893383 0.27322240149803179 0 0.27322240149803179 -0.1862888438261866 0 0 0 0 20.972606374300085 -1.4834184038271259 0 -1.4834184038271259 3.7842107118089139 0 0 0 0 21.637671831340413 0.33012015146484952 0 0.33012015146484952 -3.771622693239209 0 0 0 0 27.869436225009849 23.825098779141641 0 23.825098779141641 -55.604702054887419 0 0 0 0 -5.2435978276043897 22.637663485164552 0 22.637663485164552 -3.9695524593770415 0 0 0 0 29.817167101427913 -5.2683902998413004 0 -5.2683902998413004 -3.9478861113732577 0 0 0 0 5.2810849947232157 -0.69565372205681797 0 -0.69565372205681797 -0.48371324116725117 0 0 0 0 32.514111754149781 14.442101457128471 0 14.442101457128471 -9.3366506588676934 0 0 0 0 45.478004364893422 -33.917768019538997 0 -33.917768019538997 31.392593519622455 0 0 0 0 27.039232536531927 -19.184243562770611 0 -19.184243562770611 3.1665037971808054 0 0 0 0 -20.571110394943389 17.2904877750452 0 17.2904877750452 13.380970338254564 0 0 0 0 63.681634560714883 13.003932259764674 0 13.003932259764674 0.012911053437652885 0 0 0 0 33.037961871959851 -0.20605679265470567 0 -0.20605679265470567 -2.4076213525433268 0 0 0 0 0.14293408588093826 0.11744408429549935 0 0.11744408429549935 -0.06126610708984831 0 0 0 0 -27.49382651396445 15.185183584696048 0 15.185183584696048 0.030776142243066806 0 0 0 0 27.662273641319189 7.8591161646841954 0 7.8591161646841954 0.017396543483779579 0 0 0 0 50.574193286534864 -12.917981548116511 0 -12.917981548116511 0.92453907667695323 0 0 0 0 16.203939519531559 -4.2893633586794664 0 -4.2893633586794664 -0.93265548833168843 0 0 0 0 7.4096536143770209 7.8635908651288311 0 7.8635908651288311 1.6124491646635768 0 0 0 0 2.0644713769456189 0.70157606542770168 0 0.70157606542770168 -0.40941186994210421 0 0 0 0 0.87240093935542973 7.375753949878888 0 7.375753949878888 -0.00050636508255370166 0 0 0 0 879.62046075803664 -329.32984195465815 0 -329.32984195465815 53.985492308956239 0 0 0 0 533.59509163847542 -73.10321518155196 0 -73.10321518155196 0.41782392952549519 0 0 0 0 366.43816679844895 -196.0146503865123 0 -196.0146503865123 66.718600931082619 0 0 0 0 307.87210910530848 -62.294753934071949 0 -62.294753934071949 51.701605153708165 0 0 0 0 550.3443899457925 -162.47684966840126 0 -162.47684966840126 59.367152429564896 0 0 0 0 477.97283064902877 -218.42979016448686 0 -218.42979016448686 58.56272757384788 0 0 0 0 506.16933487704955 -173.78815509822255 0 -173.78815509822255 24.59326740980238 0 0 0 0 3.7831959418764711 2.1498665548784857 0 2.1498665548784857 -0.10048223759447916 0 0 0 0 425.04474169202149 -78.994556666287451 0 -78.994556666287451 11.938935327436184 0 0 0 0 434.73582987152622 -128.72773008109507 0 -128.72773008109507 66.322850194790703 0 0 0 0 452.76631085923873 -183.58156470525142 0 -183.58156470525142 94.922133401245873 0 0 0 0 567.48782481761009 -245.34822404800838 0 -245.34822404800838 76.70519271188941 0 0 0 0 638.62171279211179 -108.60897136931385 0 -108.60897136931385 170.5005082442207 0 0 0 0 596.2257036807132 -238.60113520281931 0 -238.60113520281931 45.085908840417389 0 0 0 0 14.826747956445615 4.7416936351348422 0 4.7416936351348422 -0.9933394982788144 0 0 0 0 503.80473945669655 -216.45689339916422 0 -216.45689339916422 183.94280242986918 0 0 0 0 470.62170585533022 37.991878083338122 0 37.991878083338122 4.9805632342363637 0 0 0 0 6.032775327822236 3.7836576290790447 0 3.7836576290790447 -0.024816211663074801 0 0 0 0 608.48348089708452 -211.6035036151826 0 -211.6035036151826 15.752612658453465 0 0 0 0 681.92223273769196 -203.2588151285554 0 -203.2588151285554 15.948261925956668 0 0 0 0 3.894893322260657 2.8868575508713832 0 2.8868575508713832 -0.68356832957075864 0 0 0 0 288.60931788331072 -65.413505566943059 0 -65.413505566943059 59.071954131804638 0 0 0 0 397.63501816906501 -2.4144960224612051 0 -2.4144960224612051 0.50651552941201916 0 0 0 0 573.2054113892882 -259.17059335121252 0 -259.17059335121252 115.50424677903165 0 0 0 0 380.77331013360526 -110.69707059550809 0 -110.69707059550809 74.706682461167659 0 0 0 0 1.5638617440141331 0.31688021270306876 0 0.31688021270306876 -0.067316531543511582 0 0 0 0 191.55914613517234 -37.287965887029408 0 -37.287965887029408 -0.070156579225593735 0 0 0 0 469.64183789223898 -275.03050254330594 0 -275.03050254330594 80.009473661970105 0 0 0 0 3.0321314137046613 1.4612147697825151 0 1.4612147697825151 -0.2934516798325999 0 0 0 0 287.15287833774346 -239.11639927261533 0 -239.11639927261533 120.61184930263937 0 0 0 0 456.13743072653597 -205.85018655584707 0 -205.85018655584707 14.016676562372766 0 0 0 0 332.31947942240367 -154.50227598206112 0 -154.50227598206112 62.387768814457274 0 0 0 0 64.035593924170826 -108.6359916172313 0 -108.6359916172313 76.741133464375366 0 0 0 0 233.18743016933149 -135.72757261706792 0 -135.72757261706792 115.97493639466077 0 0 0 0 274.93205236163703 -40.090181816325725 0 -40.090181816325725 29.965443591681492 0 0 0 0 86.660762017811066 -1.9526749814764912 0 -1.9526749814764912 40.699335338207447 0 0 0 0 175.72208345071704 3.7728919880878209 0 3.7728919880878209 108.4559659421988 0 0 0 0 146.62495807300365 62.90322665387994 0 62.90322665387994 -42.060688392283851 0 0 0 0 61.469839835554012 26.503978269899903 0 26.503978269899903 -55.190462953073734 0 0 0 0 170.24839034817705 -61.834196530414459 0 -61.834196530414459 -21.769346272686221 0 0 0 0 26.43221043048834 -82.986241611095124 0 -82.986241611095124 -156.58848935348044 0 0 0 0 -42.094913563370937 17.497608366487952 0 17.497608366487952 -51.102459060277852 0 0 0 0 -62.105233092622711 -313.48169260493063 0 -313.48169260493063 -6.9728244498801359 0 0 0 0 1.4337502379867715 -1.1286020037328512 0 -1.1286020037328512 0.72317086009970888 0 0 0 0 290.45833850248891 -306.4279520100381 0 -306.4279520100381 -7.3321929441672182 0 0 0 0 586.68108588257746 -116.53152419229411 0 -116.53152419229411 -63.680098848930925 0 0 0 0 85.152514878467628 42.48328434041607 0 42.48328434041607 -7.7488361159865917 0 0 0 0 433.32926730555482 -267.8969828599466 0 -267.8969828599466 206.69604261598863 0 0 0 0 938.42411264096154 -9.4075503876422317 0 -9.4075503876422317 120.47128502343094 0 0 0 0 -86.343681321770418 98.767842113797542 0 98.767842113797542 135.25929671882386 0 0 0 0 -95.799754714098526 7.98230382300153 0 7.98230382300153 171.69110468048484 0 0 0 0 38.795768539714118 -142.57450092024942 0 -142.57450092024942 14.54993574083619 0 0 0 0 1.4412377030471362 -2.2081827295145615 0 -2.2081827295145615 0.55838588565506475 0 0 0 0 -88.20206510911521 23.557701155626006 0 23.557701155626006 20.979845370197836 0 0 0 0 -76.581918793148361 109.63610835506643 0 109.63610835506643 -23.742261047906823 0 0 0 0 6.7627247902995009 4.1328220298438794 0 4.1328220298438794 1.5333852298359374 0 0 0 0 42.29872910695849 -1.331898807648372 0 -1.331898807648372 -70.078162461901115 0 0 0 0 390.89812387188431 128.46334701398371 0 128.46334701398371 192.89572846724491 0 0 0 0 792.83300035035063 91.746133197817585 0 91.746133197817585 171.46514410100133 0 0 0 0 161.76409877008336 -40.025207747870702 0 -40.025207747870702 302.44056939766074 0 0 0 0 129.48134985862998 -117.48376251930119 0 -117.48376251930119 275.2429924009312 0 0 0 0 583.40194782090839 -211.24967160175987 0 -211.24967160175987 364.51095214002527 0 0 0 0 57.83877719816428 -194.42147882345836 0 -194.42147882345836 735.24613318813726 0 0 0 0 1.9766234897383015 1.22266478913855 0 1.22266478913855 0.56204493265411581 0 0 0 0 516.46318523314039 43.803769397079584 0 43.803769397079584 260.66774967539652 0 0 0 0 541.00922104591154 -97.43832520238854 0 -97.43832520238854 355.35708601371965 0 0 0 0 948.30280494755425 -188.70959843926471 0 -188.70959843926471 100.90581358114662 0 0 0 0 621.1317169984286 -252.50391382661593 0 -252.50391382661593 88.56439921552959 0 0 0 0 536.97160206099215 -241.27731642912391 0 -241.27731642912391 -4.7741758238212455 0 0 0 0 235.13520789604081 30.06485113147221 0 30.06485113147221 -41.914209489588529 0 0 0 0 2.3603030334076323 1.0856410238285434 0 1.0856410238285434 0.014295356704954187 0 0 0 0 943.26368497920339 -158.2135091882555 0 -158.2135091882555 279.76285985897141 0 0 0 0 886.0141057073688 168.65238236810382 0 168.65238236810382 -49.330878788026212 0 0 0 0 730.04571401274006 103.13770124298674 0 103.13770124298674 -33.584938645198676 0 0 0 0 551.46159339633596 498.4097149621316 0 498.4097149621316 67.237490226058071 0 0 0 0 291.72789484504028 319.95143322864487 0 319.95143322864487 1214.047987471929 0 0 0 0 45.955110322858673 -427.1866578464701 0 -427.1866578464701 1340.7031009419511 0 0 0 0 469.59538456334849 361.71747238095162 0 361.71747238095162 25.766253809157547 0 0 0 0 12.890657791360809 -5.6727729857162714 0 -5.6727729857162714 2.6634309809634389 0 0 0 0 -55.422219790460076 -46.73896866860332 0 -46.73896866860332 166.63467106739427 0 0 0 0 162.64763109662454 -150.21566685363325 0 -150.21566685363325 -218.96592898834751 0 0 0 0 440.37053035463759 74.867648559415443 0 74.867648559415443 114.15753336449529 0 0 0 0 38.081206188592603 -13.097534801813687 0 -13.097534801813687 3.8494603916164074 0 0 0 0 -3.2967851259672898 -324.9412366970688 0 -324.9412366970688 -4.5258397038501244 0 0 0 0 123.91719314003171 -17.016579474097625 0 -17.016579474097625 131.00061243118762 0 0 0 0 318.53233397482836 19.67077013531889 0 19.67077013531889 -98.532521206862839 0 0 0 0 117.27029158751247 -333.06328449286229 0 -333.06328449286229 -50.177493530110951 0 0 0 0 137.36137183383781 -88.571245789946772 0 -88.571245789946772 40.712114988104808 0 0 0 0 194.09305954884621 -300.07527670479976 0 -300.07527670479976 -419.76879416938948 0 0 0 0 508.34043330681743 -305.60850028486675 0 -305.60850028486675 -424.56814168804863 0 0 0 0 50.318041104692384 -38.013905260761334 0 -38.013905260761334 481.23398249890897 0 0 0 0 1071.7468143538572 -703.45635070709022 0 -703.45635070709022 339.08716039865385 0 0 0 0 1149.1179659351965 560.21095327544504 0 560.21095327544504 124.69967845232168 0 0 0 0 -443.07501344542834 111.01645963522651 0 111.01645963522651 76.983133145351076 0 0 0 0 562.8256916464743 -161.05902158642925 0 -161.05902158642925 -591.82509383599063 0 0 0 0 288.59069619174988 -81.570500554229056 0 -81.570500554229056 14.527497904884513 0 0 0 0 2129.7842738252366 266.77510497867934 0 266.77510497867934 -156.63014866026606 0 0 0 0 -296.98921838539536 1216.3355500621512 0 1216.3355500621512 277.04808889981575 0 0 0 0 2019.5803805305259 14.112822300238577 0 14.112822300238577 -735.85907604019758 0 0 0 0 5.5919777263716242 5.3890048942185729 0 5.3890048942185729 -0.93865236429490828 0 0 0 0 -229.59902512701228 -1633.6672800093893 0 -1633.6672800093893 628.20162423773763 0 0 0 0 323.4657056677388 -142.75669056154675 0 -142.75669056154675 -158.23266166854637 0 0 0 0 2246.1256003987946 -245.92359211873327 0 -245.92359211873327 -195.05159542483671 0 0 0 0 1309.1218218172289 775.19049951823263 0 775.19049951823263 154.99552051685168 0 0 0 0 -572.03235722331738 180.40538079363915 0 180.40538079363915 341.75825681126207 0 0 0 0 88.156090321223019 215.09616086529513 0 215.09616086529513 -638.43282336210234 0 0 0 0 28.417073492558643 -12.365899575564612 0 -12.365899575564612 6.1606673368082312 0 0 0 0 61.743686516094385 -111.34172234500298 0 -111.34172234500298 26.595596807075708 0 0 0 0 -125.01931556800264 33.40465534988914 0 33.40465534988914 224.73867163836201 0 0 0 0 33.122401621747827 -30.713188352019415 0 -30.713188352019415 22.542414362221418 0 0 0 0 317.84344974576379 -138.9778258568947 0 -138.9778258568947 -98.491306564210333 0 0 0 0 302.50878136069514 -2.5781759727187818 0 -2.5781759727187818 -81.477515324888373 0 0 0 0 494.84075132028374 470.14204243330835 0 470.14204243330835 289.67077897263925 0 0 0 0 124.88606986260857 37.682185049806776 0 37.682185049806776 94.797385597308676 0 0 0 0 673.02906265218917 526.77059019641274 0 526.77059019641274 75.828223734007224 0 0 0 0 991.11307533767831 81.350822318260271 0 81.350822318260271 -106.44554601228992 0 0 0 0 191.29466717769537 108.41292193074162 0 108.41292193074162 -231.4370507989106 0 0 0 0 -288.61613906051207 -458.27359859812833 0 -458.27359859812833 -26.679463143321527 0 0 0 0 -985.54974994319491 -305.8021794078345 0 -305.8021794078345 171.1281341450017 0 0 0 0 40.944279523977954 3.5853772653726423 0 3.5853772653726423 -2.0210943552676524 0 0 0 0 421.15166391232924 -83.764262251905393 0 -83.764262251905393 -108.43199261514337 0 0 0 0 8.9312180746055674 -138.62243738785492 0 -138.62243738785492 60.199194606762831 0 0 0 0 99.431298962634173 -50.992173798901604 0 -50.992173798901604 -133.62974662243596 0 0 0 0 22.104478273271525 -172.34975192974031 0 -172.34975192974031 9.7301872043844924 0 0 0 0 104.47831714489291 -58.068622638508913 0 -58.068622638508913 11.778228660271068 0 0 0 0 91.085841698935837 97.928706926253199 0 97.928706926253199 -25.636192119883162 0 0 0 0 28.597764532148091 15.097279035907448 0 15.097279035907448 22.30085397453179 0 0 0 0 54.062074072266114 22.618213390667734 0 22.618213390667734 99.293887507601085 0 0 0 0 52.870307526017825 -292.0882225241744 0 -292.0882225241744 213.29000460605675 0 0 0 0 518.55333003371197 -298.21831409727656 0 -298.21831409727656 119.80048626617645 0 0 0 0 129.78528621839519 -384.0881847602767 0 -384.0881847602767 97.71911866609662 0 0 0 0 354.04310448598699 -169.61769110767636 0 -169.61769110767636 23.422411330364866 0 0 0 0 -6.9264712284506231 0.27983236763685682 0 0.27983236763685682 13.691337787441302 0 0 0 0 321.53125511258258 -191.90885550526582 0 -191.90885550526582 270.73976769549699 0 0 0 0 258.46151647838269 -237.01285955577077 0 -237.01285955577077 244.60894240981725 0 0 0 0 -28.022746423084754 -46.906493748626417 0 -46.906493748626417 24.968954543786822 0 0 0 0 -21.286554809170696 -60.753137259559182 0 -60.753137259559182 20.345300014236614 0 0 0 0 58.035225535320933 -139.23526449486684 0 -139.23526449486684 7.4572934156103656 0 0 0 0 -21.885473842325155 -98.840949625000576 0 -98.840949625000576 386.93824069736911 0 0 0 0 -89.579208183975425 -14.574618153677875 0 -14.574618153677875 148.65936659364252 0 0 0 0 -26.232037797482917 -19.578588309375846 0 -19.578588309375846 -83.591473321790545 0 0 0 0 -79.468545330877532 83.657814493707519 0 83.657814493707519 -121.85183125920594 0 0 0 0 -79.468545330732013 83.657814493858496 0 83.657814493858496 -121.85183125918047 0 0 0 0 -79.468545330906636 83.657814493789829 0 83.657814493789829 -121.8518312591932 0 0 0 0 -34.590301587973954 77.195216880524185 0 77.195216880524185 -185.67975623060011 0 0 0 0 45.418394225917325 13.684749535604887 0 13.684749535604887 3.7406527497940747 0 0 0 0 -33.958470919977117 14.357709391192202 0 14.357709391192202 -159.54026306414562 0 0 0 0 44.122738286067033 -109.18881013268697 0 -109.18881013268697 28.928591339839841 0 0 0 0 35.417366930778371 41.231731514812964 0 41.231731514812964 -14.007297552716409 0 0 0 0 -112.26308471852099 290.62184032281345 0 290.62184032281345 -196.49363524471164 0 0 0 0 150.86960742155497 -17.795702514907134 0 -17.795702514907134 -400.579205915491 0 0 0 0 34.771535589359019 12.814366683422165 0 12.814366683422165 3.9161191523357184 0 0 0 0 -311.22700746185728 -94.972507359797419 0 -94.972507359797419 529.08625983886259 0 0 0 0 407.39666893155663 613.83566700042684 0 613.83566700042684 337.26321497867457 0 0 0 0 487.94016434959485 349.03455463448063 0 349.03455463448063 173.98049475160326 0 0 0 0 -229.10169560019858 102.85241076323564 0 102.85241076323564 229.65159072069582 0 0 0 0 15.389541468847369 4.8977575288356334 0 4.8977575288356334 1.1037554449601723 0 0 0 0 416.80818609101698 524.24875628107702 0 524.24875628107702 112.189869638441 0 0 0 0 803.74562280829923 167.64755601075814 0 167.64755601075814 99.900598496059501 0 0 0 0 702.60232820990495 517.22517594218311 0 517.22517594218311 54.89459575686169 0 0 0 0 14.122475098135396 -7.8527567709806334 0 -7.8527567709806334 6.3840551020599809 0 0 0 0 821.13152544191689 605.58995392933753 0 605.58995392933753 303.21410002082462 0 0 0 0 68.687914059817558 125.99477895944437 0 125.99477895944437 648.82015871025351 0 0 0 0 274.66310705739306 46.463130549641392 0 46.463130549641392 261.58338959056118 0 0 0 0 1356.1282600890845 -192.67363344220917 0 -192.67363344220917 313.77202808418417 0 0 0 0 225.65351204511535 107.96234525389218 0 107.96234525389218 186.10871477181081 0 0 0 0 190.4801570319396 239.42764769076302 0 239.42764769076302 147.77471595794896 0 0 0 0 198.0619152293923 -76.955033755708399 0 -76.955033755708399 68.326019272028134 0 0 0 0 108.70206692700958 -143.70768580509935 0 -143.70768580509935 133.4899430466462 0 0 0 0 -289.00743244441401 375.71452102151716 0 375.71452102151716 243.99363406946424 0 0 0 0 -1.1373326696228787 0.92184141351771132 0 0.92184141351771132 3.0244497488436703 0 0 0 0 -135.2786826127558 -71.195478190348467 0 -71.195478190348467 146.44850996489413 0 0 0 0 -148.42396404693864 -53.922540701811158 0 -53.922540701811158 141.91945899128405 0 0 0 0 -40.379074249201949 -13.915272146784524 0 -13.915272146784524 453.37037395469315 0 0 0 0 18.509452105467062 -174.87249400125728 0 -174.87249400125728 409.26851688278248 0 0 0 0 19.316819114421378 -26.824746259613448 0 -26.824746259613448 617.21812259515809 0 0 0 0 13.281642199261114 432.76877236372366 0 432.76877236372366 411.95467779419914 0 0 0 0 143.43938848283142 -77.882551230270423 0 -77.882551230270423 -245.29960296878519 0 0 0 0 -508.48009318622644 92.948575214889388 0 92.948575214889388 220.60346580708483 0 0 0 0 66.289565325612784 389.43588695545668 0 389.43588695545668 -245.27996532440966 0 0 0 0 73.850503897105398 5.2554461091214524 0 5.2554461091214524 -0.76199107779144937 0 0 0 0 1046.5821211546427 -133.74343165741175 0 -133.74343165741175 -967.06723297109647 0 0 0 0 588.70862551958999 599.81685759579614 0 599.81685759579614 688.18830749867629 0 0 0 0 29.915269723883739 4.6033253093091364 0 4.6033253093091364 -0.60488496778740641 0 0 0 0 -94.532518839463592 1144.5100984905944 0 1144.5100984905944 1040.4214050191306 0 0 0 0 988.57001252099872 -247.29892510406808 0 -247.29892510406808 -888.89509886865471 0 0 0 0 -78.792494750770857 -381.33158289584162 0 -381.33158289584162 -244.86020711274159 0 0 0 0 200.77803871517972 -186.95431794119395 0 -186.95431794119395 -230.03171246088823 0 0 0 0 0.96367665505385958 8.2289355540711995 0 8.2289355540711995 1152.1009349928695 0 0 0 0 1068.1136539306608 648.5587402257504 0 648.5587402257504 572.06104846230028 0 0 0 0 840.94364051209413 -892.69071455058815 0 -892.69071455058815 290.51272448972395 0 0 0 0 1760.6184569609177 -109.77209308277588 0 -109.77209308277588 -499.78368864526567 0 0 0 0 894.20559351184056 -107.63834056082442 0 -107.63834056082442 -455.22996069475994 0 0 0 0 4.3280370930151548 -447.43060904415233 0 -447.43060904415233 78.719021266915206 0 0 0 0 -18.033873934939038 866.96763614567726 0 866.96763614567726 648.28081380987624 0 0 0 0 862.94813498281292 103.90983562652218 0 103.90983562652218 -787.08268273085469 0 0 0 0 1832.3762718570651 3076.2368021929105 0 3076.2368021929105 -2838.5967111575228 0 0 0 0 426.5096490996948 -172.04916403936068 0 -172.04916403936068 -934.44895031780857 0 0 0 0 147.38208146224497 -15.800112198374791 0 -15.800112198374791 11.477836252130714 0 0 0 0 125.80343491314034 -30.095103011439349 0 -30.095103011439349 16.683210579281706 0 0 0 0 114.63357940990414 -36.675334934531321 0 -36.675334934531321 -5.1488652730985844 0 0 0 0 139.34604435880465 -2.8599593572901085 0 -2.8599593572901085 23.563052701348852 0 0 0 0 195.2186854817628 36.593828614239328 0 36.593828614239328 -232.67512756517044 0 0 0 0 42.74536692968416 30.112985588321521 0 30.112985588321521 7.1986751919701231 0 0 0 0 226.56245010823477 177.47187290752026 0 177.47187290752026 -20.88663523215655 0 0 0 0 -34.09221595111012 -72.197351948662345 0 -72.197351948662345 -1.8527464476196656 0 0 0 0 824.99616668128874 239.59094265559895 0 239.59094265559895 -16.072624205487955 0 0 0 0 44.624685434644732 -4.9389973623371191 0 -4.9389973623371191 6.393473897999943 0 0 0 0 -145.03452653080785 -58.577527963944476 0 -58.577527963944476 321.02716805951547 0 0 0 0 198.3489407497691 65.633446199163245 0 65.633446199163245 59.864685129724421 0 0 0 0 441.45733978642966 0.32204034197559395 0 0.32204034197559395 25.339807937107366 0 0 0 0 148.93162944400055 -52.809498647697595 0 -52.809498647697595 -14.198485050997197 0 0 0 0 190.34996551126187 -7.8862105614718985 0 -7.8862105614718985 65.647714018267834 0 0 0 0 188.6054531721602 -16.760169854895139 0 -16.760169854895139 72.453838994347734 0 0 0 0 171.33066545549082 29.610768155572259 0 29.610768155572259 91.027687192899066 0 0 0 0 32.454886945037288 15.94621874835309 0 15.94621874835309 25.925958745505966 0 0 0 0 160.20115178881679 26.459329713655762 0 26.459329713655762 26.536436883721365 0 0 0 0 -404.73833340510464 55.224155914330368 0 55.224155914330368 383.87713041601364 0 0 0 0 0.20605819150099514 0.23637264651243584 0 0.23637264651243584 4.0867803248820778 0 0 0 0 -203.61546853645632 -133.04952790653647 0 -133.04952790653647 287.43427903312113 0 0 0 0 641.34586485035834 50.553409632725106 0 50.553409632725106 -29.913941944088947 0 0 0 0 340.55492467584554 237.91034217602919 0 237.91034217602919 250.78222821922509 0 0 0 0 20.091609766910551 250.70019022652286 0 250.70019022652286 648.27482236324886 0 0 0 0 34.348180756135889 165.63747433964741 0 165.63747433964741 887.66809127905617 0 0 0 0 19.524217031738317 -189.62453307777872 0 -189.62453307777872 298.22328191583983 0 0 0 0 29.258931302829296 -37.96930942871586 0 -37.96930942871586 -59.417417444475291 0 0 0 0 62.213299152790569 50.34418997948228 0 50.34418997948228 171.40028746149983 0 0 0 0 447.19342794822296 76.909489410700189 0 76.909489410700189 -88.169959594208194 0 0 0 0 9.1570200673631916 -258.1513519288078 0 -258.1513519288078 256.37019002770558 0 0 0 0 397.09589120472083 222.459254134199 0 222.459254134199 157.60649616932096 0 0 0 0 124.81435796028489 -70.589485795077678 0 -70.589485795077678 18.40380322559869 0 0 0 0 149.68382421025308 -571.73089623088686 0 -571.73089623088686 -435.70069282233544 0 0 0 0 -518.71674992504995 225.70239352566887 0 225.70239352566887 -52.091507256227487 0 0 0 0 90.869781119940029 -46.740085865253292 0 -46.740085865253292 4.9550456231194104 0 0 0 0 53.359147392273577 -37.433065373883394 0 -37.433065373883394 27.012901649051539 0 0 0 0 144.52229389136482 -9.5469344675649381 0 -9.5469344675649381 31.232039234141666 0 0 0 0 -1189.265365258354 -1833.5835947501132 0 -1833.5835947501132 1858.622275651855 0 0 0 0 216.1310089893741 -7.3236725358533477 0 -7.3236725358533477 107.98607255603929 0 0 0 0 357.70288603970403 78.533605462875585 0 78.533605462875585 14.557937824089095 0 0 0 0 376.59913129474808 -8.2105576693028297 0 -8.2105576693028297 54.499075157271363 0 0 0 0 163.01764257797913 3.2367386076605271 0 3.2367386076605271 17.957759354573454 0 0 0 0 16.059745083061642 -38.361375497401355 0 -38.361375497401355 19.545801838750833 0 0 0 0 295.19511072964451 31.467651051821804 0 31.467651051821804 9.7577737214378431 0 0 0 0 130.2121819105505 -2.6941643490647067 0 -2.6941643490647067 39.353664984673969 0 0 0 0 341.98905054073839 27.887209575725137 0 27.887209575725137 4.5033753803791114 0 0 0 0 353.93372953199287 1.9762100265666049 0 1.9762100265666049 -111.30043560814738 0 0 0 0 369.7937857120487 48.47633974651535 0 48.47633974651535 -26.826476729390833 0 0 0 0 94.84765110562148 189.44472246398118 0 189.44472246398118 124.70001093323481 0 0 0 0 0.85505907651975299 3.1027698101906509 0 3.1027698101906509 7.6338687957403621 0 0 0 0 601.28626720265311 350.38716031339027 0 350.38716031339027 -165.58182349206913 0 0 0 0 363.46981947454333 67.198981679038297 0 67.198981679038297 -238.00839251704747 0 0 0 0 905.10448005657236 448.76900638852021 0 448.76900638852021 -110.41970451275847 0 0 0 0 409.77351143305714 424.45505970915747 0 424.45505970915747 356.17317666867893 0 0 0 0 597.67340448188224 384.89312944473238 0 384.89312944473238 -115.88819338812755 0 0 0 0 655.84502953224364 -54.070608268536944 0 -54.070608268536944 34.412109069431608 0 0 0 0 1002.4754121804435 249.8823800963446 0 249.8823800963446 -159.56046806058794 0 0 0 0 925.52492923972022 365.61339311301253 0 365.61339311301253 -103.20343258725097 0 0 0 0 932.1006997784134 231.70503908475803 0 231.70503908475803 252.59358376236196 0 0 0 0 485.03667517016584 777.61236660962277 0 777.61236660962277 530.88299345385894 0 0 0 0 1105.1816194808052 207.2647504898996 0 207.2647504898996 -172.42973478680142 0 0 0 0 17.423707561974879 -44.056651913997484 0 -44.056651913997484 4.8522611573207541 0 0 0 0 487.88390097134106 155.7722568362833 0 155.7722568362833 -133.56718091202379 0 0 0 0 19.388457710600022 -18.239224969249776 0 -18.239224969249776 9.320927417629747 0 0 0 0 17.590364026251336 -52.373429634595595 0 -52.373429634595595 18.615243287342309 0 0 0 0 375.28179898450617 408.39426339245438 0 408.39426339245438 -75.732844066327743 0 0 0 0 953.52053423121106 384.26134316887965 0 384.26134316887965 -239.97237718753286 0 0 0 0 54.263872883544536 -11.463670216633545 0 -11.463670216633545 -5.4994846970985236 0 0 0 0 44.737601415268728 -0.45768237206630147 0 -0.45768237206630147 10.827780011390132 0 0 0 0 -1.5384352386172395 -26.537253810809489 0 -26.537253810809489 19.111307595060225 0 0 0 0 14.021794018452056 -42.631288273209066 0 -42.631288273209066 17.111626513411466 0 0 0 0 -9.3682748311839532 -60.286572621007508 0 -60.286572621007508 5.4456573500210652 0 0 0 0 9.4682692730600877 -2.2482067177493974 0 -2.2482067177493974 -6.858820228432009 0 0 0 0 5.0283024846453941 -9.1294541427652547 0 -9.1294541427652547 9.6880893180739278 0 0 0 0 26.801760595975793 -25.516849576099048 0 -25.516849576099048 -0.47982621190431018 0 0 0 0 135.05235668067871 -470.54760304047079 0 -470.54760304047079 -36.915301136320522 0 0 0 0 706.75620458798403 -339.0346507445858 0 -339.0346507445858 -238.33765322080217 0 0 0 0 -6.8734778755460866 -16.360250356710822 0 -16.360250356710822 -24.928988744526578 0 0 0 0 16.277755575927927 -12.07817536132093 0 -12.07817536132093 5.9912990183131285 0 0 0 0 1398.3474226178078 190.27758024221203 0 190.27758024221203 -257.21180787551521 0 0 0 0 719.29184983312007 207.08009688020456 0 207.08009688020456 -235.79738801631538 0 0 0 0 644.95793816418154 -43.316387605746058 0 -43.316387605746058 -0.89326865247312526 0 0 0 0 906.7940709942086 459.31510312611931 0 459.31510312611931 -45.908054994097256 0 0 0 0 2112.719617270297 756.79242689963485 0 756.79242689963485 21.844819953782007 0 0 0 0 717.33978924317125 914.11550477105516 0 914.11550477105516 971.66088579162897 0 0 0 0 2115.6691525386582 -364.94689077852303 0 -364.94689077852303 13.574221037410098 0 0 0 0 16.383207318605855 269.51081990863759 0 269.51081990863759 286.17194006454338 0 0 0 0 461.41575689437741 -451.50171385820977 0 -451.50171385820977 1050.5814191015488 0 0 0 0 375.29469021687692 184.91093762315722 0 184.91093762315722 248.31185368968545 0 0 0 0 294.29439626456588 698.77500735775993 0 698.77500735775993 840.29642038282782 0 0 0 0 2167.0821685602568 431.58031191678856 0 431.58031191678856 503.39831535700432 0 0 0 0 6.4763449051184239 7.8717434251254872 0 7.8717434251254872 9.3269413524187108 0 0 0 0 809.39014882997435 -650.63210859817536 0 -650.63210859817536 -50.605962540817018 0 0 0 0 2169.8063506003673 477.10440704810753 0 477.10440704810753 165.02717940999992 0 0 0 0 -167.7651430330443 -33.260599990246874 0 -33.260599990246874 140.63518980255412 0 0 0 0 10.70605760878243 -97.244545806656788 0 -97.244545806656788 40.083853529036276 0 0 0 0 12.631073835447268 -13.852234287183833 0 -13.852234287183833 17.89873972362475 0 0 0 0 65.392185869117384 164.80019490789437 0 164.80019490789437 44.138616957565318 0 0 0 0 -6.2050459578990456 2.6614482800924364 0 2.6614482800924364 -0.38834877352625341 0 0 0 0 12.591107327992717 -15.270931588377479 0 -15.270931588377479 14.462005407775283 0 0 0 0 -32.534330491658693 -29.436563369773921 0 -29.436563369773921 13.34521231333747 0 0 0 0 -314.06530145055149 -86.986493736596458 0 -86.986493736596458 119.11309267363947 0 0 0 0 -15.270521285450741 34.454338108500451 0 34.454338108500451 32.417655704146455 0 0 0 0 183.86661852145335 17.847866264040931 0 17.847866264040931 23.373695295786092 0 0 0 0 1.0205983582389422 -1.7048789749386444 0 -1.7048789749386444 2.5265975030986709 0 0 0 0 70.221283648090321 34.915226995197372 0 34.915226995197372 21.363438755655807 0 0 0 0 16.56775075031328 29.814322809867008 0 29.814322809867008 60.14079451687212 0 0 0 0 40.949364475833136 35.056472713225958 0 35.056472713225958 14.888245521746285 0 0 0 0 76.297714846776216 65.401275294020706 0 65.401275294020706 39.229407991078915 0 0 0 0 98.338294059700274 55.581136675167272 0 55.581136675167272 6.8577059807175829 0 0 0 0 -13.738203528599115 -38.313543161873895 0 -38.313543161873895 17.537571273402136 0 0 0 0 4.8695661962750023 -5.0504857586405194 0 -5.0504857586405194 5.42013411381091 0 0 0 0 24.666232527739339 3.2747304684664869 0 3.2747304684664869 18.325062283976877 0 0 0 0 44.995493762224214 31.563978908339777 0 31.563978908339777 12.452279833034481 0 0 0 0 15.756838362904091 20.859496554228599 0 20.859496554228599 17.360110677880584 0 0 0 0 9.9289012714725686 -5.2145276215724152 0 -5.2145276215724152 18.119760690133262 0 0 0 0 48.29989146454318 -3.9537954442876071 0 -3.9537954442876071 4.6467485948141984 0 0 0 0 59.416549341403879 27.897159627096698 0 27.897159627096698 10.913618540191237 0 0 0 0 60.392405356455129 26.92062533497301 0 26.92062533497301 11.519271652805401 0 0 0 0 86.341406628795085 -1.1331585947409621 0 -1.1331585947409621 4.7140879335238424 0 0 0 0 85.646675889343896 48.8104788624305 0 48.8104788624305 3.9528247080597794 0 0 0 0 108.32025641449582 42.955741474808747 0 42.955741474808747 4.1589839031930751 0 0 0 0 86.650923239649273 46.04851229297492 0 46.04851229297492 9.5381731865986694 0 0 0 0 84.481936966891226 13.883614853396466 0 13.883614853396466 -13.832374423855981 0 0 0 0 106.67037493403768 -18.727130033315916 0 -18.727130033315916 -65.03133489983702 0 0 0 0 140.70848953547829 109.7776012105769 0 109.7776012105769 72.571002659142323 0 0 0 0 246.58983759241528 -17.003592848983317 0 -17.003592848983317 -13.80579076675167 0 0 0 0 98.374983522480761 -2.4664491509184927 0 -2.4664491509184927 -29.868906567940883 0 0 0 0 112.01847310652803 -5.2005837024919046 0 -5.2005837024919046 -10.39353986666576 0 0 0 0 82.052990248433176 6.7458605099483773 0 6.7458605099483773 -12.148331866957493 0 0 0 0 92.461535565758822 -34.068931080201764 0 -34.068931080201764 -48.50990598867611 0 0 0 0 121.13320873841622 30.294890079898209 0 30.294890079898209 17.876833421243646 0 0 0 0 0.64181288391409907 36.51224255327179 0 36.51224255327179 35.193571756580241 0 0 0 0 58.132564124290852 41.525374271089305 0 41.525374271089305 -12.963985746822416 0 0 0 0 168.02992901389734 50.033122372773732 0 50.033122372773732 -60.328367866690314 0 0 0 0 175.61665498452203 34.455501142575486 0 34.455501142575486 -36.386297124761768 0 0 0 0 76.527005505657144 38.998406361663911 0 38.998406361663911 6.3932478057904518 0 0 0 0 236.28960843181994 34.268588662376715 0 34.268588662376715 -77.999140622519008 0 0 0 0 9.4503222134080715 207.08784101272431 0 207.08784101272431 14.129981813715858 0 0 0 0 40.572651919329971 51.494818349802728 0 51.494818349802728 6.8112626224008466 0 0 0 0 -1.4482433412485989 111.52186986709694 0 111.52186986709694 79.643236494275698 0 0 0 0 379.32736516039586 105.91827650736741 0 105.91827650736741 -52.459199529472244 0 0 0 0 336.15553627845657 -70.681607685060953 0 -70.681607685060953 69.107879940755083 0 0 0 0 324.61502124228718 -1.0824778971555133 0 -1.0824778971555133 -25.514866918185362 0 0 0 0 74.6668812125572 12.40488308882891 0 12.40488308882891 132.24485733918118 0 0 0 0 -80.914498143276433 -47.806418685147946 0 -47.806418685147946 118.64186521164265 0 0 0 0 0.39919336907573211 1.1283009942134186 0 1.1283009942134186 1.2950226236302171 0 0 0 0 110.7297863294807 91.270590209870534 0 91.270590209870534 190.32616127987421 0 0 0 0 90.335600180042093 22.363666721657864 0 22.363666721657864 -33.448871925596904 0 0 0 0 130.45216326454101 23.424689062196194 0 23.424689062196194 -24.671425735612502 0 0 0 0 118.17960949843837 282.99479293082186 0 282.99479293082186 -94.981649958746402 0 0 0 0 6.8835106766494363 1.5517463997240952 0 1.5517463997240952 1.0991514927198622 0 0 0 0 108.33181854781287 16.850893578677642 0 16.850893578677642 10.982989640755477 0 0 0 0 257.39765793643892 -378.61922634178336 0 -378.61922634178336 43.06818596485391 0 0 0 0 90.42197855746781 27.688792197771363 0 27.688792197771363 5.9610570529657707 0 0 0 0 117.47137384193411 9.2363125719834898 0 9.2363125719834898 -12.394787366923993 0 0 0 0 29.321306050929707 9.5110964767736732 0 9.5110964767736732 13.723893102513102 0 0 0 0 68.638776218205749 57.643505867937165 0 57.643505867937165 -13.468371713686793 0 0 0 0 -138.70947822202288 126.60364461660356 0 126.60364461660356 91.932376689004741 0 0 0 0 39.795860178003636 59.142923291450487 0 59.142923291450487 20.724581546061103 0 0 0 0 -30.611303930374561 28.20189254500292 0 28.20189254500292 -5.976319778654215 0 0 0 0 104.19054213727213 51.336928812472252 0 51.336928812472252 47.389741084225534 0 0 0 0 11.155421517323703 48.807563913767808 0 48.807563913767808 125.60625143138896 0 0 0 0 1.6914494321023597 2.3400566828257467 0 2.3400566828257467 -2.2073469976192399 0 0 0 0 34.322771447464788 9.2244082376219652 0 9.2244082376219652 -15.484024397875622 0 0 0 0 -52.336286760018993 1.7231790230930528 0 1.7231790230930528 64.760365684938733 0 0 0 0 49.007886407882324 84.704257088662416 0 84.704257088662416 49.462936712800683 0 0 0 0 -10.117057296131662 8.9831285924299493 0 8.9831285924299493 19.75157096091236 0 0 0 0 874.44891633663792 -96.02564995513967 0 -96.02564995513967 -102.26882977873174 0 0 0 0 521.87696726578724 307.46647088668942 0 307.46647088668942 45.706617519361316 0 0 0 0 301.782200484653 35.973180831821082 0 35.973180831821082 1.0021585508293356 0 0 0 0 159.00135475002753 129.2414827415887 0 129.2414827415887 89.849133653282479 0 0 0 0 -50.147156506995088 -0.12261394283632399 0 -0.12261394283632399 54.129436920866283 0 0 0 0 85.950652535102563 137.38028451372884 0 137.38028451372884 99.997246296694357 0 0 0 0 156.43655878753452 106.82073868337898 0 106.82073868337898 -97.969522855011746 0 0 0 0 -26.868209952808684 51.066476485113526 0 51.066476485113526 132.10592168237417 0 0 0 0 7.0590479258016217 9.5300363563798669 0 9.5300363563798669 3.0329684421596212 0 0 0 0 124.11310422120732 94.320643548537191 0 94.320643548537191 64.351558379890776 0 0 0 0 147.76841390354093 210.19532140345837 0 210.19532140345837 46.889249687060556 0 0 0 0 228.45303572443663 -139.54527626655545 0 -139.54527626655545 -53.807481754972741 0 0 0 0 8.643022380233333 1.2073944079481862 0 1.2073944079481862 -3.2886242699771131 0 0 0 0 -610.41573755379068 -887.18880302269099 0 -887.18880302269099 -1310.1208839274623 0 0 0 0 404.94007544024498 294.58677404957416 0 294.58677404957416 -11.501073873674613 0 0 0 0 -160.11760285672062 -6.3586612644503475 0 -6.3586612644503475 55.701453291523649 0 0 0 0 -6.2620416917060879 0.7103029201113884 0 0.7103029201113884 -0.1642678595964675 0 0 0 0 92.885599038578221 214.72064937318373 0 214.72064937318373 -151.3312714353051 0 0 0 0 37.968490652856417 -114.52351398051542 0 -114.52351398051542 -1.7472229078157397 0 0 0 0 -12.752678036038901 8.5673995960015077 0 8.5673995960015077 -0.79686521199710114 0 0 0 0 43.754460270953132 -230.43508400906649 0 -230.43508400906649 527.02143591335971 0 0 0 0 90.333561339182779 333.27204042124504 0 333.27204042124504 424.0579689614342 0 0 0 0 -25.606559389641916 169.0867750970956 0 169.0867750970956 264.56643222914136 0 0 0 0 10.47567471023649 44.00992014419171 0 44.00992014419171 -16.766269659536192 0 0 0 0 -23.129780769341551 14.31590455858364 0 14.31590455858364 24.226764089531002 0 0 0 0 -18.086963706009556 14.623818947409745 0 14.623818947409745 26.106740427378099 0 0 0 0 -19.874706565431438 26.640898337173795 0 26.640898337173795 17.54885582693575 0 0 0 0 -5.5129788710217724 40.142096676401636 0 40.142096676401636 17.657464815889441 0 0 0 0 -102.65388118036208 115.0380064487108 0 115.0380064487108 -195.15121937078948 0 0 0 0 22.479550048854435 241.99658871349675 0 241.99658871349675 -447.2140231954254 0 0 0 0 -43.464198528236011 274.50413234963344 0 274.50413234963344 -135.89263212645892 0 0 0 0 -147.75266272871522 181.89169533327367 0 181.89169533327367 217.92771281799651 0 0 0 0 -57.113512872527281 154.90066528035095 0 154.90066528035095 72.895143727568211 0 0 0 0 -71.207983949105255 15.427678060688777 0 15.427678060688777 249.20100645685488 0 0 0 0 -94.66673107931274 92.759259545055102 0 92.759259545055102 424.02299703593599 0 0 0 0 -32.344432713092829 -102.43259269926966 0 -102.43259269926966 474.81073718413245 0 0 0 0 9.4765628254390322 -6.0033229859764106 0 -6.0033229859764106 625.7690444136897 0 0 0 0 -94.451715239840269 26.202520960645415 0 26.202520960645415 580.95645324060752 0 0 0 0 -40.973538783946424 19.517982005292652 0 19.517982005292652 761.32040804362623 0 0 0 0 31.744503756926861 -118.5443524933562 0 -118.5443524933562 648.59933912413544 0 0 0 0 62.994069213746116 -52.050868242920842 0 -52.050868242920842 754.07986281768535 0 0 0 0 126.49048586023855 -160.58299083751081 0 -160.58299083751081 745.12039467396971 0 0 0 0 146.9014501615311 -111.68172900153149 0 -111.68172900153149 825.75778848299342 0 0 0 0 98.284303329652175 -51.454835049473331 0 -51.454835049473331 682.13694928702171 0 0 0 0 100.09238433872815 -88.338817958604523 0 -88.338817958604523 618.14336745356559 0 0 0 0 117.14340464252746 -48.0998718606279 0 -48.0998718606279 485.08625262527494 0 0 0 0 40.34251333141583 -119.59813357389066 0 -119.59813357389066 608.30760933924466 0 0 0 0 13.161359066143632 -59.012984279601369 0 -59.012984279601369 488.73022955139459 0 0 0 0 102.11435830507253 -7.7709801520941255 0 -7.7709801520941255 509.07796652254183 0 0 0 0 206.39736012424692 -128.1294053190577 0 -128.1294053190577 578.61905986088823 0 0 0 0 198.90632165013812 -50.218389068275428 0 -50.218389068275428 584.12366605331044 0 0 0 0 193.91386562856496 -148.18303240427122 0 -148.18303240427122 633.96385423930769 0 0 0 0 160.64068606231012 -86.661701185606944 0 -86.661701185606944 815.49989801230549 0 0 0 0 250.96310985882883 -263.86609929567567 0 -263.86609929567567 882.39889490518544 0 0 0 0 -620.30359277286334 -18.250609835355135 0 -18.250609835355135 1214.6712667260035 0 0 0 0 40.148387236638627 15.316352186377713 0 15.316352186377713 -0.49111191092559991 0 0 0 0 303.19914617200266 135.7005059749099 0 135.7005059749099 15.357146358692262 0 0 0 0 -22.795301300851861 114.94089448340674 0 114.94089448340674 -54.505358184271245 0 0 0 0 24.137728347574011 13.099340239343292 0 13.099340239343292 69.610018654024316 0 0 0 0 -13.008891237215039 22.218323186717299 0 22.218323186717299 0.61849282044462939 0 0 0 0 27.732209117792081 92.957711442431901 0 92.957711442431901 -44.97267363478386 0 0 0 0 33.425908443838125 89.250932858862143 0 89.250932858862143 29.437697875990125 0 0 0 0 32.931367841214524 75.370912511338247 0 75.370912511338247 -0.986285451304866 0 0 0 0 -16.250712748558726 40.0999590502106 0 40.0999590502106 70.120735676195181 0 0 0 0 6.8519546777242795 71.348387362151698 0 71.348387362151698 57.974269485981495 0 0 0 0 -33.654506896694329 27.806014549870014 0 27.806014549870014 17.414893249221294 0 0 0 0 -2.0969782713337395 20.704874372103419 0 20.704874372103419 11.727949384285814 0 0 0 0 -1.5901667731523048 24.570227437958238 0 24.570227437958238 -1.2770461386862735 0 0 0 0 4.3915694267835761 24.771091070114323 0 24.771091070114323 10.67406152146663 0 0 0 0 -91.268411888740957 210.45104336168515 0 210.45104336168515 -40.102979716393747 0 0 0 0 -167.09128236801189 157.67688187308158 0 157.67688187308158 75.304760061684647 0 0 0 0 -176.78363816324418 -91.766975859571176 0 -91.766975859571176 13.219330954678298 0 0 0 0 24.723389092039923 22.31591583486788 0 22.31591583486788 3.5306647873375425 0 0 0 0 150.38622026603844 -205.51101519645226 0 -205.51101519645226 500.15377121503116 0 0 0 0 -337.61776302335784 65.317543643854151 0 65.317543643854151 -37.510256035253406 0 0 0 0 109.4542219224968 80.902478903044539 0 80.902478903044539 -221.27276043366874 0 0 0 0 0.78194286758443354 3.004136246035884 0 3.004136246035884 2.9782237267731944 0 0 0 0 -158.88348207809031 -240.59239559853086 0 -240.59239559853086 474.01033178920625 0 0 0 0 -70.613388789195596 125.24453573854532 0 125.24453573854532 -34.091346937289927 0 0 0 0 -71.965773155447096 46.640706886602857 0 46.640706886602857 297.07015522084839 0 0 0 0 -96.253185854991898 83.818084917467786 0 83.818084917467786 -95.069503908205661 0 0 0 0 -79.733540992776398 -130.16224444778345 0 -130.16224444778345 261.43394345803245 0 0 0 0 -61.879740000003949 -76.313311797464848 0 -76.313311797464848 -158.1063171712085 0 0 0 0 -108.19822769635357 -33.576772351298132 0 -33.576772351298132 576.41862730057983 0 0 0 0 -74.800983739783987 2.7668444843875477 0 2.7668444843875477 426.11071595831891 0 0 0 0 -50.533575572480913 -69.405198024061974 0 -69.405198024061974 275.3800908091489 0 0 0 0 -112.97242218704196 -85.044613154583203 0 -85.044613154583203 640.82958691655949 0 0 0 0 -170.81932734738803 -143.04029005533084 0 -143.04029005533084 648.48045466688927 0 0 0 0 -131.02392967234482 57.537329598570068 0 57.537329598570068 851.2938159862897 0 0 0 0 -133.97804467462993 84.648355968687611 0 84.648355968687611 827.06193980081298 0 0 0 0 -122.11914566108317 -110.08621505765041 0 -110.08621505765041 1033.1701458259486 0 0 0 0 -91.039684272185696 243.85363105672513 0 243.85363105672513 1196.6733432069886 0 0 0 0 32.773865589377237 -165.51248791508988 0 -165.51248791508988 1359.9498391696543 0 0 0 0 320.22979655786185 37.572528653097834 0 37.572528653097834 46.797293234989411 0 0 0 0 3.3509709254779807 5.5256458458761699 0 5.5256458458761699 4.7932944862738225 0 0 0 0 474.04801265991409 156.02832656934879 0 156.02832656934879 -17.017002576700179 0 0 0 0 15.97485884889727 3.1785868943310334 0 3.1785868943310334 1.7999325618110689 0 0 0 0 285.76713339864364 350.13371590330826 0 350.13371590330826 1565.6752496327936 0 0 0 0 96.847737819436588 895.17313945250498 0 895.17313945250498 2148.9967607717626 0 0 0 0 1447.4611765127047 131.41328515829809 0 131.41328515829809 -59.196875898665439 0 0 0 0 301.92566849770083 666.81468138832133 0 666.81468138832133 1236.1445354737807 0 0 0 0 1137.6679569144617 1266.4699355949706 0 1266.4699355949706 1466.9957094767014 0 0 0 0 -20.382753310346743 552.85816446627359 0 552.85816446627359 1468.3306106083855 0 0 0 0 67.045028915337753 -147.28582676652695 0 -147.28582676652695 -71.529955529087033 0 0 0 0 -146.08514492473478 50.110861585651037 0 50.110861585651037 39.928462741318071 0 0 0 0 4.5964033910312168 4.6240046687598237 0 4.6240046687598237 -1.1432605185474358 0 0 0 0 1661.7067758587364 387.18300364807146 0 387.18300364807146 -262.73301241421177 0 0 0 0 1298.2164507585912 998.95768152487244 0 998.95768152487244 -62.088533963571535 0 0 0 0 242.76696419378277 962.44890242070142 0 962.44890242070142 170.14999263696518 0 0 0 0 1636.014211415546 262.92514393379679 0 262.92514393379679 29.126770590512024 0 0 0 0 551.18451830514459 -1205.2395811396827 0 -1205.2395811396827 912.45573594924645 0 0 0 0 -859.7079564905107 -719.08370135342375 0 -719.08370135342375 1159.7614429317291 0 0 0 0 1949.5909594637051 618.50807084304506 0 618.50807084304506 569.77085008265567 0 0 0 0 856.54566110298765 -34.472440856019603 0 -34.472440856019603 414.26818285926129 0 0 0 0 239.65361857620155 -11.845489506350532 0 -11.845489506350532 -32.738358673628682 0 0 0 0 26.618179737004908 -15.044582143538051 0 -15.044582143538051 44.923023807023156 0 0 0 0 137.53145947379414 -71.650648410626374 0 -71.650648410626374 33.614820400171311 0 0 0 0 123.7605748281112 15.760138086772486 0 15.760138086772486 104.86912444646805 0 0 0 0 202.35029231049703 -192.90736578631368 0 -192.90736578631368 -174.61137066068113 0 0 0 0 405.47297356857598 82.203943405762402 0 82.203943405762402 3.6328165077607082 0 0 0 0 -1.8365032508796304 -6.1362745639483194 0 -6.1362745639483194 36.241181352184199 0 0 0 0 -37.095318869531184 451.21148843101719 0 451.21148843101719 259.52898503274628 0 0 0 0 332.25968532529077 25.806626196601428 0 25.806626196601428 173.52898676555742 0 0 0 0 288.2245478705081 -39.928519092732586 0 -39.928519092732586 110.53429924025477 0 0 0 0 1271.9896989054614 -24.708859849357395 0 -24.708859849357395 -158.23237731745394 0 0 0 0 1.4671914619762134 0.043328923703086275 0 0.043328923703086275 12.266985717588973 0 0 0 0 652.23993538244395 47.80997056833985 0 47.80997056833985 166.0152852349579 0 0 0 0 586.58017159351584 534.20951701292324 0 534.20951701292324 189.18637397365819 0 0 0 0 736.22806052229134 299.82682752192159 0 299.82682752192159 283.99066942687205 0 0 0 0 1253.6117299791258 840.76332844325771 0 840.76332844325771 228.45346842336221 0 0 0 0 98.014766989617783 272.76878198510258 0 272.76878198510258 321.50799572479445 0 0 0 0 259.15157738923153 449.37156713383956 0 449.37156713383956 417.52614470062872 0 0 0 0 151.4782798810229 79.768545897229842 0 79.768545897229842 47.031879217422102 0 0 0 0 -17.967836340374902 8.9188448210669904 0 8.9188448210669904 0.14122580509721061 0 0 0 0 -1.3834800362509583 23.022980291287695 0 23.022980291287695 28.502897340828142 0 0 0 0 347.0171999897866 218.62793427874203 0 218.62793427874203 111.25386809467182 0 0 0 0 13.323319726478076 -1.6268516574091336 0 -1.6268516574091336 8.6822664320861804 0 0 0 0 -4.8978047359050834 -7.2105993541808857 0 -7.2105993541808857 62.693119179544738 0 0 0 0 3.5724496687974892 8.8880506202445417 0 8.8880506202445417 1.2010830292645238 0 0 0 0 1030.0076820482209 302.17605466958867 0 302.17605466958867 -24.00997235466275 0 0 0 0 331.54538957416662 257.22306769077295 0 257.22306769077295 33.285969884795122 0 0 0 0 492.01630542022031 355.37192481418151 0 355.37192481418151 91.948638773508719 0 0 0 0 4999.7833122654702 718.55350344104056 0 718.55350344104056 -652.32558186382198 0 0 0 0 3761.3098534210731 1043.9781127050549 0 1043.9781127050549 -316.51534276060579 0 0 0 0 3819.1887181118509 702.02993084770731 0 702.02993084770731 -167.46217846226486 0 0 0 0 316.10365724540316 -214.82627225838303 0 -214.82627225838303 40.734664035340188 0 0 0 0 115.30439175518404 115.47492928620881 0 115.47492928620881 -9.0338671117685863 0 0 0 0 8.4188673241296783 -150.64923944673808 0 -150.64923944673808 47.36135857234558 0 0 0 0 289.61358384424966 75.388257178173006 0 75.388257178173006 -26.791080034258357 0 0 0 0 4.8103126446085582 -2.4381891856386346 0 -2.4381891856386346 -0.20818317486142046 0 0 0 0 3722.0874031796266 725.05078596203157 0 725.05078596203157 -80.576757709729122 0 0 0 0 3313.7881896347244 809.85162689247716 0 809.85162689247716 -97.293592385095451 0 0 0 0 2079.1574604411726 -49.577584758302123 0 -49.577584758302123 26.835778406656459 0 0 0 0 30.328493413605401 0.056566968777531201 0 0.056566968777531201 -2.6528422058695407 0 0 0 0 2062.1328083623157 115.61255335888006 0 115.61255335888006 100.57355521038369 0 0 0 0 28.090815284005743 30.937644569581465 0 30.937644569581465 2.3752042057448737 0 0 0 0 3989.1816311650764 162.63062492976604 0 162.63062492976604 -608.26246552693226 0 0 0 0 4082.843534327083 263.96916712996978 0 263.96916712996978 -591.00429154001199 0 0 0 0 4946.315563664888 -23.197807754378971 0 -23.197807754378971 -611.19148412625248 0 0 0 0 4999.0117194566419 -204.97168601262641 0 -204.97168601262641 -106.35570403543204 0 0 0 0 5292.6593685033949 34.944215298460705 0 34.944215298460705 1.1623517252040068 0 0 0 0 65.218669470850728 -20.149559742705001 0 -20.149559742705001 28.51556345743963 0 0 0 0 44.872939092150773 12.094664460032888 0 12.094664460032888 0.071234162212797492 0 0 0 0 13.367973924393482 7.8577768474616221 0 7.8577768474616221 -0.39458713172791238 0 0 0 0 6259.1965551958565 -1211.4268001848561 0 -1211.4268001848561 153.03229966749103 0 0 0 0 104.02364062317065 -20.0044811888237 0 -20.0044811888237 9.0053332825082695 0 0 0 0 88.260293611790985 17.034392097017616 0 17.034392097017616 6.8299210187654253 0 0 0 0 53.618384455890919 16.971433719854964 0 16.971433719854964 22.297128122019529 0 0 0 0 21.915361148105603 22.741613175901307 0 22.741613175901307 0.9626368584430075 0 0 0 0 3838.0165413868381 -533.09496337172584 0 -533.09496337172584 -65.261200705357282 0 0 0 0 4093.7430374675969 -798.70576213153288 0 -798.70576213153288 84.538897201182976 0 0 0 0 3402.7753443475558 -707.85815627579075 0 -707.85815627579075 -111.40888865872603 0 0 0 0 50.55961679367465 -9.5134116690996393 0 -9.5134116690996393 27.921048667267442 0 0 0 0 74.898373774936772 23.351876739304686 0 23.351876739304686 2.8379257253805577 0 0 0 0 57.129190486448351 -72.607610479806397 0 -72.607610479806397 84.261284313977342 0 0 0 0 -2.2585641047656395 0.74848652050471287 0 0.74848652050471287 1.0055786649365359 0 0 0 0 132.28305117622949 -19.401081584671083 0 -19.401081584671083 19.727234290994414 0 0 0 0 121.19291523847642 -42.583038271955964 0 -42.583038271955964 54.78211895396295 0 0 0 0 93.203380394905253 -14.208051585354928 0 -14.208051585354928 41.313981315776232 0 0 0 0 106.32957157999044 -10.34449710995094 0 -10.34449710995094 42.748101050313771 0 0 0 0 171.0199492768279 -87.473594598163899 0 -87.473594598163899 79.394508334226614 0 0 0 0 156.57695947223692 -18.682651470394003 0 -18.682651470394003 26.344958315593377 0 0 0 0 208.58963887351274 -26.702584457699253 0 -26.702584457699253 0.18565166132238722 0 0 0 0 333.08243967154704 -118.69378759982845 0 -118.69378759982845 17.455749157972917 0 0 0 0 167.20183464679576 -50.518839555362156 0 -50.518839555362156 28.455385453746352 0 0 0 0 112.4705118710699 -5.7541829796855488 0 -5.7541829796855488 -0.046010072996472577 0 0 0 0 303.8261459840287 17.286844465405846 0 17.286844465405846 0.15265864206053115 0 0 0 0 0.7042033995300585 -0.065782127295648252 0 -0.065782127295648252 -0.23065489222387117 0 0 0 0 477.96742641221499 -81.655528630142882 0 -81.655528630142882 -23.075303778350307 0 0 0 0 691.30891673648148 -186.89829010127187 0 -186.89829010127187 -1.4589920373474641 0 0 0 0 456.54088070433136 -64.916374993667446 0 -64.916374993667446 -19.347638326514897 0 0 0 0 291.50024744821712 -144.88975422094077 0 -144.88975422094077 33.454587320058693 0 0 0 0 0.97493718521104711 -0.0074173554266963038 0 -0.0074173554266963038 -0.4377735555750491 0 0 0 0 143.73433744639624 -30.333246675689907 0 -30.333246675689907 41.830945072151017 0 0 0 0 407.0935652722037 -201.98292300555966 0 -201.98292300555966 91.023805396090836 0 0 0 0 0.95698906501434067 0.082595478429993818 0 0.082595478429993818 -0.3059820026284783 0 0 0 0 507.33427323983051 -99.254947445451549 0 -99.254947445451549 31.880927967032733 0 0 0 0 177.12865166165284 30.867230556051538 0 30.867230556051538 473.79775368329183 0 0 0 0 540.89409548595722 -293.34643673696661 0 -293.34643673696661 198.10198917976072 0 0 0 0 97.543976577086141 -190.91025214234446 0 -190.91025214234446 -105.69630557465825 0 0 0 0 -309.83240531434421 51.804992403626102 0 51.804992403626102 223.61666830883905 0 0 0 0 53.797558470134391 -121.96107435367657 0 -121.96107435367657 202.96808041333779 0 0 0 0 102.97664829780115 -77.41942223003997 0 -77.41942223003997 170.62872917903837 0 0 0 0 15.83984108853474 71.20097442916672 0 71.20097442916672 88.032790188918852 0 0 0 0 -15.056543031998444 53.164924660917791 0 53.164924660917791 84.837345971677223 0 0 0 0 14.592778411213658 60.859687564856927 0 60.859687564856927 9.8234149662794152 0 0 0 0 18.540134532459291 6.9422486978623965 0 6.9422486978623965 -1.7515753065986874 0 0 0 0 84.532780926441774 19.455919592803468 0 19.455919592803468 -3.2219279259099665 0 0 0 0 94.269741230702493 58.13126113852104 0 58.13126113852104 -3.1570546499160628 0 0 0 0 113.15063452890899 11.202259927145235 0 11.202259927145235 -22.977213712046705 0 0 0 0 43.574369835332988 43.881553482222756 0 43.881553482222756 -0.61897602347803549 0 0 0 0 106.33745057397755 71.617586105245437 0 71.617586105245437 11.026984684010415 0 0 0 0 83.727008249836217 142.18624343604927 0 142.18624343604927 -80.577506549621376 0 0 0 0 -89.260125327797141 223.14433952462474 0 223.14433952462474 14.912871505128805 0 0 0 0 -31.978245763748419 153.72267827712471 0 153.72267827712471 52.777386103242748 0 0 0 0 15.172146280708546 13.198106237901982 0 13.198106237901982 1.5130098190334582 0 0 0 0 74.585814094363741 109.97772765749852 0 109.97772765749852 -137.25019092991943 0 0 0 0 92.227287221889128 50.399179906265317 0 50.399179906265317 1.8344248553740954 0 0 0 0 33.933960483524601 58.692676013446601 0 58.692676013446601 29.942328459803242 0 0 0 0 93.335402694574441 55.070805697831247 0 55.070805697831247 20.867461580086456 0 0 0 0 27.451388222926198 6.3239845637340579 0 6.3239845637340579 -29.831566467948118 0 0 0 0 31.454612806307182 4.8903638839525172 0 4.8903638839525172 -7.3395163760898985 0 0 0 0 141.07761368637148 72.204324170842483 0 72.204324170842483 58.400855137984536 0 0 0 0 124.90051071821654 105.08293840932811 0 105.08293840932811 43.847349084560847 0 0 0 0 -219.09576724453655 39.899083330833378 0 39.899083330833378 40.534365785413968 0 0 0 0 -33.863172055251198 133.49588304635017 0 133.49588304635017 58.848431300101765 0 0 0 0 389.42039243230829 280.18612755540289 0 280.18612755540289 -20.199494769703961 0 0 0 0 560.41395964060212 225.47635866001798 0 225.47635866001798 24.24482904566355 0 0 0 0 184.19514739420265 82.710403406315436 0 82.710403406315436 170.45118219949347 0 0 0 0 -55.529429032030748 352.49652377128979 0 352.49652377128979 70.138029114680648 0 0 0 0 2211.4695948954031 -26.257030217258091 0 -26.257030217258091 -222.17871159720909 0 0 0 0 1058.6411703201738 492.84336200876197 0 492.84336200876197 849.67513457780842 0 0 0 0 601.02714949128858 7.5593381645141449 0 7.5593381645141449 359.47659369627814 0 0 0 0 1109.2301393281668 326.30453648148205 0 326.30453648148205 36.350250391095415 0 0 0 0 446.4246980046737 0.6051910451637923 0 0.6051910451637923 -93.524395941735747 0 0 0 0 849.86478730579256 -410.94095737608859 0 -410.94095737608859 -309.34750997672063 0 0 0 0 1223.4948702426955 -401.07643109211733 0 -401.07643109211733 -341.32206371617303 0 0 0 0 959.32359438820276 -687.02527254053712 0 -687.02527254053712 -517.94340540506778 0 0 0 0 1355.5718209924817 -419.17257120911381 0 -419.17257120911381 -346.3127190795376 0 0 0 0 402.72215882311866 118.04956757541413 0 118.04956757541413 -133.86546365655522 0 0 0 0 49.98101929675255 11.822513975868333 0 11.822513975868333 0.63497069550747853 0 0 0 0 444.89733582854387 210.40306146030287 0 210.40306146030287 -1056.0324485997862 0 0 0 0 7.3227003286913828 3.6368055087069706 0 3.6368055087069706 1.5653207300233376 0 0 0 0 -290.76463227416389 -611.63258363593445 0 -611.63258363593445 -520.02054460498744 0 0 0 0 1739.4201254163345 -597.06738072912754 0 -597.06738072912754 216.17005091986931 0 0 0 0 16.012231117161434 3.6572473288760108 0 3.6572473288760108 -0.46369299673050723 0 0 0 0 505.34929272391673 693.44282557947133 0 693.44282557947133 674.92518589713688 0 0 0 0 2.8097141965548644 6.4105339602524509 0 6.4105339602524509 -2.9767826738654666 0 0 0 0 198.58682418492754 35.521079343820858 0 35.521079343820858 156.41737175984679 0 0 0 0 386.29813033135724 383.47970767797716 0 383.47970767797716 221.70993658308061 0 0 0 0 1908.3974914091959 237.95913347853769 0 237.95913347853769 -52.463433586115769 0 0 0 0 1192.8807724653016 -626.13416059185829 0 -626.13416059185829 705.35373632359472 0 0 0 0 731.78670049022185 -103.9204124836574 0 -103.9204124836574 129.16232873000035 0 0 0 0 731.26767315388133 -318.83932069745799 0 -318.83932069745799 167.03971730260741 0 0 0 0 784.08954518933024 231.26489278259515 0 231.26489278259515 -43.851136723532392 0 0 0 0 1116.0252759783762 -26.536311824134927 0 -26.536311824134927 -112.30142317325102 0 0 0 0 683.12772590153327 39.629761129493644 0 39.629761129493644 -119.30635760228884 0 0 0 0 665.67169188056141 57.423133561502517 0 57.423133561502517 -80.916013015721489 0 0 0 0 555.29442870309867 62.766755572691878 0 62.766755572691878 -78.912142038252142 0 0 0 0 563.83946929695958 31.435125888017108 0 31.435125888017108 -0.18675491729495883 0 0 0 0 546.7713523752609 80.390207251922831 0 80.390207251922831 -0.02250224616159037 0 0 0 0 430.54204452702834 178.40683213646977 0 178.40683213646977 -33.880556266581493 0 0 0 0 418.95625703778933 191.1341827553382 0 191.1341827553382 -20.745035026103011 0 0 0 0 602.48948854476839 176.10410014102769 0 176.10410014102769 -58.270228621842364 0 0 0 0 785.6118048480057 234.93127173732972 0 234.93127173732972 -35.234452759853866 0 0 0 0 122.81787425607035 100.14522761619691 0 100.14522761619691 41.017609099814443 0 0 0 0 93.506564406602592 53.246261086179949 0 53.246261086179949 42.156061659478354 0 0 0 0 100.02632539378828 166.09508898257363 0 166.09508898257363 58.875730090981165 0 0 0 0 386.62226423922039 259.42265742268074 0 259.42265742268074 11.999582195107905 0 0 0 0 247.44239078056125 186.86563351369881 0 186.86563351369881 45.819350423274933 0 0 0 0 196.29739688892005 76.628860587982814 0 76.628860587982814 0.15288222214604669 0 0 0 0 379.4400891320729 96.861329262493356 0 96.861329262493356 -0.038214595489634781 0 0 0 0 233.29380895943541 22.738914993437849 0 22.738914993437849 -0.072507032039184405 0 0 0 0 169.79158142446249 72.127545642662824 0 72.127545642662824 46.828802781266319 0 0 0 0 158.17458950428409 22.291338126966281 0 22.291338126966281 66.455827248781958 0 0 0 0 134.04199345305096 11.735961220520039 0 11.735961220520039 23.45140459009599 0 0 0 0 197.84452112221334 38.125033327767952 0 38.125033327767952 25.566780138827511 0 0 0 0 143.34984970031655 69.563417551016599 0 69.563417551016599 -19.229106855141453 0 0 0 0 88.631724878796376 104.8878052369794 0 104.8878052369794 -20.53886256073628 0 0 0 0 94.803121650882531 43.905756063890294 0 43.905756063890294 22.960094478950495 0 0 0 0 65.324888345799991 23.678885432871709 0 23.678885432871709 -53.283556524546043 0 0 0 0 26.187022797443205 85.044159768392177 0 85.044159768392177 -14.184105065307961 0 0 0 0 92.950440846412675 61.802781376410849 0 61.802781376410849 -28.700697389407367 0 0 0 0 14.432383121733437 64.866259068834196 0 64.866259068834196 31.774123274011288 0 0 0 0 53.982365560113976 46.637446566672139 0 46.637446566672139 -12.311358332587758 0 0 0 0 43.606148668040987 28.587308512979575 0 28.587308512979575 -3.3360184797558645 0 0 0 0 -1.8352466877713027 0.62273805632042922 0 0.62273805632042922 -0.92671892407297729 0 0 0 0 59.36784123324469 40.960780748198715 0 40.960780748198715 -49.798372023948787 0 0 0 0 -137.25035387880052 193.94537052485475 0 193.94537052485475 43.554090959266432 0 0 0 0 520.63030887497007 -161.34355723797489 0 -161.34355723797489 -785.4114381161412 0 0 0 0 55.599633241579738 16.857290800550899 0 16.857290800550899 4.2335398809818816 0 0 0 0 197.99237239683862 493.93044830519284 0 493.93044830519284 -731.93050373943402 0 0 0 0 58.114388814967242 25.962718768624654 0 25.962718768624654 -45.08960203851791 0 0 0 0 21.279193001275416 364.74594588962464 0 364.74594588962464 -348.84286784707365 0 0 0 0 51.337844515611721 19.852807239015377 0 19.852807239015377 6.0545946510013033 0 0 0 0 52.335088321982767 30.116651105502228 0 30.116651105502228 -47.733195501583964 0 0 0 0 -0.77609526249540295 0.54727026725586825 0 0.54727026725586825 2.4495205217369467 0 0 0 0 -112.08819504272833 64.320970111905808 0 64.320970111905808 133.52655626062005 0 0 0 0 -88.943345199877513 37.088593442241518 0 37.088593442241518 -66.345429098711065 0 0 0 0 -66.906825332955123 21.003352713552204 0 21.003352713552204 -79.227483178267903 0 0 0 0 -333.44459159710823 327.9227918474644 0 327.9227918474644 304.78537140860863 0 0 0 0 39.127434847912809 -258.73809454720401 0 -258.73809454720401 469.67965481828196 0 0 0 0 653.54527217705618 654.89972774625767 0 654.89972774625767 299.68122974864218 0 0 0 0 -476.99680367409019 1505.1435957722397 0 1505.1435957722397 930.65396942777079 0 0 0 0 -1.1159281117442958 0.29530844185615024 0 0.29530844185615024 5.300919334083396 0 0 0 0 249.16183480541804 -495.09915152627673 0 -495.09915152627673 1143.2971037426578 0 0 0 0 -33.926987131380884 177.18597987798785 0 177.18597987798785 74.488546870823939 0 0 0 0 762.71618334038067 -21.409647396273613 0 -21.409647396273613 -330.73311691475374 0 0 0 0 -577.40709389159747 -66.326136251609796 0 -66.326136251609796 136.09608540088357 0 0 0 0 -182.6836398645537 -688.80745355270369 0 -688.80745355270369 667.11424380297649 0 0 0 0 307.40908893456799 -277.05825837573684 0 -277.05825837573684 196.84109814188014 0 0 0 0 -11.130736998571876 -3.9047576770499859 0 -3.9047576770499859 10.426407488615453 0 0 0 0 7.6095046442205785 -128.43531865357795 0 -128.43531865357795 152.82746960331588 0 0 0 0 -67.403822372594732 -185.60349471805102 0 -185.60349471805102 326.56696923820391 0 0 0 0 -83.574348441921757 46.563395624303212 0 46.563395624303212 133.79706520012041 0 0 0 0 -1.5921018446586572 1.5529184445698547 0 1.5529184445698547 4.9973039552992731 0 0 0 0 -152.67652718843601 -59.79841987433656 0 -59.79841987433656 233.77278940573888 0 0 0 0 43.44086864773999 -99.840268219147674 0 -99.840268219147674 133.49837769048003 0 0 0 0 34.129585208269418 -135.0555163286694 0 -135.0555163286694 264.96685272487684 0 0 0 0 -42.728049936765728 41.752699798152122 0 41.752699798152122 275.21669761309568 0 0 0 0 15.890222190346265 -15.851157348858521 0 -15.851157348858521 1.4008373409457224 0 0 0 0 149.11566471935657 -88.316061496841712 0 -88.316061496841712 163.6960753758085 0 0 0 0 43.699622465748689 14.593739860793335 0 14.593739860793335 85.776436416410888 0 0 0 0 109.41962054315445 -93.566826278706458 0 -93.566826278706458 -76.809153069563763 0 0 0 0 100.68349707124287 4.8414490318784331 0 4.8414490318784331 -1.3786719372905476 0 0 0 0 145.07220849995792 -42.497921900552228 0 -42.497921900552228 -29.084876821168791 0 0 0 0 36.438607850172104 6.1431176479456155 0 6.1431176479456155 -0.30720518137828456 0 0 0 0 176.18751021301068 -34.978271545501173 0 -34.978271545501173 37.384892612171029 0 0 0 0 114.48996056790929 -16.796330355615737 0 -16.796330355615737 39.155014557150864 0 0 0 0 148.66901044888391 -29.012211230288965 0 -29.012211230288965 18.633858789847636 0 0 0 0 39.426013690159095 19.595448969943277 0 19.595448969943277 19.670512310040326 0 0 0 0 84.488776156031236 -46.328806249264517 0 -46.328806249264517 64.105434265374242 0 0 0 0 85.472600598630379 55.719635012690446 0 55.719635012690446 39.906213165069175 0 0 0 0 79.037946751966956 26.423140526874136 0 26.423140526874136 39.993963206196781 0 0 0 0 95.928281424658053 15.509331760463255 0 15.509331760463255 46.398820485782153 0 0 0 0 108.19188665021102 -25.008827517739519 0 -25.008827517739519 28.718629768438859 0 0 0 0 133.77849334768689 -0.81994689910476382 0 -0.81994689910476382 45.431751365896361 0 0 0 0 151.78731763873657 9.674562162184543 0 9.674562162184543 25.810082234911633 0 0 0 0 120.97282569601157 55.491520608348026 0 55.491520608348026 -31.455907612370055 0 0 0 0 149.85764409000268 -2.8188125220376463 0 -2.8188125220376463 -0.72033125662264674 0 0 0 0 207.5748485927179 -360.98408096160688 0 -360.98408096160688 -896.91306515707356 0 0 0 0 33.289263479571673 -217.01903339491219 0 -217.01903339491219 -145.27353055139346 0 0 0 0 159.72216326858643 -4.6520360848303079 0 -4.6520360848303079 -3.4108804951785636 0 0 0 0 20.583459729568858 -297.0157202056364 0 -297.0157202056364 196.4460526153116 0 0 0 0 -69.919178662152262 -480.83711187406738 0 -480.83711187406738 -66.294747804011436 0 0 0 0 974.04886922966398 -184.68269443022291 0 -184.68269443022291 -144.70814773980851 0 0 0 0 1012.0109226888744 229.28108249531033 0 229.28108249531033 -118.05499813757797 0 0 0 0 599.39005772245582 978.08253683197972 0 978.08253683197972 938.91593951191771 0 0 0 0 1498.2253934731416 987.31123185131082 0 987.31123185131082 220.3303290621152 0 0 0 0 130.66932363243666 3.2282681234143347 0 3.2282681234143347 -2.331025898239484 0 0 0 0 984.4695161866257 -456.72039563552698 0 -456.72039563552698 -2268.0840825851938 0 0 0 0 131.92597289965488 272.1845023163292 0 272.1845023163292 -441.71789518542346 0 0 0 0 3.2770208332367474 500.54333177268052 0 500.54333177268052 -68.139962955589908 0 0 0 0 87.441470763413236 58.742583069420277 0 58.742583069420277 -46.845922950031309 0 0 0 0 90.151402801056975 72.595013661618225 0 72.595013661618225 22.770977107223985 0 0 0 0 136.66881511847896 43.948796102144172 0 43.948796102144172 -210.56794663582684 0 0 0 0 37.086502898790059 207.11907054797871 0 207.11907054797871 -40.360895979512577 0 0 0 0 75.124377261307018 56.625623334811422 0 56.625623334811422 99.969866955166481 0 0 0 0 199.91542761403252 77.901172854418746 0 77.901172854418746 92.558877215538814 0 0 0 0 99.402351940065273 50.556718711962731 0 50.556718711962731 154.69974480676251 0 0 0 0 87.926054772498901 92.549249545132056 0 92.549249545132056 126.51242186363288 0 0 0 0 58.320637074350088 67.949766868069048 0 67.949766868069048 88.632332542159247 0 0 0 0 57.841504031181103 67.754260458024874 0 67.754260458024874 108.48173587816359 0 0 0 0 68.496728190504655 136.33379613667344 0 136.33379613667344 62.982696960910062 0 0 0 0 1169.24589868373 -49.396697910146486 0 -49.396697910146486 -356.01398455810158 0 0 0 0 1069.4252356159268 -16.54066361264222 0 -16.54066361264222 -170.41305306895183 0 0 0 0 1480.0020492156982 317.55176686696507 0 317.55176686696507 -628.02964869477955 0 0 0 0 1537.3519247238291 169.89725474427132 0 169.89725474427132 -296.07039745269003 0 0 0 0 1224.7260182882601 369.57529447810271 0 369.57529447810271 -60.570515016051786 0 0 0 0 1063.4391393883561 168.74848229574604 0 168.74848229574604 -267.40662300477641 0 0 0 0 995.68015562725486 15.320128247395132 0 15.320128247395132 -166.0970818649366 0 0 0 0 846.68387032374449 77.373436090995028 0 77.373436090995028 6.7134738356398884 0 0 0 0 192.93112118380304 70.67313888694531 0 70.67313888694531 140.63469576282546 0 0 0 0 285.66476825266727 5.1640914953707124 0 5.1640914953707124 148.31627103776407 0 0 0 0 456.84315699270519 -90.121577081055989 0 -90.121577081055989 93.105607842118616 0 0 0 0 507.50403632773669 -5.8382050241866636 0 -5.8382050241866636 25.062391331573281 0 0 0 0 900.2980298280454 -169.77729739176522 0 -169.77729739176522 -44.226973014532859 0 0 0 0 752.17324331938289 -192.04927765488014 0 -192.04927765488014 -46.87493659561099 0 0 0 0 530.87022044719197 -330.36443002467479 0 -330.36443002467479 148.28096897981186 0 0 0 0 19.568755380198127 -207.49642997017338 0 -207.49642997017338 137.56918569487297 0 0 0 0 73.797334465427411 -43.42452568786252 0 -43.42452568786252 144.64928247411763 0 0 0 0 262.33548129739938 -1.8459017195190199 0 -1.8459017195190199 78.665517033390699 0 0 0 0 181.12902110334835 -24.771869457228831 0 -24.771869457228831 93.421028645342403 0 0 0 0 -480.89934104360873 227.83476710581556 0 227.83476710581556 131.50134543231792 0 0 0 0 730.45254572982958 -614.1255736232572 0 -614.1255736232572 156.61389868987737 0 0 0 0 14.723828371090349 -423.46010096303678 0 -423.46010096303678 243.96163342808057 0 0 0 0 1121.9892122614983 -374.67721768526349 0 -374.67721768526349 -79.733385420121976 0 0 0 0 1081.8189094164991 -447.42519032042134 0 -447.42519032042134 -85.100706421200698 0 0 0 0 1481.8633015511732 -164.82092395966038 0 -164.82092395966038 -336.01517461111246 0 0 0 0 2040.1765302118438 95.163513115760452 0 95.163513115760452 -773.76093351793725 0 0 0 0 1632.9727492026577 -266.73358268136155 0 -266.73358268136155 -477.63938146530541 0 0 0 0 2314.2579498735722 -482.22101235763353 0 -482.22101235763353 -430.48963766273971 0 0 0 0 2330.4464225046104 -753.94789139370539 0 -753.94789139370539 -18.516460043949422 0 0 0 0 1343.5829953339853 -631.00165467961187 0 -631.00165467961187 -5.673772423945934 0 0 0 0 58.831405134953059 9.8343999179031005 0 9.8343999179031005 0.82711499062464811 0 0 0 0 3160.2049452317442 2944.8109019027788 0 2944.8109019027788 2449.6443122558831 0 0 0 0 82.731058783043409 2924.8700515090368 0 2924.8700515090368 2634.8946463277807 0 0 0 0 -1026.6331308623485 846.13927005486221 0 846.13927005486221 715.81941711106992 0 0 0 0 2465.4817812671245 3927.7661276175468 0 3927.7661276175468 -418.14565462301573 0 0 0 0 1073.9098140307178 -650.67258787325943 0 -650.67258787325943 230.72272629133693 0 0 0 0 506.94182693213224 1137.8500859411197 0 1137.8500859411197 433.77291307903306 0 0 0 0 2394.7543449656951 459.90707673811721 0 459.90707673811721 -3342.2443839001317 0 0 0 0 4.8710906751431295 -4.1540740014072242 0 -4.1540740014072242 20.287359683872836 0 0 0 0 -1328.9709879549628 4167.5342223077168 0 4167.5342223077168 4137.991671605012 0 0 0 0 6208.5942125586444 3487.2294060073418 0 3487.2294060073418 547.31708857827743 0 0 0 0 -805.51352714936365 -1214.3123419458493 0 -1214.3123419458493 1340.1775593986504 0 0 0 0 7072.1920069894404 1641.5388373862843 0 1641.5388373862843 408.04869347550994 0 0 0 0 2068.2299710702209 485.84287017320685 0 485.84287017320685 1263.7000957385771 0 0 0 0 1600.5872350731515 1219.5963296488617 0 1219.5963296488617 279.4302292273328 0 0 0 0 -7.6351699928187031 2.773309072453614 0 2.773309072453614 10.218247776971094 0 0 0 0 4064.66441256486 228.60803835661955 0 228.60803835661955 -633.44420725677992 0 0 0 0 1848.5497108303825 1579.8421143200603 0 1579.8421143200603 947.98291857340246 0 0 0 0 40.212148885577335 80.962805914776254 0 80.962805914776254 -244.37557781642317 0 0 0 0 -208.2088821582729 -652.83912954548077 0 -652.83912954548077 -1222.7886323806206 0 0 0 0 158.50596462975955 486.73293924602876 0 486.73293924602876 -761.12206714678905 0 0 0 0 25.506481247761769 40.986299761717731 0 40.986299761717731 37.531553325969767 0 0 0 0 51.038682498445269 41.723400023120121 0 41.723400023120121 -37.640796106730704 0 0 0 0 13.880201986525208 71.461391217894743 0 71.461391217894743 -18.864640264298941 0 0 0 0 9.0681546637571699 4.2195901567755243 0 4.2195901567755243 1.7588734224765687 0 0 0 0 57.402399989572586 39.737759309558896 0 39.737759309558896 -0.37816651845423621 0 0 0 0 63.26518467857386 21.825921825542196 0 21.825921825542196 15.691448747016693 0 0 0 0 64.41283501862199 28.481760424407184 0 28.481760424407184 -10.923212287054866 0 0 0 0 49.212582696549362 45.818410130078519 0 45.818410130078519 -16.229400202795659 0 0 0 0 46.89878279104596 24.397452314618931 0 24.397452314618931 1.818102459941656 0 0 0 0 85.534953310430865 20.450390643895844 0 20.450390643895844 10.995707332385791 0 0 0 0 44.655044536566947 13.12324453503436 0 13.12324453503436 -20.054824941783018 0 0 0 0 81.048676650090783 29.89189864526179 0 29.89189864526179 -4.2504853426798945 0 0 0 0 -75.592220489721512 193.43307479845225 0 193.43307479845225 852.88156743877607 0 0 0 0 107.31214710691711 17.772078457634962 0 17.772078457634962 -11.117447901286141 0 0 0 0 15.523260738453359 6.3910827879496139 0 6.3910827879496139 -3.5230835586801206 0 0 0 0 1882.9353755494412 998.4788938285792 0 998.4788938285792 169.03331484304363 0 0 0 0 1784.461127150862 804.31409845376493 0 804.31409845376493 -200.62507390320752 0 0 0 0 57.783938252207008 39.150991316933869 0 39.150991316933869 -4.1884660102150519 0 0 0 0 6.6161642948249266 5.5799765666618271 0 5.5799765666618271 7.6391581624981768 0 0 0 0 2060.9955575367785 1476.8241980260545 0 1476.8241980260545 435.52998587672482 0 0 0 0 2696.9804646876437 -113.34056046387104 0 -113.34056046387104 69.305649615295806 0 0 0 0 1615.9009445908305 1051.6532327551745 0 1051.6532327551745 214.23862467363688 0 0 0 0 635.89062497002305 298.90343470517792 0 298.90343470517792 325.59404424142667 0 0 0 0 839.29807599844935 -484.55987844210881 0 -484.55987844210881 2421.597940722324 0 0 0 0 676.57195963886625 918.42727120600648 0 918.42727120600648 1357.7302946197042 0 0 0 0 27.406811222921192 10.451657752035263 0 10.451657752035263 1.1181104202551637 0 0 0 0 2769.5969784353656 -353.80718194372321 0 -353.80718194372321 56.283019215918102 0 0 0 0 1711.1585771550599 -1021.318937420629 0 -1021.318937420629 624.53356066664674 0 0 0 0 2098.1493719068239 1412.6489757426334 0 1412.6489757426334 854.67724530167789 0 0 0 0 551.78031269247731 226.10053747806751 0 226.10053747806751 556.78291145677395 0 0 0 0 1127.9632367161976 292.54357069970456 0 292.54357069970456 506.56717890496839 0 0 0 0 669.02168874778954 -199.08285749834005 0 -199.08285749834005 -3.5648598436455359 0 0 0 0 1234.5246203141414 -540.73181214891588 0 -540.73181214891588 -268.8080537981441 0 0 0 0 1446.2546343899448 -265.95644811120928 0 -265.95644811120928 74.464276746174619 0 0 0 0 1250.5046663273533 -724.34089583831451 0 -724.34089583831451 -434.86757629552449 0 0 0 0 -255.21557627129368 -283.41440638965469 0 -283.41440638965469 -165.14742283759369 0 0 0 0 1678.7943086072773 -615.93655185688158 0 -615.93655185688158 -429.75510531355394 0 0 0 0 597.45597817239468 -526.83296354171034 0 -526.83296354171034 -222.21736652076652 0 0 0 0 434.93620275382636 83.193967133534443 0 83.193967133534443 -172.49947330939449 0 0 0 0 135.0564164668649 4.841914058335874 0 4.841914058335874 -307.42107990949535 0 0 0 0 62.126101971545722 11.745405396345404 0 11.745405396345404 -63.695737546907708 0 0 0 0 60.815608823930802 -6.2206082776055212 0 -6.2206082776055212 -8.1398062505740825 0 0 0 0 62.562802370113786 -111.12039187770779 0 -111.12039187770779 -124.49077339697033 0 0 0 0 51.702490325842973 12.051183758707218 0 12.051183758707218 -15.733538635359908 0 0 0 0 934.41150305104384 -702.54813420442406 0 -702.54813420442406 550.53843775562927 0 0 0 0 8.4430257047672228 2.9936945225271074 0 2.9936945225271074 -1.5007163756029485 0 0 0 0 28.499344517535064 4.5076378087087505 0 4.5076378087087505 -21.21575647901409 0 0 0 0 41.547114189314129 -2.2309653352005938 0 -2.2309653352005938 -9.3270607615919729 0 0 0 0 42.024190599767991 16.744127510382157 0 16.744127510382157 -5.9515642317927657 0 0 0 0 91.313470039924141 102.79442582537376 0 102.79442582537376 93.118953015920852 0 0 0 0 3.5720204077277344 1.5971012599990502 0 1.5971012599990502 1.9591352462212726 0 0 0 0 114.39876070525497 -0.73062049612144619 0 -0.73062049612144619 -48.027227892019141 0 0 0 0 69.398582414374687 9.4777502520332746 0 9.4777502520332746 -47.037382108343991 0 0 0 0 80.359588615649443 10.430561655332369 0 10.430561655332369 -5.7427922715031601 0 0 0 0 48.398807837191271 173.41654149942451 0 173.41654149942451 -49.523383029600154 0 0 0 0 307.96868518539122 -41.853654324154377 0 -41.853654324154377 -295.42055581439035 0 0 0 0 50.323384509276366 156.29353959495916 0 156.29353959495916 -158.66535643398311 0 0 0 0 112.26939806224254 -50.013488871682284 0 -50.013488871682284 71.215107460699073 0 0 0 0 42.568463844083794 47.342305946352553 0 47.342305946352553 8.3639682355802236 0 0 0 0 153.23593270801939 7.8757340960601141 0 7.8757340960601141 25.499765918691992 0 0 0 0 -268.22344063909259 137.54375253968647 0 137.54375253968647 172.8176268081188 0 0 0 0 -6.6407562319341196 11.184045766724886 0 11.184045766724886 5.5562305315204528 0 0 0 0 19.810333796973964 9.4686369099190983 0 9.4686369099190983 -3.878922053012495 0 0 0 0 41.273133371229051 57.518206429523161 0 57.518206429523161 8.8638078233270789 0 0 0 0 87.985679178282226 78.891640466383876 0 78.891640466383876 7.7526651338639567 0 0 0 0 74.24652214354137 103.56543779375488 0 103.56543779375488 -145.83284723706038 0 0 0 0 69.426209537617979 10.890136131189138 0 10.890136131189138 -51.466336872375905 0 0 0 0 112.8889887262194 -31.525883161113825 0 -31.525883161113825 -10.141088830304625 0 0 0 0 -82.311059923551511 315.45004719603821 0 315.45004719603821 -263.78328223492645 0 0 0 0 37.660548781917896 40.791623734577115 0 40.791623734577115 -329.1304492419697 0 0 0 0 10.367172081019248 -5.5315388359059625 0 -5.5315388359059625 -4.7538021805881581 0 0 0 0 -2.5955143917817622 178.12893844687278 0 178.12893844687278 -33.677594980673348 0 0 0 0 16.618675497766361 -3.3939526906003721 0 -3.3939526906003721 0.86832301353800645 0 0 0 0 -87.274605709200841 111.74702221780592 0 111.74702221780592 -76.293843272472259 0 0 0 0 173.15875160781434 103.30007650380981 0 103.30007650380981 -318.08101564780327 0 0 0 0 309.05053695681272 -269.47051325355551 0 -269.47051325355551 264.67011890262938 0 0 0 0 -210.60539040644653 202.0847487080282 0 202.0847487080282 128.71898299380427 0 0 0 0 14.156933227445393 3.4253975417204003 0 3.4253975417204003 -5.7411930447972122 0 0 0 0 47.505985720569299 24.941980198775354 0 24.941980198775354 10.400530437706275 0 0 0 0 78.491393241451078 22.864652405136695 0 22.864652405136695 -6.5466927312727421 0 0 0 0 78.128089071207796 26.29108297075868 0 26.29108297075868 -2.5571374660307811 0 0 0 0 43.971881482945889 -14.448783636211516 0 -14.448783636211516 -18.134179271115745 0 0 0 0 93.673050299257739 15.05987664293184 0 15.05987664293184 -33.928800591879735 0 0 0 0 70.544769461906981 30.588789011572771 0 30.588789011572771 12.522931326148409 0 0 0 0 102.23804856066999 39.441762738360126 0 39.441762738360126 -0.98282960215738058 0 0 0 0 95.223409824218834 32.100125168975865 0 32.100125168975865 -1.3604003354967062 0 0 0 0 79.713214940056787 44.904128239458601 0 44.904128239458601 20.753165494730865 0 0 0 0 50.081603219994577 25.02717539753985 0 25.02717539753985 10.790930515397122 0 0 0 0 70.235375858712359 31.380094903511349 0 31.380094903511349 11.913549573499381 0 0 0 0 82.113742382833152 21.826139017015521 0 21.826139017015521 -28.68047106756967 0 0 0 0 47.945840073266027 8.7072405360787286 0 8.7072405360787286 -14.013757691722779 0 0 0 0 50.350739414927375 25.418297955534968 0 25.418297955534968 -14.537681598206291 0 0 0 0 52.096848613816974 21.851487430002521 0 21.851487430002521 3.8477596449148113 0 0 0 0 77.940701062878361 22.836615754247873 0 22.836615754247873 -82.124770587412954 0 0 0 0 43.000787489872891 -42.618897497834041 0 -42.618897497834041 -73.628026322559435 0 0 0 0 60.138927314721514 16.99888311791176 0 16.99888311791176 -43.791617922851856 0 0 0 0 85.932629800809082 44.512553896698819 0 44.512553896698819 -34.443822997347723 0 0 0 0 44.224374265477877 15.582801433353154 0 15.582801433353154 -19.766445227871642 0 0 0 0 46.873167814454064 25.965292421504273 0 25.965292421504273 -36.175061743375409 0 0 0 0 82.596046185339219 14.734884112570398 0 14.734884112570398 -28.689235611904223 0 0 0 0 50.487529098900268 41.906888351091766 0 41.906888351091766 -31.974395497047226 0 0 0 0 55.78355444243914 16.743845815912522 0 16.743845815912522 -12.207000901625188 0 0 0 0 23.663277771218958 -9.8491078639276566 0 -9.8491078639276566 -38.047513471550417 0 0 0 0 67.024017386036576 13.264822688966888 0 13.264822688966888 -25.626146365886143 0 0 0 0 82.602340719517088 21.365881074726985 0 21.365881074726985 -31.726032470327937 0 0 0 0 66.406731065129861 19.778644124676248 0 19.778644124676248 -26.682130410211357 0 0 0 0 87.575920553004835 25.890790962608662 0 25.890790962608662 -28.346190242229568 0 0 0 0 167.67028657843184 21.41479822811948 0 21.41479822811948 -28.116533257537412 0 0 0 0 76.982784742329386 29.264545421156754 0 29.264545421156754 0.061754586251481669 0 0 0 0 -13.403098975410103 0.51697161869174124 0 0.51697161869174124 13.865971988762283 0 0 0 0 -25.59484078270907 1611.8128389812487 0 1611.8128389812487 8425.7430905749461 0 0 0 0 4050.5636366106046 3082.6716240021478 0 3082.6716240021478 -3006.4894276573809 0 0 0 0 -42.759415403415119 -266.73368130484266 0 -266.73368130484266 2589.1463652818447 0 0 0 0 2026.3724871367958 -57.293547362687832 0 -57.293547362687832 -306.67683466802305 0 0 0 0 3514.7641851727676 165.00933406262959 0 165.00933406262959 -301.61970970370555 0 0 0 0 16.834411959270739 -19.327376332651426 0 -19.327376332651426 6.7465014159203678 0 0 0 0 2166.4210926708765 -187.02598562337585 0 -187.02598562337585 -659.09643723790759 0 0 0 0 1985.9642138920026 200.18581671577658 0 200.18581671577658 -959.54045884111019 0 0 0 0 2182.8754505662432 219.87430275722866 0 219.87430275722866 -1372.7834217834102 0 0 0 0 1750.1882377623697 864.64457723914984 0 864.64457723914984 -1474.5110533890252 0 0 0 0 -42.411098382086493 61.494962516162559 0 61.494962516162559 18.782900375645113 0 0 0 0 42.137992059448152 86.93473250544514 0 86.93473250544514 64.427118388825875 0 0 0 0 48.786602606774352 17.187556507397638 0 17.187556507397638 9.0845736319346972 0 0 0 0 501.28104096959578 56.570542797584494 0 56.570542797584494 -67.448765313474269 0 0 0 0 -170.48945910969633 90.230275144097504 0 90.230275144097504 15.711597071114568 0 0 0 0 -134.18507365560254 -25.960383067962937 0 -25.960383067962937 -20.315434734518021 0 0 0 0 -48.923750741887488 60.976626672772454 0 60.976626672772454 -54.248371965159095 0 0 0 0 5.6789543041830939 2.484812034777562 0 2.484812034777562 21.131140212698803 0 0 0 0 1036.9132651028121 812.81947958730461 0 812.81947958730461 -112.15241126163983 0 0 0 0 1161.9427916483837 882.24059963736045 0 882.24059963736045 -257.91654387125504 0 0 0 0 1241.3391594457207 571.70905953178999 0 571.70905953178999 -66.395840495456923 0 0 0 0 1214.0264456155419 470.55990414959547 0 470.55990414959547 -360.09054984844261 0 0 0 0 1434.1597595772182 723.70844609456685 0 723.70844609456685 -690.52913484385545 0 0 0 0 1540.2302665236057 514.60501059332728 0 514.60501059332728 -361.12092222289368 0 0 0 0 1849.7835657531105 240.16079888325794 0 240.16079888325794 -614.78212287645852 0 0 0 0 1778.4845713651157 350.23971500259381 0 350.23971500259381 -782.05048689558475 0 0 0 0 1549.7137412689044 773.18621535669354 0 773.18621535669354 -700.88587019170564 0 0 0 0 1943.6096122252056 597.66043333087578 0 597.66043333087578 -1109.1962124013771 0 0 0 0 1331.1427429674077 1086.3521742201747 0 1086.3521742201747 -1145.4186873996127 0 0 0 0 1106.4317531708803 1033.386605938394 0 1033.386605938394 -665.33356576622282 0 0 0 0 190.70958466608135 1.231724120568515 0 1.231724120568515 -128.19392353631611 0 0 0 0 140.84519222467497 84.193747837041201 0 84.193747837041201 177.07264354375775 0 0 0 0 -7.1421070300093561 -24.789769867557879 0 -24.789769867557879 0.16951397518778322 0 0 0 0 229.49746668818989 80.022467085665539 0 80.022467085665539 -32.081542027200811 0 0 0 0 2.3027653932543899 -0.094278765325412905 0 -0.094278765325412905 -2.2689133911730153 0 0 0 0 186.11382717722154 208.4534608919912 0 208.4534608919912 45.378846931690987 0 0 0 0 0.12359654486289173 3.9054937922510291 0 3.9054937922510291 0.31061327849108711 0 0 0 0 87.986163563415175 2.306321670998841 0 2.306321670998841 -39.902489026718285 0 0 0 0 -224.32355558531708 -1.7934463413603225 0 -1.7934463413603225 32.92607168059476 0 0 0 0 43.38296885471209 151.97081472236368 0 151.97081472236368 89.109873646992128 0 0 0 0 55.851268885598984 21.552250758723858 0 21.552250758723858 -23.767353439367071 0 0 0 0 7.0221899838027113 5.8345240421870699 0 5.8345240421870699 -21.373291016330686 0 0 0 0 45.683265570964693 21.601498897872489 0 21.601498897872489 -0.29984124245522636 0 0 0 0 100.788915574165 52.485881356490154 0 52.485881356490154 -113.0888965641725 0 0 0 0 25.11817014518023 -12.423303584658584 0 -12.423303584658584 -23.730753967356847 0 0 0 0 14.444540375396173 -48.512033131730789 0 -48.512033131730789 0.14934574032872661 0 0 0 0 13.380819234575029 -15.567821248049313 0 -15.567821248049313 4.9742300845873615 0 0 0 0 45.259725997121677 32.406522137891059 0 32.406522137891059 -18.656040837884042 0 0 0 0 44.699399825680302 -29.459811082897431 0 -29.459811082897431 9.0693107401086763 0 0 0 0 104.39567908385652 -48.944416084653767 0 -48.944416084653767 13.48582025337555 0 0 0 0 111.64203131278191 -18.44109222920406 0 -18.44109222920406 -29.424699439105098 0 0 0 0 34.29360219141995 -2.2031797408609748 0 -2.2031797408609748 -17.306501973177539 0 0 0 0 65.219283784928848 2.5273026259560538 0 2.5273026259560538 -37.950657177216272 0 0 0 0 40.406757234130055 20.259085631830203 0 20.259085631830203 31.360012129947791 0 0 0 0 57.118487855173953 -13.921115882457514 0 -13.921115882457514 -45.979434993828363 0 0 0 0 0.70002963596920154 -2.5626007515761842 0 -2.5626007515761842 -4.5276883077353558 0 0 0 0 90.185746478731744 60.263781038332127 0 60.263781038332127 33.168099695385536 0 0 0 0 1.3289496302622865 1.004062969603865 0 1.004062969603865 0.43432079347497998 0 0 0 0 125.26622892495652 114.70522289533955 0 114.70522289533955 90.516125867317953 0 0 0 0 22.828109144851624 -32.087827669467742 0 -32.087827669467742 139.68736672242562 0 0 0 0 187.95987930821866 62.482815469833383 0 62.482815469833383 -23.378794534440658 0 0 0 0 104.70823277084855 26.925388241011433 0 26.925388241011433 19.72531460068285 0 0 0 0 33.373037230063346 21.746002813234668 0 21.746002813234668 -24.811199684948178 0 0 0 0 49.903840191216517 -5.3371725789231732 0 -5.3371725789231732 -23.184729127673346 0 0 0 0 -666.83926374652947 -547.71365983367878 0 -547.71365983367878 -48.667305560139937 0 0 0 0 70.144855031974942 3.0730210780998206 0 3.0730210780998206 -4.8115219609755462 0 0 0 0 434.43371207800737 642.22208562924266 0 642.22208562924266 -319.10188201118808 0 0 0 0 3.8800816299868188 -2.9309005739873797 0 -2.9309005739873797 -1.9056313218275003 0 0 0 0 2348.0604130187712 919.17661350246999 0 919.17661350246999 413.20691109002303 0 0 0 0 -133.00829474563943 -259.14004663976471 0 -259.14004663976471 169.79721220480474 0 0 0 0 -28.074013856607053 17.659013950667656 0 17.659013950667656 -13.783120030973123 0 0 0 0 82.416972875786058 19.769321117407017 0 19.769321117407017 -8.649673516015028 0 0 0 0 -53.503577106603188 292.54054657649363 0 292.54054657649363 -67.715653603799183 0 0 0 0 244.95357580234122 38.818987880642794 0 38.818987880642794 -205.76452798082346 0 0 0 0 -0.65743428593196995 6.665876564417033 0 6.665876564417033 -5.1998716741188691 0 0 0 0 161.19829862414917 45.923266102112251 0 45.923266102112251 -84.870156600148235 0 0 0 0 263.20611677494162 -107.98725909707042 0 -107.98725909707042 68.988999696352096 0 0 0 0 14.61738982044335 -390.18670512594156 0 -390.18670512594156 100.3842533322011 0 0 0 0 1951.0369777547166 -1431.2534843111271 0 -1431.2534843111271 43.828469307053908 0 0 0 0 2515.7505027512279 462.69591468321323 0 462.69591468321323 -555.92748681672992 0 0 0 0 1708.3086576789538 446.42443493976486 0 446.42443493976486 -330.93792611674792 0 0 0 0 1281.2693200851209 -493.97677116453826 0 -493.97677116453826 40.551760010686522 0 0 0 0 1001.3414680652932 404.11819325099339 0 404.11819325099339 -321.85454374207887 0 0 0 0 1168.7036629539798 317.16748787125283 0 317.16748787125283 -315.71543473364329 0 0 0 0 1080.3949991643476 22.020226685196974 0 22.020226685196974 -204.26044753276949 0 0 0 0 310.5433500045765 -64.804708813229126 0 -64.804708813229126 -28.725494545823437 0 0 0 0 14.165407182775311 -6.9534923373356463 0 -6.9534923373356463 1.3331057013589767 0 0 0 0 4993.6643412045087 630.68762421440249 0 630.68762421440249 -1333.8758678008928 0 0 0 0 719.07448826265318 412.00229163712049 0 412.00229163712049 -186.46640040521203 0 0 0 0 -193.92224367557355 -1209.418689593236 0 -1209.418689593236 826.7681704129717 0 0 0 0 46.503993514605099 -2316.4542311403707 0 -2316.4542311403707 55.686128001376346 0 0 0 0 10.212065786102414 -7.5369772133105926 0 -7.5369772133105926 3.364510277127986 0 0 0 0 4993.9555325961992 -1624.9022170618332 0 -1624.9022170618332 -576.99749834013528 0 0 0 0 2080.1931915240348 447.8748713169021 0 447.8748713169021 -1184.465959370928 0 0 0 0 1351.2922937129406 -1075.7545076952883 0 -1075.7545076952883 644.7905178567903 0 0 0 0 2293.1888012064846 -2820.2928898134546 0 -2820.2928898134546 2116.73362118676 0 0 0 0 871.23715733236168 -1269.7038578526535 0 -1269.7038578526535 797.97189525705255 0 0 0 0 -322.29011764796087 -769.4193358463101 0 -769.4193358463101 44.137448623314867 0 0 0 0 20.203601188039556 6.0626570760299217 0 6.0626570760299217 2.5572163629711469 0 0 0 0 74.984256118689757 17.171258936150309 0 17.171258936150309 4.4939928307132488 0 0 0 0 113.43840998962696 35.383974115727142 0 35.383974115727142 13.024206390076415 0 0 0 0 871.92274472383724 42.857466809065045 0 42.857466809065045 221.55613989268295 0 0 0 0 -856.70925031018851 -775.29135543946768 0 -775.29135543946768 3271.8742900428779 0 0 0 0 18.204513049935684 1.0953695296312986 0 1.0953695296312986 13.42144979363713 0 0 0 0 4983.8604340581078 8.1500099546264089 0 8.1500099546264089 22.31644553545711 0 0 0 0 3.2410632559210626 2.258386682505261 0 2.258386682505261 18.065005828951108 0 0 0 0 8.231815399012703 2.401885375658992 0 2.401885375658992 6.8201742026576921 0 0 0 0 4995.414929020425 2044.2396689103191 0 2044.2396689103191 227.12584616235864 0 0 0 0 4125.7273322666442 2811.6546245758295 0 2811.6546245758295 1401.0781477459384 0 0 0 0 2629.6294145525535 2744.391999144294 0 2744.391999144294 2888.4566328065939 0 0 0 0 13.070532716942409 -2.7528361787233848 0 -2.7528361787233848 -8.0961657906273388 0 0 0 0 112.09636570322255 20.697804919486316 0 20.697804919486316 41.219373114238351 0 0 0 0 116.49061027585412 29.788501970965171 0 29.788501970965171 16.601278685297075 0 0 0 0 108.85224318751716 32.244068240381011 0 32.244068240381011 18.782502415116141 0 0 0 0 96.312895344744902 30.850056867325407 0 30.850056867325407 29.927743712597021 0 0 0 0 91.697061373517499 55.137095668168172 0 55.137095668168172 5.840766107062791 0 0 0 0 37.137069770177902 -14.693904168619042 0 -14.693904168619042 -21.554429655341366 0 0 0 0 97.862351383946589 -13.119322059441103 0 -13.119322059441103 -37.480016193881966 0 0 0 0 114.97772530894144 24.835010885733709 0 24.835010885733709 -98.881862179684049 0 0 0 0 85.886143640032969 3.0094203871890386 0 3.0094203871890386 14.659470221125815 0 0 0 0 225.80271534461644 125.17566614768975 0 125.17566614768975 -58.603562156692078 0 0 0 0 102.46902869682526 64.501763601040807 0 64.501763601040807 65.703226598694528 0 0 0 0 104.59903471698635 66.109680591955453 0 66.109680591955453 -2.9706879385649927 0 0 0 0 2618.1524113931882 586.09156146694932 0 586.09156146694932 -9.8301965472986126 0 0 0 0 221.64184537168148 121.19738240946833 0 121.19738240946833 119.25054505963726 0 0 0 0 2524.2540545489883 948.78707330474299 0 948.78707330474299 168.89129953247016 0 0 0 0 0.8842458215519855 -1.1912771659621058 0 -1.1912771659621058 -4.4130496776055619 0 0 0 0 63.708340461351327 -40.300909816433432 0 -40.300909816433432 -65.708327840651009 0 0 0 0 194.01571355984197 168.38178408502563 0 168.38178408502563 85.654303439460818 0 0 0 0 15.985261514691814 -4.2996638114478287 0 -4.2996638114478287 -21.152521893799232 0 0 0 0 4049.5971147328819 1101.4443367726994 0 1101.4443367726994 -305.59009063947764 0 0 0 0 3521.4953982653242 1702.7704014136534 0 1702.7704014136534 598.7444099739497 0 0 0 0 3593.5514448251124 1784.4006941278913 0 1784.4006941278913 551.2226349073544 0 0 0 0 -236.79766275580914 122.86264119148791 0 122.86264119148791 562.12963083499938 0 0 0 0 -112.66902246366226 -289.80058366975152 0 -289.80058366975152 536.53847711506171 0 0 0 0 57.090275926733739 554.39509693286516 0 554.39509693286516 -176.9270029634377 0 0 0 0 4966.4699895207159 602.79967643113275 0 602.79967643113275 -276.59222482437616 0 0 0 0 5.8172698320711049 -4.9536787657413202 0 -4.9536787657413202 11.739788485139378 0 0 0 0 2195.5406024204713 -1130.558902374881 0 -1130.558902374881 606.22021082352887 0 0 0 0 4973.7055013926692 1242.7412487425995 0 1242.7412487425995 -610.51755121107362 0 0 0 0 11.866630270443721 -1.2416952733674478 0 -1.2416952733674478 5.2936934799979314 0 0 0 0 3.127833550501407 -3.5365584503112046 0 -3.5365584503112046 7.4887707572830822 0 0 0 0 4916.2165859389752 -13.183572468908013 0 -13.183572468908013 22.262973306723559 0 0 0 0 4978.1308379033362 -1127.2519282971703 0 -1127.2519282971703 -908.33041650162704 0 0 0 0 69.467744474794017 48.888200888518128 0 48.888200888518128 617.43560123745681 0 0 0 0 3.9621227389516349 -1.0004172983534572 0 -1.0004172983534572 8.0456283682477299 0 0 0 0 2308.4777164290717 -2108.3794339966444 0 -2108.3794339966444 483.33661098675594 0 0 0 0 6.3595768680479807 1.2790464526144696 0 1.2790464526144696 16.605350461797155 0 0 0 0 8.5419732865702827 -5.8633327770548931 0 -5.8633327770548931 19.125445176129006 0 0 0 0 369.61112826058525 375.13121938916527 0 375.13121938916527 -342.32573226808671 0 0 0 0 30.191679113085428 -21.258601652758522 0 -21.258601652758522 6.7389854610535203 0 0 0 0 499.72067569062347 -309.15338059896851 0 -309.15338059896851 -500.01117451722405 0 0 0 0 38.616787115937768 -29.243033377767915 0 -29.243033377767915 41.089391365120719 0 0 0 0 13.238656223948936 -9.4538459430602515 0 -9.4538459430602515 23.222146118180593 0 0 0 0 36.588655312886999 -18.549094889123609 0 -18.549094889123609 6.2681049568248781 0 0 0 0 28.865587533960934 -20.257659484394026 0 -20.257659484394026 35.524004595359656 0 0 0 0 62.535149835734046 -32.106568382409023 0 -32.106568382409023 17.86339546376837 0 0 0 0 69.901652690597075 -47.337966617214988 0 -47.337966617214988 79.923954337922623 0 0 0 0 51.790053660809718 -37.460460225067223 0 -37.460460225067223 42.844890711423687 0 0 0 0 -93.074196090397891 -190.10945183310946 0 -190.10945183310946 -92.534573736489079 0 0 0 0 54.385895885550468 -30.65888543533805 0 -30.65888543533805 13.102707510568754 0 0 0 0 50.776626560224486 -309.17475273275704 0 -309.17475273275704 -201.01580267112149 0 0 0 0 139.4253113407143 -57.011732012775497 0 -57.011732012775497 16.279445907877339 0 0 0 0 -28.893557641832103 -29.912541247233094 0 -29.912541247233094 325.0302264392194 0 0 0 0 -72.864720772247438 -142.45231521937785 0 -142.45231521937785 111.61243054779152 0 0 0 0 -171.79006771519607 -431.04339907208487 0 -431.04339907208487 175.1782408496365 0 0 0 0 38.764962074717914 -87.909198096876935 0 -87.909198096876935 28.639818544310401 0 0 0 0 142.01277703458618 -79.931005159081565 0 -79.931005159081565 53.178565119954101 0 0 0 0 384.0563834028053 -217.52340012844385 0 -217.52340012844385 105.18794412069929 0 0 0 0 14.159877819727626 12.296865655815061 0 12.296865655815061 248.16691956626602 0 0 0 0 27.449843754392326 -8.2407382263594826 0 -8.2407382263594826 -1.6152078006238713 0 0 0 0 69.20740695809971 9.6465575722528545 0 9.6465575722528545 1.5237521789771369 0 0 0 0 -176.70915269279067 151.90583785267046 0 151.90583785267046 155.13493525031799 0 0 0 0 467.76660121790337 -64.284837173536175 0 -64.284837173536175 -187.82318304214181 0 0 0 0 371.08924560347441 160.23738120326198 0 160.23738120326198 22.531442968249848 0 0 0 0 -187.02816870797687 -124.50036923733484 0 -124.50036923733484 288.28731524724003 0 0 0 0 14.33666397908928 172.32782351966983 0 172.32782351966983 611.58902694211838 0 0 0 0 299.43840521175298 22.456402452072183 0 22.456402452072183 475.19140071363677 0 0 0 0 371.78017049454502 1270.9799990665658 0 1270.9799990665658 2177.379202841606 0 0 0 0 1086.5118173141454 -807.30523531486608 0 -807.30523531486608 623.08924669687599 0 0 0 0 29.189254423309166 7.0407846100986964 0 7.0407846100986964 3.7153599005573086 0 0 0 0 1967.8999465257366 2476.7149282667551 0 2476.7149282667551 2972.1586567279737 0 0 0 0 4987.5157578973158 2431.061657744151 0 2431.061657744151 809.89927501675436 0 0 0 0 5005.5035925046031 1046.5534464449929 0 1046.5534464449929 -526.44297603300515 0 0 0 0 2955.6256880903093 1209.0452295592415 0 1209.0452295592415 104.98056312908835 0 0 0 0 2921.1615729399427 1467.546336140387 0 1467.546336140387 479.32000492812188 0 0 0 0 1397.966835615538 660.58323424090349 0 660.58323424090349 337.62563468678184 0 0 0 0 2361.0625248968099 1002.3639292387882 0 1002.3639292387882 135.95152253941882 0 0 0 0 2918.5452176826057 173.9059009791448 0 173.9059009791448 -565.96059170720389 0 0 0 0 4984.1653517301093 -1161.0737177686901 0 -1161.0737177686901 -699.72942668812152 0 0 0 0 2302.9773552490224 176.85896093679929 0 176.85896093679929 -551.65941125217319 0 0 0 0 2306.3782179238842 273.86463281021616 0 273.86463281021616 -346.50661294330223 0 0 0 0 911.09629412740469 269.15219338342774 0 269.15219338342774 -140.0923168122979 0 0 0 0 548.26898799961054 -1052.758029736797 0 -1052.758029736797 -652.82681111602551 0 0 0 0 298.31698274370137 183.5280875390892 0 183.5280875390892 19.69205960847205 0 0 0 0 -55.590132046949293 20.628115249334201 0 20.628115249334201 151.61280508261098 0 0 0 0 -0.31711688591461495 -0.17629669020530514 0 -0.17629669020530514 -6.9970254874144313 0 0 0 0 796.53237948325113 52.330271520674046 0 52.330271520674046 -207.4766096083813 0 0 0 0 875.84473038224678 389.15627381107862 0 389.15627381107862 -218.4037830734444 0 0 0 0 1090.8548762276187 113.4624347351201 0 113.4624347351201 -57.112872521518625 0 0 0 0 1152.803714693131 343.22658959598112 0 343.22658959598112 -246.43712104605237 0 0 0 0 987.01391112395504 371.62406405227171 0 371.62406405227171 -304.75758791646228 0 0 0 0 761.81392490465805 608.77035282132158 0 608.77035282132158 -48.551832077207337 0 0 0 0 233.29639824751939 124.20660992796346 0 124.20660992796346 20.787079943362549 0 0 0 0 163.51845113281797 601.38381525909085 0 601.38381525909085 47.778110561506082 0 0 0 0 1.3090263262704411 1.1924319888109807 0 1.1924319888109807 -1.5619470839837386 0 0 0 0 1101.1656162631189 804.08960442767477 0 804.08960442767477 300.89350085698214 0 0 0 0 1277.542958005848 324.42332136931032 0 324.42332136931032 -145.46898085438062 0 0 0 0 410.05218516296372 256.23628632190264 0 256.23628632190264 528.50875077748617 0 0 0 0 937.59051923579682 1078.7046391795814 0 1078.7046391795814 1317.5204014931264 0 0 0 0 191.21416085507735 373.29052098470794 0 373.29052098470794 346.37087242288868 0 0 0 0 270.79294519767427 489.35798449533888 0 489.35798449533888 446.96746635483993 0 0 0 0 243.23088828488108 322.61779132266304 0 322.61779132266304 382.32250282310133 0 0 0 0 -3.9126915055899261 7.9695261144591285 0 7.9695261144591285 7.9285126750950132 0 0 0 0 220.22823427389085 199.40965279179321 0 199.40965279179321 231.34127402004847 0 0 0 0 202.66601362318761 74.53718231439143 0 74.53718231439143 -8.2420022732640064 0 0 0 0 571.8029966869326 293.19449756327538 0 293.19449756327538 121.25147779343872 0 0 0 0 371.81358770630322 454.50356549805019 0 454.50356549805019 374.1050600602432 0 0 0 0 431.32046792144683 571.61945853447162 0 571.61945853447162 384.57781787642892 0 0 0 0 486.42400907695992 548.52461863501753 0 548.52461863501753 451.22473045910147 0 0 0 0 357.79984944561147 -137.04329314449114 0 -137.04329314449114 88.766812109407226 0 0 0 0 555.51117144283489 392.22601222042113 0 392.22601222042113 443.35973266035478 0 0 0 0 1286.9308889638414 836.18808396442887 0 836.18808396442887 371.98002999781676 0 0 0 0 791.6079796574777 411.15850778623667 0 411.15850778623667 175.14179217424592 0 0 0 0 151.82175736423233 263.0207318190246 0 263.0207318190246 667.1549672488984 0 0 0 0 186.74923984226916 925.57222776242907 0 925.57222776242907 1148.7623908525611 0 0 0 0 -81.138875014003133 -74.357073082021998 0 -74.357073082021998 15.707047077179595 0 0 0 0 288.20254711240705 358.72099851856387 0 358.72099851856387 121.2393452054157 0 0 0 0 1.4486338183451437 1.1755099437347525 0 1.1755099437347525 -2.0944166240018536 0 0 0 0 272.74061676155543 275.49635789216427 0 275.49635789216427 61.579340960987793 0 0 0 0 974.44067506797728 462.35183513648531 0 462.35183513648531 1087.6119012380204 0 0 0 0 897.96464357119476 144.40948966857948 0 144.40948966857948 231.53852985018784 0 0 0 0 1023.3545447156066 423.93377625669143 0 423.93377625669143 384.32369157528069 0 0 0 0 1163.0025725764572 577.26076393663425 0 577.26076393663425 -47.709583934915145 0 0 0 0 1083.3814577168669 471.55854856571187 0 471.55854856571187 453.94955533776692 0 0 0 0 1568.8167425719585 399.08721888346122 0 399.08721888346122 317.25362226459856 0 0 0 0 1889.0979031556635 1002.6507696940266 0 1002.6507696940266 653.55449974434509 0 0 0 0 -0.81433029937238643 0.42333052662641535 0 0.42333052662641535 6.7522172996773584 0 0 0 0 -2330.907520082299 474.69034211287521 0 474.69034211287521 315.21351755164528 0 0 0 0 -110.15963453834411 -8.6746900358277799 0 -8.6746900358277799 -132.69508138357196 0 0 0 0 -690.33919754321687 -429.99408515641107 0 -429.99408515641107 87.39388927957566 0 0 0 0 -423.17811806179816 170.17255662632056 0 170.17255662632056 1427.371559903298 0 0 0 0 -0.81385518428286474 1.641134003960147 0 1.641134003960147 6.4955883891362376 0 0 0 0 -1260.8849433460855 -1007.2286714290808 0 -1007.2286714290808 424.34833890217715 0 0 0 0 638.08484437078005 563.93965029563037 0 563.93965029563037 1711.118781097621 0 0 0 0 -2319.8537295680653 627.34048887447318 0 627.34048887447318 2399.7734591530061 0 0 0 0 436.53037689426856 -190.64867665728093 0 -190.64867665728093 682.00230665619983 0 0 0 0 993.44115572693408 -70.878661215920602 0 -70.878661215920602 482.35762688521208 0 0 0 0 751.85877871772391 -357.56267692465667 0 -357.56267692465667 154.5437044033124 0 0 0 0 748.36929380812217 653.98961406183093 0 653.98961406183093 -256.25084500519733 0 0 0 0 386.68442864391727 -306.66926580279653 0 -306.66926580279653 821.57455405779865 0 0 0 0 1257.5200063510274 -421.00659434638123 0 -421.00659434638123 138.70604955835779 0 0 0 0 210.82063009640842 276.79788727662753 0 276.79788727662753 -733.47704061991112 0 0 0 0 -686.6863352010223 366.29125999287828 0 366.29125999287828 257.81134388881947 0 0 0 0 111.03584975128615 283.75362514995072 0 283.75362514995072 -178.62993911466833 0 0 0 0 305.08600947476043 713.25733406945687 0 713.25733406945687 358.49984604915289 0 0 0 0 521.56975987225087 275.61870221036298 0 275.61870221036298 -620.3468570058742 0 0 0 0 -63.56058304488397 -234.17588618293291 0 -234.17588618293291 76.886504406291351 0 0 0 0 3.475627713132269 13.588794696737727 0 13.588794696737727 2.7721893606905774 0 0 0 0 156.97960100349155 -24.283377427448841 0 -24.283377427448841 25.467728320376864 0 0 0 0 171.80683152371785 290.60314708142005 0 290.60314708142005 315.64506131062649 0 0 0 0 501.16985307726281 247.82822528363818 0 247.82822528363818 -201.25726219795388 0 0 0 0 12.554716990081943 50.867538457468982 0 50.867538457468982 129.42500855518892 0 0 0 0 8.348637350014922 14.912270576058589 0 14.912270576058589 -5.1529684118659365 0 0 0 0 53.416120752286588 -25.888569762036781 0 -25.888569762036781 16.419614273924253 0 0 0 0 83.014528335000961 18.547719859524339 0 18.547719859524339 -2.9922009688735556 0 0 0 0 129.03594410588994 28.73133562472367 0 28.73133562472367 -106.88526834891763 0 0 0 0 86.19376693587401 100.78058573173792 0 100.78058573173792 -86.626990675555021 0 0 0 0 128.54149234812212 7.5756208803857135 0 7.5756208803857135 18.470028765561096 0 0 0 0 62.40513099420059 98.232155287066973 0 98.232155287066973 -4.0123771251960534 0 0 0 0 33.813902619871129 48.252017382903773 0 48.252017382903773 1.3514681462794735 0 0 0 0 75.188660979714768 21.336444707066335 0 21.336444707066335 71.418949407685204 0 0 0 0 -119.69254985216685 103.91715135048265 0 103.91715135048265 116.49795438549381 0 0 0 0 147.36792041748413 -60.34161336194893 0 -60.34161336194893 121.98041497268898 0 0 0 0 1001.4105912588684 176.04523074899589 0 176.04523074899589 -560.21829526262445 0 0 0 0 173.46935185829952 -32.786232236942432 0 -32.786232236942432 -3.3310806614904074 0 0 0 0 -338.73530566473437 161.05463975115708 0 161.05463975115708 594.19138726629171 0 0 0 0 3.8735369151842569 19.7118489780357 0 19.7118489780357 -7.5709803698730456 0 0 0 0 1030.5915499839621 -130.81779573855965 0 -130.81779573855965 -142.14695610622584 0 0 0 0 595.62712636385004 -302.97650850322498 0 -302.97650850322498 227.91503408242716 0 0 0 0 813.73060555545089 -317.34467729113385 0 -317.34467729113385 -63.969228167719848 0 0 0 0 901.38911082141931 -99.910263820835098 0 -99.910263820835098 -23.524397361958108 0 0 0 0 916.69271235052656 193.00265250617667 0 193.00265250617667 216.22083017732439 0 0 0 0 126.40828805900537 5.7354014219941973 0 5.7354014219941973 -80.37174373338712 0 0 0 0 61.623102497668015 9.1218886772104497 0 9.1218886772104497 -109.60519760677198 0 0 0 0 -73.039099521753087 17.209305616612255 0 17.209305616612255 -93.64952747289135 0 0 0 0 109.57772746810018 47.426640432140935 0 47.426640432140935 -58.772488868804459 0 0 0 0 200.01973683374672 -115.50047193350474 0 -115.50047193350474 147.55279555554444 0 0 0 0 -15.963203995241201 48.300395249731082 0 48.300395249731082 24.444554160480038 0 0 0 0 60.381060385056756 28.124657510268111 0 28.124657510268111 -20.942120876909648 0 0 0 0 -0.1718785710738473 11.015136216901759 0 11.015136216901759 -1.5707811382756423 0 0 0 0 400.03044789769774 -94.036093158676522 0 -94.036093158676522 3.6412324475120386 0 0 0 0 66.495094915659138 0.059431791491078911 0 0.059431791491078911 -153.09017355324485 0 0 0 0 67.938529144965287 54.512965911118044 0 54.512965911118044 -30.353059506161117 0 0 0 0 61.670680546241996 -2.4187283522983023 0 -2.4187283522983023 -4.2177661320292525 0 0 0 0 86.966861482167488 7.0611314697773118 0 7.0611314697773118 -10.544878306478919 0 0 0 0 70.729589097129065 64.091773317108164 0 64.091773317108164 -85.849958359194261 0 0 0 0 91.629520453729867 1.5742665360896382 0 1.5742665360896382 -5.4836699882438307 0 0 0 0 99.537833746163813 -10.779760362536596 0 -10.779760362536596 -6.3173725454690528 0 0 0 0 92.15727126816239 -62.799053662339077 0 -62.799053662339077 -132.1774890223096 0 0 0 0 71.919039275409887 -6.1472048784489743 0 -6.1472048784489743 -111.35023098787406 0 0 0 0 240.83925416690909 -48.633310772349432 0 -48.633310772349432 -102.55307485394678 0 0 0 0 127.80530493636616 -6.886038400392863 0 -6.886038400392863 -57.906537797199576 0 0 0 0 5.4449519310102801 -4.4777469569774198 0 -4.4777469569774198 -0.71824647133725072 0 0 0 0 77.649864073762728 -36.073409222582086 0 -36.073409222582086 6.7614782712626038 0 0 0 0 126.02467939164541 -12.396163188675123 0 -12.396163188675123 -3.6933885836302363 0 0 0 0 144.09702770578588 -157.35989978127679 0 -157.35989978127679 -277.68977111296681 0 0 0 0 239.50677641350194 -57.798825798250618 0 -57.798825798250618 3.9825899686763933 0 0 0 0 350.66511395521229 -330.47074829713313 0 -330.47074829713313 -152.15811212725544 0 0 0 0 152.96319619954804 1.821958427300272 0 1.821958427300272 -3.3309303482784038 0 0 0 0 493.77689578560967 310.92716551475144 0 310.92716551475144 -143.0646885103406 0 0 0 0 377.81748796012835 126.97139015747314 0 126.97139015747314 -356.88282825765714 0 0 0 0 29.951547500725155 -5.8298207055840834 0 -5.8298207055840834 8.892697138978523 0 0 0 0 88.014567204372725 -32.266437450937872 0 -32.266437450937872 58.766306618265276 0 0 0 0 178.80653380845615 -29.336740183524626 0 -29.336740183524626 -16.198992932683268 0 0 0 0 88.252618538852829 -16.311795723330558 0 -16.311795723330558 0.39224205043907689 0 0 0 0 89.934178159717703 -11.853716804488613 0 -11.853716804488613 -15.189657692298738 0 0 0 0 93.48848241046413 -10.331788391869907 0 -10.331788391869907 -17.555467045108113 0 0 0 0 37.25623270952201 9.3416383876992768 0 9.3416383876992768 -17.072590839228724 0 0 0 0 105.00729988947106 -4.2042011079714001 0 -4.2042011079714001 -17.116819006667029 0 0 0 0 67.648308188174269 3.7982936847110977 0 3.7982936847110977 -123.92266041905117 0 0 0 0 169.03448117195512 -16.241633576104505 0 -16.241633576104505 -1.1365572661460703 0 0 0 0 32.077970914469915 18.0579049879575 0 18.0579049879575 -21.856273214802968 0 0 0 0 64.00448524786043 -9.5398334693381912 0 -9.5398334693381912 -28.456744773309765 0 0 0 0 33.979213569458807 -75.820411558499472 0 -75.820411558499472 59.478296066383336 0 0 0 0 88.90038757349248 -12.767031574645898 0 -12.767031574645898 -14.726934345584596 0 0 0 0 107.3475998461378 -28.211653717328389 0 -28.211653717328389 -13.262574068476056 0 0 0 0 73.395107424288227 1.2447321267941263 0 1.2447321267941263 -20.050518206350265 0 0 0 0 70.859067774845016 -4.8261716280507869 0 -4.8261716280507869 -29.595552583112294 0 0 0 0 81.764817669420154 -3.1857787846930137 0 -3.1857787846930137 -45.318178952267772 0 0 0 0 195.25560750638374 -24.353857310579901 0 -24.353857310579901 -32.454402672671783 0 0 0 0 53.102981925751607 -2.8677576450011451 0 -2.8677576450011451 -16.858590082068257 0 0 0 0 83.985633263517045 30.990513001306809 0 30.990513001306809 -29.788781480505826 0 0 0 0 22.115385649657505 -6.4397082764419977 0 -6.4397082764419977 -9.1443657393982818 0 0 0 0 65.347807828537043 -7.1491857792134397 0 -7.1491857792134397 -118.03921474289018 0 0 0 0 48.606680011147347 3.2747803785990435 0 3.2747803785990435 -12.992311959833311 0 0 0 0 42.507392638529552 -20.903650811303169 0 -20.903650811303169 -5.3363205665568287 0 0 0 0 36.218670235488389 2.8728481245479998 0 2.8728481245479998 -53.770384073959576 0 0 0 0 83.528867452202547 25.388512486406349 0 25.388512486406349 -21.50345419882678 0 0 0 0 163.99924319848651 -62.613931129283948 0 -62.613931129283948 -18.995490016134582 0 0 0 0 -205.18299559563457 113.40457670684549 0 113.40457670684549 -48.115023558877198 0 0 0 0 262.14356999130541 -51.015155071617016 0 -51.015155071617016 -95.969941415093217 0 0 0 0 -0.49044625794466867 14.572011102623161 0 14.572011102623161 -8.6655836464442366 0 0 0 0 105.9677667405827 -42.796934950321429 0 -42.796934950321429 -10.4001973327951 0 0 0 0 154.47428711682733 -16.001543395967474 0 -16.001543395967474 -12.38162339079372 0 0 0 0 167.01590788655085 -42.491692353427652 0 -42.491692353427652 -18.860076311550074 0 0 0 0 75.301014803513681 -9.2108230624697498 0 -9.2108230624697498 -5.5016710966353521 0 0 0 0 192.74784964465107 -20.593757121653425 0 -20.593757121653425 -17.965663210777166 0 0 0 0 203.25003131978156 -39.448155800433049 0 -39.448155800433049 -29.668984456529252 0 0 0 0 163.66613494770354 27.785783428397679 0 27.785783428397679 -79.327746124642317 0 0 0 0 90.92204342650399 -4.4446225651058295 0 -4.4446225651058295 -3.4626662903139307 0 0 0 0 106.17629060161198 43.747469243314299 0 43.747469243314299 -3.5621023118878838 0 0 0 0 83.229110359538026 -69.347210608501882 0 -69.347210608501882 12.139071689357479 0 0 0 0 144.16021100727085 -63.111462688883705 0 -63.111462688883705 -57.889522616333011 0 0 0 0 92.817631222841527 -25.547931521619297 0 -25.547931521619297 -3.9782835037915349 0 0 0 0 80.11887288907019 -29.381581337015632 0 -29.381581337015632 -26.247752047064466 0 0 0 0 148.48978384044926 -20.536932862268745 0 -20.536932862268745 1.0222185027021184 0 0 0 0 103.91202847894237 -31.662116990243248 0 -31.662116990243248 56.147183177503848 0 0 0 0 115.17315211462846 9.706068327999219 0 9.706068327999219 49.098422302416566 0 0 0 0 127.96918952002497 -17.074747519594567 0 -17.074747519594567 5.0438678767409773 0 0 0 0 190.56464343061089 78.185406248167737 0 78.185406248167737 -53.671629545891278 0 0 0 0 143.58278551394687 77.312467119876885 0 77.312467119876885 213.29518430496796 0 0 0 0 125.63475031405324 -119.14611329861407 0 -119.14611329861407 46.556538510916425 0 0 0 0 296.58786854699792 -94.972446702430005 0 -94.972446702430005 -100.30511902079979 0 0 0 0 789.29493222212477 379.49029703649876 0 379.49029703649876 -15.574344179628724 0 0 0 0 0.89674719792282076 -4.5826707492563088 0 -4.5826707492563088 5.7567329519572752 0 0 0 0 1118.5900263628937 -344.99952162374331 0 -344.99952162374331 -773.02468142735825 0 0 0 0 -59.930215371743543 -405.88016365934709 0 -405.88016365934709 -79.560569374313445 0 0 0 0 512.57807415208663 692.29399974461921 0 692.29399974461921 644.59678728290419 0 0 0 0 -102.04861491534393 -445.56026718947373 0 -445.56026718947373 -55.27933355048981 0 0 0 0 -68.040234045940451 -450.88303159252132 0 -450.88303159252132 116.1753799597891 0 0 0 0 304.52553279836138 -415.24492757840312 0 -415.24492757840312 -122.61984821574629 0 0 0 0 -164.64259497687453 -171.69748849343199 0 -171.69748849343199 -241.90008271502745 0 0 0 0 243.3535951799131 -200.87322998400964 0 -200.87322998400964 -477.68859648719246 0 0 0 0 170.17468805512181 -59.892908963531966 0 -59.892908963531966 -261.30113863476379 0 0 0 0 96.796962482490926 -24.250935220700626 0 -24.250935220700626 -270.79953190700508 0 0 0 0 205.81225327993161 -32.958026274856593 0 -32.958026274856593 -478.69766741678472 0 0 0 0 144.34728244211874 82.444635483064587 0 82.444635483064587 -262.58570781962408 0 0 0 0 -182.69142703084799 -116.39483784288871 0 -116.39483784288871 10.057889368005021 0 0 0 0 23.542507235582818 -0.51291900246033606 0 -0.51291900246033606 -9.427921591260926 0 0 0 0 666.05779898003675 -679.39324727782127 0 -679.39324727782127 -38.575739407055835 0 0 0 0 -13.425932515019667 -271.70151885117912 0 -271.70151885117912 765.23252456145065 0 0 0 0 17.351063192677259 -4.5643256776411008 0 -4.5643256776411008 1.818266124307188 0 0 0 0 845.43362477342453 354.58344054065208 0 354.58344054065208 102.65317827359968 0 0 0 0 1392.6120348074182 -68.475954033589176 0 -68.475954033589176 29.040809642135628 0 0 0 0 913.154988678667 149.91007020845586 0 149.91007020845586 21.261013039313347 0 0 0 0 12.583090590720531 182.04528812992839 0 182.04528812992839 255.1059709196636 0 0 0 0 635.97784667645828 220.8022595659906 0 220.8022595659906 116.85832736554721 0 0 0 0 226.16832981159678 139.98409755833154 0 139.98409755833154 173.62235427898747 0 0 0 0 539.92691181813279 178.44836390605377 0 178.44836390605377 127.20151344087571 0 0 0 0 627.42056092506391 51.256641550352924 0 51.256641550352924 24.662520000913617 0 0 0 0 871.16519726792467 234.91152557896339 0 234.91152557896339 113.36429437008064 0 0 0 0 717.00504087693844 56.027356588618886 0 56.027356588618886 132.44670054309836 0 0 0 0 932.64390758788795 221.9768803519014 0 221.9768803519014 -49.352791854805304 0 0 0 0 24.443922218735679 9.6270020141173518 0 9.6270020141173518 88.326851995214838 0 0 0 0 47.213680872693658 42.518519182955515 0 42.518519182955515 107.46270312938987 0 0 0 0 55.575393671169877 19.446849969231152 0 19.446849969231152 162.31890725596475 0 0 0 0 203.88971331903304 111.32564743596788 0 111.32564743596788 151.15105058085783 0 0 0 0 170.6959074393817 26.500338569028145 0 26.500338569028145 185.28084052097358 0 0 0 0 119.21928061975632 80.124190966074593 0 80.124190966074593 148.32554586228707 0 0 0 0 33.54778306431399 26.307545834416402 0 26.307545834416402 193.72232471113557 0 0 0 0 6.5761630371125648 -137.78045206408183 0 -137.78045206408183 67.824827995874102 0 0 0 0 99.665902506560087 -99.105913416849262 0 -99.105913416849262 -119.97620491663361 0 0 0 0 27.834510361964931 8.9556889148343544 0 8.9556889148343544 5.6001986361125091 0 0 0 0 26.50354613372474 -48.599673959434313 0 -48.599673959434313 87.606679531284954 0 0 0 0 -103.4154397761813 -157.08148616640165 0 -157.08148616640165 29.017939834209756 0 0 0 0 -0.27890605412540026 -185.27994753385201 0 -185.27994753385201 -88.857901205219605 0 0 0 0 48.143443455438074 -12.701590717071333 0 -12.701590717071333 3.0037251903265245 0 0 0 0 -41.098094439745182 -325.81539493926221 0 -325.81539493926221 -138.40695771392211 0 0 0 0 -117.72627784358338 -334.17469984480908 0 -334.17469984480908 141.60979606926094 0 0 0 0 -2.1849675286703132 -247.51991949611772 0 -247.51991949611772 2.9806922016432509 0 0 0 0 452.86108030877222 -230.35391733724168 0 -230.35391733724168 -69.702518025593236 0 0 0 0 -253.38167455531948 25.418813772174872 0 25.418813772174872 250.70751300402299 0 0 0 0 -5.5745893452487323 1.9877338385064434 0 1.9877338385064434 -1.334408120722534 0 0 0 0 -170.98659499714267 -348.09491863545804 0 -348.09491863545804 19.205792385731456 0 0 0 0 -33.279533620079746 -313.74460936152809 0 -313.74460936152809 -3.4967597847321485 0 0 0 0 -110.74670559331571 -323.63789013127553 0 -323.63789013127553 25.968045532696124 0 0 0 0 319.48655013881944 -41.741014223821026 0 -41.741014223821026 59.478644198496113 0 0 0 0 187.7905330278445 -139.71792761507299 0 -139.71792761507299 8.9150235085267013 0 0 0 0 193.83572003569861 -66.903151550813163 0 -66.903151550813163 -28.610101773143015 0 0 0 0 145.49436401015555 -26.978591223325338 0 -26.978591223325338 82.868690808963947 0 0 0 0 91.688376731792232 -105.24395773788319 0 -105.24395773788319 -2.2681590414886159 0 0 0 0 36.212802969828772 -216.23928302003424 0 -216.23928302003424 -221.66807630294306 0 0 0 0 131.26200009792228 -44.721608396227566 0 -44.721608396227566 -94.102975102547134 0 0 0 0 194.20374119489134 -166.26395754104306 0 -166.26395754104306 -469.20704568505653 0 0 0 0 197.89800133895187 -325.37111373126572 0 -325.37111373126572 -8.3143971908612002 0 0 0 0 116.35428080058773 -162.00939881969862 0 -162.00939881969862 -125.88721703464216 0 0 0 0 113.90148340624 21.61885440749802 0 21.61885440749802 -276.122182760535 0 0 0 0 5.0590305198893475 -31.181202016239183 0 -31.181202016239183 45.066391502209171 0 0 0 0 59.94308885330247 -40.182791601414237 0 -40.182791601414237 -22.998018714399223 0 0 0 0 73.374149323456379 -16.142760040890629 0 -16.142760040890629 3.0764125004291074 0 0 0 0 82.069009215309052 -3.8939999200786133 0 -3.8939999200786133 6.7003712305690897 0 0 0 0 72.920947077276651 -13.604231583695253 0 -13.604231583695253 25.202402137511854 0 0 0 0 52.816780880573788 10.893662271420453 0 10.893662271420453 52.784385074290554 0 0 0 0 44.621345511535765 -11.27980947743356 0 -11.27980947743356 32.547178575975749 0 0 0 0 150.18960868342083 -60.970858015418585 0 -60.970858015418585 23.023295212019093 0 0 0 0 129.08199399450677 -27.049368472286233 0 -27.049368472286233 1.410132317559146 0 0 0 0 102.33983723066052 -26.810909894035277 0 -26.810909894035277 12.23900576861776 0 0 0 0 102.52863543867716 -44.935366574275918 0 -44.935366574275918 37.555820885459525 0 0 0 0 101.78450291116314 -39.363775370872645 0 -39.363775370872645 7.817699611659009 0 0 0 0 108.53033972444246 -30.207713191006405 0 -30.207713191006405 19.876844709375973 0 0 0 0 116.44056161187473 -36.387642617822166 0 -36.387642617822166 -3.599896752627501 0 0 0 0 146.38167052637436 33.073604204276307 0 33.073604204276307 -413.79569090355108 0 0 0 0 91.660072921935637 -23.109443138610061 0 -23.109443138610061 4.7073145677250983 0 0 0 0 171.79263917273784 -105.91801290291005 0 -105.91801290291005 -473.4983429171557 0 0 0 0 158.85163348872447 -265.68696748580078 0 -265.68696748580078 -535.04055975483971 0 0 0 0 15.049364189032673 7.4490048716798398 0 7.4490048716798398 -6.1588289712587603 0 0 0 0 -7.6783419696897681 -19.120283509965198 0 -19.120283509965198 6.9254002772380501 0 0 0 0 108.18221749748773 -22.134376037256288 0 -22.134376037256288 -435.11591999131997 0 0 0 0 565.27516218502569 120.08105444127568 0 120.08105444127568 -428.35158232721551 0 0 0 0 91.432060957515205 -196.8438369385135 0 -196.8438369385135 68.212279314797343 0 0 0 0 485.45718088612193 -113.89550984058269 0 -113.89550984058269 -494.81431071905865 0 0 0 0 9.8645896752432236 -63.123903348219301 0 -63.123903348219301 -120.03809480928612 0 0 0 0 65.927328706321532 21.758728748119751 0 21.758728748119751 261.13111489058338 0 0 0 0 96.168134960578755 -140.89796704687569 0 -140.89796704687569 -78.2549845788526 0 0 0 0 187.16825959298876 -4.7219779440627008 0 -4.7219779440627008 85.982256520542592 0 0 0 0 94.262515034857643 5.5457194647794097 0 5.5457194647794097 112.41318017287176 0 0 0 0 313.18408857323811 198.35957863469741 0 198.35957863469741 188.57896343212411 0 0 0 0 683.8950451045821 -56.301309731194806 0 -56.301309731194806 29.478791187523257 0 0 0 0 268.79276914655202 -11.1635819143454 0 -11.1635819143454 26.446810621303257 0 0 0 0 304.45863244657812 35.588959176453045 0 35.588959176453045 3.3672083566982565 0 0 0 0 280.11660235281306 -19.577773879517508 0 -19.577773879517508 -58.060887958657304 0 0 0 0 229.3929432944351 34.583975137047787 0 34.583975137047787 102.83685018475251 0 0 0 0 153.32286357834528 5.5947746871682966 0 5.5947746871682966 111.76418564479093 0 0 0 0 188.45980678156047 -48.446819977330165 0 -48.446819977330165 92.495422058475469 0 0 0 0 217.38754539220827 -40.25788775367343 0 -40.25788775367343 79.299807287498481 0 0 0 0 222.17164910022984 -70.616687985981542 0 -70.616687985981542 103.09285512059461 0 0 0 0 276.18440883731091 -51.540567233945012 0 -51.540567233945012 22.853154971415734 0 0 0 0 38.380479951386249 -10.308819598299337 0 -10.308819598299337 -6.8086055620163748 0 0 0 0 293.6598391996813 -85.676453779989515 0 -85.676453779989515 50.911454178107078 0 0 0 0 262.21748221227608 -23.030077009663387 0 -23.030077009663387 -15.590337840472557 0 0 0 0 207.5049545984657 -8.4439100078017191 0 -8.4439100078017191 55.146408650966691 0 0 0 0 214.42412335131667 -39.157074280900702 0 -39.157074280900702 78.926719570847808 0 0 0 0 251.48071803040511 -2.672929883642837 0 -2.672929883642837 48.829848267493389 0 0 0 0 267.21253335900917 -35.583669207734005 0 -35.583669207734005 -2.3815361236710477 0 0 0 0 260.19542638470375 -504.52558268932648 0 -504.52558268932648 -311.47483318674682 0 0 0 0 155.9098324943443 -33.903637146759252 0 -33.903637146759252 -22.176886616313482 0 0 0 0 29.214598399101725 -61.58334901540659 0 -61.58334901540659 -2.6807461235498939 0 0 0 0 71.283098348170824 -125.9842233656497 0 -125.9842233656497 41.30946056578388 0 0 0 0 60.687087724994335 -27.354163426616779 0 -27.354163426616779 -14.05267367593396 0 0 0 0 14.83594775194797 -33.379561525974168 0 -33.379561525974168 -4.6195402670339867 0 0 0 0 -16.669659457380476 -154.33788739959917 0 -154.33788739959917 241.93231788718816 0 0 0 0 -8.6930942004228058 -30.091630179018374 0 -30.091630179018374 9.0081874268026887 0 0 0 0 17.9788033575255 -20.541773703760686 0 -20.541773703760686 1.271091217687855 0 0 0 0 0.82966736309242606 -0.6535694031558279 0 -0.6535694031558279 1.0056392361508699 0 0 0 0 227.5670099955787 -407.08798709983802 0 -407.08798709983802 747.41390106943072 0 0 0 0 521.24134890119603 -641.00684960991998 0 -641.00684960991998 411.3951053588396 0 0 0 0 10.355052844845332 -3.0354128695426432 0 -3.0354128695426432 0.83967029686727335 0 0 0 0 211.5413484151718 4.9053156942859886 0 4.9053156942859886 1071.028786310545 0 0 0 0 224.12829255243196 -150.10079691675674 0 -150.10079691675674 1201.897559778768 0 0 0 0 811.21101274586908 182.10406464445828 0 182.10406464445828 232.07999315915617 0 0 0 0 151.19936987673714 -405.80996909133853 0 -405.80996909133853 -209.84290059079603 0 0 0 0 232.7821384717638 267.94407134183257 0 267.94407134183257 -201.9952878717495 0 0 0 0 266.17113366024489 -21.811474752215528 0 -21.811474752215528 1.0481869174825333 0 0 0 0 170.4850478737369 82.284424828240105 0 82.284424828240105 -135.30230755000503 0 0 0 0 737.09501962353897 -324.3681875070879 0 -324.3681875070879 -1227.6169218217437 0 0 0 0 417.01546789448912 171.5362930836377 0 171.5362930836377 -67.70849162417835 0 0 0 0 492.64174636213647 175.31547896431312 0 175.31547896431312 -68.451882060847652 0 0 0 0 553.72807961735452 89.444925217318087 0 89.444925217318087 -185.4190506584514 0 0 0 0 610.22587354595817 141.35800514917287 0 141.35800514917287 -172.78585392862391 0 0 0 0 465.375317311858 -73.841641543525029 0 -73.841641543525029 323.43674114680744 0 0 0 0 464.37996912308353 193.68187395577533 0 193.68187395577533 192.17277964032746 0 0 0 0 479.99701583809656 225.49334574343902 0 225.49334574343902 687.69795170046154 0 0 0 0 822.64809053198769 -287.70769551327112 0 -287.70769551327112 550.23385497303479 0 0 0 0 299.77586044022974 214.42503693707022 0 214.42503693707022 197.71878890990695 0 0 0 0 717.52043606154893 102.67366038383255 0 102.67366038383255 68.840099377551724 0 0 0 0 577.2730525554357 315.42903875665309 0 315.42903875665309 58.646971398713504 0 0 0 0 13.855903310877398 -5.5256505137983254 0 -5.5256505137983254 -11.382100926792434 0 0 0 0 24.552804876628215 28.868123144569381 0 28.868123144569381 109.23930716424638 0 0 0 0 54.941773535076209 68.087616399539456 0 68.087616399539456 112.95069130217053 0 0 0 0 51.990424464527678 45.484610371468193 0 45.484610371468193 61.780335147834194 0 0 0 0 -61.902748102726036 -126.27898078626288 0 -126.27898078626288 -76.308806464936424 0 0 0 0 416.51956941123353 193.77760852181018 0 193.77760852181018 13.184538130404235 0 0 0 0 95.678160955059866 169.55920282393708 0 169.55920282393708 209.70737776122405 0 0 0 0 75.350279377207698 -53.327455529389226 0 -53.327455529389226 -37.867536448193277 0 0 0 0 43.132910091320667 -25.654224991455386 0 -25.654224991455386 5.0334435770752535 0 0 0 0 59.311073961971488 -34.391634196804034 0 -34.391634196804034 -1.8389845384899672 0 0 0 0 76.935164879869262 -24.263382049920892 0 -24.263382049920892 -14.193518853085152 0 0 0 0 33.777968265900881 -34.660029594639468 0 -34.660029594639468 -12.513267361792714 0 0 0 0 252.67858322123357 -15.542902902822789 0 -15.542902902822789 -387.77564365420039 0 0 0 0 9.2815527150295338 -7.7436638138806941 0 -7.7436638138806941 -4.0943446377242427 0 0 0 0 -48.754042982582178 111.07714414939255 0 111.07714414939255 -68.458147936993441 0 0 0 0 549.37607835808012 34.618218760381296 0 34.618218760381296 -94.237964386662583 0 0 0 0 -0.5029999426939824 -0.19180881638506975 0 -0.19180881638506975 -4.3659078860139413 0 0 0 0 225.98330467316555 42.920428382560658 0 42.920428382560658 -92.863851028215322 0 0 0 0 -142.93826143885963 272.57933129365938 0 272.57933129365938 -310.73698029129264 0 0 0 0 586.88138690367487 136.89146144410461 0 136.89146144410461 -534.68620055554231 0 0 0 0 182.42721906027691 159.26573703040845 0 159.26573703040845 -422.84695835315324 0 0 0 0 72.038156620561494 258.25078629935797 0 258.25078629935797 -504.13248086798353 0 0 0 0 245.48570676894087 -94.753879634776013 0 -94.753879634776013 -209.54759890188234 0 0 0 0 503.15851540920812 125.7524929744319 0 125.7524929744319 169.77542110882587 0 0 0 0 680.68808353837267 -157.55111174096965 0 -157.55111174096965 -200.78080232615775 0 0 0 0 153.76848993577005 -52.738199180866104 0 -52.738199180866104 141.98717336062236 0 0 0 0 381.34872713738696 498.84857889613181 0 498.84857889613181 598.55500266249692 0 0 0 0 560.40846460318062 -15.799586140804422 0 -15.799586140804422 -253.1359217337972 0 0 0 0 527.3565595590735 632.04355237184336 0 632.04355237184336 31.488306481089467 0 0 0 0 8.6260218377722353 -0.11018143029654226 0 -0.11018143029654226 -4.7418375695297907 0 0 0 0 189.83116921782198 24.429523854453315 0 24.429523854453315 -98.404966832932132 0 0 0 0 518.52479212068283 167.39084007585825 0 167.39084007585825 -254.59632918051648 0 0 0 0 493.7893213723637 127.15341739665678 0 127.15341739665678 -209.95489570813515 0 0 0 0 444.86239497727365 127.4778792605357 0 127.4778792605357 -186.304879831584 0 0 0 0 10.95133660802081 -1.652260244203255 0 -1.652260244203255 -4.5396753570743638 0 0 0 0 327.44404623021182 203.78684659348346 0 203.78684659348346 82.354824752511377 0 0 0 0 460.3753204512459 122.2031341504188 0 122.2031341504188 -405.75042221557487 0 0 0 0 201.38611144803781 178.49663815460798 0 178.49663815460798 78.201399909170959 0 0 0 0 343.78700674442007 121.33071701785366 0 121.33071701785366 -1.1464956159388748 0 0 0 0 156.55464466062767 196.72080627818536 0 196.72080627818536 -0.91428083815526406 0 0 0 0 243.7695746485806 191.878212061883 0 191.878212061883 132.62220131088134 0 0 0 0 277.07254795016888 125.44030617641351 0 125.44030617641351 34.607593039569792 0 0 0 0 310.09502614569328 239.19844652350093 0 239.19844652350093 58.199821818869168 0 0 0 0 2.8864178679834396 -1.3482860605188023 0 -1.3482860605188023 -0.5602646999070604 0 0 0 0 337.68783173608972 144.53194904389568 0 144.53194904389568 144.38666222539996 0 0 0 0 2.4222266732956186 -1.4062943082648474 0 -1.4062943082648474 0.35750190244551838 0 0 0 0 238.81368874315376 71.318085362947613 0 71.318085362947613 73.581291599956785 0 0 0 0 0.93266768325927174 2.8648732269257806 0 2.8648732269257806 6.7633552934501502 0 0 0 0 -184.85706027692868 202.89122175348234 0 202.89122175348234 323.70748547917992 0 0 0 0 483.49204710023696 507.99317700241613 0 507.99317700241613 446.21217688481192 0 0 0 0 387.5999399033899 111.24448618536326 0 111.24448618536326 84.503149706893737 0 0 0 0 391.1692455267621 99.810894332235875 0 99.810894332235875 120.76908145116204 0 0 0 0 350.84332652189551 146.77305822077074 0 146.77305822077074 116.39516033547829 0 0 0 0 387.23139193890529 98.123680779416645 0 98.123680779416645 121.28607999515191 0 0 0 0 357.39449404285187 124.50681942297251 0 124.50681942297251 192.05989884529299 0 0 0 0 600.31608398410754 203.38024557790732 0 203.38024557790732 128.22382237125612 0 0 0 0 536.79823712602229 186.93691724706514 0 186.93691724706514 124.94437922161114 0 0 0 0 512.88440681086649 294.26963586155489 0 294.26963586155489 154.35333653577982 0 0 0 0 671.18233344922191 442.94411181566556 0 442.94411181566556 285.56616601050973 0 0 0 0 274.3534067469991 235.02313321835072 0 235.02313321835072 313.839463876433 0 0 0 0 1053.7207450641654 632.62569334186537 0 632.62569334186537 258.88834628647601 0 0 0 0 853.168519709463 498.26314871523527 0 498.26314871523527 104.1762960418705 0 0 0 0 668.51568701626638 457.94398552700784 0 457.94398552700784 204.17094276315584 0 0 0 0 831.58033841486758 469.68157765116734 0 469.68157765116734 66.487110665219006 0 0 0 0 680.65804695284896 215.03048323641997 0 215.03048323641997 -77.315143285421982 0 0 0 0 850.87521168036619 385.50653092519588 0 385.50653092519588 79.624324128403941 0 0 0 0 1105.3000439540665 351.71564644096225 0 351.71564644096225 -51.484734607883183 0 0 0 0 662.04906361524627 448.21762640914994 0 448.21762640914994 100.12678825052649 0 0 0 0 809.36070978361022 545.5643686859778 0 545.5643686859778 161.77746454926773 0 0 0 0 347.2962662313621 -14.117187974435524 0 -14.117187974435524 44.306281922627932 0 0 0 0 740.21666686745448 86.319412007856499 0 86.319412007856499 -117.01257047881882 0 0 0 0 1084.5130173170546 944.14107024667419 0 944.14107024667419 649.28337520852256 0 0 0 0 3.5437331644109804 0.40885284065696226 0 0.40885284065696226 -1.5964010595140987 0 0 0 0 99.990153501192253 -236.5487295210844 0 -236.5487295210844 -220.2214390387204 0 0 0 0 1524.6903991372237 380.02209575736242 0 380.02209575736242 781.40811462797501 0 0 0 0 152.92558907956845 -223.57986876873883 0 -223.57986876873883 217.17550125649109 0 0 0 0 4.060330924425557 -1.6681249299813672 0 -1.6681249299813672 1.2628520299874966 0 0 0 0 1653.8395759965206 785.76568405951548 0 785.76568405951548 191.9118452020557 0 0 0 0 1558.5521218786016 607.19275746822495 0 607.19275746822495 293.67631078397562 0 0 0 0 838.39047777511951 -255.8940366388556 0 -255.8940366388556 93.407273513910695 0 0 0 0 117.27827868215536 -114.14377800412376 0 -114.14377800412376 121.04885221834815 0 0 0 0 -8.8975294871133883 33.761723589813926 0 33.761723589813926 -5.2489591131979978 0 0 0 0 13.219864325248636 100.76337624987218 0 100.76337624987218 107.15392543759742 0 0 0 0 8.7527967283321644 -3.0486676927658465 0 -3.0486676927658465 -10.448435489555788 0 0 0 0 10.257993165867902 -28.418670461128613 0 -28.418670461128613 73.697224664449095 0 0 0 0 -10.960261905836887 -2.2859608287922129 0 -2.2859608287922129 -11.097657193790837 0 0 0 0 8.5463626450255532 -1.7540158649950897 0 -1.7540158649950897 -1.414578747389017 0 0 0 0 921.06106905182219 52.215005838462517 0 52.215005838462517 31.354409427263363 0 0 0 0 4.1734525778545617 -0.56828644248023608 0 -0.56828644248023608 -2.1450314422365739 0 0 0 0 331.70927822872909 -101.03941721186357 0 -101.03941721186357 -8.053950594237449 0 0 0 0 10.921558677839585 -3.6804834277948224 0 -3.6804834277948224 -0.64022095756217734 0 0 0 0 295.07955334092549 560.50935836756844 0 560.50935836756844 -189.35852207116295 0 0 0 0 -62.521946711236524 210.00632843479048 0 210.00632843479048 37.002304789816662 0 0 0 0 450.60109729339456 499.54312436707391 0 499.54312436707391 670.88005309132586 0 0 0 0 1204.7649586427651 265.91688684522546 0 265.91688684522546 -141.89715885337137 0 0 0 0 465.31057787534519 475.86479268526978 0 475.86479268526978 47.309606978742515 0 0 0 0 10.577163932046005 -222.1386358782415 0 -222.1386358782415 -483.30499040914174 0 0 0 0 333.03827169799661 226.26852617937197 0 226.26852617937197 -201.97227926290179 0 0 0 0 172.89208698306902 271.31240609985741 0 271.31240609985741 198.88603124677365 0 0 0 0 843.56867649874039 150.81207259654292 0 150.81207259654292 -49.139955978533905 0 0 0 0 695.71026460696885 587.45704775421575 0 587.45704775421575 184.43680343073956 0 0 0 0 1090.0546771022855 736.60402086239674 0 736.60402086239674 102.55631175407609 0 0 0 0 103.38427992049037 -43.188838290760032 0 -43.188838290760032 7.6143554783831178 0 0 0 0 -66.911630108661484 -541.62522474390005 0 -541.62522474390005 310.9625466184421 0 0 0 0 107.69210740401104 -1.7593657510697085 0 -1.7593657510697085 -52.989793436719538 0 0 0 0 1.0827755270365742 4.9154904185040778 0 4.9154904185040778 -17.060988681863932 0 0 0 0 8.0091728273161351 -4.5666352756892046 0 -4.5666352756892046 1.9038507498954171 0 0 0 0 105.58888543037983 -415.17175442013519 0 -415.17175442013519 -453.96073679045412 0 0 0 0 102.27528331787744 -11.737177810181038 0 -11.737177810181038 42.688623407419072 0 0 0 0 260.67531850545492 77.143187574834883 0 77.143187574834883 -8.7899009263817334 0 0 0 0 -11.145199434004098 5.081805089057525 0 5.081805089057525 60.861667736826348 0 0 0 0 110.85256852628663 -51.765691865498411 0 -51.765691865498411 -13.980572748127997 0 0 0 0 130.09168010323265 17.84214906651232 0 17.84214906651232 -33.803267896338866 0 0 0 0 147.20373458597032 -119.26218193216062 0 -119.26218193216062 43.94031588404323 0 0 0 0 312.19419052188823 177.7059615180533 0 177.7059615180533 -793.19744445800325 0 0 0 0 201.61148627102193 563.69480547453713 0 563.69480547453713 -634.38651771494915 0 0 0 0 129.99063906075025 384.07179897864989 0 384.07179897864989 -218.70948428210295 0 0 0 0 267.19698725581475 178.24871729111874 0 178.24871729111874 -475.58876193117067 0 0 0 0 258.09068162997937 253.85437372696879 0 253.85437372696879 -21.977194038750895 0 0 0 0 5.4902738490091565 -4.2538942862316311 0 -4.2538942862316311 -13.016330324659702 0 0 0 0 11.586104270485521 -169.05847706292752 0 -169.05847706292752 -59.069801424889192 0 0 0 0 8.9460732521779107 131.91539417750104 0 131.91539417750104 -318.26300667359465 0 0 0 0 -101.83010401112551 -12.031636872715808 0 -12.031636872715808 73.830003328910806 0 0 0 0 21.101034699253432 58.086704932565226 0 58.086704932565226 -164.15544400412637 0 0 0 0 96.687563639410655 -222.407246640229 0 -222.407246640229 -246.23879629894782 0 0 0 0 257.51933776306942 -71.65964813254368 0 -71.65964813254368 -377.24662073181571 0 0 0 0 104.63075933518849 -81.620710847516875 0 -81.620710847516875 -406.90091285925155 0 0 0 0 103.29586214251322 -88.6362105750095 0 -88.6362105750095 -363.87869477157142 0 0 0 0 -3.4669314299703444 0.87710466876806237 0 0.87710466876806237 -0.063994716090601145 0 0 0 0 -80.897512888655911 -402.69188914195547 0 -402.69188914195547 -729.20886827642516 0 0 0 0 -106.07797277656209 -113.65201923603308 0 -113.65201923603308 -274.88230791499245 0 0 0 0 152.03659745326149 1.9010096232416345 0 1.9010096232416345 -37.642680095648757 0 0 0 0 27.725846458466549 -172.22128993786737 0 -172.22128993786737 -389.46659909438097 0 0 0 0 4.7558703987427648 7.748209232172627 0 7.748209232172627 -8.8351145510457521 0 0 0 0 129.08128483706059 49.167682708470238 0 49.167682708470238 -34.758850692429405 0 0 0 0 3.4630616492286208 -10.448024849719332 0 -10.448024849719332 -281.72944193107014 0 0 0 0 78.964354420374519 -30.56888382813284 0 -30.56888382813284 -7.3129649487473216 0 0 0 0 126.14371007433147 45.920401488610878 0 45.920401488610878 -33.855628201244144 0 0 0 0 67.451230571663714 -0.93344861463005913 0 -0.93344861463005913 -15.64194904971243 0 0 0 0 89.448695252395112 -13.653637420738278 0 -13.653637420738278 -14.654666019550177 0 0 0 0 69.235754800429277 -10.955088927720681 0 -10.955088927720681 -39.572375825424388 0 0 0 0 81.269559344874096 -2.087254450466844 0 -2.087254450466844 -30.851076792025847 0 0 0 0 86.031791981072601 -7.5498064679025259 0 -7.5498064679025259 -10.61825100116519 0 0 0 0 128.29103801937163 -33.75799173674568 0 -33.75799173674568 -33.711022694708845 0 0 0 0 147.92404851304309 0.58292668134481573 0 0.58292668134481573 -14.352422027553985 0 0 0 0 191.91157671404835 -17.513084226006868 0 -17.513084226006868 -25.936391392484438 0 0 0 0 227.85424688694366 54.555392764346834 0 54.555392764346834 -31.853802237710624 0 0 0 0 34.994488929878074 1.9036971240855252 0 1.9036971240855252 -13.385660656564852 0 0 0 0 180.20365096805108 -4.293295970730469 0 -4.293295970730469 -37.724657085667786 0 0 0 0 87.477358162693832 -212.94495479170115 0 -212.94495479170115 -296.50448758434504 0 0 0 0 -2.2902635644812555 3.5140354809066245 0 3.5140354809066245 -5.1540878450109062 0 0 0 0 138.4016715980033 -28.177276864881605 0 -28.177276864881605 -84.271121783695889 0 0 0 0 111.88716318713341 -11.211392698895907 0 -11.211392698895907 -34.790177562840427 0 0 0 0 -52.82332001839859 579.08569279448102 0 579.08569279448102 -728.57847621334076 0 0 0 0 661.80281826215469 -568.85152048445161 0 -568.85152048445161 241.93986076077044 0 0 0 0 4.3629582436256094 -1.4384653453488569 0 -1.4384653453488569 -6.5881023681445825 0 0 0 0 -218.85186741959114 377.93709426747796 0 377.93709426747796 -325.58286018058061 0 0 0 0 -165.47023412641465 144.30412995907227 0 144.30412995907227 -7.0569158132020675 0 0 0 0 -254.66047235978567 406.12544687289892 0 406.12544687289892 -222.31968480055366 0 0 0 0 228.35144812081353 57.800935453772354 0 57.800935453772354 -230.19315725279012 0 0 0 0 29.333972776363225 54.409751126659103 0 54.409751126659103 -46.114170490179959 0 0 0 0 125.76378920126808 8.3520794878641027 0 8.3520794878641027 -354.13937634984177 0 0 0 0 75.493934256720422 173.03619697415547 0 173.03619697415547 -366.53632730380195 0 0 0 0 258.24805850083067 58.400656093101134 0 58.400656093101134 -482.45867904396437 0 0 0 0 -21.517695644453852 -213.23959822931465 0 -213.23959822931465 -412.15021842741044 0 0 0 0 288.80263524931433 -44.550549128729472 0 -44.550549128729472 31.114103502546641 0 0 0 0 13.067360117093953 5.3392047997597274 0 5.3392047997597274 -4.1522886343691709 0 0 0 0 646.1865353489211 106.07843141498779 0 106.07843141498779 -405.88139644936018 0 0 0 0 303.11410553543101 -1422.1425596414065 0 -1422.1425596414065 -116.91397298682887 0 0 0 0 996.71524829403279 448.54726937821397 0 448.54726937821397 -317.09945523413444 0 0 0 0 283.60070989255473 -50.741141952403268 0 -50.741141952403268 -547.65093058463026 0 0 0 0 10.698644341219019 -2.5004029665747893 0 -2.5004029665747893 -1.141715499794838 0 0 0 0 4.7306555243374415 -3.7534865494235632 0 -3.7534865494235632 -1.7592481297206959 0 0 0 0 586.50724221211999 -380.19430928535621 0 -380.19430928535621 430.22484709398486 0 0 0 0 112.24888992941487 117.84012170082497 0 117.84012170082497 275.46887330476784 0 0 0 0 439.26680100868589 -820.38822022730801 0 -820.38822022730801 785.22427528015032 0 0 0 0 91.637143602099684 -138.63276773547659 0 -138.63276773547659 321.07305641587664 0 0 0 0 892.47806448578194 -345.43989264310221 0 -345.43989264310221 -11.086829228698093 0 0 0 0 918.11834896123037 -222.08415120953214 0 -222.08415120953214 -179.99202342502031 0 0 0 0 391.4425922406358 -147.2210409300933 0 -147.2210409300933 24.868745848725666 0 0 0 0 373.90903569049806 13.979358869812131 0 13.979358869812131 -465.80249661478956 0 0 0 0 -59.011733745452148 2.2912595536818117 0 2.2912595536818117 -169.27956584107142 0 0 0 0 262.97524951873584 -134.94550361788038 0 -134.94550361788038 -61.794836775592557 0 0 0 0 255.39261315958174 -107.90886052920996 0 -107.90886052920996 -135.46071218243014 0 0 0 0 688.51221186932207 -361.17294998758064 0 -361.17294998758064 400.02175252832967 0 0 0 0 693.18273263296578 -187.71062628877007 0 -187.71062628877007 -339.27337875635203 0 0 0 0 769.54012802891157 -495.24391455215482 0 -495.24391455215482 30.414404117016602 0 0 0 0 559.33087393580718 -180.97281867718993 0 -180.97281867718993 -61.636601840874846 0 0 0 0 449.67603031396084 -224.34860160632888 0 -224.34860160632888 -47.287527409473114 0 0 0 0 516.3480126031809 -173.02845019205961 0 -173.02845019205961 -123.16603581553136 0 0 0 0 231.38920109529545 -182.21499067695095 0 -182.21499067695095 -55.133273417010059 0 0 0 0 321.60565346213843 -51.806106007779817 0 -51.806106007779817 -87.59216220668327 0 0 0 0 67.622432186293736 -171.74747603300239 0 -171.74747603300239 -33.451280389641397 0 0 0 0 0.59755917975780903 -132.3576034357975 0 -132.3576034357975 -35.090080855368797 0 0 0 0 335.19207800350432 -235.53357961837764 0 -235.53357961837764 -102.50812491172292 0 0 0 0 242.09739092320979 -155.36449298515572 0 -155.36449298515572 -75.439800715161255 0 0 0 0 395.81292664180546 -154.0877927991387 0 -154.0877927991387 -96.671731834263028 0 0 0 0 506.3151584788111 -180.57038998011035 0 -180.57038998011035 -165.21835852871118 0 0 0 0 503.01079716266759 -175.62532444508724 0 -175.62532444508724 -93.552088427974923 0 0 0 0 472.80162619407929 -226.05548260381784 0 -226.05548260381784 8.8787353749248723 0 0 0 0 519.75512396031991 -189.95490812039043 0 -189.95490812039043 -104.16264586264333 0 0 0 0 492.0401323345759 -229.18236613526801 0 -229.18236613526801 6.2050407443311997 0 0 0 0 452.74850942163539 -352.8795216543067 0 -352.8795216543067 319.61767340315237 0 0 0 0 644.91322386664433 -291.68472528573693 0 -291.68472528573693 -57.435011931331246 0 0 0 0 6.1972392913872199 -3.9514944950225876 0 -3.9514944950225876 -12.898774947991662 0 0 0 0 361.66229002106047 -197.16589597015991 0 -197.16589597015991 42.397080558912421 0 0 0 0 -180.48654176322634 -106.60745220477588 0 -106.60745220477588 -779.29881202220167 0 0 0 0 365.72419076889673 -185.23687481829256 0 -185.23687481829256 57.860838056332796 0 0 0 0 288.39560506221824 -190.28139849132822 0 -190.28139849132822 44.827671569124504 0 0 0 0 384.77795758449975 -135.77940186965679 0 -135.77940186965679 -80.884116169954723 0 0 0 0 488.39041095282482 -139.49716987435841 0 -139.49716987435841 -85.22536211737588 0 0 0 0 354.39499282527504 -28.616197021292919 0 -28.616197021292919 -83.569160514402938 0 0 0 0 325.47064180911912 -33.876584140384693 0 -33.876584140384693 -76.928022552071525 0 0 0 0 488.48610406740909 -143.56276050046802 0 -143.56276050046802 -137.33097588282908 0 0 0 0 515.92765831101315 -144.96574976155534 0 -144.96574976155534 -154.36881833405141 0 0 0 0 688.71228752143088 -160.08733623435228 0 -160.08733623435228 -157.67865297843764 0 0 0 0 613.47781953674712 59.556973705598921 0 59.556973705598921 -100.45211968761669 0 0 0 0 563.23086454322674 -35.150741169493131 0 -35.150741169493131 -89.213651087900871 0 0 0 0 773.4885892075763 351.54557726593066 0 351.54557726593066 96.399895641798025 0 0 0 0 1019.596298517652 -91.903996173661085 0 -91.903996173661085 -90.165352849856433 0 0 0 0 198.85775887462933 155.87803603736631 0 155.87803603736631 78.118448485039153 0 0 0 0 610.55955780180739 -130.74695158052737 0 -130.74695158052737 -28.866892475458826 0 0 0 0 800.22836309210197 -289.10621774754566 0 -289.10621774754566 95.594486008504646 0 0 0 0 766.26395229615991 -34.351410030329816 0 -34.351410030329816 372.68744514192326 0 0 0 0 2.8488859543271943 -2.8942543334528459 0 -2.8942543334528459 2.30701392622866 0 0 0 0 264.6555196242125 -195.91182750247208 0 -195.91182750247208 104.42152556064548 0 0 0 0 478.16610235205917 -319.03601212462718 0 -319.03601212462718 132.61642569400783 0 0 0 0 477.58836749730654 -222.68567230261613 0 -222.68567230261613 246.96098818094811 0 0 0 0 730.06859992480531 -298.6511870657705 0 -298.6511870657705 59.744378138737375 0 0 0 0 402.93919037995511 -202.92117718327472 0 -202.92117718327472 65.99257197669931 0 0 0 0 325.29724981193931 -366.27925546828999 0 -366.27925546828999 24.942947410403576 0 0 0 0 272.25038307983073 -332.36695200381678 0 -332.36695200381678 -85.467157129537554 0 0 0 0 327.7684210857833 -211.35008916147308 0 -211.35008916147308 -87.252038646209257 0 0 0 0 583.71014818607728 -311.04612423135268 0 -311.04612423135268 -76.664183066293845 0 0 0 0 442.4349947250912 -269.6884621550721 0 -269.6884621550721 -125.55033780859321 0 0 0 0 525.24678476412282 -153.45969546184006 0 -153.45969546184006 -156.31846126625351 0 0 0 0 226.19334424523186 -190.50486682131032 0 -190.50486682131032 -97.279763065565305 0 0 0 0 -3.266631611108096 -236.27126358236319 0 -236.27126358236319 -43.114338723015408 0 0 0 0 224.69622996530916 -250.72577298898389 0 -250.72577298898389 -101.47580903321068 0 0 0 0 -105.72210449823251 -229.48782830886285 0 -229.48782830886285 -51.924727569182323 0 0 0 0 -316.82335612755037 -151.90561079371128 0 -151.90561079371128 -28.264691563204906 0 0 0 0 -312.74636727938741 -214.42357667728606 0 -214.42357667728606 8.3334142446583428 0 0 0 0 -308.1791275296398 -191.39011783222224 0 -191.39011783222224 -170.83823052575462 0 0 0 0 -29.036861726577627 -313.54302036038439 0 -313.54302036038439 -98.752524759307562 0 0 0 0 58.716210372537716 -227.29533760765162 0 -227.29533760765162 15.69908880280434 0 0 0 0 20.696260713132119 -327.28978117718356 0 -327.28978117718356 -21.052684728795612 0 0 0 0 -476.41168540352464 -334.2418865057295 0 -334.2418865057295 130.30696847491515 0 0 0 0 -456.29885607607991 -103.92234838479018 0 -103.92234838479018 89.09271790985531 0 0 0 0 -1584.0051646602597 -441.73620787425318 0 -441.73620787425318 628.82126905853011 0 0 0 0 -69.297600094200561 -87.28972796251287 0 -87.28972796251287 -152.88118558507517 0 0 0 0 104.19232079940957 -344.34810084040157 0 -344.34810084040157 19.445473236064458 0 0 0 0 62.238384254909761 -310.65722592760494 0 -310.65722592760494 245.42270539396884 0 0 0 0 5000.0163156241852 -354.94266196167939 0 -354.94266196167939 126.47028000285073 0 0 0 0 -106.13099367388077 -976.87116198169042 0 -976.87116198169042 713.85081565109613 0 0 0 0 -918.56169776848856 -380.49638166281102 0 -380.49638166281102 283.81003627114251 0 0 0 0 7.9195474085237461 -9.3591412144719044 0 -9.3591412144719044 9.1016600828093246 0 0 0 0 -533.60606703646897 -19.574561175845702 0 -19.574561175845702 16.450292899650321 0 0 0 0 5001.5076798622313 613.34116598379967 0 613.34116598379967 215.38735471009906 0 0 0 0 6425.8061626067829 62.446768463230867 0 62.446768463230867 159.81770862031084 0 0 0 0 16.04493848978046 -29.132981411611063 0 -29.132981411611063 24.748970743663186 0 0 0 0 -528.47291107351543 -308.48423605986181 0 -308.48423605986181 -19.570809491520777 0 0 0 0 4459.9146827150225 275.42805224176203 0 275.42805224176203 31.915910135317219 0 0 0 0 4997.6057901754102 334.91917313320454 0 334.91917313320454 -262.38680505295707 0 0 0 0 3411.4580144944157 -89.694897764173078 0 -89.694897764173078 -372.02869343771357 0 0 0 0 5002.6119732202496 -617.04862012197145 0 -617.04862012197145 -671.89570629696891 0 0 0 0 3091.2417697417186 -1096.7780295805071 0 -1096.7780295805071 -80.938645125198278 0 0 0 0 1888.3435637967341 205.38044047504314 0 205.38044047504314 -138.04543756417993 0 0 0 0 20.484028994486067 -43.015670163648664 0 -43.015670163648664 37.844287268589149 0 0 0 0 3008.7356155776679 -329.97886814453113 0 -329.97886814453113 45.650584063436554 0 0 0 0 -265.76115556249169 -226.28965746278391 0 -226.28965746278391 21.617105604689641 0 0 0 0 31.623449146309213 -263.1788931648407 0 -263.1788931648407 -63.352309733430957 0 0 0 0 -69.467928461953761 -171.79081274127475 0 -171.79081274127475 -39.512346470841294 0 0 0 0 51.28416856082913 -226.44768270513214 0 -226.44768270513214 -33.669403006982407 0 0 0 0 -11.688700104416057 -166.81150085481022 0 -166.81150085481022 1.1102535086400849 0 0 0 0 -100.94504408720923 -146.5692602986901 0 -146.5692602986901 -0.3680432596065657 0 0 0 0 9.3111162253658222 -131.17808293465896 0 -131.17808293465896 -58.573291501423228 0 0 0 0 17.666817130348878 -49.307225116126681 0 -49.307225116126681 47.16429642999757 0 0 0 0 984.01078591063379 -433.9472612587511 0 -433.9472612587511 386.60021083249387 0 0 0 0 10.906832235068578 -129.4507963090291 0 -129.4507963090291 48.854435921231925 0 0 0 0 19.488176116492905 -13.048812422586199 0 -13.048812422586199 5.6971437433236076 0 0 0 0 451.99095936507001 37.718344615754823 0 37.718344615754823 -10.278500723113311 0 0 0 0 -39.618600160829374 -141.66246102010336 0 -141.66246102010336 -65.723844997861306 0 0 0 0 16.781843851054873 -143.15924844496112 0 -143.15924844496112 -68.125864983201609 0 0 0 0 -6.5976818009476119 -160.5750722901812 0 -160.5750722901812 -78.46234295990871 0 0 0 0 -9.1972087416959312 -171.23754927187565 0 -171.23754927187565 -36.313951968833862 0 0 0 0 -48.968391109165168 -168.5051220578498 0 -168.5051220578498 -65.620563915883395 0 0 0 0 -84.035138229421136 -149.90084260216827 0 -149.90084260216827 -53.466200157381536 0 0 0 0 32.115866183593603 -11.418153256829388 0 -11.418153256829388 5.9354254820820262 0 0 0 0 20.688933934474335 -99.07895403663133 0 -99.07895403663133 -92.906110102892853 0 0 0 0 -1.8578535268497944 -61.619795322305436 0 -61.619795322305436 104.6963111093919 0 0 0 0 38.8608641642968 -42.888901749829529 0 -42.888901749829529 25.548551836893239 0 0 0 0 -34.190236346848906 -104.81099712322793 0 -104.81099712322793 148.18318567198003 0 0 0 0 14.398086453611537 -15.730399464456141 0 -15.730399464456141 5.920701763479375 0 0 0 0 -14.730272933151355 -102.75215541037687 0 -102.75215541037687 65.143799978006427 0 0 0 0 32.649572960039293 -46.69799836791745 0 -46.69799836791745 25.411267984529225 0 0 0 0 19.656359238197517 -22.630409706463592 0 -22.630409706463592 31.34869594069443 0 0 0 0 27.374599011376603 -36.064223974567817 0 -36.064223974567817 24.645327351174011 0 0 0 0 35.799011499766493 -40.558862371250143 0 -40.558862371250143 17.193276964328106 0 0 0 0 114.82128291541812 59.642959945143957 0 59.642959945143957 63.244783275253667 0 0 0 0 72.619935526756308 -8.7907663871555997 0 -8.7907663871555997 -24.09535292758892 0 0 0 0 32.19320079219959 -15.806919607340175 0 -15.806919607340175 32.775221449348116 0 0 0 0 48.283778992034058 -10.882104335170879 0 -10.882104335170879 69.625013641798432 0 0 0 0 29.931210496408312 -37.597343794655899 0 -37.597343794655899 42.993655695162488 0 0 0 0 -186.67987225466641 -150.6414531132794 0 -150.6414531132794 36.148223401996546 0 0 0 0 30.984849714524898 -46.007898414091869 0 -46.007898414091869 60.452959744783584 0 0 0 0 1700.0650385653753 -1079.1719782622292 0 -1079.1719782622292 418.69407310096159 0 0 0 0 -12.076521152207881 -8.0869463495227478 0 -8.0869463495227478 24.36282142503439 0 0 0 0 38.60504157077537 -11.199307659107166 0 -11.199307659107166 11.261826041800568 0 0 0 0 4988.4971824067507 -3359.602028861309 0 -3359.602028861309 1304.0334638339059 0 0 0 0 1105.9522736573854 544.94761368412492 0 544.94761368412492 87.59160181119654 0 0 0 0 -207.2146939059021 47.860315687392294 0 47.860315687392294 621.12429661855697 0 0 0 0 15.453737713106833 -1.8517283578312975 0 -1.8517283578312975 1.4177444615172887 0 0 0 0 3452.5468242032221 105.34680712680652 0 105.34680712680652 -124.18240727542083 0 0 0 0 2072.8409855901227 -764.2092683207984 0 -764.2092683207984 -187.6215339495576 0 0 0 0 233.11247915578497 287.42405028812391 0 287.42405028812391 288.46601126182668 0 0 0 0 467.50635546240665 -409.3886176004205 0 -409.3886176004205 351.61879476251556 0 0 0 0 7.2053196515074163 2.5028554254772679 0 2.5028554254772679 1.0739070275924028 0 0 0 0 161.78913098698104 -163.17612266588185 0 -163.17612266588185 206.71389299574957 0 0 0 0 135.55230630937513 443.00300756700881 0 443.00300756700881 543.81791568054587 0 0 0 0 -1.6183880812805 -0.032893165985342421 0 -0.032893165985342421 -108.1991823126109 0 0 0 0 946.99810977389461 -58.43765353435515 0 -58.43765353435515 -94.763285345045915 0 0 0 0 235.08301586956441 -19.676024728695893 0 -19.676024728695893 -58.014978546455495 0 0 0 0 325.80065711335556 81.33203325917566 0 81.33203325917566 -48.376622254457288 0 0 0 0 59.637362870189463 220.39471260036112 0 220.39471260036112 -6.5150913025063346 0 0 0 0 204.45098222074375 3.5823428663120467 0 3.5823428663120467 -31.977520895700764 0 0 0 0 52.999613248255628 80.520781081676432 0 80.520781081676432 -39.918054260041913 0 0 0 0 227.23812292513321 -28.18348770767625 0 -28.18348770767625 -66.058275588350853 0 0 0 0 472.33093271714461 -134.94961598143254 0 -134.94961598143254 -36.573028898261327 0 0 0 0 96.808886256123515 -49.203562238464883 0 -49.203562238464883 68.813989637240411 0 0 0 0 150.01841111614704 -94.2234603309862 0 -94.2234603309862 73.619163457026843 0 0 0 0 243.09300348937177 -58.007078787167757 0 -58.007078787167757 -14.597149433060622 0 0 0 0 6.9523949935210112 -46.309913469716776 0 -46.309913469716776 61.324361800127008 0 0 0 0 95.522755437756132 -33.336368352230238 0 -33.336368352230238 34.243761768799686 0 0 0 0 23.193189608733519 -29.002825143669725 0 -29.002825143669725 63.252442512468861 0 0 0 0 46.341092956015927 -74.800181245287149 0 -74.800181245287149 68.026580602689137 0 0 0 0 -4.5347247922897225 8.1682485387765382 0 8.1682485387765382 3.0772066815999768 0 0 0 0 6.999903046671534 -45.540263436866098 0 -45.540263436866098 39.96294864514266 0 0 0 0 80.323210636443036 81.767570178844835 0 81.767570178844835 26.026343384830398 0 0 0 0 -3.5233946853298121 4.2100453887694371 0 4.2100453887694371 5.5141738393119937 0 0 0 0 -3.5895243961141468 -15.649236146899447 0 -15.649236146899447 12.600174066468318 0 0 0 0 42.024115457636071 14.441379154279275 0 14.441379154279275 4.9270599104070243 0 0 0 0 -39.994916105644734 -29.467894897853817 0 -29.467894897853817 29.997752825784946 0 0 0 0 -29.897197561716894 0.58081126643446623 0 0.58081126643446623 0.12636668890263536 0 0 0 0 -9.2539625933260652 -3.7336489995261601 0 -3.7336489995261601 18.224065626455861 0 0 0 0 -72.740137177541328 -30.040168527563083 0 -30.040168527563083 119.96929765073492 0 0 0 0 -198.2688889835008 -60.254420121745852 0 -60.254420121745852 -46.160164390340015 0 0 0 0 -9.7159167894703522 0.62440401901871212 0 0.62440401901871212 1.5230365529122842 0 0 0 0 -47.28520955354179 -8.1928101804119251 0 -8.1928101804119251 -29.378736136894304 0 0 0 0 12.266680269450525 -52.010136652556795 0 -52.010136652556795 23.685447384357069 0 0 0 0 -4.9846971406759195 6.3147706293093506 0 6.3147706293093506 2.9770601080301731 0 0 0 0 -2928.3765901754305 -758.57668190346612 0 -758.57668190346612 2542.0656752248506 0 0 0 0 83.569345243056887 -5.2346696010267806 0 -5.2346696010267806 32.447911664104595 0 0 0 0 83.528920358331561 -10.872754105665877 0 -10.872754105665877 11.076207813894598 0 0 0 0 25.999919769507187 -0.81307103819366588 0 -0.81307103819366588 5.5649323688914265 0 0 0 0 78.765948213847878 -60.393539273872193 0 -60.393539273872193 80.861161596226339 0 0 0 0 99.599122784369683 5.2455186566562588 0 5.2455186566562588 10.400432249468849 0 0 0 0 179.47433835336051 -27.673134896174361 0 -27.673134896174361 -6.6410327662847521 0 0 0 0 96.35020760901898 -7.6749443549711032 0 -7.6749443549711032 -11.430879645147797 0 0 0 0 1.8633647718729378 -4.6433053913172202 0 -4.6433053913172202 0.83316555206047838 0 0 0 0 -486.93030107129744 187.67861017004248 0 187.67861017004248 206.46193950853331 0 0 0 0 200.34846694387306 330.31245850761911 0 330.31245850761911 -47.000189002195953 0 0 0 0 164.11405004988046 334.93876968027388 0 334.93876968027388 -30.038088023048545 0 0 0 0 102.70508822058582 -52.807948691211323 0 -52.807948691211323 33.105189550386967 0 0 0 0 -185.79972669218114 -359.60948543812628 0 -359.60948543812628 185.88358072128995 0 0 0 0 18.531569267530536 -53.60882960857284 0 -53.60882960857284 1.3040073636730245 0 0 0 0 286.66121092984395 -637.03040827701125 0 -637.03040827701125 222.30438784531077 0 0 0 0 143.53036420631906 -22.322647266445529 0 -22.322647266445529 4.7079812784400019 0 0 0 0 225.21974232509092 -81.158156246554427 0 -81.158156246554427 37.298312312435883 0 0 0 0 341.82511116794922 67.101047509723685 0 67.101047509723685 10.360269394820534 0 0 0 0 -17.355342832178174 -7.3577726939621062 0 -7.3577726939621062 7.5174419333337816 0 0 0 0 114.2770398092498 -11.729266490299466 0 -11.729266490299466 -233.16655311200066 0 0 0 0 19.458501572719214 -1.7969507085346521 0 -1.7969507085346521 -0.87993951116422764 0 0 0 0 242.06095284187177 0.85029521973592637 0 0.85029521973592637 -33.082081987657148 0 0 0 0 75.409667450228426 77.200068398180292 0 77.200068398180292 21.699742695966961 0 0 0 0 137.19140505577525 137.55889177176368 0 137.55889177176368 23.13451515325869 0 0 0 0 159.47344555651944 69.440104996776427 0 69.440104996776427 -80.814993908093584 0 0 0 0 -37.134274990723497 -368.01566612030081 0 -368.01566612030081 -161.23194441996793 0 0 0 0 205.93641764221684 -29.436404482739249 0 -29.436404482739249 9.4525147519073016 0 0 0 0 221.47808625578182 -134.7955604148442 0 -134.7955604148442 -221.57285599518718 0 0 0 0 858.38783009388862 -710.63476566433746 0 -710.63476566433746 296.0590620409007 0 0 0 0 459.18499306311787 85.838924691195643 0 85.838924691195643 -212.41027598728942 0 0 0 0 88.714395918338056 -38.292623439661696 0 -38.292623439661696 -3.2413108939680582 0 0 0 0 94.104840090209109 6.3163222762986706 0 6.3163222762986706 148.1635489960654 0 0 0 0 92.24604563775938 -42.08178079198251 0 -42.08178079198251 69.48543293306102 0 0 0 0 81.087089581294052 -45.28091594852814 0 -45.28091594852814 -6.3985781438590887 0 0 0 0 135.52679012839872 24.202222679046827 0 24.202222679046827 60.527386870371913 0 0 0 0 145.8558054798923 75.599670284196691 0 75.599670284196691 137.75418041674703 0 0 0 0 159.3257004702391 31.130326219617928 0 31.130326219617928 122.33301904116024 0 0 0 0 132.20456438652673 -64.910450736097346 0 -64.910450736097346 45.580123815454499 0 0 0 0 68.121473620916731 -19.387800800022433 0 -19.387800800022433 26.05022829367681 0 0 0 0 44.074179818671837 -76.01027483762482 0 -76.01027483762482 20.439621428729879 0 0 0 0 4.4446482110652141 -34.307881690862359 0 -34.307881690862359 77.026020836598036 0 0 0 0 79.66801283814857 -31.99885172047243 0 -31.99885172047243 81.192085888631482 0 0 0 0 76.517634063093965 -72.462064522572419 0 -72.462064522572419 96.796956057457464 0 0 0 0 4.6366832586694855 0.27655224136660195 0 0.27655224136660195 -0.13313733913183645 0 0 0 0 50.778204909260239 -58.22586795319944 0 -58.22586795319944 187.87682555478341 0 0 0 0 170.91123928968591 104.76039397663408 0 104.76039397663408 -48.850557183256683 0 0 0 0 -9.6146946577828203 -0.74309020612236054 0 -0.74309020612236054 133.38614445082555 0 0 0 0 28.130838796846135 1.4923183362922003 0 1.4923183362922003 1.2496661387012118 0 0 0 0 806.5355139496678 50.731305259134388 0 50.731305259134388 -315.21385751260914 0 0 0 0 61.795327511677897 66.493122094806949 0 66.493122094806949 149.6355916762177 0 0 0 0 406.57053203506803 490.18594921926842 0 490.18594921926842 328.05103442648215 0 0 0 0 227.36714710525848 -93.443201996512244 0 -93.443201996512244 106.66317332776634 0 0 0 0 138.35789217390629 -33.244915655735667 0 -33.244915655735667 -22.467170282096049 0 0 0 0 96.456238455330094 -99.434343762123035 0 -99.434343762123035 25.835459077486348 0 0 0 0 -40.304246628700639 -148.87938027533392 0 -148.87938027533392 -56.197705971876417 0 0 0 0 56.533714750814397 -93.537200812958872 0 -93.537200812958872 -65.865435914182569 0 0 0 0 -4.6748597216155758 -20.429569458327023 0 -20.429569458327023 38.712163392596267 0 0 0 0 -37.842047734259268 -51.562303222021903 0 -51.562303222021903 -7.8093819451223681 0 0 0 0 -6.3546508983890817 -59.624138233083613 0 -59.624138233083613 -11.498207121409905 0 0 0 0 -16.056549765078671 -39.604131259593942 0 -39.604131259593942 32.900154949340049 0 0 0 0 3.8807987191237885 -51.120049364694999 0 -51.120049364694999 39.551491185239684 0 0 0 0 12.089340929619958 -1.4247948524818446 0 -1.4247948524818446 0.021122993023383385 0 0 0 0 1.208142292649427 -47.700141923544606 0 -47.700141923544606 8.9009046702979049 0 0 0 0 -18.557338612761669 -18.15322340912121 0 -18.15322340912121 78.294340439313146 0 0 0 0 -9.6841569356027861 6.5124207387441011 0 6.5124207387441011 49.550385852506224 0 0 0 0 -14.993613340502634 -25.268636602268089 0 -25.268636602268089 45.557128869541884 0 0 0 0 0.26191617982231108 -0.50804102536646312 0 -0.50804102536646312 2.4194027822404873 0 0 0 0 90.139819641066424 44.790022317441981 0 44.790022317441981 -65.672696156687834 0 0 0 0 22.75621478161338 3.4011312607517539 0 3.4011312607517539 64.588278425195313 0 0 0 0 30.339230905808108 45.896550923308098 0 45.896550923308098 139.76606048867143 0 0 0 0 -29.479193774117448 -79.471165573143935 0 -79.471165573143935 94.905459507933301 0 0 0 0 -52.668616160743113 -50.826015877377813 0 -50.826015877377813 160.01153424048414 0 0 0 0 22.885435524891363 -57.691467631814476 0 -57.691467631814476 -64.326258344638063 0 0 0 0 18.89984334044857 -13.32631831304883 0 -13.32631831304883 -4.3318667327363301 0 0 0 0 -22.616122807581633 -48.863008922272201 0 -48.863008922272201 -25.821713772984765 0 0 0 0 72.352696159318953 80.553110013684091 0 80.553110013684091 45.803387087718022 0 0 0 0 60.488835576943529 -40.523957820974488 0 -40.523957820974488 -138.14943676948047 0 0 0 0 -1.9736058622111159 13.023694382164436 0 13.023694382164436 -38.90935759048341 0 0 0 0 83.533777329510485 -22.988032729224415 0 -22.988032729224415 -25.963248883704523 0 0 0 0 497.63429760881263 -197.39317632628536 0 -197.39317632628536 28.164732311469379 0 0 0 0 419.52940896227301 469.0567375454375 0 469.0567375454375 -245.86994398540855 0 0 0 0 35.811158383203292 -24.754421676624816 0 -24.754421676624816 44.483699184238844 0 0 0 0 18.97824702759317 -46.013318161060198 0 -46.013318161060198 30.106132830025615 0 0 0 0 24.57737470874963 -67.579483093651788 0 -67.579483093651788 35.263191221302804 0 0 0 0 110.91804626419844 19.242357002569918 0 19.242357002569918 10.577639811092922 0 0 0 0 72.887185905563314 -22.721695633240202 0 -22.721695633240202 -12.943301465583893 0 0 0 0 112.56499026589972 15.254371270910951 0 15.254371270910951 12.133494530984535 0 0 0 0 243.55629037339168 -47.548582877396029 0 -47.548582877396029 -206.96901712833778 0 0 0 0 -523.91216220472415 87.389594067053622 0 87.389594067053622 106.20736099423675 0 0 0 0 8.8872232393648254 -10.522851323323671 0 -10.522851323323671 7.756893113044578 0 0 0 0 41.042678352689549 -7.9351447994288336 0 -7.9351447994288336 14.355396218757882 0 0 0 0 -711.02061703801155 -199.05460457527624 0 -199.05460457527624 502.65937168252594 0 0 0 0 98.363970467758918 60.789326136874053 0 60.789326136874053 -61.364884040034596 0 0 0 0 -36.36151188364056 -30.388302322025595 0 -30.388302322025595 24.81030926192625 0 0 0 0 46.839073348037346 16.314273222750671 0 16.314273222750671 13.119357746274773 0 0 0 0 75.253051324935967 -23.109734671559202 0 -23.109734671559202 -15.49823884192579 0 0 0 0 27.085191990761814 13.603677737927228 0 13.603677737927228 18.709260575737062 0 0 0 0 49.441119326424086 44.478344080578609 0 44.478344080578609 20.865203076637044 0 0 0 0 -0.20560883512465011 1.9163553942300382 0 1.9163553942300382 3.3919252840971517 0 0 0 0 21.94714941437087 41.013427492664505 0 41.013427492664505 24.851742538379995 0 0 0 0 82.159490047881263 -5.0163510038694881 0 -5.0163510038694881 -12.121428182067575 0 0 0 0 -191.02582580174021 68.275218400433459 0 68.275218400433459 38.984515624878441 0 0 0 0 8.1522096960857464 -8.4355912084342073 0 -8.4355912084342073 -1.7057276714705303 0 0 0 0 59.788377557295462 38.25677775033364 0 38.25677775033364 -48.204967929918894 0 0 0 0 14.64024600045785 5.3847673123860886 0 5.3847673123860886 -7.4324825068749369 0 0 0 0 -1.2218899811109623 24.916153608528504 0 24.916153608528504 -2.9279123517262633 0 0 0 0 17.609698119424138 29.688846314212242 0 29.688846314212242 -26.094321119522647 0 0 0 0 31.398880660463803 4.8539328088678566 0 4.8539328088678566 -12.242377581246391 0 0 0 0 88.342518863175428 3.0861480784002424 0 3.0861480784002424 -4.5359663201597868 0 0 0 0 28.508760966644331 -47.862092959174333 0 -47.862092959174333 25.570525584463212 0 0 0 0 44.436548390149255 0.80708079473424732 0 0.80708079473424732 -6.8997945423343481 0 0 0 0 56.447367887913266 -7.5895237624462766 0 -7.5895237624462766 -7.6150757189205063 0 0 0 0 41.657632265755169 -1.5953300997717861 0 -1.5953300997717861 -21.085461025636043 0 0 0 0 67.682867549316143 14.087724496911562 0 14.087724496911562 -22.795252415525738 0 0 0 0 12.774080190828204 -12.285298691451271 0 -12.285298691451271 -7.9931007925208313 0 0 0 0 98.553317238247473 -20.207195439743373 0 -20.207195439743373 -9.8912393375303509 0 0 0 0 374.7362307166768 -197.02618753597926 0 -197.02618753597926 68.885595192238725 0 0 0 0 14.233677287980477 -0.96459266685688938 0 -0.96459266685688938 -0.24150826408219039 0 0 0 0 98.190786119477707 1.9870762365162591 0 1.9870762365162591 -14.402571763504056 0 0 0 0 97.961951649238472 9.9299012857527487 0 9.9299012857527487 -29.698719054386174 0 0 0 0 112.52261693296714 -54.87087927186144 0 -54.87087927186144 -43.981200622842152 0 0 0 0 79.924113214260387 -4.8407212003105693 0 -4.8407212003105693 -3.825223252700571 0 0 0 0 19.153855985589679 0.60118011003797278 0 0.60118011003797278 0.010455840257044713 0 0 0 0 146.59676334513642 8.1361353514248549 0 8.1361353514248549 -9.5754351049681645 0 0 0 0 149.82635484460843 -0.10982311674979428 0 -0.10982311674979428 9.1895365410873637 0 0 0 0 100.54099051986123 -14.780416072220305 0 -14.780416072220305 27.068428049533395 0 0 0 0 20.004556187835988 5.3572160874173278 0 5.3572160874173278 -15.891016530582419 0 0 0 0 111.72396591299912 -10.031504447417319 0 -10.031504447417319 -2.3633752599198488 0 0 0 0 53.920210981312408 -0.1501388242981152 0 -0.1501388242981152 -12.475989960693182 0 0 0 0 47.013685824289645 1.5971302788076684 0 1.5971302788076684 -6.7850238407421202 0 0 0 0 39.881455159829784 3.1362544268074544 0 3.1362544268074544 -1.6391652704842272 0 0 0 0 162.9032361151767 10.195458891979797 0 10.195458891979797 -14.910056181969594 0 0 0 0 50.658048386486499 -3.1073391689173535 0 -3.1073391689173535 -5.6278151029873733 0 0 0 0 16.068627318657288 -1.6880665077907224 0 -1.6880665077907224 -0.36290913647950873 0 0 0 0 70.987847069642996 -23.003488752926152 0 -23.003488752926152 -13.779133843311282 0 0 0 0 -1.5696536002014909 -9.4534445624631189 0 -9.4534445624631189 22.709950614349964 0 0 0 0 74.331500506004886 30.812902610897481 0 30.812902610897481 9.1919986539431875 0 0 0 0 81.595073076175737 -1.8274170354563615 0 -1.8274170354563615 -3.6228835315168433 0 0 0 0 90.990337769135294 -3.200114685219603 0 -3.200114685219603 -51.132849178944525 0 0 0 0 92.780628220440121 -13.93311433249437 0 -13.93311433249437 -58.904480207144843 0 0 0 0 105.73721179488348 11.958636568502243 0 11.958636568502243 -25.092748211491653 0 0 0 0 95.31734004340251 -21.668290375081142 0 -21.668290375081142 -52.936732326003039 0 0 0 0 91.031633039230655 10.552935844237709 0 10.552935844237709 -12.299559780413347 0 0 0 0 75.330814334072784 13.738908619796121 0 13.738908619796121 -11.244421269479972 0 0 0 0 96.059227823134279 22.733015550068103 0 22.733015550068103 -7.2054345522728909 0 0 0 0 88.022754384728614 18.92955963685381 0 18.92955963685381 14.888688594608539 0 0 0 0 94.687247985519207 26.670562546852807 0 26.670562546852807 5.8832951958665944 0 0 0 0 118.41982322513104 -7.6030211730067094 0 -7.6030211730067094 -9.2495516803655846 0 0 0 0 151.77563881326569 0.80872054966971518 0 0.80872054966971518 -7.6063666957143141 0 0 0 0 42.990547133351953 23.787707042223516 0 23.787707042223516 -15.499319016957529 0 0 0 0 91.081627288975142 12.533671246241738 0 12.533671246241738 6.2073923023740463 0 0 0 0 102.25675994625635 18.663597897804266 0 18.663597897804266 -3.9685085233527388 0 0 0 0 90.055881374122691 21.807229015729718 0 21.807229015729718 -3.0455735215559798 0 0 0 0 90.244344553189876 14.947994199756067 0 14.947994199756067 4.6456842863140082 0 0 0 0 90.240671318758814 14.38731740158109 0 14.38731740158109 -1.0672109569877648 0 0 0 0 81.88795644236265 0.54522022173433982 0 0.54522022173433982 -8.1155386313202627 0 0 0 0 75.761952759728331 -13.030988570594664 0 -13.030988570594664 -10.889306167115333 0 0 0 0 111.60143746811082 6.1654269264041659 0 6.1654269264041659 -25.767565814557202 0 0 0 0 15.558763419214898 3.3872778219911694 0 3.3872778219911694 -5.6800376545619358 0 0 0 0 130.12908406580391 6.7132619396866176 0 6.7132619396866176 -49.088046404744091 0 0 0 0 86.886633784975857 34.536946456810256 0 34.536946456810256 15.907043310447989 0 0 0 0 104.62388939989614 23.861232451886281 0 23.861232451886281 11.718649420606198 0 0 0 0 71.807344720975379 17.453744569443643 0 17.453744569443643 26.611347377998754 0 0 0 0 88.318839321640553 34.491910778961028 0 34.491910778961028 13.123818141124502 0 0 0 0 94.696052994782804 13.385326855097446 0 13.385326855097446 20.171303058790727 0 0 0 0 128.2509065377817 -4.7232130813717959 0 -4.7232130813717959 29.077962517425476 0 0 0 0 72.152649163248569 3.9181448573695548 0 3.9181448573695548 -12.221219698019372 0 0 0 0 82.381101387562893 0.6928221112083115 0 0.6928221112083115 -7.4166474650063616 0 0 0 0 80.853744405465477 -19.31167381805983 0 -19.31167381805983 3.9839650729236382 0 0 0 0 76.897932572719583 -7.0373106968513639 0 -7.0373106968513639 -29.006702062600652 0 0 0 0 62.99650090903431 13.329346585251599 0 13.329346585251599 -6.7795866652374297 0 0 0 0 104.28593012754391 1.8463888075595492 0 1.8463888075595492 -4.8392421781818484 0 0 0 0 78.015499255325267 108.90764218718004 0 108.90764218718004 26.907747825000115 0 0 0 0 186.68959934932354 -47.693434140008321 0 -47.693434140008321 -44.670576415689084 0 0 0 0 147.25032527049916 -5.5155567466681532 0 -5.5155567466681532 -65.499384765645118 0 0 0 0 140.91391272502369 -39.660629226417768 0 -39.660629226417768 19.606746747267607 0 0 0 0 152.70238794356646 -38.010436011690103 0 -38.010436011690103 -18.952203380566061 0 0 0 0 213.59068773156832 5.6425478474120609 0 5.6425478474120609 8.7486508236040663 0 0 0 0 3.7238406726010851 5.7780055908440975 0 5.7780055908440975 -1.083538825144676 0 0 0 0 217.71284563336621 3.202742863429421 0 3.202742863429421 -70.424269251532678 0 0 0 0 55.135610578396154 -5.3854152433168565 0 -5.3854152433168565 -62.654670264348169 0 0 0 0 60.078550753307354 18.684881052464789 0 18.684881052464789 -11.822250123795129 0 0 0 0 -57.468653044124949 124.89112497460701 0 124.89112497460701 90.303044503016281 0 0 0 0 52.446000139811076 124.11004900025 0 124.11004900025 -25.213322079921454 0 0 0 0 141.58007754808273 -51.14001572315388 0 -51.14001572315388 -15.173594395692817 0 0 0 0 37.54045557741847 -22.499422230486744 0 -22.499422230486744 32.412435901369918 0 0 0 0 148.09215767395335 -16.945957976752084 0 -16.945957976752084 -16.275720450680637 0 0 0 0 116.1899891073881 -40.273987385446162 0 -40.273987385446162 -16.810492142164549 0 0 0 0 28.542992729934021 -14.11217483442865 0 -14.11217483442865 -1.5094159204534847 0 0 0 0 9.5958215621662077 3.9203745516343673 0 3.9203745516343673 -9.0375532350020791 0 0 0 0 372.6482403330956 -56.749608116639138 0 -56.749608116639138 -55.601653865490789 0 0 0 0 135.73890073211805 14.034061550966726 0 14.034061550966726 -118.47788949098867 0 0 0 0 94.007034567271404 -43.272418410269154 0 -43.272418410269154 9.7234797018250685 0 0 0 0 84.297518521882012 -36.84427166691421 0 -36.84427166691421 77.773406605599575 0 0 0 0 130.62343210822473 -286.73250472271309 0 -286.73250472271309 -69.465404150629183 0 0 0 0 166.77389292194857 -26.231254058333434 0 -26.231254058333434 60.492719847067292 0 0 0 0 203.18788491436862 11.120037272721675 0 11.120037272721675 48.204530532969329 0 0 0 0 148.87148628440195 -22.20713882708452 0 -22.20713882708452 -12.57150084134264 0 0 0 0 48.864163496531546 -19.517024334138114 0 -19.517024334138114 -13.937366888885663 0 0 0 0 88.484369811503953 -18.373469215189768 0 -18.373469215189768 -6.6505549696167723 0 0 0 0 -58.84944586490019 -131.49135919141327 0 -131.49135919141327 -29.78798853240005 0 0 0 0 99.227820567539311 -40.373081236499104 0 -40.373081236499104 -4.7997581965350129 0 0 0 0 -118.27519716708048 -109.79435265129905 0 -109.79435265129905 80.346954065174941 0 0 0 0 -68.663264604227152 -119.50820336894321 0 -119.50820336894321 46.618006285920274 0 0 0 0 -10.282481285772519 -104.69833929644119 0 -104.69833929644119 38.499523020755078 0 0 0 0 65.182049098468269 -8.8486742876175413 0 -8.8486742876175413 -18.256445679307035 0 0 0 0 54.901252639255134 -25.972448534263961 0 -25.972448534263961 6.8465063715452175 0 0 0 0 70.907811709959063 2.6346177184975375 0 2.6346177184975375 -4.7572549207454777 0 0 0 0 123.88721347180399 -14.614567214646286 0 -14.614567214646286 17.452769885137968 0 0 0 0 -6.6513321130639156 -9.4984296059804336 0 -9.4984296059804336 9.1365083779552485 0 0 0 0 25.524120813119225 -23.504260171229362 0 -23.504260171229362 24.345185971244064 0 0 0 0 100.61345584489209 -21.525548698499733 0 -21.525548698499733 63.436140529345721 0 0 0 0 147.90862494902103 -37.070417581810034 0 -37.070417581810034 32.979475259817264 0 0 0 0 7.3871887746086031 -0.13852276262481666 0 -0.13852276262481666 -0.26267337225442589 0 0 0 0 15.194364267768833 -20.266693160743216 0 -20.266693160743216 74.165578936630482 0 0 0 0 31.816288725502091 -45.936847187678723 0 -45.936847187678723 16.379186026060779 0 0 0 0 26.264286577585153 -19.824988860931626 0 -19.824988860931626 20.071029945054306 0 0 0 0 83.68543483276153 11.211128457498489 0 11.211128457498489 29.544278279521677 0 0 0 0 80.794317017008325 -40.01340192776911 0 -40.01340192776911 19.644385047067772 0 0 0 0 35.844562179918285 61.656034375882882 0 61.656034375882882 75.880358485916986 0 0 0 0 -47.462472636761959 -157.12795885793139 0 -157.12795885793139 173.55287677977685 0 0 0 0 676.49722675037629 -229.84065280232153 0 -229.84065280232153 75.668883166332307 0 0 0 0 21.6961677474319 -51.585074788868951 0 -51.585074788868951 17.660757713576459 0 0 0 0 2.8632211250399564 -1.4113308354531426 0 -1.4113308354531426 1.446838375023944 0 0 0 0 1439.4803656669683 547.32493198741304 0 547.32493198741304 221.45736862280319 0 0 0 0 0.41759361590223421 -0.77613238576331867 0 -0.77613238576331867 3.7354474109917994 0 0 0 0 991.41448402337483 257.69218850120319 0 257.69218850120319 -29.046360004664166 0 0 0 0 1489.1743375033984 493.66108732765679 0 493.66108732765679 165.56635002525081 0 0 0 0 935.81763399700867 258.8036598915287 0 258.8036598915287 405.17601990090225 0 0 0 0 807.85742237907834 451.79252828805784 0 451.79252828805784 348.36115821289968 0 0 0 0 1060.8690110446842 622.93216617986695 0 622.93216617986695 116.35014347932884 0 0 0 0 898.67325287154745 408.53388135916657 0 408.53388135916657 166.87090922565403 0 0 0 0 570.24147462857218 589.73612641432192 0 589.73612641432192 343.91095886847961 0 0 0 0 100.50592018725183 146.7303487738132 0 146.7303487738132 256.30098596909374 0 0 0 0 1.05281685029518 1.708877507789424 0 1.708877507789424 3.6831640736015316 0 0 0 0 1282.1800316417721 427.44344008388862 0 427.44344008388862 60.103995680600747 0 0 0 0 -72.679276604714687 274.69709651367521 0 274.69709651367521 167.38245608382203 0 0 0 0 653.22056323668585 734.48867880947319 0 734.48867880947319 290.84474272619991 0 0 0 0 369.89575334402616 -11.392482488864516 0 -11.392482488864516 -108.987813165288 0 0 0 0 358.71898097364829 -30.594900699731397 0 -30.594900699731397 -141.34323710320314 0 0 0 0 18.992881234590804 -36.706717538139927 0 -36.706717538139927 10.543664715010124 0 0 0 0 379.97770461871914 -88.691349174333595 0 -88.691349174333595 -79.628612657825215 0 0 0 0 223.99344198340987 -64.944559741672947 0 -64.944559741672947 -64.428343098049481 0 0 0 0 106.07672890622052 -61.320452301516525 0 -61.320452301516525 -24.121809527190635 0 0 0 0 463.87878378947062 -378.45714971441703 0 -378.45714971441703 -70.179114972708703 0 0 0 0 809.92709622842085 18.610498644908148 0 18.610498644908148 -151.21696328213045 0 0 0 0 533.31206991205181 164.20076437472801 0 164.20076437472801 154.68792878990644 0 0 0 0 1210.673781115765 326.17588828623832 0 326.17588828623832 46.800060867419234 0 0 0 0 1186.1191480063426 369.4165320373113 0 369.4165320373113 111.28254427364118 0 0 0 0 3108.7661974754883 1397.2613522951906 0 1397.2613522951906 198.22682184876703 0 0 0 0 1724.2621890571318 571.10691444393342 0 571.10691444393342 -107.0044155923315 0 0 0 0 -293.83730888061018 125.47617470176789 0 125.47617470176789 -34.642359590430715 0 0 0 0 1334.5180276518677 -169.11334520373828 0 -169.11334520373828 -56.58755801512234 0 0 0 0 -141.12223411441664 -778.86025638797855 0 -778.86025638797855 105.11884418902264 0 0 0 0 2418.0389987069939 -534.17733133176716 0 -534.17733133176716 -584.70186159678997 0 0 0 0 -0.19183032933349864 -3.6838287531231799 0 -3.6838287531231799 -5.0605274284725414 0 0 0 0 -15.870320057409117 102.88274243145167 0 102.88274243145167 1245.1493542137141 0 0 0 0 -55.988319162635889 -74.7573049464213 0 -74.7573049464213 463.34718362734748 0 0 0 0 -36.671105207846267 358.66393762644748 0 358.66393762644748 484.1791221996163 0 0 0 0 1586.3544065388269 1797.6185719173263 0 1797.6185719173263 1312.9824770867417 0 0 0 0 24.852647103351245 -9.4306020223357727 0 -9.4306020223357727 4.7981785398011922 0 0 0 0 984.50670055230148 -1007.6703482839675 0 -1007.6703482839675 -166.76406085447525 0 0 0 0 793.01016498485114 -1291.3990181845347 0 -1291.3990181845347 -204.61233762153097 0 0 0 0 1752.6668070516316 2641.0648039683583 0 2641.0648039683583 1822.6514815130577 0 0 0 0 310.84134961838572 -1691.2223778723442 0 -1691.2223778723442 -534.35861437789572 0 0 0 0 693.42373412672896 922.97508654106196 0 922.97508654106196 875.89015024500827 0 0 0 0 1799.2734720925582 536.02036483522681 0 536.02036483522681 -70.844143587281906 0 0 0 0 1581.9352647343185 -258.54561606202515 0 -258.54561606202515 43.51578704826079 0 0 0 0 1336.4991791872162 -1133.840035001959 0 -1133.840035001959 204.02906451742729 0 0 0 0 1206.9706465526833 -1270.6101732082006 0 -1270.6101732082006 -997.61513223242218 0 0 0 0 1394.9763824692782 -974.76608604241619 0 -974.76608604241619 -636.26114882576803 0 0 0 0 1887.7384372101078 -203.42113523097032 0 -203.42113523097032 -5.0918085938246804 0 0 0 0 -294.28077005477098 -542.10907351179412 0 -542.10907351179412 -17.635764796755211 0 0 0 0 -47.782540295149374 95.805163788395191 0 95.805163788395191 93.136793136275628 0 0 0 0 5.532098492149089 -10.200390746487358 0 -10.200390746487358 219.09946156195701 0 0 0 0 -48.042305515380576 461.05449928133839 0 461.05449928133839 -34.30118346864765 0 0 0 0 127.89831990877792 18.226874634242449 0 18.226874634242449 -593.66690405959707 0 0 0 0 71.372667701599966 -20.756421851235466 0 -20.756421851235466 6.1320577594022971 0 0 0 0 415.14425804182247 -17.601808411160164 0 -17.601808411160164 169.68696606509366 0 0 0 0 687.59680504248536 753.83576468996398 0 753.83576468996398 835.95460849541269 0 0 0 0 1196.7027033872926 1004.8372438193579 0 1004.8372438193579 359.55887114819052 0 0 0 0 1180.5656187551176 1427.8189508005685 0 1427.8189508005685 1326.5414408346478 0 0 0 0 166.49046586084751 218.98861385562918 0 218.98861385562918 -347.06729678700049 0 0 0 0 149.32306717153551 505.4067088057177 0 505.4067088057177 236.49114979913577 0 0 0 0 -56.958258513958299 179.90307419523097 0 179.90307419523097 -31.29351178327488 0 0 0 0 32.617118027140762 -10.383343801798816 0 -10.383343801798816 -6.314776560702974 0 0 0 0 -12.204608932253905 -238.41377934745833 0 -238.41377934745833 6.1805302159073108 0 0 0 0 186.98803415381553 97.637115736286432 0 97.637115736286432 -259.13236950275132 0 0 0 0 403.4850421115334 -715.83215416042367 0 -715.83215416042367 -125.54962878780589 0 0 0 0 136.6949667439261 -48.069090416937151 0 -48.069090416937151 -15.453812899653279 0 0 0 0 325.64793511064818 326.57913103624719 0 326.57913103624719 21.961224353629405 0 0 0 0 296.02876348161226 254.63635834031948 0 254.63635834031948 -112.51141028983011 0 0 0 0 201.29979759397975 265.8021178583549 0 265.8021178583549 233.34394410536243 0 0 0 0 492.03985575828847 -483.15515928608556 0 -483.15515928608556 170.01675872213491 0 0 0 0 675.13381263709744 -352.52847945175336 0 -352.52847945175336 -214.50246059040728 0 0 0 0 4.456830983782794 7.5431541240168869 0 7.5431541240168869 4.8471984765707425 0 0 0 0 0.61917712246015277 -1.8579758588227122 0 -1.8579758588227122 -0.12371075147230215 0 0 0 0 74.078612229437567 138.89712300616793 0 138.89712300616793 263.97175067612534 0 0 0 0 64.142382390054991 106.0620605695924 0 106.0620605695924 175.57698791805797 0 0 0 0 -78.088983154069865 -44.028400659612316 0 -44.028400659612316 8.003639916292741 0 0 0 0 135.63792896123778 133.22937767625763 0 133.22937767625763 -14.848077045129685 0 0 0 0 159.60076321201632 -1.0982835607651396 0 -1.0982835607651396 7.6512244747582372 0 0 0 0 148.21565031658974 3.3756774649282306 0 3.3756774649282306 8.6731486045173369 0 0 0 0 19.946983989473324 -33.528510253646076 0 -33.528510253646076 1.7841721284111784 0 0 0 0 144.43124356908811 7.0372652561122777 0 7.0372652561122777 17.474589483515501 0 0 0 0 -105.04447413401613 38.184921691795353 0 38.184921691795353 7.7721520552731818 0 0 0 0 14.677678526207885 31.122383975083395 0 31.122383975083395 1.8543144973603773 0 0 0 0 -55.586465286316525 -169.19536592225177 0 -169.19536592225177 126.1989544390126 0 0 0 0 -25.68620226668358 8.7081777566561556 0 8.7081777566561556 8.7372965896234689 0 0 0 0 -7.3331759239081293 25.949450458985666 0 25.949450458985666 3.763115919471602 0 0 0 0 -4.1127831314663013 13.205206341412136 0 13.205206341412136 9.4029736747585737 0 0 0 0 -7.3751106022973545 0.053284464491298422 0 0.053284464491298422 -0.22911480673792539 0 0 0 0 18.249205197698814 23.237897199538537 0 23.237897199538537 -6.0521798635028823 0 0 0 0 0.21837020265090246 1.4558194592641485 0 1.4558194592641485 10.412208908821619 0 0 0 0 -2.5133588399039581 -39.423946724815323 0 -39.423946724815323 14.476769284658076 0 0 0 0 -13.097607640322366 -15.75342700383213 0 -15.75342700383213 -5.984448791616849 0 0 0 0 -49.223964187120146 -45.095484636891456 0 -45.095484636891456 128.1183286090436 0 0 0 0 -3.7436831445811549 52.751508171940486 0 52.751508171940486 100.54793057755251 0 0 0 0 -3.4147761904948624 4.2798695766028345 0 4.2798695766028345 -1.3117887188017399 0 0 0 0 20.053077867618413 21.926023037997993 0 21.926023037997993 -38.94309697103381 0 0 0 0 -10.110612489109997 25.526617996282241 0 25.526617996282241 12.731776845960749 0 0 0 0 221.27585104697209 81.185083774229042 0 81.185083774229042 4.6779375519514588 0 0 0 0 299.71406933753315 52.751245989466952 0 52.751245989466952 9.1955015931494017 0 0 0 0 -28.628836146548565 26.390357920436372 0 26.390357920436372 25.899493100308064 0 0 0 0 353.86596940334221 41.080160736729013 0 41.080160736729013 -74.411651900117249 0 0 0 0 2.2183254783688628 20.873490908612908 0 20.873490908612908 4.4697078751187433 0 0 0 0 381.97270728248986 -113.18105728293904 0 -113.18105728293904 172.8366187000758 0 0 0 0 121.29945769529513 272.91377859683121 0 272.91377859683121 -183.15162893824981 0 0 0 0 517.04948291667097 38.035253214894055 0 38.035253214894055 -468.59306993172959 0 0 0 0 56.470460928707325 16.59076268616991 0 16.59076268616991 96.800372489022266 0 0 0 0 -3.7954448223718344 2.8874346535656628 0 2.8874346535656628 5.4170557228053902 0 0 0 0 446.21260012608036 319.4652321006422 0 319.4652321006422 -315.55620129718318 0 0 0 0 16.793629065803543 161.13718439804188 0 161.13718439804188 197.39601075276164 0 0 0 0 56.893257313052786 0.75086801584069462 0 0.75086801584069462 10.743520956154491 0 0 0 0 367.78327965839708 -70.36033958236635 0 -70.36033958236635 -46.937423118364279 0 0 0 0 252.44203067743882 -16.175524965563934 0 -16.175524965563934 -0.12768192448675431 0 0 0 0 178.12379334262369 28.049891456886598 0 28.049891456886598 -15.814837405778235 0 0 0 0 195.13845592638972 69.433343694406631 0 69.433343694406631 4.1353027501172619 0 0 0 0 222.48095169317776 20.382313584515977 0 20.382313584515977 -9.9939456096551922 0 0 0 0 212.94771636806036 45.905668079668999 0 45.905668079668999 -6.6963315188686465 0 0 0 0 205.0487380373379 47.260351602921673 0 47.260351602921673 -1.471336711972981 0 0 0 0 207.69001519749872 34.99213046903651 0 34.99213046903651 -18.954676160906274 0 0 0 0 81.412253974041221 69.682884514971391 0 69.682884514971391 -37.061774902587445 0 0 0 0 79.585068270913325 192.82920628799184 0 192.82920628799184 -15.108033746641013 0 0 0 0 289.62375799170695 -45.94436823992055 0 -45.94436823992055 -154.11625826534691 0 0 0 0 -15.739291323190086 8.1749602353665693 0 8.1749602353665693 -0.3268410396770598 0 0 0 0 -6.6474849685984001 25.879460657660616 0 25.879460657660616 -8.2276628968698144 0 0 0 0 224.8553586605849 49.855552096361407 0 49.855552096361407 -21.191842103196052 0 0 0 0 -10.173302215611329 37.855002351350862 0 37.855002351350862 23.053961038321802 0 0 0 0 251.64452441258345 67.460319337138344 0 67.460319337138344 -18.170915985969259 0 0 0 0 -0.42391374524871139 30.113327063912848 0 30.113327063912848 -6.9560379995701203 0 0 0 0 156.87814389975392 310.39246099975662 0 310.39246099975662 -56.625439577157522 0 0 0 0 182.38804626173805 272.74281623960258 0 272.74281623960258 -14.770210265526657 0 0 0 0 73.6988738750224 231.91436744155772 0 231.91436744155772 153.49137737689423 0 0 0 0 43.985921342893562 277.55348313151705 0 277.55348313151705 144.04100434919451 0 0 0 0 167.66366549493978 307.08771490372965 0 307.08771490372965 -158.19058124355524 0 0 0 0 58.202664449228905 411.00309370078458 0 411.00309370078458 55.584361266586711 0 0 0 0 339.96617121869349 178.66418614517443 0 178.66418614517443 -542.29407819628159 0 0 0 0 46.994932808040176 438.30113667047954 0 438.30113667047954 -248.61685572045189 0 0 0 0 243.28005247082888 -1.0945973340562425 0 -1.0945973340562425 -9.2996035715695733 0 0 0 0 341.2704023330225 264.06759525890493 0 264.06759525890493 424.93425958357693 0 0 0 0 685.27767402516929 41.397682829730996 0 41.397682829730996 -199.05751717078056 0 0 0 0 263.53670811987104 321.01877472609681 0 321.01877472609681 390.11798294964501 0 0 0 0 182.15475576554854 286.13517835049083 0 286.13517835049083 385.57595628467288 0 0 0 0 116.7867469393839 168.36793850515505 0 168.36793850515505 328.85056282638379 0 0 0 0 418.81817996964367 420.16540514910207 0 420.16540514910207 237.45037708487553 0 0 0 0 152.02716628290545 338.33421522803019 0 338.33421522803019 -124.96854315356904 0 0 0 0 3.0266213237557196 -4.9304263350687929 0 -4.9304263350687929 -3.546362745687726 0 0 0 0 1440.0687554433971 924.95332392610555 0 924.95332392610555 208.07758702119122 0 0 0 0 -72.857132835473749 -6.6943094793391538 0 -6.6943094793391538 559.51931352173597 0 0 0 0 359.53837597121355 -50.759237711153219 0 -50.759237711153219 -173.86670161711663 0 0 0 0 1003.6352390172324 336.14009895386698 0 336.14009895386698 466.43297040423204 0 0 0 0 -82.133049103133089 719.5436771902514 0 719.5436771902514 1165.1711608937985 0 0 0 0 66.469026187826728 9.3892562914938225 0 9.3892562914938225 -3.0939367615745823 0 0 0 0 316.63494225887825 47.198725014846787 0 47.198725014846787 -34.14140448170096 0 0 0 0 499.87205352286128 298.9431197247701 0 298.9431197247701 273.4182326701582 0 0 0 0 569.08908562396255 273.65207060934176 0 273.65207060934176 282.57154480499912 0 0 0 0 462.70488645953083 49.283140093424549 0 49.283140093424549 -102.13868136388101 0 0 0 0 71.31689407540307 -9.261691624818134 0 -9.261691624818134 -18.802471171731323 0 0 0 0 890.99213970619167 -270.44851253140587 0 -270.44851253140587 -74.276813189251556 0 0 0 0 1458.6506486897561 -47.144630479319858 0 -47.144630479319858 -150.3984838170054 0 0 0 0 -575.78319842384371 196.10410972578393 0 196.10410972578393 665.66491136334298 0 0 0 0 -5.2842348341074761 -4.5789014158583825 0 -4.5789014158583825 4.274336753302201 0 0 0 0 28.590925723706142 16.066036036413415 0 16.066036036413415 8.1828794678642467 0 0 0 0 766.03423358462351 1685.8746548593363 0 1685.8746548593363 1334.6023880292196 0 0 0 0 -2598.0721531844756 2873.1602549903473 0 2873.1602549903473 2198.982926588199 0 0 0 0 1726.6262659324802 -636.19310740555716 0 -636.19310740555716 -970.94562544813562 0 0 0 0 291.27180341118219 -440.36056037755043 0 -440.36056037755043 1820.784559395524 0 0 0 0 1148.3919174744879 751.62392819867591 0 751.62392819867591 1092.1381861433435 0 0 0 0 357.02219376144421 -330.22294830483668 0 -330.22294830483668 266.90630537388506 0 0 0 0 722.69663796543318 34.854295659276886 0 34.854295659276886 -1069.6168562487208 0 0 0 0 -155.00340768344358 881.10566508511351 0 881.10566508511351 -1150.8423637127753 0 0 0 0 53.229739690383838 -3.0309686119951493 0 -3.0309686119951493 1.5251611988722376 0 0 0 0 481.25129738916439 959.05294977062158 0 959.05294977062158 2470.6694759163729 0 0 0 0 548.90617952439061 -1234.6508112090678 0 -1234.6508112090678 -45.053812101735275 0 0 0 0 2320.8999601800388 1272.4161720673674 0 1272.4161720673674 341.4842771240601 0 0 0 0 3157.8984259447207 -849.76002579973488 0 -849.76002579973488 -1395.2129144111659 0 0 0 0 -1846.8024774315272 449.90630579122626 0 449.90630579122626 -216.52239317868907 0 0 0 0 1998.4547080735792 -412.00766448575814 0 -412.00766448575814 -922.53893320499265 0 0 0 0 1526.6086211006914 -2434.7523359961824 0 -2434.7523359961824 1425.7010374014444 0 0 0 0 13.078637505328516 31.470399432189481 0 31.470399432189481 148.337020083948 0 0 0 0 17.773953071566552 5.3092826276724594 0 5.3092826276724594 0.69335280779094166 0 0 0 0 537.55587798867055 905.04123916818889 0 905.04123916818889 -2435.3243771326397 0 0 0 0 330.37611480679334 -2072.301655885442 0 -2072.301655885442 -836.58022804179564 0 0 0 0 1834.7337423687059 3799.1684988974935 0 3799.1684988974935 2745.6123005644749 0 0 0 0 15.905527091851383 -2.4847131084600704 0 -2.4847131084600704 -4.1623119193084088 0 0 0 0 35.880696074047592 126.82894978996114 0 126.82894978996114 559.31161459507621 0 0 0 0 1085.1605272652523 -1057.8951131584931 0 -1057.8951131584931 -1495.3770390071588 0 0 0 0 1770.2176083691884 13.048220086923834 0 13.048220086923834 -201.7803915302643 0 0 0 0 716.44973942727665 -431.44373122194156 0 -431.44373122194156 824.73201510622755 0 0 0 0 640.87348612429923 660.0245919984618 0 660.0245919984618 -554.84673374966769 0 0 0 0 598.56001687826938 -138.84160651238835 0 -138.84160651238835 157.02408342325725 0 0 0 0 1039.0474666868176 461.61528001199611 0 461.61528001199611 -21.468408051968254 0 0 0 0 806.73930623469641 127.21422783389971 0 127.21422783389971 -364.59764405236183 0 0 0 0 -183.20516958604276 -674.97436020767327 0 -674.97436020767327 -427.53234829774829 0 0 0 0 189.3346327454492 475.00945195359384 0 475.00945195359384 95.379345304629169 0 0 0 0 169.6604047081637 468.22257107969494 0 468.22257107969494 504.76209760967868 0 0 0 0 -81.345139057259075 250.57833106018825 0 250.57833106018825 -101.12666173191883 0 0 0 0 113.9289713393664 254.70640032716892 0 254.70640032716892 -117.93370177876341 0 0 0 0 647.02860599884661 24.847093584194681 0 24.847093584194681 -1429.2431366561923 0 0 0 0 152.44122405041725 -6.761791807904924 0 -6.761791807904924 0.69491453845094853 0 0 0 0 15.395398014839884 325.55474416912148 0 325.55474416912148 1113.4423623336174 0 0 0 0 406.93874019304349 231.76357027817744 0 231.76357027817744 712.17024486883201 0 0 0 0 227.51772320308373 121.97356201291427 0 121.97356201291427 5.1267992874004449 0 0 0 0 217.34234428231866 470.35621843687341 0 470.35621843687341 678.03963698210191 0 0 0 0 237.54847650494412 104.17049944291807 0 104.17049944291807 654.72577029575723 0 0 0 0 103.7419351916069 433.89161231844332 0 433.89161231844332 416.92011768073394 0 0 0 0 302.04729201574082 337.16377102856347 0 337.16377102856347 -24.102910446768419 0 0 0 0 17.503514217814882 73.422801566568523 0 73.422801566568523 -31.345678643541333 0 0 0 0 -178.97118675347883 141.19501724305428 0 141.19501724305428 28.305881181872792 0 0 0 0 148.58173559053103 -439.84836860194991 0 -439.84836860194991 -821.31926270473286 0 0 0 0 6.5124164587837754 4.3379924834521191 0 4.3379924834521191 -6.6334312149351149 0 0 0 0 610.37810781237204 -433.13924868287904 0 -433.13924868287904 -1343.5500087995993 0 0 0 0 745.85685517675665 103.44662254891591 0 103.44662254891591 -1046.6757122051094 0 0 0 0 303.02186842669471 33.302537468815672 0 33.302537468815672 -79.283627955016868 0 0 0 0 821.29851508905267 77.521419896803309 0 77.521419896803309 -111.20563118017867 0 0 0 0 536.12394108331864 -14.557498925235905 0 -14.557498925235905 303.07756197707204 0 0 0 0 -320.94819011466461 -1210.7766855396267 0 -1210.7766855396267 -226.53882365843199 0 0 0 0 1033.3762978502855 -355.91731275933643 0 -355.91731275933643 -121.82575100247567 0 0 0 0 407.28585478407331 -185.28765683334586 0 -185.28765683334586 -52.941259845454624 0 0 0 0 381.42331669884879 -146.681029489102 0 -146.681029489102 -107.80740317491282 0 0 0 0 429.70204454239138 -280.64492048977991 0 -280.64492048977991 -43.339740031973292 0 0 0 0 228.8793120311966 -62.71995652233727 0 -62.71995652233727 -169.89013195056577 0 0 0 0 857.87359607414692 -60.937617956753911 0 -60.937617956753911 -374.3665721743655 0 0 0 0 374.50972141931879 170.43253678730451 0 170.43253678730451 -480.30282370402347 0 0 0 0 402.83190677263883 -52.921942012590137 0 -52.921942012590137 -176.74048185118409 0 0 0 0 175.51371370786364 31.69785928811234 0 31.69785928811234 25.580313620352172 0 0 0 0 99.283518912377346 41.667103710220161 0 41.667103710220161 11.328856412001603 0 0 0 0 7.9333521717853728 227.71630343221477 0 227.71630343221477 -185.88585149162645 0 0 0 0 140.76377550194229 27.675794696370758 0 27.675794696370758 -12.609335545064823 0 0 0 0 41.191468099041224 5.7126791909653249 0 5.7126791909653249 -4.2583492780210719 0 0 0 0 150.40561617610669 62.058515353468543 0 62.058515353468543 18.475417741544611 0 0 0 0 256.17678383538077 47.604100772931815 0 47.604100772931815 -185.36579348063242 0 0 0 0 195.36431560960773 -82.305906134910401 0 -82.305906134910401 73.398742601134927 0 0 0 0 76.463591975132658 847.6611490196367 0 847.6611490196367 578.60199408292829 0 0 0 0 310.41889598579655 -61.023758842666211 0 -61.023758842666211 -80.506261911039473 0 0 0 0 162.46702010723675 265.99085736702546 0 265.99085736702546 74.847850828667106 0 0 0 0 24.325888405459011 24.923356273842082 0 24.923356273842082 -3.6030086972149231 0 0 0 0 124.02262590084449 42.543061543645486 0 42.543061543645486 13.711914915581557 0 0 0 0 189.75767761170118 92.940777696177975 0 92.940777696177975 -694.50170512997101 0 0 0 0 176.36883572311854 101.18198383760091 0 101.18198383760091 -136.92971543065255 0 0 0 0 83.750590468574956 92.385658546341347 0 92.385658546341347 -85.171902976341698 0 0 0 0 137.42283476500961 136.01468702690676 0 136.01468702690676 -158.84281924505103 0 0 0 0 101.52911510731792 130.76254108679143 0 130.76254108679143 4.2575346873377384 0 0 0 0 124.61242732362734 161.93574585386636 0 161.93574585386636 -45.050545167580822 0 0 0 0 152.19620468478388 125.8421387574308 0 125.8421387574308 4.3175228737081852 0 0 0 0 187.6771367873298 204.06372173673071 0 204.06372173673071 89.088351308069377 0 0 0 0 110.06009982100295 170.63750887140657 0 170.63750887140657 121.00215219568781 0 0 0 0 65.656799273670913 108.96675138897217 0 108.96675138897217 118.97842846095045 0 0 0 0 124.45654517014373 54.804431161669413 0 54.804431161669413 -56.822606355698554 0 0 0 0 140.4952350115118 116.92328384613086 0 116.92328384613086 128.25226783343169 0 0 0 0 226.14832702009517 168.02892396749144 0 168.02892396749144 -17.975454692553967 0 0 0 0 386.54819544045313 192.20638321399383 0 192.20638321399383 143.52945777976356 0 0 0 0 75.562798325896438 1.4799838853232359 0 1.4799838853232359 -33.222404583348407 0 0 0 0 77.260149631572858 214.61166869411591 0 214.61166869411591 343.64410813172117 0 0 0 0 75.542318599065766 41.51533510772606 0 41.51533510772606 262.10399432229815 0 0 0 0 2.7786808564169831 2.1918370565436174 0 2.1918370565436174 1.9472180202634788 0 0 0 0 75.429951932244876 172.28221622812634 0 172.28221622812634 282.82468716844051 0 0 0 0 -33.164534566824386 30.653854748886943 0 30.653854748886943 24.878882275007527 0 0 0 0 -33.27725588811154 32.454240690169627 0 32.454240690169627 -3.5566961109116164 0 0 0 0 9.5009619504271541 21.428459347302123 0 21.428459347302123 1.6164393800477228 0 0 0 0 7.2620215030716366 15.124027311492375 0 15.124027311492375 8.6988793555867296 0 0 0 0 46.125446076170192 133.86446414274769 0 133.86446414274769 131.3098841452279 0 0 0 0 33.628151345292281 58.969985961167822 0 58.969985961167822 35.743112989926544 0 0 0 0 -2.7066447637529336 0.57580509975457872 0 0.57580509975457872 3.29304272200618 0 0 0 0 -6.9471440431618703 19.99791114288255 0 19.99791114288255 13.858973657767493 0 0 0 0 33.174206664830336 13.59864750935758 0 13.59864750935758 0.31538440023427938 0 0 0 0 28.708697730572375 -4.0576724196068099 0 -4.0576724196068099 3.989755141164455 0 0 0 0 50.120965538741075 21.586582052587801 0 21.586582052587801 4.6347487924822417 0 0 0 0 57.999615867834663 14.025237798960704 0 14.025237798960704 0.2191127371299757 0 0 0 0 28.013450428177748 17.812218643528581 0 17.812218643528581 11.257190263720986 0 0 0 0 94.555980237258382 29.008462025333131 0 29.008462025333131 7.6900024067817867 0 0 0 0 90.144504285472976 24.223820745177818 0 24.223820745177818 2.797194411899909 0 0 0 0 84.98632794666355 109.18217085890478 0 109.18217085890478 70.878437777915678 0 0 0 0 22.106220100875994 41.738730556539075 0 41.738730556539075 21.738551260442421 0 0 0 0 93.974623287842405 121.17958993457069 0 121.17958993457069 1.5677028788522875 0 0 0 0 1673.8114137004522 633.91395400852116 0 633.91395400852116 484.56377858601036 0 0 0 0 5.9164413777042952 -1.2041368297522936 0 -1.2041368297522936 -1.6174030853138772 0 0 0 0 273.92518517802819 -857.69404280352614 0 -857.69404280352614 -446.68174330256261 0 0 0 0 -205.74858364666215 16.942762485700314 0 16.942762485700314 -1.3416949956626922 0 0 0 0 584.06595458590164 5.9330872144737441 0 5.9330872144737441 -65.997570992387864 0 0 0 0 485.33887135913392 80.301785008401566 0 80.301785008401566 398.5685030832401 0 0 0 0 486.32258014312106 72.799844426704936 0 72.799844426704936 402.60154021894505 0 0 0 0 1227.8955447866592 -448.99387627432804 0 -448.99387627432804 -456.91271169514403 0 0 0 0 1676.6137418465805 -55.998150728092241 0 -55.998150728092241 -198.0675326638771 0 0 0 0 1258.1395832967555 -34.652018543378517 0 -34.652018543378517 -271.99944516064215 0 0 0 0 1483.5571083508039 145.24290471844279 0 145.24290471844279 -212.303394200394 0 0 0 0 1448.7735207264559 237.49008231867049 0 237.49008231867049 -28.962224979514758 0 0 0 0 2.8483177491264229 -3.3709567766752855 0 -3.3709567766752855 0.04424547459681083 0 0 0 0 1845.521446225147 268.97159829337761 0 268.97159829337761 287.13159055136521 0 0 0 0 370.60918015730567 191.88728363912969 0 191.88728363912969 289.41720218479418 0 0 0 0 -234.86676436738708 55.063379599489281 0 55.063379599489281 15.689912272667925 0 0 0 0 483.43273164526909 -464.82560889970068 0 -464.82560889970068 -219.73448068101993 0 0 0 0 360.98866312574683 -201.99415648108879 0 -201.99415648108879 -129.28712670930145 0 0 0 0 -248.03460849770636 -52.737770245567617 0 -52.737770245567617 353.29534037455051 0 0 0 0 375.22980371395533 281.1872378645412 0 281.1872378645412 -474.85726714638986 0 0 0 0 83.45303334812003 35.255518828794997 0 35.255518828794997 12.364387087842324 0 0 0 0 -203.36732829944958 224.35715579751877 0 224.35715579751877 22.389234991833291 0 0 0 0 184.28453446631465 30.746159802750753 0 30.746159802750753 -331.30462044373508 0 0 0 0 20.067283163349735 14.324109955908234 0 14.324109955908234 5.3557197443443991 0 0 0 0 105.55541284741957 14.704142818578873 0 14.704142818578873 145.77882397122039 0 0 0 0 299.77335676573057 9.8704254657524189 0 9.8704254657524189 144.84740855497421 0 0 0 0 152.29554589965846 65.439456415408586 0 65.439456415408586 218.59254670490111 0 0 0 0 450.22100122133998 42.64458846433854 0 42.64458846433854 106.69389188041851 0 0 0 0 373.01650267721561 -56.124249183055099 0 -56.124249183055099 27.178894965744348 0 0 0 0 293.0546160867525 -221.05761571102192 0 -221.05761571102192 28.406021711196445 0 0 0 0 1273.6174740631395 -302.75278968920702 0 -302.75278968920702 -197.50345488902212 0 0 0 0 1776.9754255708867 250.35800257725646 0 250.35800257725646 -196.09744713371856 0 0 0 0 845.86030013411801 57.613059374769364 0 57.613059374769364 -197.50517876727463 0 0 0 0 776.3068698421157 -26.963181089269483 0 -26.963181089269483 -35.960208236432464 0 0 0 0 897.28373873585224 -33.729243737076786 0 -33.729243737076786 -36.761202322842564 0 0 0 0 2.0379306581182206 -0.5145417152459828 0 -0.5145417152459828 -0.76941075322595687 0 0 0 0 329.18696845833983 45.215756170553504 0 45.215756170553504 -92.70029370114149 0 0 0 0 942.3419416929537 191.36735786097051 0 191.36735786097051 -102.54739003070165 0 0 0 0 300.63252968836241 321.73188808413397 0 321.73188808413397 222.80548097354676 0 0 0 0 1060.9860479942763 759.14464612588995 0 759.14464612588995 462.16541299780465 0 0 0 0 468.24788658049874 43.997431782645776 0 43.997431782645776 28.478504667810284 0 0 0 0 499.47551655887946 123.02024902821563 0 123.02024902821563 30.19001213002457 0 0 0 0 930.27797979906973 259.68275956204241 0 259.68275956204241 -13.844196268066753 0 0 0 0 663.81643253825314 193.38803318144687 0 193.38803318144687 45.071178374445822 0 0 0 0 634.68719567453491 66.806936036529521 0 66.806936036529521 45.846800069297387 0 0 0 0 410.77475798688101 183.52918007593257 0 183.52918007593257 32.842209967786175 0 0 0 0 462.2721671469626 96.668673042654746 0 96.668673042654746 72.239697278714175 0 0 0 0 223.80099105728368 112.54760718985085 0 112.54760718985085 210.80309313715082 0 0 0 0 306.51127804063071 120.64376089645316 0 120.64376089645316 105.29286406819756 0 0 0 0 345.24704757845848 85.031168500312333 0 85.031168500312333 94.390095078749255 0 0 0 0 235.20606405137733 149.2974936749406 0 149.2974936749406 116.3900473623944 0 0 0 0 80.875795775020379 75.471447345567867 0 75.471447345567867 158.14116609513087 0 0 0 0 68.111437415441287 -27.476459424909706 0 -27.476459424909706 12.85356715908074 0 0 0 0 186.07851599057494 333.76747688846575 0 333.76747688846575 247.80088256262889 0 0 0 0 5.4593380703765035 1.9832229285030873 0 1.9832229285030873 0.8961106517078159 0 0 0 0 747.69637865626646 210.42823329173507 0 210.42823329173507 6.2174742766317195 0 0 0 0 707.5788457042454 18.674410623824372 0 18.674410623824372 57.788458050178178 0 0 0 0 422.41848590251175 66.235241034809405 0 66.235241034809405 322.97326137674463 0 0 0 0 353.03404989965384 210.63054756009456 0 210.63054756009456 111.91685243544316 0 0 0 0 -36.567045856524601 -33.303317168006231 0 -33.303317168006231 86.356078080052612 0 0 0 0 88.131344439530949 61.326310569278576 0 61.326310569278576 78.71830180966856 0 0 0 0 49.591634104694094 6.7249906046378669 0 6.7249906046378669 8.6194112222101467 0 0 0 0 0.57069711151919833 -0.47004061520085827 0 -0.47004061520085827 0.24820142973464243 0 0 0 0 31.862094928059378 -33.974202762084133 0 -33.974202762084133 93.473507530028201 0 0 0 0 14.583923803853395 -17.916820007726983 0 -17.916820007726983 84.26474727420873 0 0 0 0 43.756373475313012 32.326133822910833 0 32.326133822910833 24.079899195721737 0 0 0 0 27.695243494351779 14.354205319059506 0 14.354205319059506 6.6698851459562336 0 0 0 0 2.8030189757919288 6.8442834317775123 0 6.8442834317775123 15.939217101532449 0 0 0 0 39.488840924694159 18.880278133238107 0 18.880278133238107 2.1502254410761452 0 0 0 0 7.8139393024335781 2.5873504809926189 0 2.5873504809926189 0.57576696552492201 0 0 0 0 -39.145662529823312 18.993641793759139 0 18.993641793759139 32.683086940520298 0 0 0 0 40.599837598405429 22.789372521081759 0 22.789372521081759 13.884201249980833 0 0 0 0 -37.705275730512767 18.307606540231859 0 18.307606540231859 21.95600889792513 0 0 0 0 9.8963171703547168 2.7188218682307834 0 2.7188218682307834 1.2138944785710084 0 0 0 0 73.633810597395495 20.124213230711575 0 20.124213230711575 12.26451400119754 0 0 0 0 274.84178982395679 92.089021382523015 0 92.089021382523015 7.4331447577860672 0 0 0 0 70.770227256907674 21.847610059553517 0 21.847610059553517 95.443319350484217 0 0 0 0 37.51709549898078 20.277770763741046 0 20.277770763741046 122.26429655681113 0 0 0 0 170.92893645273398 13.693834152437546 0 13.693834152437546 78.358532604803713 0 0 0 0 31.266038840974943 -9.2786624674545237 0 -9.2786624674545237 94.727774244796365 0 0 0 0 18.473334752205119 -25.349469908905348 0 -25.349469908905348 67.073335923005288 0 0 0 0 50.069096984047064 -7.34663525007727 0 -7.34663525007727 14.114223128544836 0 0 0 0 47.151834353498998 -35.695018753501472 0 -35.695018753501472 84.563042695476724 0 0 0 0 69.86099973599994 68.47265311576507 0 68.47265311576507 -100.00268247285749 0 0 0 0 0.35971253643583623 -23.299204641401047 0 -23.299204641401047 -21.834641510663459 0 0 0 0 11.745118731385446 5.9505368791419642 0 5.9505368791419642 12.929951574804534 0 0 0 0 33.0595165087434 -20.439316969012907 0 -20.439316969012907 -31.229580553251253 0 0 0 0 17.785680751090695 -13.23037733543697 0 -13.23037733543697 22.356171794805348 0 0 0 0 29.064555020439002 -20.106649794689929 0 -20.106649794689929 -12.079737504307559 0 0 0 0 35.372808169900964 -22.032256484179015 0 -22.032256484179015 22.161362292334516 0 0 0 0 36.571490011323476 3.2645396560415065 0 3.2645396560415065 78.404600892452891 0 0 0 0 18.705650643370973 -29.288932176183607 0 -29.288932176183607 58.741711025998484 0 0 0 0 22.698105052917526 -13.483363081358675 0 -13.483363081358675 53.063416099775168 0 0 0 0 12.718688187818771 -9.2025655154926653 0 -9.2025655154926653 49.029435798108352 0 0 0 0 22.254917614704027 -26.698329262882226 0 -26.698329262882226 32.166522225127665 0 0 0 0 17.137673133329372 -25.968762462051473 0 -25.968762462051473 49.63817393782756 0 0 0 0 20.766433925218735 -12.259000641478906 0 -12.259000641478906 29.870034502022577 0 0 0 0 24.6602136071524 -19.010897540812948 0 -19.010897540812948 13.031011485990348 0 0 0 0 43.558583910093148 -0.38849352698116491 0 -0.38849352698116491 15.393748827271338 0 0 0 0 36.099226820595504 2.2945340634498734 0 2.2945340634498734 47.146962058281133 0 0 0 0 86.783274430297752 58.970688432115821 0 58.970688432115821 89.922574814416748 0 0 0 0 148.93386035525691 27.903857001688721 0 27.903857001688721 -42.185663380376354 0 0 0 0 4.3659228304682642 2.3066987660031657 0 2.3066987660031657 1.3948309685527462 0 0 0 0 60.972739075623394 68.929194835602402 0 68.929194835602402 151.88926578797305 0 0 0 0 15.474523548888101 -14.332315978600036 0 -14.332315978600036 61.076377591268283 0 0 0 0 24.529236028613013 -24.280377965862954 0 -24.280377965862954 34.880860043792381 0 0 0 0 14.147378238238161 -23.007632661416665 0 -23.007632661416665 52.370437792342045 0 0 0 0 284.68304956310385 119.9238697021724 0 119.9238697021724 15.770671495173701 0 0 0 0 404.19356456051901 -233.10657913781824 0 -233.10657913781824 -70.492212604631277 0 0 0 0 441.80481962827707 -232.31963358536552 0 -232.31963358536552 103.60813210694505 0 0 0 0 504.96966429194799 81.10816829652731 0 81.10816829652731 21.179648702096983 0 0 0 0 -17.027536684719962 80.394432024744219 0 80.394432024744219 221.95522095520573 0 0 0 0 92.331242336229479 8.6244133972402324 0 8.6244133972402324 -9.9434514610625229 0 0 0 0 167.81487402389757 36.177434120049156 0 36.177434120049156 43.778866943885987 0 0 0 0 115.67701923026743 -59.353893791250243 0 -59.353893791250243 -45.737503572683636 0 0 0 0 390.12504152873225 -12.28447868035164 0 -12.28447868035164 -28.193669803824378 0 0 0 0 229.08826552490791 -9.6729389078327586 0 -9.6729389078327586 -22.184687299360121 0 0 0 0 275.69790361056221 -0.89012130569653891 0 -0.89012130569653891 -65.332702629993946 0 0 0 0 248.44183385802171 -10.653138826159193 0 -10.653138826159193 -42.930898769775013 0 0 0 0 181.95530813021469 -3.4300836948095821 0 -3.4300836948095821 -36.571563922505447 0 0 0 0 231.26937778968568 42.653859321231721 0 42.653859321231721 -103.70049506980649 0 0 0 0 270.21869504885922 -80.230037450015345 0 -80.230037450015345 12.607342807921668 0 0 0 0 74.705940667641698 -49.241996494162777 0 -49.241996494162777 163.54212521482532 0 0 0 0 12.946452944252513 6.3994059209068581 0 6.3994059209068581 3.9431831018417167 0 0 0 0 23.348683071575579 -8.0493576114070038 0 -8.0493576114070038 15.861260332769234 0 0 0 0 24.456610063166863 9.0479222600062315 0 9.0479222600062315 22.600760719937171 0 0 0 0 204.13214108862121 -131.55748208778255 0 -131.55748208778255 116.26620628669389 0 0 0 0 106.76762169320864 -55.41555681450609 0 -55.41555681450609 56.753049590935007 0 0 0 0 130.2915461573175 -40.91111953779955 0 -40.91111953779955 -11.843721551246745 0 0 0 0 201.79616048033495 -78.573564223896938 0 -78.573564223896938 13.687180476953472 0 0 0 0 132.0037906869984 -45.509536815660795 0 -45.509536815660795 -0.48350432466213533 0 0 0 0 107.79013184497308 -45.045516873612996 0 -45.045516873612996 33.098543659624738 0 0 0 0 83.873092244750296 -43.169450135923398 0 -43.169450135923398 32.967252740986737 0 0 0 0 78.205550478694931 -27.990837995464744 0 -27.990837995464744 10.743627352829208 0 0 0 0 108.49529315459586 -28.988633394617409 0 -28.988633394617409 -39.490422744886018 0 0 0 0 108.63177889133492 -8.3571497834724688 0 -8.3571497834724688 -1.722540992190412 0 0 0 0 41.833163347023003 17.044421584612117 0 17.044421584612117 -5.9231120118530143 0 0 0 0 187.15798021157934 4.7391612796286608 0 4.7391612796286608 -70.890023258523797 0 0 0 0 89.78926508243967 40.014895353689099 0 40.014895353689099 18.477440075816048 0 0 0 0 94.723506761903991 -15.701867180178851 0 -15.701867180178851 21.390430344571541 0 0 0 0 217.58620363393857 -33.639237243233765 0 -33.639237243233765 -32.006305682792117 0 0 0 0 145.99245993020304 17.339978177185913 0 17.339978177185913 24.822512189733629 0 0 0 0 9.8496986689616435 -11.872387605546479 0 -11.872387605546479 -7.9805683834736669 0 0 0 0 118.26784476983221 -63.761542479701916 0 -63.761542479701916 -34.737416834103897 0 0 0 0 114.76330615417641 -17.423334231969054 0 -17.423334231969054 -5.0035046981363243 0 0 0 0 155.96794853484607 -35.328204595026364 0 -35.328204595026364 -17.454300734081698 0 0 0 0 137.04481765922174 -5.638942445433031 0 -5.638942445433031 -50.362156536519251 0 0 0 0 101.14353027000107 -33.753046223597266 0 -33.753046223597266 -13.431792074230543 0 0 0 0 194.12596166817821 -7.593378891600878 0 -7.593378891600878 -42.949918333057212 0 0 0 0 874.65838870013249 -524.32990795320438 0 -524.32990795320438 -499.60016983321475 0 0 0 0 353.26398083565437 144.16024255806497 0 144.16024255806497 -143.29052967890675 0 0 0 0 350.57115960759984 102.12361797214362 0 102.12361797214362 -151.50537406361991 0 0 0 0 395.40587235060229 150.93940763373575 0 150.93940763373575 -189.92560595158284 0 0 0 0 383.45002049567665 192.86545658647992 0 192.86545658647992 -334.16194936180545 0 0 0 0 264.58722803169803 -239.66045105952344 0 -239.66045105952344 1089.4166696517386 0 0 0 0 24.430460131892829 -2.3566526808398649 0 -2.3566526808398649 -3.7321538335138555 0 0 0 0 122.94955104482506 -1.9098288926807072 0 -1.9098288926807072 -42.026249209685261 0 0 0 0 197.08718613896417 -310.56780154961825 0 -310.56780154961825 351.91161807556728 0 0 0 0 6.51839593842395 2.9636752771756223 0 2.9636752771756223 0.41426826387656446 0 0 0 0 229.66785168056958 140.49425179457739 0 140.49425179457739 -127.12979294017305 0 0 0 0 101.56670021264654 125.82574437070934 0 125.82574437070934 -81.658365062072335 0 0 0 0 -83.460952072804503 -67.638342148551601 0 -67.638342148551601 52.229757454555966 0 0 0 0 248.98536976533433 -84.129737424388566 0 -84.129737424388566 11.539303363331783 0 0 0 0 284.20482535821793 87.610739179544908 0 87.610739179544908 -140.15909960738645 0 0 0 0 230.95102868989852 30.226307101969269 0 30.226307101969269 -31.634703096238809 0 0 0 0 294.43946857529954 -39.512328255180364 0 -39.512328255180364 19.490658520530815 0 0 0 0 259.86209667370713 17.668637183071951 0 17.668637183071951 -47.105143465269975 0 0 0 0 19.612451554945832 -59.346789574867572 0 -59.346789574867572 -5.1635573200636458 0 0 0 0 647.04500720307988 -107.93444937184904 0 -107.93444937184904 -1040.0779791664727 0 0 0 0 -3.8681216855755736 -11.270859044429884 0 -11.270859044429884 3.6747245659963732 0 0 0 0 343.06935597912525 48.221731955691212 0 48.221731955691212 -142.36478659599925 0 0 0 0 357.75783752909047 80.514573409058357 0 80.514573409058357 -248.4247567176044 0 0 0 0 333.9105124369853 -62.522905702639491 0 -62.522905702639491 52.142858968830296 0 0 0 0 451.26124364053248 -20.01834500550649 0 -20.01834500550649 -160.48964800860267 0 0 0 0 309.56947874480829 2.633733004468013 0 2.633733004468013 -94.65106492267023 0 0 0 0 288.52542039020409 -70.654002156172965 0 -70.654002156172965 59.880035844721533 0 0 0 0 167.04589991984039 -27.635976876755876 0 -27.635976876755876 -18.550213411421282 0 0 0 0 374.78841531105354 -51.183646447313549 0 -51.183646447313549 -57.24848944189489 0 0 0 0 273.83237153855225 -3.2959970127894849 0 -3.2959970127894849 -139.96899479538206 0 0 0 0 261.29125544931594 -38.488719065664327 0 -38.488719065664327 -129.66405553779805 0 0 0 0 271.15193272007309 -76.90921124190163 0 -76.90921124190163 0.8286071559332413 0 0 0 0 242.50453332531288 10.19916838600011 0 10.19916838600011 -2.5558767550064658 0 0 0 0 85.23864968489579 -17.913332545784215 0 -17.913332545784215 -48.131237713774681 0 0 0 0 149.71352963421305 97.299028251838081 0 97.299028251838081 -34.355678666472613 0 0 0 0 197.57416246206412 100.24670066882663 0 100.24670066882663 21.014010866963872 0 0 0 0 172.63278881867745 -110.9563178071304 0 -110.9563178071304 30.218141276514871 0 0 0 0 219.36324082728333 -10.490032768511924 0 -10.490032768511924 -10.889778611272959 0 0 0 0 283.41766271093229 48.934925321490482 0 48.934925321490482 -64.704757738372791 0 0 0 0 23.811521901797946 -59.078035788751698 0 -59.078035788751698 -6.1970686801026122 0 0 0 0 159.31292217450618 -22.399301843955982 0 -22.399301843955982 -25.402171824023753 0 0 0 0 161.60099203185018 -8.2355582797263196 0 -8.2355582797263196 62.148204725278674 0 0 0 0 140.55616887387441 5.8119996160376104 0 5.8119996160376104 -1.538825020303193 0 0 0 0 226.72311625481962 27.750600686473263 0 27.750600686473263 -207.27278280425162 0 0 0 0 113.05652501402847 -27.059708316016327 0 -27.059708316016327 -1.7395298017036112 0 0 0 0 26.688661933783138 -44.025633703963734 0 -44.025633703963734 -24.700529389879833 0 0 0 0 121.57524380387986 -15.358143210346952 0 -15.358143210346952 -8.5337593679814745 0 0 0 0 159.62174864760891 -27.455529438062513 0 -27.455529438062513 -15.012119000823986 0 0 0 0 165.66999388657132 -9.4926292012360136 0 -9.4926292012360136 -8.0748287334117776 0 0 0 0 -12.890711793776063 -32.737661210634542 0 -32.737661210634542 -72.851697137510655 0 0 0 0 0.63198339194960695 0.68415691973035919 0 0.68415691973035919 -4.8522242017434749 0 0 0 0 -4.9216295383848774 -41.687774111104773 0 -41.687774111104773 -66.913726992389456 0 0 0 0 383.84486518514132 137.62162350795074 0 137.62162350795074 -78.493073645077402 0 0 0 0 59.859468987411674 -36.408060059625996 0 -36.408060059625996 85.029253421663725 0 0 0 0 0.44639959087774983 -0.47925762800063865 0 -0.47925762800063865 0.31916874630046266 0 0 0 0 317.5786374792151 39.647133598279652 0 39.647133598279652 25.825019586488452 0 0 0 0 0.60429228933761792 -0.1866411561085215 0 -0.1866411561085215 -1.4230766093177909 0 0 0 0 -118.50465031053318 -147.113156362979 0 -147.113156362979 -13.619308921538504 0 0 0 0 -11.081221932072367 -77.541562743850591 0 -77.541562743850591 -23.242708967042745 0 0 0 0 -117.67445663351764 -46.334973353938381 0 -46.334973353938381 -24.561483501094699 0 0 0 0 -17.791755291484151 -72.068939652157724 0 -72.068939652157724 1.5415326699039724 0 0 0 0 16.981778005541855 -37.036084852355771 0 -37.036084852355771 -35.389326130550216 0 0 0 0 37.636808783299784 -17.401415760828513 0 -17.401415760828513 -110.38779225017424 0 0 0 0 39.948676489944773 -72.558092842430597 0 -72.558092842430597 -53.257024740291627 0 0 0 0 187.03564815172649 -52.457819686111179 0 -52.457819686111179 -3.4782718275068873 0 0 0 0 84.755992034195515 -77.980182448863616 0 -77.980182448863616 -47.108327128652036 0 0 0 0 90.246428098329488 22.145915410745147 0 22.145915410745147 -59.85028882473398 0 0 0 0 155.59729966413579 -42.110096512191603 0 -42.110096512191603 -197.82702498884646 0 0 0 0 57.571576346195798 104.82245249767129 0 104.82245249767129 -265.62034556815092 0 0 0 0 -15.779905461437011 -171.27169611583486 0 -171.27169611583486 -56.315528138749869 0 0 0 0 -1.163304929577798 -0.11659432710880679 0 -0.11659432710880679 0.34073918194227382 0 0 0 0 15.362768653860257 -27.997424078068434 0 -27.997424078068434 -81.43361841071237 0 0 0 0 -7.0646234639825707 -35.52396236657728 0 -35.52396236657728 -81.997621737366899 0 0 0 0 -11.381875866565679 -0.66171522576178177 0 -0.66171522576178177 -94.963789469571111 0 0 0 0 -7.3411118386775343 -19.620919297526143 0 -19.620919297526143 -84.505708180800639 0 0 0 0 -4.3120656648752629 -27.69070880759682 0 -27.69070880759682 -3.957942615268621 0 0 0 0 -1.2620915387598046 -0.83208670411489649 0 -0.83208670411489649 -2.9437442925871116 0 0 0 0 -6.3799220160435652 -33.007796000954613 0 -33.007796000954613 -13.68920502574656 0 0 0 0 21.678691424436693 12.057893139487078 0 12.057893139487078 -2.2577511256895377 0 0 0 0 12.809691640326491 -8.6493022130462123 0 -8.6493022130462123 -43.615735600507833 0 0 0 0 1.0051245812840079 0.78472651682148165 0 0.78472651682148165 0.89761164689047845 0 0 0 0 -0.87559611503562707 -1.2374299964830975 0 -1.2374299964830975 0.64400558872442559 0 0 0 0 2.5264069534860027 -22.079427610970924 0 -22.079427610970924 -42.314818724817542 0 0 0 0 25.96097337896208 -165.37908784435604 0 -165.37908784435604 136.65184437156222 0 0 0 0 31.800983788627491 50.626039652931922 0 50.626039652931922 64.738773957663852 0 0 0 0 -3.7111179624607757 -150.79408274745879 0 -150.79408274745879 -38.56748992645953 0 0 0 0 116.14403015354765 -35.156463113483369 0 -35.156463113483369 -118.12386229391223 0 0 0 0 23.044231240642944 -9.1106895716189769 0 -9.1106895716189769 0.92212238361269616 0 0 0 0 53.023700774145254 -11.943744961802622 0 -11.943744961802622 105.0655268043829 0 0 0 0 14.425262728977586 2.0985772862737573 0 2.0985772862737573 -7.3557951212342143 0 0 0 0 20.808241477636329 -3.9646559620077824 0 -3.9646559620077824 -9.0778454954197514 0 0 0 0 6.5572649873124078 -9.5732850119539261 0 -9.5732850119539261 -7.9543944855191775 0 0 0 0 26.288821972536866 4.5240235376697555 0 4.5240235376697555 -17.120323538696617 0 0 0 0 111.41450888104737 -51.552834108767911 0 -51.552834108767911 -25.744270090541249 0 0 0 0 30.411632962321164 -17.709003736260456 0 -17.709003736260456 -13.570400189157226 0 0 0 0 104.24315277128763 1.5791598910041995 0 1.5791598910041995 -21.358669911577483 0 0 0 0 38.022704395105393 -4.3182683772079145 0 -4.3182683772079145 -28.226086408665651 0 0 0 0 56.234366927541124 -14.270988827191402 0 -14.270988827191402 -13.69502235229362 0 0 0 0 14.421291309365188 31.568372859911506 0 31.568372859911506 -45.286198740693635 0 0 0 0 14.172680185132847 8.284209982237094 0 8.284209982237094 0.73671453227663841 0 0 0 0 20.191612938164326 18.62109582772905 0 18.62109582772905 -40.220348694531026 0 0 0 0 22.078171349137847 31.997675915982086 0 31.997675915982086 -49.490449755395503 0 0 0 0 0.2540243700918694 0.30502089784592812 0 0.30502089784592812 -2.4558041850147481 0 0 0 0 12.555404834609362 45.624539704270319 0 45.624539704270319 -22.894235258344565 0 0 0 0 0.011241702264669584 17.367555063182863 0 17.367555063182863 0.53321818038330093 0 0 0 0 41.931730831024062 -2.3191140975377671 0 -2.3191140975377671 -17.003486813815673 0 0 0 0 22.916360753755725 27.916476092738776 0 27.916476092738776 -48.757420217003073 0 0 0 0 -4.703965935674205 0.11309837447333848 0 0.11309837447333848 -32.40915265488718 0 0 0 0 0.48129706125473604 23.086389925477107 0 23.086389925477107 -35.770018911131956 0 0 0 0 49.479826812155807 32.196619058040596 0 32.196619058040596 -27.513804514715957 0 0 0 0 60.880961724871668 -32.783550035610574 0 -32.783550035610574 3.2907077166582894 0 0 0 0 10.498253638064391 6.0227425996305577 0 6.0227425996305577 -9.2174157137981076 0 0 0 0 134.38685213023928 -48.18583567135147 0 -48.18583567135147 -6.2807596715306317 0 0 0 0 14.236365278626181 -32.255329060003305 0 -32.255329060003305 6.433172691073878 0 0 0 0 0.53889520531388513 -0.38875827521047057 0 -0.38875827521047057 -0.32813978934450327 0 0 0 0 -56.334747267486819 -77.053059544234657 0 -77.053059544234657 40.91060786797334 0 0 0 0 95.521229341822618 -100.11446282766769 0 -100.11446282766769 33.382883064613452 0 0 0 0 19.860189904829895 70.96742617867676 0 70.96742617867676 14.22361992077856 0 0 0 0 106.4349751600239 102.70705129360113 0 102.70705129360113 -34.128248616401436 0 0 0 0 -226.67286703168065 129.07336814928749 0 129.07336814928749 73.143958616172768 0 0 0 0 -66.013911614873223 115.25464890748802 0 115.25464890748802 11.804799466516556 0 0 0 0 -96.29361055859772 -44.085648608523115 0 -44.085648608523115 90.493722177099698 0 0 0 0 -71.051393144363828 -0.18737779488856177 0 -0.18737779488856177 111.10091464319999 0 0 0 0 185.39792718997251 -9.7441109140933122 0 -9.7441109140933122 -36.390092669547812 0 0 0 0 185.32292264462194 -10.727208330527901 0 -10.727208330527901 10.547102793658269 0 0 0 0 49.656789745298738 45.64931389530534 0 45.64931389530534 -76.389711506098365 0 0 0 0 -5.0821161072665859 15.207632137696567 0 15.207632137696567 -0.89741555850398502 0 0 0 0 98.131694522550589 38.057330808360931 0 38.057330808360931 -13.415411080140373 0 0 0 0 195.82344238169753 -32.231912833409297 0 -32.231912833409297 -62.125915569916287 0 0 0 0 163.45018278224597 -33.69820344785785 0 -33.69820344785785 -33.532954340898868 0 0 0 0 98.521096911899804 7.171090596672002 0 7.171090596672002 -39.159657968313695 0 0 0 0 89.541832132856541 45.772187761195582 0 45.772187761195582 -14.223421081047867 0 0 0 0 167.9812571391667 200.31381335756851 0 200.31381335756851 -198.91938896435204 0 0 0 0 -10.615664337812632 -49.5641763594449 0 -49.5641763594449 8.4851392936805041 0 0 0 0 -63.689135225966311 -39.432830723015286 0 -39.432830723015286 72.850883479623917 0 0 0 0 56.892417295105588 12.12224203747985 0 12.12224203747985 52.971518512533294 0 0 0 0 -75.408633272927545 -78.426840217777681 0 -78.426840217777681 56.740421312371836 0 0 0 0 188.40001708843192 -20.801607872862405 0 -20.801607872862405 -3.4481091678890152 0 0 0 0 68.889858390603905 -54.551567076195042 0 -54.551567076195042 5.4348421307053023 0 0 0 0 180.9398012622114 -21.778204675508277 0 -21.778204675508277 46.804812233925077 0 0 0 0 195.8655687520295 -38.574104907320361 0 -38.574104907320361 -15.691469419751911 0 0 0 0 195.68476186718908 -10.872127932150988 0 -10.872127932150988 -26.97852063172013 0 0 0 0 58.147888572880589 -62.571220914356246 0 -62.571220914356246 11.749790815793864 0 0 0 0 125.49364619102198 -102.232351035075 0 -102.232351035075 -25.01204078505998 0 0 0 0 -218.58096410313829 -177.26219705827907 0 -177.26219705827907 130.37688275478695 0 0 0 0 156.49804337970272 -52.743990648353929 0 -52.743990648353929 -18.524265147585538 0 0 0 0 214.60744074900867 -66.759483208298661 0 -66.759483208298661 -33.23034327728692 0 0 0 0 272.01573549534078 -36.186014849651656 0 -36.186014849651656 -25.16123105866518 0 0 0 0 175.26134810914664 -91.446804866458024 0 -91.446804866458024 -1.1011564681575692 0 0 0 0 158.08014243245998 -53.919263119528296 0 -53.919263119528296 -28.203839550277678 0 0 0 0 228.82128383141389 -7.9956965745009256 0 -7.9956965745009256 -86.677931083873773 0 0 0 0 226.43941319153237 -61.652041941380048 0 -61.652041941380048 102.3811440148329 0 0 0 0 195.30057267423399 -52.957085807639487 0 -52.957085807639487 -22.561268121484318 0 0 0 0 230.40026515148929 -12.737367467636432 0 -12.737367467636432 9.7933060801096872 0 0 0 0 256.92189670281368 -16.331637424701512 0 -16.331637424701512 -25.910129207108184 0 0 0 0 283.87971240341722 -0.56841019160128781 0 -0.56841019160128781 -19.212277238569186 0 0 0 0 278.14587889531686 83.105053440164738 0 83.105053440164738 22.426876460751373 0 0 0 0 234.08554274099879 100.82384637591076 0 100.82384637591076 102.81436213784841 0 0 0 0 207.25000745517173 91.220318466161643 0 91.220318466161643 33.169418603369195 0 0 0 0 330.45794374517754 158.85127167083488 0 158.85127167083488 58.733992803320689 0 0 0 0 418.88456468257937 -10.342727448023652 0 -10.342727448023652 -31.843076637080003 0 0 0 0 298.15385892126505 -49.279713924161115 0 -49.279713924161115 19.511689029677655 0 0 0 0 604.57994464548392 -41.863454623533471 0 -41.863454623533471 -13.420941301850235 0 0 0 0 -0.53831665407707874 -1.5178000099667912 0 -1.5178000099667912 -0.28056423471377911 0 0 0 0 623.441923135563 241.73186648999226 0 241.73186648999226 49.086043128031633 0 0 0 0 30.283327960511087 -97.140356803532995 0 -97.140356803532995 32.847644568375472 0 0 0 0 178.42729795287596 -86.859961817937801 0 -86.859961817937801 -5.1784234618517075 0 0 0 0 304.32930961347301 -67.258360664548491 0 -67.258360664548491 -15.739821238041714 0 0 0 0 181.36478318522859 -100.89073065831326 0 -100.89073065831326 53.917400232754517 0 0 0 0 303.75534655346564 -48.647531793012604 0 -48.647531793012604 29.970466567624044 0 0 0 0 57.499735027718998 -105.66129795788629 0 -105.66129795788629 94.91071032650234 0 0 0 0 78.085469107027166 -37.196856560734432 0 -37.196856560734432 52.647705719786245 0 0 0 0 131.25753881099445 -115.57107493969261 0 -115.57107493969261 133.14767866778584 0 0 0 0 267.24959726372253 -180.44814776080364 0 -180.44814776080364 163.7821874756346 0 0 0 0 0.15711688554000602 0.89322990586953566 0 0.89322990586953566 -0.048849740583358781 0 0 0 0 20.971796419849852 19.891136890580128 0 19.891136890580128 70.092242475799139 0 0 0 0 6.2590659420820884 -296.43495897448383 0 -296.43495897448383 -228.18808113796422 0 0 0 0 405.31467464339221 -174.84266634334426 0 -174.84266634334426 -191.6281197939079 0 0 0 0 335.61977414439571 -129.89611987307319 0 -129.89611987307319 65.463601312962055 0 0 0 0 280.01560009186687 -120.83688472029979 0 -120.83688472029979 63.997588589314546 0 0 0 0 434.64661877134495 -272.56168502969558 0 -272.56168502969558 195.27281810009845 0 0 0 0 196.50661517201661 -178.81067427566904 0 -178.81067427566904 338.35594930643765 0 0 0 0 435.33861825232452 -69.304912029562274 0 -69.304912029562274 34.46326425789448 0 0 0 0 -0.44552397134084742 -0.46011707910747646 0 -0.46011707910747646 3.78656369192813 0 0 0 0 694.01774295726318 -497.85275538325141 0 -497.85275538325141 229.26211009013423 0 0 0 0 325.13091889381758 -292.12930990682116 0 -292.12930990682116 221.91573281561614 0 0 0 0 49.737760769879969 -47.746134629734115 0 -47.746134629734115 25.297344903467774 0 0 0 0 103.5789750663389 -125.05755673796466 0 -125.05755673796466 238.9370582054587 0 0 0 0 11.044595687151741 17.423000906196876 0 17.423000906196876 49.450060439810841 0 0 0 0 118.01302128682437 33.295190329947218 0 33.295190329947218 33.585545664802339 0 0 0 0 33.141956881452643 5.0346238068605089 0 5.0346238068605089 24.577431600615455 0 0 0 0 42.181825427550223 -0.69370899120241702 0 -0.69370899120241702 -1.137672898340865 0 0 0 0 143.01516180406907 -25.176743385626651 0 -25.176743385626651 -100.57030498014501 0 0 0 0 79.311506648955401 25.010907793943261 0 25.010907793943261 -38.401683765040616 0 0 0 0 -75.466109945919015 -72.423182143988015 0 -72.423182143988015 43.420224535553416 0 0 0 0 8.5911193705978803 -12.62373164978635 0 -12.62373164978635 50.928921220276607 0 0 0 0 2.0346968750402254 -0.4557654470502257 0 -0.4557654470502257 -0.4125169097889767 0 0 0 0 -9.3023370681912638 39.044004799400682 0 39.044004799400682 70.384990620587814 0 0 0 0 98.487087862973567 -29.644332631525685 0 -29.644332631525685 46.141909346237753 0 0 0 0 10.776038860749395 21.351005675538545 0 21.351005675538545 20.831590373833023 0 0 0 0 8.7085473653243355 9.2251902698030648 0 9.2251902698030648 12.41624592927888 0 0 0 0 28.093754533940228 -20.41716186065446 0 -20.41716186065446 -6.0596026213961522 0 0 0 0 4.625906797329975 -0.87319506508293898 0 -0.87319506508293898 10.498381816275902 0 0 0 0 42.05159904940956 40.888579222047156 0 40.888579222047156 -39.81129619468993 0 0 0 0 36.340468153946404 0.2116168018790372 0 0.2116168018790372 0.90594704809176729 0 0 0 0 10.95605142503274 -6.6492774810311914 0 -6.6492774810311914 5.9141811404703191 0 0 0 0 21.955020077963127 -55.081316178013367 0 -55.081316178013367 52.101124739254374 0 0 0 0 48.153371111641832 -1.8567145941782446 0 -1.8567145941782446 -0.86525290970829705 0 0 0 0 89.420352585577348 -40.832734798186721 0 -40.832734798186721 -61.751828188431318 0 0 0 0 72.798990445342497 -1.6593024192789017 0 -1.6593024192789017 14.534463598487037 0 0 0 0 34.230251214705589 -24.598747186646648 0 -24.598747186646648 7.3499991741512787 0 0 0 0 79.901986803699401 -0.021704284582483524 0 -0.021704284582483524 14.610846589792345 0 0 0 0 58.54643488701808 -28.681247322554437 0 -28.681247322554437 16.747019283063814 0 0 0 0 49.848346859762387 -13.639719430926789 0 -13.639719430926789 6.9137867586377979 0 0 0 0 69.685889433807461 -0.76314226811700792 0 -0.76314226811700792 17.060181250813912 0 0 0 0 21.711458436677134 -22.486144886341705 0 -22.486144886341705 11.952095334465934 0 0 0 0 51.711069740602397 -4.2041629375689809 0 -4.2041629375689809 -3.8655175685416907 0 0 0 0 45.959456074793707 -17.969501394722101 0 -17.969501394722101 27.371724356044979 0 0 0 0 43.985214311192976 -5.2821951655778321 0 -5.2821951655778321 11.1506787866183 0 0 0 0 34.81795292103925 40.474267358760699 0 40.474267358760699 82.388957735162876 0 0 0 0 0.068585477812575846 1.7722672657319265 0 1.7722672657319265 1.7259111360978636 0 0 0 0 -52.509635606809752 -18.077395943380907 0 -18.077395943380907 110.52264835481992 0 0 0 0 19.702752259297995 8.2941104851174714 0 8.2941104851174714 -58.096354854659694 0 0 0 0 104.19238478333864 117.86085767603345 0 117.86085767603345 78.978136663723035 0 0 0 0 45.641958879469314 0.34081455721217102 0 0.34081455721217102 -0.73161456314637086 0 0 0 0 99.354222979884071 -139.02921347933261 0 -139.02921347933261 102.83201684399592 0 0 0 0 41.500879329621966 -0.21962769308674979 0 -0.21962769308674979 18.253468421184152 0 0 0 0 39.555432401983126 6.5097809313119797 0 6.5097809313119797 -3.1887049560164087 0 0 0 0 32.273673559927374 18.015370513927579 0 18.015370513927579 28.780566887718123 0 0 0 0 23.535999920270115 -5.5895763511489349 0 -5.5895763511489349 37.013251183791454 0 0 0 0 24.005608446081169 -8.6969606157690578 0 -8.6969606157690578 25.4321037201953 0 0 0 0 38.253710114076966 -5.7720186287660908 0 -5.7720186287660908 25.249511783394155 0 0 0 0 42.953729305008892 -4.4575485332798053 0 -4.4575485332798053 21.473011563348336 0 0 0 0 26.665335285950277 -7.3848788350601353 0 -7.3848788350601353 7.0130686626098395 0 0 0 0 13.40340123820485 -20.977883117744682 0 -20.977883117744682 12.21471250456559 0 0 0 0 26.316767986725914 -21.580933652354346 0 -21.580933652354346 11.319805875640887 0 0 0 0 92.337927168853639 13.508645707001506 0 13.508645707001506 14.915951306272291 0 0 0 0 54.345109250361418 -9.1194367926049011 0 -9.1194367926049011 12.789115936279144 0 0 0 0 38.483668192260666 -7.5887449300709022 0 -7.5887449300709022 24.533429266983148 0 0 0 0 50.190433091051091 -0.0072168459628301207 0 -0.0072168459628301207 -1.7273066215393555 0 0 0 0 55.007372607200523 -11.362179548178574 0 -11.362179548178574 8.7670653676332222 0 0 0 0 30.7745641715711 -10.422088345950982 0 -10.422088345950982 6.5074865496352636 0 0 0 0 93.146838252068846 12.981486714365019 0 12.981486714365019 15.07352838177394 0 0 0 0 27.768928371824458 -18.731692478587348 0 -18.731692478587348 0.3915922548695292 0 0 0 0 67.782032875802543 -11.288905449469894 0 -11.288905449469894 8.2975289135356434 0 0 0 0 34.142034369561671 -24.021568680793891 0 -24.021568680793891 11.431668159334514 0 0 0 0 81.80976714460121 -6.0364756213602959 0 -6.0364756213602959 23.567982074555403 0 0 0 0 41.907086930397782 -13.344311326414299 0 -13.344311326414299 11.854043461401488 0 0 0 0 25.693566718055479 -23.066882081541472 0 -23.066882081541472 6.8157929733551192 0 0 0 0 52.377923585030658 -13.96762538918324 0 -13.96762538918324 4.7423460231457284 0 0 0 0 49.246811427576176 -13.945679644970824 0 -13.945679644970824 4.9297343506359539 0 0 0 0 36.573324358991513 1.0382426940057528 0 1.0382426940057528 -4.5965497202821712 0 0 0 0 57.366538726391809 -27.818056359963748 0 -27.818056359963748 23.572275224085388 0 0 0 0 -0.71362483332498527 -4.2585913205131263 0 -4.2585913205131263 5.3051745944052602 0 0 0 0 49.05501526975786 -47.082392663510291 0 -47.082392663510291 35.627311998314326 0 0 0 0 69.177329422309413 -21.870703740489716 0 -21.870703740489716 9.5152693318377715 0 0 0 0 86.331388447171776 -21.420149709680118 0 -21.420149709680118 6.0300701965861663 0 0 0 0 2.6966565521745594 -0.41751475265042615 0 -0.41751475265042615 -1.3600433847852305 0 0 0 0 69.847239024369628 -33.33820799077057 0 -33.33820799077057 13.638517066036911 0 0 0 0 50.800877481582575 -10.434870550800042 0 -10.434870550800042 11.072052755303275 0 0 0 0 25.686601403143868 -21.705794382367003 0 -21.705794382367003 14.722889658004533 0 0 0 0 8.2757080926239723 -7.7686361923606455 0 -7.7686361923606455 39.357869009101705 0 0 0 0 20.441313067762636 -14.611629936443904 0 -14.611629936443904 4.4050375632834271 0 0 0 0 56.120752399585058 -6.1951236014793034 0 -6.1951236014793034 -1.8528347227602433 0 0 0 0 47.847001590563195 -16.429121562294881 0 -16.429121562294881 7.2952015204045892 0 0 0 0 49.133237155758252 -19.498935316488314 0 -19.498935316488314 30.113877281342866 0 0 0 0 48.895697353473224 -13.001816223085939 0 -13.001816223085939 15.79588186869114 0 0 0 0 4.11432294208862 -18.149872450580688 0 -18.149872450580688 28.963805618646802 0 0 0 0 32.239729925291613 -12.506073278121221 0 -12.506073278121221 19.011441437346093 0 0 0 0 34.006000570807373 -10.760302050486644 0 -10.760302050486644 19.435155855954463 0 0 0 0 38.886394147426472 -11.674553636751853 0 -11.674553636751853 19.35900765777842 0 0 0 0 43.536938046316209 -25.652477144118166 0 -25.652477144118166 -15.800532990470856 0 0 0 0 18.872093292670385 -23.774680143090421 0 -23.774680143090421 11.127540242677039 0 0 0 0 27.901892693160335 -21.871519448010076 0 -21.871519448010076 5.9619295209995471 0 0 0 0 32.986527317285805 -96.931356921802305 0 -96.931356921802305 5.4111582103543174 0 0 0 0 -12.97209619292596 2.8461444029009328 0 2.8461444029009328 5.3421060022953739 0 0 0 0 -123.64794133248506 -66.751308070057348 0 -66.751308070057348 -35.196558940579052 0 0 0 0 22.718709870503517 -68.34717857394935 0 -68.34717857394935 101.6892235138148 0 0 0 0 5.1610255818168582 -4.7888397112373084 0 -4.7888397112373084 2.5353886078017123 0 0 0 0 47.714396787465375 -91.685149138872475 0 -91.685149138872475 56.735987634713638 0 0 0 0 -62.60622734552453 -100.07955317844153 0 -100.07955317844153 70.116688410158531 0 0 0 0 31.775898280957335 -50.101071050708924 0 -50.101071050708924 -18.248226142368367 0 0 0 0 109.15868605854303 -53.691221019801787 0 -53.691221019801787 -49.778431168877432 0 0 0 0 -23.889853403627058 -134.876801693993 0 -134.876801693993 -3.9863020060038252 0 0 0 0 61.160213687386467 -64.192954354172912 0 -64.192954354172912 14.082708801739646 0 0 0 0 199.64834505122781 -52.005638165915798 0 -52.005638165915798 -52.092919741961396 0 0 0 0 -13.191053409551387 -196.23838874437661 0 -196.23838874437661 -29.293027544528741 0 0 0 0 61.846071083455129 -64.5013534865206 0 -64.5013534865206 14.279552714553493 0 0 0 0 16.605653688649909 -161.4947074490459 0 -161.4947074490459 3.9343816716136644 0 0 0 0 35.495661281689394 1.4400968084607015 0 1.4400968084607015 -4.675200326293071 0 0 0 0 70.341368792219328 1.5024963855232727 0 1.5024963855232727 -49.094868220156968 0 0 0 0 63.374596880255922 -5.2475480768951002 0 -5.2475480768951002 -25.519231664203289 0 0 0 0 112.42934647402944 -42.727824854484879 0 -42.727824854484879 -13.2980973159531 0 0 0 0 119.90203065143214 -4.0913696016534686 0 -4.0913696016534686 -27.694796557682821 0 0 0 0 133.93651149783364 8.079710725186942 0 8.079710725186942 -34.793796491140711 0 0 0 0 50.804908367741518 6.0462765423721976 0 6.0462765423721976 -8.9752197512680141 0 0 0 0 52.648504825752752 13.495296641512141 0 13.495296641512141 20.613091396493928 0 0 0 0 31.093971217329454 15.829881985290967 0 15.829881985290967 -43.851276606950705 0 0 0 0 22.497056559059274 2.223637066019819 0 2.223637066019819 -4.9596516010269625 0 0 0 0 1.8999079290227456 3.8264955052980056 0 3.8264955052980056 14.167531724419167 0 0 0 0 29.288206310207897 14.113372145879111 0 14.113372145879111 -45.481895577329851 0 0 0 0 24.231652950836249 -4.4294992655039378 0 -4.4294992655039378 -3.9397578446724282 0 0 0 0 30.433832611655816 -17.595744430967898 0 -17.595744430967898 45.817078617830703 0 0 0 0 6.4499510399400606 -3.9420159732021602 0 -3.9420159732021602 48.240044573685736 0 0 0 0 15.115693235224171 2.7354602953914764 0 2.7354602953914764 -3.302797737435867 0 0 0 0 6.4344991843498889 -2.6079061864014363 0 -2.6079061864014363 -0.042045708529837356 0 0 0 0 -0.56760158529141336 36.339116645942795 0 36.339116645942795 -55.846859378858426 0 0 0 0 26.603184957726626 -4.1692111077109075 0 -4.1692111077109075 -56.715500779547966 0 0 0 0 16.000660367159071 8.4750544937459154 0 8.4750544937459154 -30.520221400412993 0 0 0 0 39.153707477224089 0.20123560489901138 0 0.20123560489901138 -84.655794648933806 0 0 0 0 17.794400151794065 5.1684347233984171 0 5.1684347233984171 4.3173846003289604 0 0 0 0 28.195255556744087 15.687415004105333 0 15.687415004105333 -79.754600044070685 0 0 0 0 61.707947420600249 -6.3209770124860825 0 -6.3209770124860825 -12.061941199338662 0 0 0 0 13.456423148306882 4.7875167126613416 0 4.7875167126613416 1.2317127299512887 0 0 0 0 -0.673470797133632 20.295494249228682 0 20.295494249228682 70.750584818516472 0 0 0 0 9.8954004384140717 -5.9186636214135433 0 -5.9186636214135433 60.54123048850272 0 0 0 0 8.2805873834513477 21.618961474684511 0 21.618961474684511 24.525651990966708 0 0 0 0 1.2693436972222116 0.66513373026964473 0 0.66513373026964473 63.85517995454029 0 0 0 0 16.720651272709802 7.7272303325664211 0 7.7272303325664211 86.50833605935577 0 0 0 0 -21.939231079312322 27.938729615111271 0 27.938729615111271 80.352075521031566 0 0 0 0 -5.5801353031934013 -24.294912591569442 0 -24.294912591569442 46.763459703789067 0 0 0 0 -19.710383032492246 -25.695099484224556 0 -25.695099484224556 65.190393166449212 0 0 0 0 -1.8367793236284342 -49.945687104420585 0 -49.945687104420585 9.5390744184715004 0 0 0 0 31.933790641905944 -39.430113115406812 0 -39.430113115406812 11.285857513763034 0 0 0 0 21.133659009732582 -24.377431078854045 0 -24.377431078854045 37.89743751117021 0 0 0 0 38.031062669710082 -31.085395600187439 0 -31.085395600187439 23.738025391578049 0 0 0 0 13.942381252243649 -23.510786740195272 0 -23.510786740195272 37.792995422400963 0 0 0 0 438.15360581346454 188.86244043531914 0 188.86244043531914 15.08268747812599 0 0 0 0 646.77947416123061 338.98626869589657 0 338.98626869589657 122.00495888362775 0 0 0 0 443.24385201352561 184.24866713261281 0 184.24866713261281 18.466087297346121 0 0 0 0 118.54910830266999 52.857079006887261 0 52.857079006887261 38.751586543643953 0 0 0 0 153.465099977715 -61.899159493201182 0 -61.899159493201182 46.27235096560355 0 0 0 0 479.82449970645757 52.204314767340065 0 52.204314767340065 6.7098736606903913 0 0 0 0 720.80100164764735 -136.35334183420082 0 -136.35334183420082 -20.82804687843327 0 0 0 0 110.48420403147611 -6.7277135043123053 0 -6.7277135043123053 64.173273439420768 0 0 0 0 220.36176545430862 38.81351881966566 0 38.81351881966566 56.768398316359935 0 0 0 0 267.69755510556206 18.795569528594569 0 18.795569528594569 13.011381556607176 0 0 0 0 142.35200585167331 60.241466359300375 0 60.241466359300375 76.170192970561857 0 0 0 0 382.3154843945631 158.6678208391105 0 158.6678208391105 74.341934044077334 0 0 0 0 301.06562536758429 98.549732489191797 0 98.549732489191797 61.290725476860558 0 0 0 0 339.43067758340203 177.42113618219219 0 177.42113618219219 182.52730488677116 0 0 0 0 404.77660413381818 178.22606890505199 0 178.22606890505199 21.192724416852343 0 0 0 0 224.68685921327835 72.050314919690337 0 72.050314919690337 274.65642331663639 0 0 0 0 340.99499316094079 118.29313182138844 0 118.29313182138844 134.55867626495717 0 0 0 0 242.53935872120928 124.21068192316966 0 124.21068192316966 108.46282520824434 0 0 0 0 165.45752127648666 34.691749364699831 0 34.691749364699831 162.69606137887877 0 0 0 0 225.22700764559704 52.367453327431122 0 52.367453327431122 134.46155781007496 0 0 0 0 102.35710497536638 16.333476438858725 0 16.333476438858725 114.90155675465257 0 0 0 0 159.53130355641042 -6.4517242090767866 0 -6.4517242090767866 60.966210204812796 0 0 0 0 91.473097061523731 12.797152587046867 0 12.797152587046867 116.39581540873405 0 0 0 0 85.396839573086254 31.815268130803247 0 31.815268130803247 58.142101104669564 0 0 0 0 51.380178113196962 -58.213595858389453 0 -58.213595858389453 38.690387662491958 0 0 0 0 -8.235001039936833 -38.350314091089558 0 -38.350314091089558 92.529349267884754 0 0 0 0 20.452566364099539 -76.419177241746624 0 -76.419177241746624 66.388555287307099 0 0 0 0 23.055972999292862 -55.717553825096275 0 -55.717553825096275 134.06827653270824 0 0 0 0 -4.2904365119575232 -83.756558305598674 0 -83.756558305598674 144.60723707338502 0 0 0 0 -9.9910717493730772 -118.3336168522037 0 -118.3336168522037 37.637656458899528 0 0 0 0 96.022538874669408 -47.274218807071293 0 -47.274218807071293 105.7371053853858 0 0 0 0 96.371865394201564 -33.994131952519069 0 -33.994131952519069 193.09925706396007 0 0 0 0 191.914230865641 -19.176596542052494 0 -19.176596542052494 162.27382340560945 0 0 0 0 109.78133978676487 -119.49479489829127 0 -119.49479489829127 183.33452830001488 0 0 0 0 292.70896664456814 47.973541481948359 0 47.973541481948359 192.32241865482661 0 0 0 0 178.88938632096324 -11.120541145075094 0 -11.120541145075094 287.96234083833133 0 0 0 0 35.10711498098317 -34.191664421725363 0 -34.191664421725363 -13.503858437777808 0 0 0 0 5.6889556827283627 -10.238246578715227 0 -10.238246578715227 0.61308323629445649 0 0 0 0 36.261781099412474 -32.397208743263491 0 -32.397208743263491 13.133812313371891 0 0 0 0 27.950345968084193 -24.274608397234275 0 -24.274608397234275 7.7167797793595536 0 0 0 0 44.27873885300869 -17.265272914833076 0 -17.265272914833076 4.0027522274167495 0 0 0 0 28.346682767638413 -33.842316810229931 0 -33.842316810229931 0.055778181188543385 0 0 0 0 30.639742641207704 -28.186816773255487 0 -28.186816773255487 11.713162787366528 0 0 0 0 25.876913078624057 -29.498792377667087 0 -29.498792377667087 1.2584924733445177 0 0 0 0 8.8821257290828726 -33.190520321320548 0 -33.190520321320548 4.7551506808372324 0 0 0 0 -100.99873108033353 -71.603894543231036 0 -71.603894543231036 39.377271553926619 0 0 0 0 6.4383669640337757 -49.787102685528225 0 -49.787102685528225 -104.27060863987663 0 0 0 0 31.851756416941498 -35.370683221194213 0 -35.370683221194213 57.627720324260338 0 0 0 0 -30.949908772188792 36.371049131266318 0 36.371049131266318 -8.0435925236715775 0 0 0 0 -62.106207249784347 -104.3979677620971 0 -104.3979677620971 35.369078150621874 0 0 0 0 -45.21232721015258 -1.1861480498992023 0 -1.1861480498992023 102.38966523070121 0 0 0 0 -2.2511904180846045 0.73519542764915258 0 0.73519542764915258 0.65425294799898204 0 0 0 0 -92.355528355023125 -59.887700848331633 0 -59.887700848331633 105.16375739201249 0 0 0 0 -88.472132010334462 -42.658524196813232 0 -42.658524196813232 160.78906903089319 0 0 0 0 -64.388464952913637 -123.09514393363065 0 -123.09514393363065 -6.8735585277289601 0 0 0 0 -48.92253936103225 -19.235648134625308 0 -19.235648134625308 54.9472059930672 0 0 0 0 -53.970454057380266 -79.878673647233654 0 -79.878673647233654 95.623132632153329 0 0 0 0 -143.57191340623467 -101.00937083580538 0 -101.00937083580538 21.07357861590117 0 0 0 0 40.936155123122148 -9.0955186582106933 0 -9.0955186582106933 -1.196487103755878 0 0 0 0 128.23192561945325 -62.501055238992194 0 -62.501055238992194 -36.94333949716588 0 0 0 0 57.327782589134998 -38.258607917425685 0 -38.258607917425685 6.38746842429126 0 0 0 0 4.1317790349203278 -130.86674537105864 0 -130.86674537105864 57.049354642769913 0 0 0 0 89.190384102716052 -3.7686396035551297 0 -3.7686396035551297 11.352666092570871 0 0 0 0 44.533003795954585 -11.012773779166203 0 -11.012773779166203 7.8961985201564513 0 0 0 0 57.014089964221057 -30.448353208724484 0 -30.448353208724484 8.6603090163816887 0 0 0 0 86.798239052892313 -19.521729995085934 0 -19.521729995085934 15.385348549910759 0 0 0 0 78.956204680311203 -2.0833114921133529 0 -2.0833114921133529 13.79349368315161 0 0 0 0 26.653528796941998 -21.546038443664173 0 -21.546038443664173 4.8178235784374159 0 0 0 0 70.434766825288534 -16.151668914842048 0 -16.151668914842048 17.110256451623172 0 0 0 0 37.315065796819837 -22.78190061522595 0 -22.78190061522595 5.7714682383083336 0 0 0 0 33.221165106457192 -52.070984635053719 0 -52.070984635053719 25.240107301580792 0 0 0 0 77.298245105594106 5.4857183089211503 0 5.4857183089211503 20.778070829199351 0 0 0 0 73.959409690491157 9.9645568356509102 0 9.9645568356509102 15.032506997067685 0 0 0 0 112.73825974846113 -14.297491358942807 0 -14.297491358942807 12.414479068146647 0 0 0 0 19.226878979391103 -18.13909422350892 0 -18.13909422350892 6.1867502922589424 0 0 0 0 -20.27240916442679 6.8927022670623046 0 6.8927022670623046 19.772614634945057 0 0 0 0 33.056159638996149 8.9587327268372263 0 8.9587327268372263 9.0509718089648885 0 0 0 0 367.42977406054706 -112.49061102404721 0 -112.49061102404721 46.147521236558532 0 0 0 0 76.576141943602124 14.905926428449675 0 14.905926428449675 22.892804029057515 0 0 0 0 18.141868374594651 1.5483210534116552 0 1.5483210534116552 -1.6834272042178569 0 0 0 0 484.49466865366412 46.631198560507528 0 46.631198560507528 -41.486802060429909 0 0 0 0 254.72321397014457 -97.746855428054232 0 -97.746855428054232 -45.265058093245898 0 0 0 0 62.223904194880802 27.034419659919152 0 27.034419659919152 -0.67077114639236513 0 0 0 0 239.21529149391972 -6.9508861694081361 0 -6.9508861694081361 16.785859693884049 0 0 0 0 -102.36518458984938 -155.05368863496847 0 -155.05368863496847 25.24118722004232 0 0 0 0 96.942283317850041 -82.869140072023924 0 -82.869140072023924 14.732108637227229 0 0 0 0 -76.772152179502882 -132.45296231466114 0 -132.45296231466114 -4.9197686669363065 0 0 0 0 -68.719432226280333 -156.75307732624981 0 -156.75307732624981 63.517633224305428 0 0 0 0 -136.73563825931706 -242.39854647180891 0 -242.39854647180891 -9.0368729409596398 0 0 0 0 106.8626002936071 -34.039324451846369 0 -34.039324451846369 76.147530929813001 0 0 0 0 92.770559602854263 -87.118942735304699 0 -87.118942735304699 20.63013963059338 0 0 0 0 265.00888737040805 24.233848459347428 0 24.233848459347428 -34.466989629120576 0 0 0 0 66.22763300115912 -267.3026423276192 0 -267.3026423276192 -174.02521923465429 0 0 0 0 238.527346462899 -100.61481110639215 0 -100.61481110639215 -82.982593854510924 0 0 0 0 381.65470020535577 6.6838603444211913 0 6.6838603444211913 -320.04152908636661 0 0 0 0 417.08111592352361 158.77163448319857 0 158.77163448319857 -89.632051299944578 0 0 0 0 365.68128470241209 42.144362629100215 0 42.144362629100215 -197.88682046395297 0 0 0 0 -93.876594288687556 -155.96969980927065 0 -155.96969980927065 16.773877269667537 0 0 0 0 148.54830628084892 -838.15094612246094 0 -838.15094612246094 -78.041114117206234 0 0 0 0 93.291999207844768 -87.366528464141524 0 -87.366528464141524 21.746394975939289 0 0 0 0 609.78013700246083 224.57575416972759 0 224.57575416972759 -142.4363944451361 0 0 0 0 124.00048968441843 134.6548912781227 0 134.6548912781227 43.57209922760353 0 0 0 0 149.13591949689726 -35.928267860538654 0 -35.928267860538654 -6.5819623124268674 0 0 0 0 333.8599657167797 171.5413534561867 0 171.5413534561867 37.34760046422889 0 0 0 0 -0.72088013875966794 -0.43249407882373703 0 -0.43249407882373703 1.2946339937904625 0 0 0 0 347.40589689355693 0.41790059746199404 0 0.41790059746199404 -0.95462749882699427 0 0 0 0 27.975439999856462 -15.66688260499177 0 -15.66688260499177 -7.4257118831228581 0 0 0 0 7.8504019105676264 -3.6878591689820865 0 -3.6878591689820865 0.85074447696648292 0 0 0 0 34.610575052232889 40.939461978574627 0 40.939461978574627 -6.0341147881699726 0 0 0 0 25.385045127379271 5.6285323216321785 0 5.6285323216321785 31.157526376679016 0 0 0 0 25.442445432530803 4.6631304153952442 0 4.6631304153952442 47.243868079582171 0 0 0 0 20.578326738033866 -23.424833202110904 0 -23.424833202110904 18.486193729480874 0 0 0 0 5.1310490024795286 0.7217620613339335 0 0.7217620613339335 10.097789868538285 0 0 0 0 426.78607719913998 4.7948067367851763 0 4.7948067367851763 -8.1198954552965006 0 0 0 0 7.4939093890563981 1.273435612630351 0 1.273435612630351 0.59802416756863863 0 0 0 0 366.3745804039936 -69.721350128702397 0 -69.721350128702397 15.147314944346363 0 0 0 0 419.94235298476997 34.611800563458019 0 34.611800563458019 -73.002607091500977 0 0 0 0 280.14595508298953 7.4051370976740145 0 7.4051370976740145 104.90913721672496 0 0 0 0 378.37121935171308 72.398135310006182 0 72.398135310006182 1.1641550944696064 0 0 0 0 292.88320238119923 119.8181210447874 0 119.8181210447874 -16.938430097688979 0 0 0 0 372.22281763798674 81.211422278598548 0 81.211422278598548 -10.965294568184618 0 0 0 0 491.0423261426622 -25.766915203683311 0 -25.766915203683311 -5.3648769699951799 0 0 0 0 334.00556451221928 65.049023520004994 0 65.049023520004994 22.755165710499568 0 0 0 0 176.62611782710792 -107.57802226609448 0 -107.57802226609448 145.94097911056861 0 0 0 0 193.50520913877415 -105.34866857086868 0 -105.34866857086868 137.93355880024592 0 0 0 0 194.02704707640262 -55.773057523415503 0 -55.773057523415503 258.51662908517164 0 0 0 0 119.90840990989091 -98.6801111524926 0 -98.6801111524926 173.25661493345024 0 0 0 0 149.62506772785855 -177.03010724281376 0 -177.03010724281376 79.078045315019153 0 0 0 0 36.424537133498234 -193.29514353348281 0 -193.29514353348281 74.92718296095245 0 0 0 0 15.220735886061448 -143.16764111341172 0 -143.16764111341172 75.201950520371611 0 0 0 0 106.8015500510528 -142.0701287605313 0 -142.0701287605313 52.005047874539741 0 0 0 0 62.3108680600144 -74.559062048564101 0 -74.559062048564101 141.36127666344919 0 0 0 0 -11.367635760741905 -108.66302407541866 0 -108.66302407541866 44.195697747723898 0 0 0 0 -45.698570817337895 -201.23685485554506 0 -201.23685485554506 37.337468431895871 0 0 0 0 -73.372789163819107 -244.70386888129337 0 -244.70386888129337 -82.998552202607698 0 0 0 0 -67.927839946491076 -200.07091960663752 0 -200.07091960663752 23.883402076840639 0 0 0 0 45.304867884764008 -170.35412487773982 0 -170.35412487773982 -74.213575870327077 0 0 0 0 18.070986042481309 -149.10722550978562 0 -149.10722550978562 -31.029032863649263 0 0 0 0 142.83881792412649 -216.86673429857842 0 -216.86673429857842 -10.77386963159006 0 0 0 0 95.805454566621847 -140.67589678529066 0 -140.67589678529066 58.492375816953427 0 0 0 0 49.836204165305389 -190.00118475832323 0 -190.00118475832323 -11.3829869411652 0 0 0 0 139.32766858405012 -197.31266615736104 0 -197.31266615736104 -12.17826129848936 0 0 0 0 162.24303653362131 -141.11812523500242 0 -141.11812523500242 0.5788649190317301 0 0 0 0 247.42591775205801 -209.28416772076616 0 -209.28416772076616 55.126024575122301 0 0 0 0 143.86328464685903 -155.79503426099154 0 -155.79503426099154 -170.11948668190507 0 0 0 0 140.66581133523505 -181.80446779472118 0 -181.80446779472118 -87.491606193010739 0 0 0 0 66.892940884230484 -157.8389824785686 0 -157.8389824785686 -78.966971805893081 0 0 0 0 104.91158839051786 -189.14942368027596 0 -189.14942368027596 -85.422261235050428 0 0 0 0 6.6522423938422435 -220.82791481905269 0 -220.82791481905269 -69.264066434777305 0 0 0 0 87.664851510016476 -81.935403216843227 0 -81.935403216843227 16.008480966561155 0 0 0 0 -417.51826705240092 -236.06705423475933 0 -236.06705423475933 108.09180222815849 0 0 0 0 202.76858425413957 96.983845997216122 0 96.983845997216122 38.528702118627734 0 0 0 0 -96.344186948983406 23.876472027047839 0 23.876472027047839 111.35871215488623 0 0 0 0 0.54667817341857017 1.7822459649264335 0 1.7822459649264335 0.15097846954962435 0 0 0 0 212.93294918844185 -86.931974955618898 0 -86.931974955618898 63.818031634134968 0 0 0 0 176.43906515969138 91.691349007328881 0 91.691349007328881 -84.681294066864268 0 0 0 0 49.779793044232065 -67.55377064084405 0 -67.55377064084405 -48.547906769225477 0 0 0 0 3.5697739026617796 -23.576137820880817 0 -23.576137820880817 -1.9553374952136073 0 0 0 0 90.214033787852202 -70.568221505903381 0 -70.568221505903381 2.1583368635130213 0 0 0 0 -140.92210984488702 -131.06896813299443 0 -131.06896813299443 34.447402914179293 0 0 0 0 118.31509498718515 -99.927447882459091 0 -99.927447882459091 -91.100494271228058 0 0 0 0 110.71677465532593 -115.30960104409678 0 -115.30960104409678 -122.17729400452663 0 0 0 0 75.355276622292877 -15.001571652692292 0 -15.001571652692292 -30.007519156876981 0 0 0 0 90.221026766148441 -16.160639027812671 0 -16.160639027812671 -4.6146265384793956 0 0 0 0 76.913291215880236 -73.999718317495535 0 -73.999718317495535 -168.78480794124152 0 0 0 0 289.1252185942576 -255.30508177298634 0 -255.30508177298634 181.8842207351513 0 0 0 0 4.4622121005595545 -81.370520433836646 0 -81.370520433836646 228.65420490041834 0 0 0 0 50.573474803764839 -36.584258506267361 0 -36.584258506267361 107.08875322575841 0 0 0 0 141.90713838864758 -84.575365198278632 0 -84.575365198278632 71.210628637491482 0 0 0 0 77.518790236208588 -36.927288678089553 0 -36.927288678089553 11.053156541194767 0 0 0 0 69.604087259263906 4.4862432356635509 0 4.4862432356635509 4.8500313067834213 0 0 0 0 31.511566923998998 -3.7843163035666478 0 -3.7843163035666478 0.40516881753529965 0 0 0 0 23.870825475649326 29.383688633549809 0 29.383688633549809 28.344475823549146 0 0 0 0 119.9995816211449 -11.706663790091625 0 -11.706663790091625 25.821578358974875 0 0 0 0 10.983750253420851 -2.5767650103070139 0 -2.5767650103070139 0.97957425323443559 0 0 0 0 310.36146219469083 -376.11385445514952 0 -376.11385445514952 488.01299613321817 0 0 0 0 286.99215223835927 337.95263460312935 0 337.95263460312935 291.58929674677529 0 0 0 0 235.85462539768196 474.50963364919153 0 474.50963364919153 490.21781418835917 0 0 0 0 443.89118010681705 -36.504055198399328 0 -36.504055198399328 -84.343216619627128 0 0 0 0 1054.3933860466132 -227.12821164422667 0 -227.12821164422667 -24.85380821173203 0 0 0 0 524.57427838748117 -163.79481704399905 0 -163.79481704399905 -13.425002066082016 0 0 0 0 332.68019231919607 -106.73501009465781 0 -106.73501009465781 -12.509471222701904 0 0 0 0 398.45629411494156 -52.771962350612284 0 -52.771962350612284 -3.3312978453141113 0 0 0 0 345.82721915235015 -11.142875254017781 0 -11.142875254017781 -29.279244497955005 0 0 0 0 348.39267622609623 -6.8488964981634126 0 -6.8488964981634126 -25.001304261599216 0 0 0 0 283.60910124139627 -17.726488043364043 0 -17.726488043364043 30.59591190806259 0 0 0 0 323.43925972170837 -10.242893705524693 0 -10.242893705524693 31.762558321013785 0 0 0 0 307.3553583734174 23.739712854874597 0 23.739712854874597 -11.767828665767411 0 0 0 0 290.68936769138963 -44.461396201051684 0 -44.461396201051684 -3.7835051214290161 0 0 0 0 312.92264962680929 -85.864393323395461 0 -85.864393323395461 26.341017663960884 0 0 0 0 243.45949320602813 -77.612080720329232 0 -77.612080720329232 34.111394246562213 0 0 0 0 300.10346866697364 -101.46813089266197 0 -101.46813089266197 19.57726391938013 0 0 0 0 234.33471915597329 -148.63037633740169 0 -148.63037633740169 82.141744516804465 0 0 0 0 114.22425067868608 -115.82286093980656 0 -115.82286093980656 99.695776371385364 0 0 0 0 87.902843127507367 -70.841417281167196 0 -70.841417281167196 87.059581988753052 0 0 0 0 160.77533421549015 -93.842976603728857 0 -93.842976603728857 67.775965240129153 0 0 0 0 167.82165260727925 -80.590880027610638 0 -80.590880027610638 69.127058538684651 0 0 0 0 241.36777693648764 -96.932575696564527 0 -96.932575696564527 58.824774697543489 0 0 0 0 184.2940081700217 -67.971498143093413 0 -67.971498143093413 61.536672860352155 0 0 0 0 184.57223324259394 -65.113939482265778 0 -65.113939482265778 76.108069667487143 0 0 0 0 136.65319320042909 -56.447128761202293 0 -56.447128761202293 90.144969575029791 0 0 0 0 127.50510561780538 -67.317954078885123 0 -67.317954078885123 81.491788235314743 0 0 0 0 145.57301415532129 -39.470649655976558 0 -39.470649655976558 52.065308522262058 0 0 0 0 6.0857696310005736 8.2751292060581534 0 8.2751292060581534 10.440780819351385 0 0 0 0 185.44264562590979 -7.5770078377590835 0 -7.5770078377590835 30.609681952716983 0 0 0 0 64.389912153128535 26.042741466737425 0 26.042741466737425 52.944801049815396 0 0 0 0 31.794127195350541 31.83791306676045 0 31.83791306676045 29.817677921797632 0 0 0 0 -88.369462590417243 162.98528623274524 0 162.98528623274524 187.07554717969469 0 0 0 0 162.02371359753306 -1.8758616981031082 0 -1.8758616981031082 0.57723915339374798 0 0 0 0 -9.4210499321304724 0.59869267245875335 0 0.59869267245875335 6.5961962029360137 0 0 0 0 97.496042194750771 -38.941693627050881 0 -38.941693627050881 65.82500924620399 0 0 0 0 103.03635124782159 -22.387321801374128 0 -22.387321801374128 40.897934384651762 0 0 0 0 18.814220748317894 4.6169744684193574 0 4.6169744684193574 51.592733934283387 0 0 0 0 90.874026731093181 -28.132805704339262 0 -28.132805704339262 15.616632848175868 0 0 0 0 -2.9004744278208818 4.2639976809841755 0 4.2639976809841755 10.624420887732413 0 0 0 0 12.691642275306009 17.255121561246227 0 17.255121561246227 10.803019912049262 0 0 0 0 11.734352294619413 9.6518983428095737 0 9.6518983428095737 9.4147331936320171 0 0 0 0 37.17300373071339 36.23270551088217 0 36.23270551088217 19.164294422680541 0 0 0 0 92.291287653235486 5.4299053011400247 0 5.4299053011400247 0.76829234660544898 0 0 0 0 5.5121772256587747 1.5237538436464391 0 1.5237538436464391 2.2598639200097352 0 0 0 0 27.643715731537668 -3.7052554882830009 0 -3.7052554882830009 23.100269543492345 0 0 0 0 10.012279850416235 9.4490233601363798 0 9.4490233601363798 18.335383614536113 0 0 0 0 19.043699770417334 4.117857747969019 0 4.117857747969019 3.7433818205107343 0 0 0 0 25.106894682396643 9.3200715081316758 0 9.3200715081316758 0.48893106852414547 0 0 0 0 19.972738978191046 6.0859139013809909 0 6.0859139013809909 3.1351593277322536 0 0 0 0 9.2434503140067648 6.1765331729334321 0 6.1765331729334321 8.0718415366624257 0 0 0 0 23.324365878870594 18.670663102162507 0 18.670663102162507 6.4807948081015638 0 0 0 0 62.928419524418132 -10.888203143116698 0 -10.888203143116698 198.52861656849564 0 0 0 0 200.27640286392125 -33.357819225547246 0 -33.357819225547246 11.553833418288832 0 0 0 0 194.13596184120252 53.487907947551321 0 53.487907947551321 2.4226632766822149 0 0 0 0 75.008007716787688 91.434721797404563 0 91.434721797404563 87.419195067381224 0 0 0 0 107.61679972041748 51.046328850683494 0 51.046328850683494 3.3936393433777994 0 0 0 0 113.56582082924433 51.702270861429497 0 51.702270861429497 -5.6885082694716402 0 0 0 0 49.216029319266738 -32.212501731417262 0 -32.212501731417262 5.9442637522082933 0 0 0 0 110.19307741858938 -14.607858272660451 0 -14.607858272660451 7.7515425060155394 0 0 0 0 69.507822199331713 -40.271583244551039 0 -40.271583244551039 7.225374139708947 0 0 0 0 68.698608267171949 -10.52878145844852 0 -10.52878145844852 8.9762949240757735 0 0 0 0 31.393705855603912 -42.433513496638625 0 -42.433513496638625 228.19630130152291 0 0 0 0 46.619723308196797 -19.023564273935477 0 -19.023564273935477 3.254325959466442 0 0 0 0 147.82854747825331 42.991384787949755 0 42.991384787949755 -8.9567080191154673 0 0 0 0 41.450504983491555 -39.782626164237627 0 -39.782626164237627 30.340964825152696 0 0 0 0 12.595504988028551 -16.229534357295051 0 -16.229534357295051 34.891608740295396 0 0 0 0 110.261248230614 -41.833811978923222 0 -41.833811978923222 19.331462244742852 0 0 0 0 150.49358076685166 -4.9056760516550639 0 -4.9056760516550639 -11.349834628115786 0 0 0 0 183.29300230537774 -12.02187241109641 0 -12.02187241109641 -9.806114714202522 0 0 0 0 146.06433545032633 -2.5841603075959938 0 -2.5841603075959938 -3.1858197415131144 0 0 0 0 136.98113695715438 -9.1214367418560869 0 -9.1214367418560869 -5.5489823486113892 0 0 0 0 154.28791916664341 -0.2500065550848376 0 -0.2500065550848376 -2.0546011414262466 0 0 0 0 114.75481571951241 20.013280424203913 0 20.013280424203913 -5.0787520060821407 0 0 0 0 -0.15694014169505976 1.7015714956223746 0 1.7015714956223746 0.87359609466257382 0 0 0 0 266.64115495232545 48.157316184662704 0 48.157316184662704 -288.70879165072984 0 0 0 0 254.19156546001341 204.84057323719537 0 204.84057323719537 -174.4543775695347 0 0 0 0 177.14277021557791 22.537844747759664 0 22.537844747759664 -26.206741128335125 0 0 0 0 162.28998041306477 1.0832733705751707 0 1.0832733705751707 10.88792684839791 0 0 0 0 163.69393697118812 0.67561303841262088 0 0.67561303841262088 -4.8047747520504345 0 0 0 0 163.3348429382022 4.5608230863545032 0 4.5608230863545032 -6.1516459330196085 0 0 0 0 172.63289911235915 1.3677565800935554 0 1.3677565800935554 -5.7617353379955603 0 0 0 0 241.06917416223951 7.7080190816161576 0 7.7080190816161576 25.250900018736502 0 0 0 0 176.05179793713614 6.8097365772405283 0 6.8097365772405283 2.8994133339074324 0 0 0 0 137.84051361318416 -4.1276416963592055 0 -4.1276416963592055 -13.328628569230204 0 0 0 0 11.104683545223139 3.7959318820388148 0 3.7959318820388148 2.9708814789762954 0 0 0 0 113.09176549390395 60.662118439871847 0 60.662118439871847 13.045916338891402 0 0 0 0 47.845919285003902 24.253433916808522 0 24.253433916808522 9.519710505357601 0 0 0 0 167.31895290594548 8.293584390585238 0 8.293584390585238 20.955752219648275 0 0 0 0 169.6608355428325 -1.6339385808605584 0 -1.6339385808605584 23.502519725429011 0 0 0 0 164.44947901766864 9.9994295893020535 0 9.9994295893020535 6.2336296689245501 0 0 0 0 162.0494320539583 0.2856008561757335 0 0.2856008561757335 8.893334429780225 0 0 0 0 151.13564645314182 10.141950729877863 0 10.141950729877863 20.242751603022043 0 0 0 0 156.57156092859805 -0.97130933124753938 0 -0.97130933124753938 19.253813265924691 0 0 0 0 172.9859373926738 -4.5057417526440986 0 -4.5057417526440986 23.704857526819978 0 0 0 0 161.9982207720459 7.6181751203548629 0 7.6181751203548629 32.004681913123932 0 0 0 0 157.27564952592365 -45.770607083501091 0 -45.770607083501091 97.925811155189876 0 0 0 0 153.99537515256088 24.875372860609787 0 24.875372860609787 59.203939409606392 0 0 0 0 200.24770438682754 4.966403107791848 0 4.966403107791848 31.95719226993242 0 0 0 0 153.82191599361249 -0.16877804634714266 0 -0.16877804634714266 47.953864501997032 0 0 0 0 49.138314823028111 30.459249735585331 0 30.459249735585331 8.6035170606484996 0 0 0 0 169.59934492966568 -1.2409725063243968 0 -1.2409725063243968 47.806613103399286 0 0 0 0 176.04483509785496 2.2473940491436224 0 2.2473940491436224 25.855765337619232 0 0 0 0 44.367266804106123 25.724433159114909 0 25.724433159114909 9.0317125447473217 0 0 0 0 81.253578987743822 61.095138760872942 0 61.095138760872942 8.8209764511120738 0 0 0 0 24.426964437618153 20.093715875176713 0 20.093715875176713 -1.4192931036398022 0 0 0 0 46.435878126893698 30.659073475948716 0 30.659073475948716 15.323868940785502 0 0 0 0 58.836162718886044 61.461177089095145 0 61.461177089095145 8.8234042489545175 0 0 0 0 75.501760260864103 85.293908573970839 0 85.293908573970839 39.597905751164944 0 0 0 0 110.46689496989711 -13.872759364761805 0 -13.872759364761805 11.379557710610243 0 0 0 0 99.17963113328733 -1.8127079056121147 0 -1.8127079056121147 15.151737393040094 0 0 0 0 145.48178995872149 6.7054865178834007 0 6.7054865178834007 5.9140774267725646 0 0 0 0 142.87406983153778 -3.3307225846583606 0 -3.3307225846583606 6.8563610282703848 0 0 0 0 128.44974136527162 6.6153435925798476 0 6.6153435925798476 18.424044976643927 0 0 0 0 124.53260945403599 -9.9404754514544038 0 -9.9404754514544038 19.517082628800608 0 0 0 0 94.888459183421219 -5.0816891206613946 0 -5.0816891206613946 47.420295036645257 0 0 0 0 132.53560459444998 8.82092829766043 0 8.82092829766043 43.26012410644762 0 0 0 0 143.81998817424756 5.8199957977412851 0 5.8199957977412851 39.619814868157846 0 0 0 0 121.39523489982821 -9.4493917378349579 0 -9.4493917378349579 52.736074185835605 0 0 0 0 62.909718338923994 -12.531185576999633 0 -12.531185576999633 92.294921203130798 0 0 0 0 94.635322754780645 -28.215488082447337 0 -28.215488082447337 14.070648262778832 0 0 0 0 55.722071640699994 -38.57721748074141 0 -38.57721748074141 15.194950204278364 0 0 0 0 66.642914579788339 36.686864300324487 0 36.686864300324487 107.16448515731099 0 0 0 0 114.78473518078681 0.71398981830134289 0 0.71398981830134289 37.497778056284005 0 0 0 0 125.10017043924017 -1.8441422403184333 0 -1.8441422403184333 40.116032601188635 0 0 0 0 64.096857480961233 -41.187944940786366 0 -41.187944940786366 23.261411818944332 0 0 0 0 116.85192892744089 -21.174509611651956 0 -21.174509611651956 29.670528243805165 0 0 0 0 98.555301373940893 69.896304104501723 0 69.896304104501723 79.594898911596829 0 0 0 0 153.62609489637543 52.55949841151596 0 52.55949841151596 35.846068145547179 0 0 0 0 28.873665259979362 -0.11907428627257843 0 -0.11907428627257843 14.972190036509524 0 0 0 0 44.862423005222809 -9.4249188908524957 0 -9.4249188908524957 46.188135336959931 0 0 0 0 68.363121472226339 46.033075959421694 0 46.033075959421694 46.604732120322296 0 0 0 0 58.069631712176488 64.574145075410343 0 64.574145075410343 14.48030534665304 0 0 0 0 24.342104353272589 67.460407126067366 0 67.460407126067366 30.141585719520663 0 0 0 0 198.2285061305156 47.755282886035275 0 47.755282886035275 7.6572808785895177 0 0 0 0 9.8900091093707729 -1.8424111683962963 0 -1.8424111683962963 0.65364598835614629 0 0 0 0 50.727088581938006 8.3910395890252403 0 8.3910395890252403 -0.30802887032041326 0 0 0 0 92.049863852895214 2.0563485194561508 0 2.0563485194561508 10.586506642153836 0 0 0 0 33.427475480726365 15.532365584293373 0 15.532365584293373 10.720053576314072 0 0 0 0 65.330857605557242 7.7912939972515431 0 7.7912939972515431 -1.1244076387289823 0 0 0 0 191.46351825189777 -13.211453928852279 0 -13.211453928852279 35.906289849212044 0 0 0 0 131.69019983574981 8.063825339108007 0 8.063825339108007 68.548451586953888 0 0 0 0 24.258859158577593 8.0390561378169139 0 8.0390561378169139 -10.357050297145229 0 0 0 0 110.01734184790985 61.100005176478589 0 61.100005176478589 29.650770903863304 0 0 0 0 70.83960010486868 38.834808738826105 0 38.834808738826105 11.411470133840758 0 0 0 0 117.33381028370059 83.880392545766881 0 83.880392545766881 61.976822387085122 0 0 0 0 120.27865379829018 74.771003918325732 0 74.771003918325732 56.925443129410269 0 0 0 0 82.51224756121519 24.95320525902207 0 24.95320525902207 15.448333713786269 0 0 0 0 124.94068463793519 127.10246998023285 0 127.10246998023285 -81.488743779606011 0 0 0 0 16.524982880308698 -3.8836152269772555 0 -3.8836152269772555 1.1079695440556208 0 0 0 0 36.230810080945957 -2.3990570369885518 0 -2.3990570369885518 -10.381565774438059 0 0 0 0 116.03726488992106 95.693745928396311 0 95.693745928396311 -10.947326557474298 0 0 0 0 34.913461296149762 133.43534929475663 0 133.43534929475663 142.81152234882393 0 0 0 0 110.14651804380264 39.152502220164479 0 39.152502220164479 13.62273662651387 0 0 0 0 -2.4208330666927509 -3.560646718047991 0 -3.560646718047991 16.205636704245485 0 0 0 0 23.427814753507846 -1.1184817109385676 0 -1.1184817109385676 41.915081562692649 0 0 0 0 94.178954917559167 14.241496042922336 0 14.241496042922336 6.9615814771314035 0 0 0 0 32.145906318501147 17.493678361635602 0 17.493678361635602 18.191406418536644 0 0 0 0 -6.7220135759268373 3.3394842140467205 0 3.3394842140467205 9.0363571937955669 0 0 0 0 0.64454647803358966 43.898659583284825 0 43.898659583284825 187.4169711192626 0 0 0 0 71.81665198362316 55.277354584017303 0 55.277354584017303 -4.9063507708278848 0 0 0 0 98.23079480377055 25.580678851120865 0 25.580678851120865 28.139424947990165 0 0 0 0 140.52729363519643 23.740910468345135 0 23.740910468345135 -34.754675815245719 0 0 0 0 138.4280371234272 -19.400666998292763 0 -19.400666998292763 7.1157497355598025 0 0 0 0 3.5462955592414005 -1.2508315322498476 0 -1.2508315322498476 -0.2342068038102596 0 0 0 0 87.596032808390021 63.936180564259544 0 63.936180564259544 2.6899464305097354 0 0 0 0 89.377483269519871 -102.65227751108296 0 -102.65227751108296 -76.292032425387333 0 0 0 0 35.698711418877792 -44.717597514277941 0 -44.717597514277941 -67.017079139777707 0 0 0 0 137.44220902841334 45.833193411504453 0 45.833193411504453 -67.362135041104921 0 0 0 0 161.67844378781592 -41.336356097164753 0 -41.336356097164753 -15.952261276721401 0 0 0 0 62.866783737321384 -4.8583554283604826 0 -4.8583554283604826 -5.0864201241788578 0 0 0 0 2.1901107073974799 -0.52690506003357029 0 -0.52690506003357029 -0.43946409937403175 0 0 0 0 23.684232813466224 -150.24824858299507 0 -150.24824858299507 36.525087627736866 0 0 0 0 141.0635751367663 -102.41561854536394 0 -102.41561854536394 53.721036213713887 0 0 0 0 30.698386319472775 -74.180569766050667 0 -74.180569766050667 85.732095554107218 0 0 0 0 60.428957846554113 51.819917217320835 0 51.819917217320835 16.276713754860793 0 0 0 0 2.2003889067151903 1.8962737159336029 0 1.8962737159336029 9.8789946178640164 0 0 0 0 71.331242726548226 -21.887682993237831 0 -21.887682993237831 -26.17294822088661 0 0 0 0 -31.055069277601433 35.639779947101488 0 35.639779947101488 22.054098245567729 0 0 0 0 28.220412890371335 -9.6856602410390451 0 -9.6856602410390451 8.8072666223379201 0 0 0 0 -0.8427518890821375 -26.019814955193397 0 -26.019814955193397 20.171470708664856 0 0 0 0 220.36314869370835 -67.966753844928462 0 -67.966753844928462 62.398778032053087 0 0 0 0 60.852096619375516 -118.9095647782342 0 -118.9095647782342 147.82530791068893 0 0 0 0 2.0560192160113502 0.39103308031523198 0 0.39103308031523198 -0.12649874387917137 0 0 0 0 115.61825593396497 77.904209665497547 0 77.904209665497547 130.87803775255361 0 0 0 0 70.847733063259511 57.555994144277065 0 57.555994144277065 5.3644540032537407 0 0 0 0 84.800374635491607 21.294535586629536 0 21.294535586629536 41.849178859345557 0 0 0 0 -43.208530341995356 -41.540337375693525 0 -41.540337375693525 63.955097361769731 0 0 0 0 19.848032136593247 2.2854058159549808 0 2.2854058159549808 2.8838676180178524 0 0 0 0 30.880106493139465 22.403886276526691 0 22.403886276526691 16.658532255424916 0 0 0 0 32.508709564346645 -12.667615621781351 0 -12.667615621781351 -0.25227505622905255 0 0 0 0 16.073665349247783 -1.3874674388816643 0 -1.3874674388816643 -1.3853482808170265 0 0 0 0 4998.3294825913399 1031.2953576226298 0 1031.2953576226298 36.266645678592361 0 0 0 0 41.200783595017128 7.1201645389095063 0 7.1201645389095063 1.4831168402023138 0 0 0 0 4641.6503943326279 194.0725022172326 0 194.0725022172326 9.5244369690075086 0 0 0 0 6.0560136223745618 7.3843581744071116 0 7.3843581744071116 0.85506157177464459 0 0 0 0 12.836476603583421 -0.89783722246039588 0 -0.89783722246039588 -2.9771540188362278 0 0 0 0 28.221163947906462 34.950995848126922 0 34.950995848126922 25.077299942298737 0 0 0 0 18.595783715714788 1.2208460845330364 0 1.2208460845330364 3.1266062121635514 0 0 0 0 4697.6702193746678 -659.76878983311326 0 -659.76878983311326 87.080226690463391 0 0 0 0 5.3270651874212289 11.959506847435129 0 11.959506847435129 -6.5510571545757461 0 0 0 0 17.649073410791161 6.1721534303442951 0 6.1721534303442951 -3.3577671087180292 0 0 0 0 15.923926257441053 11.242591210034334 0 11.242591210034334 94.71030426847733 0 0 0 0 105.80459204913859 46.333997838260643 0 46.333997838260643 75.876307336215859 0 0 0 0 73.960094742360525 91.872081200440107 0 91.872081200440107 64.568666491089004 0 0 0 0 346.43640650686211 154.03983124699141 0 154.03983124699141 73.35210387180382 0 0 0 0 30.413451324980997 101.09377413400853 0 101.09377413400853 197.67561639944444 0 0 0 0 1.1829607361316903 1.1635262669180726 0 1.1635262669180726 0.90861726025284617 0 0 0 0 735.30790599043394 62.175063110532022 0 62.175063110532022 -194.45388949094809 0 0 0 0 696.54358665211475 -6.2618285206713296 0 -6.2618285206713296 -305.06588436478773 0 0 0 0 41.046275566564873 -21.116297571583516 0 -21.116297571583516 21.304139841395795 0 0 0 0 40.345789232993411 9.7490983252821479 0 9.7490983252821479 -7.922972291455892 0 0 0 0 9.2500103919305161 -3.4485352981591397 0 -3.4485352981591397 -0.90152481719200572 0 0 0 0 52.411399494725629 -249.38172832841872 0 -249.38172832841872 -206.62060120959882 0 0 0 0 -131.45358160608157 -33.890016913692364 0 -33.890016913692364 -0.58046789349029382 0 0 0 0 32.228654632552832 -17.742408313582878 0 -17.742408313582878 -2.7974374143293317 0 0 0 0 -296.95321771980525 -9.4942237920861849 0 -9.4942237920861849 -4.1755824355166737 0 0 0 0 -235.69812292167808 131.81750577266632 0 131.81750577266632 287.5213475269536 0 0 0 0 -479.42582190174653 -87.129327193515365 0 -87.129327193515365 174.33526109547719 0 0 0 0 1869.1793179055785 82.717990314933786 0 82.717990314933786 -303.15406132414284 0 0 0 0 324.12708600614496 827.51195307841374 0 827.51195307841374 671.92630237355502 0 0 0 0 1993.139736294961 356.54533905669939 0 356.54533905669939 -507.75758720210342 0 0 0 0 -888.26215189414506 -80.24040501969057 0 -80.24040501969057 -84.615060187966264 0 0 0 0 994.15236629580613 -1072.2181265953905 0 -1072.2181265953905 131.39594671145255 0 0 0 0 1.799315358327874 -5.897238532628517 0 -5.897238532628517 -2.7103778457611307 0 0 0 0 -18.648763661813518 -26.160890106382084 0 -26.160890106382084 27.33250651970593 0 0 0 0 830.86458019894053 -633.37692899273907 0 -633.37692899273907 -70.1654564180661 0 0 0 0 575.37239052850828 449.19228675341981 0 449.19228675341981 -140.76771190350792 0 0 0 0 -40.442889676442064 -327.68081664859631 0 -327.68081664859631 -114.28360795667496 0 0 0 0 8.0709347787281285 -2.9006508740538877 0 -2.9006508740538877 -2.918969250713829 0 0 0 0 -398.42267852119767 8.7434989919636195 0 8.7434989919636195 96.353088200069351 0 0 0 0 5.5211005510118945 -25.013706842348089 0 -25.013706842348089 -12.352019881399382 0 0 0 0 603.50355619068796 -253.61510472735995 0 -253.61510472735995 -51.302627543824826 0 0 0 0 -151.89143165437235 -69.086670012002173 0 -69.086670012002173 16.249094778145491 0 0 0 0 382.79468623106368 190.9133089887853 0 190.9133089887853 94.885512926975025 0 0 0 0 421.46049872387448 362.87882889373589 0 362.87882889373589 -421.8910386422092 0 0 0 0 26.160914813297744 7.6478795800350348 0 7.6478795800350348 1.9179427493047123 0 0 0 0 9.2639188403193202 0.13438429808923757 0 0.13438429808923757 0.24465914819202383 0 0 0 0 4273.6615500516746 200.01484873430206 0 200.01484873430206 9.9582239369456094 0 0 0 0 4995.8808843819243 -939.55525661764568 0 -939.55525661764568 -41.887735776880326 0 0 0 0 28.507173086054536 6.6348915715540926 0 6.6348915715540926 0.1953705059476647 0 0 0 0 29.208176538215412 -107.23177804458035 0 -107.23177804458035 1271.8006593023495 0 0 0 0 4993.8079035814162 1084.3663732180917 0 1084.3663732180917 -698.47264487381688 0 0 0 0 7.2288931752282721 1.3252179430912463 0 1.3252179430912463 4.2553245774407857 0 0 0 0 2.6131386726161514 0.56578071588648271 0 0.56578071588648271 -1.2690205028515797 0 0 0 0 1175.3215593229106 120.15593522246405 0 120.15593522246405 -368.31243494278027 0 0 0 0 -1755.7947860140562 980.66250858998148 0 980.66250858998148 602.70351844497134 0 0 0 0 1414.4478356293948 -232.5816079022494 0 -232.5816079022494 163.10351470449353 0 0 0 0 1999.0969441653251 648.97102276118085 0 648.97102276118085 -253.6533530872552 0 0 0 0 238.17225308924753 2732.7731249266521 0 2732.7731249266521 1792.1595903665739 0 0 0 0 2592.4505891294739 -468.89288215615989 0 -468.89288215615989 -159.25213758397769 0 0 0 0 2592.4186808076556 123.26849271048721 0 123.26849271048721 -702.06212344905725 0 0 0 0 -27.230275497437106 25.694256490672672 0 25.694256490672672 359.95650692299648 0 0 0 0 573.53977021239825 -436.34399929620747 0 -436.34399929620747 401.34718242815217 0 0 0 0 970.67543046747596 204.04048408024204 0 204.04048408024204 250.27081707690218 0 0 0 0 -71.146756487087259 363.52363794135073 0 363.52363794135073 226.69680008981936 0 0 0 0 15.879896287352381 -15.706601355813312 0 -15.706601355813312 -16.727111249104269 0 0 0 0 271.23597406483805 -763.63798954272147 0 -763.63798954272147 664.05488551837243 0 0 0 0 4991.6315238998641 -823.68796367376854 0 -823.68796367376854 -716.81276509158954 0 0 0 0 11.556162321011403 4.7255378260895693 0 4.7255378260895693 -0.16306915950748577 0 0 0 0 18.997998300959409 12.831449600665138 0 12.831449600665138 -35.867937381274714 0 0 0 0 12.278694177384665 -4.9097665546297922 0 -4.9097665546297922 -0.58590835287822551 0 0 0 0 2599.8638842756955 -1640.9874139488156 0 -1640.9874139488156 624.36762051358505 0 0 0 0 2872.1012296936015 2071.9911660695207 0 2071.9911660695207 728.03032376770045 0 0 0 0 4992.2863280148085 1391.2796838997492 0 1391.2796838997492 -835.03659478671284 0 0 0 0 625.19543581321398 -549.29686255568242 0 -549.29686255568242 -395.77131445577635 0 0 0 0 637.59840929112693 991.93238582185131 0 991.93238582185131 650.29828291909485 0 0 0 0 2335.9677644752014 -1415.7244773337857 0 -1415.7244773337857 -317.99577766931168 0 0 0 0 556.3126991533311 150.90619676372694 0 150.90619676372694 -22.832533376931337 0 0 0 0 3257.6217667420333 400.08645804909594 0 400.08645804909594 -753.65017402357751 0 0 0 0 3695.6940483126555 748.48386093605461 0 748.48386093605461 -689.96125710338902 0 0 0 0 117.23480017841894 -132.3796309130322 0 -132.3796309130322 56.101959514616283 0 0 0 0 58.726268383350543 -172.31645751972974 0 -172.31645751972974 223.36102144020975 0 0 0 0 -0.88602929506772277 0.23702555390638391 0 0.23702555390638391 -4.1789331409395878 0 0 0 0 -112.53536780983814 -558.73394755415802 0 -558.73394755415802 60.179962717706921 0 0 0 0 291.1073900034371 -232.34960344827687 0 -232.34960344827687 86.504893135886277 0 0 0 0 146.88907041969583 -248.75082175522567 0 -248.75082175522567 -471.17099541429116 0 0 0 0 31.108560314789855 -2.7266826768498507 0 -2.7266826768498507 -5.6234520349109944 0 0 0 0 10.479413899975656 -3.6643177472433752 0 -3.6643177472433752 -16.260260318117563 0 0 0 0 -616.37990188438312 -271.03269979234886 0 -271.03269979234886 -9.1425732052579747 0 0 0 0 -59.500037947032979 -95.415803829494052 0 -95.415803829494052 -101.6507172445522 0 0 0 0 109.46552504593546 -22.656190863086977 0 -22.656190863086977 -24.629837376035539 0 0 0 0 31.357040160775441 -8.9176203767043258 0 -8.9176203767043258 -2.8313856830925355 0 0 0 0 16.037519356757002 -24.3909654380559 0 -24.3909654380559 84.680851282682397 0 0 0 0 -149.31219457410407 -164.08606608940863 0 -164.08606608940863 70.986616730399476 0 0 0 0 36.490347751683821 2.5259162576492251 0 2.5259162576492251 -5.6107480309111883 0 0 0 0 -162.25154633120837 22.870136698792521 0 22.870136698792521 80.961024988011559 0 0 0 0 -97.63272308365049 18.020834563621975 0 18.020834563621975 -20.533725461721588 0 0 0 0 58.364370900741051 -127.09014932257014 0 -127.09014932257014 -287.11896024328416 0 0 0 0 73.374992336230207 -3.3205186726718239 0 -3.3205186726718239 -46.475136444775671 0 0 0 0 -120.04406416900747 -311.32180133103429 0 -311.32180133103429 -61.20003190338457 0 0 0 0 16.409022490689551 -7.1559890623804439 0 -7.1559890623804439 -5.5660006501302695 0 0 0 0 31.849984938897251 -7.3787119840890227 0 -7.3787119840890227 -27.508119373900172 0 0 0 0 34.910571158337916 257.55449057283431 0 257.55449057283431 -382.76127240599379 0 0 0 0 24.298292125123169 -7.2776208019867674 0 -7.2776208019867674 -13.938034011967542 0 0 0 0 -38.790239416004624 -88.470958633335314 0 -88.470958633335314 -43.50556613630053 0 0 0 0 -353.20641982699817 140.62338396605693 0 140.62338396605693 135.68788089849994 0 0 0 0 30.542538862832316 -25.10332163378348 0 -25.10332163378348 -97.019519794079315 0 0 0 0 7.246669142026585 -24.030128986626298 0 -24.030128986626298 -22.401582299944995 0 0 0 0 7.1634431301863515 -11.668076956754248 0 -11.668076956754248 23.274839160628858 0 0 0 0 -100.75855122298162 107.58316195963516 0 107.58316195963516 315.78856386722327 0 0 0 0 -15.761296106928057 -58.746185875644642 0 -58.746185875644642 0.98081314643150108 0 0 0 0 5.8447423385289241 -0.88523668849375525 0 -0.88523668849375525 -3.3461803460967481 0 0 0 0 819.00874074227613 833.1600576334888 0 833.1600576334888 719.68326658784554 0 0 0 0 750.19716985952027 1174.9883136126994 0 1174.9883136126994 -8.7454781817514231 0 0 0 0 824.43528925312421 796.31839668482871 0 796.31839668482871 -13.930521947883335 0 0 0 0 -319.82156749194837 -240.96824130601817 0 -240.96824130601817 270.20520076474668 0 0 0 0 885.31884384298064 -1069.0942164426167 0 -1069.0942164426167 -850.16847631697419 0 0 0 0 1729.0389618784075 312.03298576663826 0 312.03298576663826 72.777751546952459 0 0 0 0 1694.1691115157428 408.56336128444673 0 408.56336128444673 -190.33246671197958 0 0 0 0 705.03831428712874 -94.148617684937562 0 -94.148617684937562 -10.454461317696996 0 0 0 0 12.922401957755788 4.9693986286587304 0 4.9693986286587304 1.7156077384123489 0 0 0 0 476.01143807014159 661.35985934162454 0 661.35985934162454 826.56934808449523 0 0 0 0 -168.54475607489439 19.547574435430761 0 19.547574435430761 285.09492090818458 0 0 0 0 752.19687808757408 509.50674989396452 0 509.50674989396452 300.98872089725728 0 0 0 0 352.90385220345888 -461.46067856891466 0 -461.46067856891466 633.24390345038933 0 0 0 0 -156.11570457157723 -165.12092015807048 0 -165.12092015807048 247.15407390689927 0 0 0 0 12.220373115526378 -3.6180747574494716 0 -3.6180747574494716 1.9808829651171083 0 0 0 0 1237.4466874712889 -389.99554812089514 0 -389.99554812089514 169.11387073804508 0 0 0 0 -33.227899708517725 -5.6014277511407045 0 -5.6014277511407045 284.81846226375865 0 0 0 0 183.60125581440388 -334.86170746224184 0 -334.86170746224184 419.2211118429218 0 0 0 0 553.4635405646452 -155.02491087687679 0 -155.02491087687679 549.53309448209257 0 0 0 0 1197.4535417148618 441.72796608148604 0 441.72796608148604 528.53957670905356 0 0 0 0 550.03348701461073 67.96985777083944 0 67.96985777083944 326.16120045925527 0 0 0 0 66.054899648592254 74.965441623245624 0 74.965441623245624 994.36063223090946 0 0 0 0 215.22662917220805 -68.376289484420681 0 -68.376289484420681 74.253719866574556 0 0 0 0 -297.27806938723006 -1013.2606135784181 0 -1013.2606135784181 -296.64157389014781 0 0 0 0 36.307851750052052 -19.627474151667819 0 -19.627474151667819 8.6912425682285921 0 0 0 0 -81.070163118818527 546.90602801717341 0 546.90602801717341 311.47470101087674 0 0 0 0 41.580666500231544 -19.682132180697618 0 -19.682132180697618 6.2772976151779529 0 0 0 0 445.52695144072277 -157.33613157320417 0 -157.33613157320417 -451.92440009839589 0 0 0 0 528.70200910335552 58.556352956851939 0 58.556352956851939 -257.37241219314836 0 0 0 0 42.459000615723426 -8.1797362076220352 0 -8.1797362076220352 -214.59395033477176 0 0 0 0 426.64394718541007 30.16889541714454 0 30.16889541714454 -80.091293688667662 0 0 0 0 511.57502953559379 -102.32767448439191 0 -102.32767448439191 118.24558756001767 0 0 0 0 -23.413331233030476 -84.923318217412572 0 -84.923318217412572 -70.347896057175731 0 0 0 0 194.86023415728414 -56.855490271401436 0 -56.855490271401436 -522.03830539908233 0 0 0 0 -35.148109320791946 -474.8136825786072 0 -474.8136825786072 -608.52586922617206 0 0 0 0 -416.44894246992408 -355.04835080739758 0 -355.04835080739758 -51.105377377852733 0 0 0 0 -339.39398043570691 -47.0651171242732 0 -47.0651171242732 -45.217340414725697 0 0 0 0 20.091139457031687 -7.5314176762631888 0 -7.5314176762631888 1.6721335199392702 0 0 0 0 1344.339908433285 843.63848874867836 0 843.63848874867836 -282.07197658674022 0 0 0 0 110.55970997230179 -791.19134447524107 0 -791.19134447524107 -331.72371499119515 0 0 0 0 949.30853451388975 -660.21545423920395 0 -660.21545423920395 -311.85732059913039 0 0 0 0 199.27522045189107 -435.48314137403719 0 -435.48314137403719 26.435421998582854 0 0 0 0 -76.844471748110664 -70.930431978648699 0 -70.930431978648699 -48.347216060531501 0 0 0 0 216.01471988111734 -436.83140359228838 0 -436.83140359228838 -41.067165431248704 0 0 0 0 217.08664878601121 -231.82561117168439 0 -231.82561117168439 39.485039042296592 0 0 0 0 101.75692015055392 -241.94090757892201 0 -241.94090757892201 213.63206403302422 0 0 0 0 730.2884084405996 -142.43341338210016 0 -142.43341338210016 88.531467202714339 0 0 0 0 380.29574372998468 -396.07739193602947 0 -396.07739193602947 30.967201841197209 0 0 0 0 422.55907683638725 -149.40124668687974 0 -149.40124668687974 119.23631608529581 0 0 0 0 329.34937877417542 -184.55380469652471 0 -184.55380469652471 116.55186017371454 0 0 0 0 311.56797864678811 -221.84431557928792 0 -221.84431557928792 215.43554745059947 0 0 0 0 281.98867491122292 -193.32131125109004 0 -193.32131125109004 190.80520593681808 0 0 0 0 411.77211194425399 -41.659628949638801 0 -41.659628949638801 227.48243246816776 0 0 0 0 381.30349101882894 -19.561068657375927 0 -19.561068657375927 303.58441900552066 0 0 0 0 669.89696693389851 140.08880540145515 0 140.08880540145515 265.85953065028491 0 0 0 0 288.14670417137677 -4.0840560908529895 0 -4.0840560908529895 324.7284767193288 0 0 0 0 222.33581271539515 103.41833765057659 0 103.41833765057659 156.66030459777048 0 0 0 0 133.12804148829673 -192.44464541066864 0 -192.44464541066864 203.40049456575514 0 0 0 0 1262.5182100131788 303.71734874323829 0 303.71734874323829 283.54131575124916 0 0 0 0 624.24026780441636 210.05161175072894 0 210.05161175072894 282.69326024645204 0 0 0 0 549.11871905134467 179.77707100455171 0 179.77707100455171 783.11001216972852 0 0 0 0 660.95059457369643 552.43861293948157 0 552.43861293948157 844.97763472567931 0 0 0 0 541.7493487319407 328.97123462200841 0 328.97123462200841 479.88388416048554 0 0 0 0 475.36624674540508 253.09797261605695 0 253.09797261605695 576.87640530936267 0 0 0 0 588.49004461635059 138.67570386702354 0 138.67570386702354 448.62032277591356 0 0 0 0 580.71143088627286 311.43700766142609 0 311.43700766142609 451.48895937399323 0 0 0 0 794.93415533485677 340.21342786546012 0 340.21342786546012 400.6462604633378 0 0 0 0 619.09499541657487 46.170975377857765 0 46.170975377857765 55.741287856488725 0 0 0 0 623.92366631972527 134.20419536843855 0 134.20419536843855 614.69777867211917 0 0 0 0 941.34085300336665 2.3828118697771288 0 2.3828118697771288 61.671423633848271 0 0 0 0 904.99463890915285 103.66835062624062 0 103.66835062624062 -220.5740292608825 0 0 0 0 613.15012507365464 250.44798436344615 0 250.44798436344615 12.476462086176085 0 0 0 0 809.18921827050417 183.18419612807395 0 183.18419612807395 30.518555495036964 0 0 0 0 697.49673594903106 243.50122203206718 0 243.50122203206718 29.126878262544608 0 0 0 0 496.18488511741816 17.605310917228586 0 17.605310917228586 -67.63858142308726 0 0 0 0 465.12789264161142 133.19776892923903 0 133.19776892923903 -146.64701719025027 0 0 0 0 1637.5276188343996 280.06115616555667 0 280.06115616555667 -178.62694080660685 0 0 0 0 13.809615726076544 -8.0836388353528719 0 -8.0836388353528719 5.046744508814772 0 0 0 0 -126.51937197726738 -732.02793472553503 0 -732.02793472553503 920.17781869953524 0 0 0 0 -259.9970233774493 -182.60067302600717 0 -182.60067302600717 605.53513334227864 0 0 0 0 256.7605176531506 -252.06759861080118 0 -252.06759861080118 288.10904115070485 0 0 0 0 1377.1712141207681 -429.57873524040838 0 -429.57873524040838 281.76743377213222 0 0 0 0 608.95135464701934 183.11291606702423 0 183.11291606702423 -139.1982667974396 0 0 0 0 781.5980441865122 462.06423134169944 0 462.06423134169944 43.542757100857614 0 0 0 0 621.15275745311374 531.33864981820398 0 531.33864981820398 166.40009571413174 0 0 0 0 629.98904068939373 327.72039229418897 0 327.72039229418897 274.43329608462778 0 0 0 0 1141.8447056531622 700.4590234622766 0 700.4590234622766 521.87366792889998 0 0 0 0 -204.5934966505265 142.29486634772391 0 142.29486634772391 697.12797110453096 0 0 0 0 680.63452746105031 -109.94570340424158 0 -109.94570340424158 -149.88004419065555 0 0 0 0 922.06768586179169 -627.55279122895683 0 -627.55279122895683 866.32680708928444 0 0 0 0 232.50732679800421 -146.86518656254054 0 -146.86518656254054 49.632175842339734 0 0 0 0 786.12385520053431 -188.45519833588006 0 -188.45519833588006 -50.112523265073548 0 0 0 0 507.56203436555006 136.84091209600967 0 136.84091209600967 46.31576284592029 0 0 0 0 1.1048892355886455 2.7079212186017827 0 2.7079212186017827 13.486557504544781 0 0 0 0 555.73485029072981 89.971972419232088 0 89.971972419232088 82.886425778909938 0 0 0 0 470.46778443431685 73.552168619663348 0 73.552168619663348 -13.415629632271475 0 0 0 0 231.151186510353 130.08842980934037 0 130.08842980934037 28.373657835720678 0 0 0 0 0.7801074431013717 4.2909321649874883 0 4.2909321649874883 14.958940029011202 0 0 0 0 588.13282752992018 200.74958886145032 0 200.74958886145032 10.224110197905247 0 0 0 0 449.02470890899167 12.235194212572424 0 12.235194212572424 -81.794491561289306 0 0 0 0 160.76676363943989 -66.677564994976365 0 -66.677564994976365 42.383596377380854 0 0 0 0 289.58341766258673 217.71449887660287 0 217.71449887660287 113.46360465671398 0 0 0 0 439.16815553926779 207.91196434210428 0 207.91196434210428 4.5258561503633246 0 0 0 0 1.2882634877913191 -0.50635681431383972 0 -0.50635681431383972 0.31465598368536618 0 0 0 0 165.57715464704961 44.492442893052157 0 44.492442893052157 32.082367776390583 0 0 0 0 391.31364276274689 118.95675733877215 0 118.95675733877215 -4.3812803825761648 0 0 0 0 394.01094456807186 215.85746410230718 0 215.85746410230718 28.759350464180898 0 0 0 0 408.33326814003431 192.39766959815356 0 192.39766959815356 53.194854925218806 0 0 0 0 477.10978186394038 175.35811175826481 0 175.35811175826481 29.691298680455475 0 0 0 0 428.75264853932458 157.94030477512354 0 157.94030477512354 70.426841102729668 0 0 0 0 590.93682453017391 259.63148770691828 0 259.63148770691828 134.0184355590535 0 0 0 0 442.21890555488062 207.38722020522721 0 207.38722020522721 59.335361617953481 0 0 0 0 362.69743370432388 184.13095348765901 0 184.13095348765901 332.22080685201286 0 0 0 0 421.26570148432802 98.099227528111669 0 98.099227528111669 267.96841405028351 0 0 0 0 451.93356801125447 178.18540357681479 0 178.18540357681479 472.5575436980323 0 0 0 0 969.12390319657425 394.50525800643709 0 394.50525800643709 302.76799421011424 0 0 0 0 1.0632151544410853 0.82375866802478015 0 0.82375866802478015 5.3709214705567128 0 0 0 0 342.00960586344809 -216.29836860389122 0 -216.29836860389122 294.48547708657912 0 0 0 0 497.68273847995442 85.202367729726802 0 85.202367729726802 657.14776942753508 0 0 0 0 664.04128477349514 -73.555497501955188 0 -73.555497501955188 504.31687914163604 0 0 0 0 621.99606450853389 9.024554634086428 0 9.024554634086428 346.1578079072699 0 0 0 0 895.21418727387208 245.86855999039381 0 245.86855999039381 470.48619813019093 0 0 0 0 335.76246244766298 71.902426835004235 0 71.902426835004235 477.22364286719989 0 0 0 0 698.16513095728078 17.87144993323534 0 17.87144993323534 304.93068345883671 0 0 0 0 306.21446414744787 -55.512012588050084 0 -55.512012588050084 212.44216622383738 0 0 0 0 287.39270290808054 -29.572803764180662 0 -29.572803764180662 354.75987693011348 0 0 0 0 291.33324645070115 42.338219316738986 0 42.338219316738986 378.96034840378616 0 0 0 0 444.99018936954963 19.598358912569893 0 19.598358912569893 378.53515967499732 0 0 0 0 448.06197745844111 19.196077438314546 0 19.196077438314546 262.30771252236661 0 0 0 0 402.37784336642653 -216.77478462578665 0 -216.77478462578665 152.61217592986213 0 0 0 0 292.5031047314078 -67.917426905397633 0 -67.917426905397633 280.17752538275363 0 0 0 0 268.86645283969483 -151.32803373844899 0 -151.32803373844899 160.6160764213264 0 0 0 0 414.8511075849193 -90.67318418009377 0 -90.67318418009377 242.01780562576732 0 0 0 0 409.72761260128516 4.7401697638310196 0 4.7401697638310196 459.39225771682641 0 0 0 0 706.4921566124608 -90.666156393678392 0 -90.666156393678392 379.88980897245938 0 0 0 0 42.485607321501448 -218.19262716703292 0 -218.19262716703292 355.39842058766567 0 0 0 0 764.85973763951006 272.64484888928553 0 272.64484888928553 95.357874686032574 0 0 0 0 4.2522641487442883 -1.563472335341423 0 -1.563472335341423 0.22439214927903883 0 0 0 0 670.21305922884494 -244.12850852192355 0 -244.12850852192355 253.11176349703373 0 0 0 0 454.88642111211448 -44.750858829514527 0 -44.750858829514527 68.638578556938683 0 0 0 0 500.84258311684243 -20.611105822485115 0 -20.611105822485115 -60.317441837935803 0 0 0 0 304.78025211080239 -77.608672628464092 0 -77.608672628464092 70.824807830711052 0 0 0 0 270.1101963863548 123.82654618146807 0 123.82654618146807 68.139952292107409 0 0 0 0 358.92320139489493 -15.614080029111165 0 -15.614080029111165 -120.7868165836544 0 0 0 0 280.604928023291 43.448337974430615 0 43.448337974430615 -78.882108803752544 0 0 0 0 274.07543931126565 -139.86947381459186 0 -139.86947381459186 -29.997268221197373 0 0 0 0 390.66479358315519 -104.63901568316805 0 -104.63901568316805 -25.507322402529553 0 0 0 0 238.56515657105047 -117.93986626713468 0 -117.93986626713468 93.381852574875211 0 0 0 0 232.85674476982967 -169.86392182566306 0 -169.86392182566306 -102.85671839301813 0 0 0 0 197.90257786914481 -76.417342078167735 0 -76.417342078167735 -81.895615289398847 0 0 0 0 231.61398333355464 -114.86239636664004 0 -114.86239636664004 -126.77146722659882 0 0 0 0 142.66975811678776 -44.829309919659067 0 -44.829309919659067 -178.66264923567633 0 0 0 0 118.11852803277361 -166.21868506111468 0 -166.21868506111468 -102.64579343289972 0 0 0 0 129.25711325636439 -88.198935416628956 0 -88.198935416628956 -330.74149909256903 0 0 0 0 10.720777566846664 17.541817417172297 0 17.541817417172297 -316.14326324966169 0 0 0 0 91.767417723553081 -115.66389849315146 0 -115.66389849315146 -221.79161052899371 0 0 0 0 145.46651083577308 -79.841327547986111 0 -79.841327547986111 11.695749863580204 0 0 0 0 91.96473277471523 -26.504247782240327 0 -26.504247782240327 -15.182509245845779 0 0 0 0 64.198888944910877 -1.8794526842080597 0 -1.8794526842080597 -0.34731161031153457 0 0 0 0 12.286609029440086 -1.4676828295507924 0 -1.4676828295507924 0.26303775210816349 0 0 0 0 -180.87064065183949 -346.79728190412152 0 -346.79728190412152 1041.1186078888213 0 0 0 0 -483.31209379227948 233.87401162823517 0 233.87401162823517 365.7807283615457 0 0 0 0 175.93530162510433 -25.637057964982887 0 -25.637057964982887 -526.44936384971788 0 0 0 0 116.68366552475345 -241.59878034463145 0 -241.59878034463145 233.50277816140988 0 0 0 0 259.94381864262323 -300.42624314178101 0 -300.42624314178101 -257.2796763047063 0 0 0 0 38.335392368504984 -4.7960342657608113 0 -4.7960342657608113 -0.70781748496474739 0 0 0 0 119.9116568070167 96.200970520016199 0 96.200970520016199 -237.83132835145602 0 0 0 0 -86.595552078037144 -74.604358332205265 0 -74.604358332205265 -304.13913741262149 0 0 0 0 284.70785848814194 243.93065444060494 0 243.93065444060494 -356.36858546062467 0 0 0 0 270.48996183194322 120.93121037829894 0 120.93121037829894 -279.21726347303411 0 0 0 0 232.50913359116112 31.071803118645221 0 31.071803118645221 -200.87015088711996 0 0 0 0 265.04816965208738 60.060612859545017 0 60.060612859545017 -191.32023174819892 0 0 0 0 173.22222710441383 2.3388937369531959 0 2.3388937369531959 -121.68323656087159 0 0 0 0 293.065089192203 20.574349819082727 0 20.574349819082727 -137.19036428797699 0 0 0 0 296.8683414562247 75.989894315195954 0 75.989894315195954 -133.72696895597892 0 0 0 0 21.476512506211293 -28.124226046537387 0 -28.124226046537387 -22.49814536896406 0 0 0 0 145.50889334416934 -89.172577664564869 0 -89.172577664564869 0.71361775177501841 0 0 0 0 263.38221193253412 -148.29152419642378 0 -148.29152419642378 -178.60600769691519 0 0 0 0 377.65982658811117 28.157989368140079 0 28.157989368140079 -203.77278644398939 0 0 0 0 729.76138591825293 73.224795764563169 0 73.224795764563169 -360.86187004022577 0 0 0 0 598.32035469563198 -372.37983994267597 0 -372.37983994267597 -67.284309759602365 0 0 0 0 203.9002554455883 -197.79885682286675 0 -197.79885682286675 -300.24093337139493 0 0 0 0 209.88835280542844 -146.29132532561198 0 -146.29132532561198 -170.48262859057786 0 0 0 0 134.76726533718829 93.077245063171631 0 93.077245063171631 345.42471909350752 0 0 0 0 -104.09096826588211 215.83721991367474 0 215.83721991367474 -437.92350221978268 0 0 0 0 94.188832818719675 -53.017687867577479 0 -53.017687867577479 -137.4109243275343 0 0 0 0 -272.23341029983567 379.7108750034331 0 379.7108750034331 -209.49680715847057 0 0 0 0 246.32585325058972 61.963670561458002 0 61.963670561458002 -470.14917294830957 0 0 0 0 542.92581644632446 540.59123788890429 0 540.59123788890429 44.229166443678878 0 0 0 0 998.81862376089521 413.36787372578999 0 413.36787372578999 -460.83190009468672 0 0 0 0 958.01151097159891 -427.86018778192374 0 -427.86018778192374 -242.22660882691162 0 0 0 0 -126.47447572620877 341.96389740669247 0 341.96389740669247 -915.25942855649009 0 0 0 0 224.8699313465404 -327.93575299020631 0 -327.93575299020631 148.91950521085391 0 0 0 0 108.27480041516537 -17.290187491002143 0 -17.290187491002143 83.500264684721515 0 0 0 0 7.5866159237387762 -0.031946739645121625 0 -0.031946739645121625 -7.3751282502052327 0 0 0 0 192.32599535799091 -3.0022228776206248 0 -3.0022228776206248 -15.445730627747253 0 0 0 0 4.9617699663529891 6.4142475473688592 0 6.4142475473688592 -2.8582594182971093 0 0 0 0 -210.51533620355622 481.22319523314582 0 481.22319523314582 -496.99236696507523 0 0 0 0 -181.35328770967317 191.3122297392747 0 191.3122297392747 -396.87637734406144 0 0 0 0 -487.56939879014681 532.96601238071344 0 532.96601238071344 -741.52383997464494 0 0 0 0 -1.3128762029751115 -3.3582046835071964 0 -3.3582046835071964 2.7311811997034994 0 0 0 0 -291.14794081761647 119.92841299337215 0 119.92841299337215 -438.91928525275944 0 0 0 0 -81.521931469455012 44.274705706311579 0 44.274705706311579 -669.74672772361123 0 0 0 0 -154.56634192646015 -50.846882078081762 0 -50.846882078081762 -178.1250743698065 0 0 0 0 122.27577908037347 -97.269990101782241 0 -97.269990101782241 -496.5169220359378 0 0 0 0 -8.5890708467304648 321.86128270705876 0 321.86128270705876 -948.07651386988073 0 0 0 0 -41.072729234692815 -72.319816458922105 0 -72.319816458922105 -621.28783695807397 0 0 0 0 -126.76546975217207 100.34704601651902 0 100.34704601651902 -240.21429596749294 0 0 0 0 447.3010149433976 74.12081795446602 0 74.12081795446602 -240.57032251532311 0 0 0 0 -29.483765605880762 417.05615540555391 0 417.05615540555391 290.72531370414799 0 0 0 0 81.883643165496323 -248.78197878800484 0 -248.78197878800484 91.123610880497836 0 0 0 0 92.039292562287301 -177.15885433757103 0 -177.15885433757103 -133.37637814644791 0 0 0 0 -46.172282563326007 -124.65236854254636 0 -124.65236854254636 -144.60700710706442 0 0 0 0 4.7988667238459897 -1.224944820279056 0 -1.224944820279056 -0.79447577461236918 0 0 0 0 18.031105535839743 -70.827908787063279 0 -70.827908787063279 150.47452478070215 0 0 0 0 730.9033237061667 262.49924830723648 0 262.49924830723648 356.1438130137085 0 0 0 0 539.67354024785163 200.87050637121865 0 200.87050637121865 339.65736730805793 0 0 0 0 736.37606010402851 243.89487401821305 0 243.89487401821305 178.36715115961124 0 0 0 0 675.22316914606199 435.41074181791782 0 435.41074181791782 189.30947398193621 0 0 0 0 810.76964300865075 293.10031539910608 0 293.10031539910608 168.59165359882263 0 0 0 0 370.22443957798168 318.21356736110374 0 318.21356736110374 279.79961325792556 0 0 0 0 332.91845282445638 76.487825189754346 0 76.487825189754346 -10.901916171132598 0 0 0 0 8.3019438039701328 -3.5414244902292822 0 -3.5414244902292822 0.29361971943026433 0 0 0 0 142.23650976972567 0.3551460812041114 0 0.3551460812041114 -40.396081106620841 0 0 0 0 149.33264096078346 45.433176465905717 0 45.433176465905717 -24.015132100331812 0 0 0 0 264.9313518281815 105.87397335997321 0 105.87397335997321 7.4265860043019529 0 0 0 0 8.2569070221950085 -3.8095968414499453 0 -3.8095968414499453 0.83999325763834243 0 0 0 0 445.25689484983741 361.78779512991207 0 361.78779512991207 183.57123674778404 0 0 0 0 208.38369895948199 -53.788399566053272 0 -53.788399566053272 49.715651174598634 0 0 0 0 117.8721086032167 270.5145873595593 0 270.5145873595593 344.28572776156238 0 0 0 0 467.23339274269892 84.497755109489617 0 84.497755109489617 431.67149212848631 0 0 0 0 451.56814204684997 194.21908128124528 0 194.21908128124528 736.7908878972662 0 0 0 0 931.86596333109992 288.10069379246215 0 288.10069379246215 268.81444733541457 0 0 0 0 1174.5361395449727 680.75817633721988 0 680.75817633721988 508.2858542794358 0 0 0 0 2.6005883860729497 -1.7311743032712812 0 -1.7311743032712812 6.5008190783028654 0 0 0 0 816.23634388565551 371.07353477967985 0 371.07353477967985 123.52001524609909 0 0 0 0 5.4202446847985399 -7.5643755745753722 0 -7.5643755745753722 20.246670998888135 0 0 0 0 850.77174852876578 506.75493060467022 0 506.75493060467022 265.06477801025267 0 0 0 0 518.74305876625112 273.92776622640037 0 273.92776622640037 269.79079936772473 0 0 0 0 537.36227655623952 -29.988049969860867 0 -29.988049969860867 98.584381625005278 0 0 0 0 1034.4626550638386 -170.34941350535007 0 -170.34941350535007 -417.57367267935615 0 0 0 0 793.55286257581247 1148.5219804610379 0 1148.5219804610379 -373.13895646387846 0 0 0 0 600.42335400645607 785.26886803648949 0 785.26886803648949 246.29461013938806 0 0 0 0 1525.4380131471517 529.24606661590872 0 529.24606661590872 39.090216042983229 0 0 0 0 826.79698500757104 321.67893529228991 0 321.67893529228991 -22.412967512650994 0 0 0 0 824.80332036344407 428.62430862988151 0 428.62430862988151 369.901705168229 0 0 0 0 708.55282334996446 212.85086729818136 0 212.85086729818136 337.87278683002035 0 0 0 0 466.51924800067718 -84.854685333692146 0 -84.854685333692146 85.730649730122877 0 0 0 0 415.82841983027902 -72.2065202350243 0 -72.2065202350243 226.24994666459867 0 0 0 0 290.6009270442446 -202.48181086205955 0 -202.48181086205955 104.75674682552608 0 0 0 0 215.51832926287443 -26.442619293047045 0 -26.442619293047045 60.08486343681443 0 0 0 0 114.42154349060456 125.13362318465516 0 125.13362318465516 -60.862661288768322 0 0 0 0 506.1202633225621 -96.793450245942267 0 -96.793450245942267 57.99635536211747 0 0 0 0 153.01585643491126 -197.73375398610688 0 -197.73375398610688 77.189211592050015 0 0 0 0 -186.73004571241472 143.84697999977345 0 143.84697999977345 -1.4959263467771962 0 0 0 0 93.177535370918605 -2.9215354375117348 0 -2.9215354375117348 -2.4970394536652392 0 0 0 0 232.61895456329876 68.818540320869715 0 68.818540320869715 -550.41840266780264 0 0 0 0 717.48992672154054 826.75753022414642 0 826.75753022414642 -2127.9409745844 0 0 0 0 -42.485853366444644 628.38184882331075 0 628.38184882331075 213.81413186429018 0 0 0 0 1629.1665968796081 1433.6816442027271 0 1433.6816442027271 -346.60034316986867 0 0 0 0 646.56653006529086 1492.4624901082548 0 1492.4624901082548 1011.8540813369441 0 0 0 0 2425.1443426128099 -352.66910531748817 0 -352.66910531748817 -398.15479128824791 0 0 0 0 793.03335904979758 -666.85276700665133 0 -666.85276700665133 -9.9088806318854949 0 0 0 0 35.463125391312985 1.9583022326283812 0 1.9583022326283812 0.034256692482456996 0 0 0 0 1683.3208287496091 -1515.8149615737634 0 -1515.8149615737634 2225.538441345413 0 0 0 0 2853.5493619262706 1525.507523256857 0 1525.507523256857 -1035.5573760465677 0 0 0 0 660.06553038782295 319.40901857250537 0 319.40901857250537 383.52052629664377 0 0 0 0 9.0868399255047052 -11.556107904034413 0 -11.556107904034413 20.028390203653906 0 0 0 0 943.44716406413318 497.25276556917004 0 497.25276556917004 309.69514057385368 0 0 0 0 973.12188657622028 405.44283164992657 0 405.44283164992657 215.93286675822037 0 0 0 0 479.54697506261346 751.50094144186346 0 751.50094144186346 95.834192669717595 0 0 0 0 675.81110239118425 334.19462752938534 0 334.19462752938534 862.34438675733873 0 0 0 0 994.39453836981556 888.45304632648413 0 888.45304632648413 447.62800407980467 0 0 0 0 1214.2169767917876 832.18643328075859 0 832.18643328075859 35.39621274996307 0 0 0 0 7.6850696512016725 -6.2790268800689688 0 -6.2790268800689688 5.4064691809172931 0 0 0 0 440.30282767029712 768.15971650303982 0 768.15971650303982 974.96355629475693 0 0 0 0 977.89838830871304 -215.74899263284533 0 -215.74899263284533 415.83799432882734 0 0 0 0 725.79910738200851 494.71984080519633 0 494.71984080519633 186.99892542440284 0 0 0 0 1424.7825289895482 625.42461000784442 0 625.42461000784442 210.81757671751984 0 0 0 0 958.59892287234834 291.98051922923332 0 291.98051922923332 -680.88264304175175 0 0 0 0 341.27565620118548 743.40552006837606 0 743.40552006837606 98.790250410484077 0 0 0 0 -137.52990630649583 964.67978646346273 0 964.67978646346273 -757.02695682114177 0 0 0 0 384.1907592114876 -325.95982515426476 0 -325.95982515426476 507.81908078598394 0 0 0 0 1049.62302291581 -941.14432067151574 0 -941.14432067151574 535.28062440379472 0 0 0 0 2.5314520399944627 0.24882191559879985 0 0.24882191559879985 -0.36313576353322219 0 0 0 0 1788.7265214713043 37.674619317324868 0 37.674619317324868 -241.72335778996603 0 0 0 0 556.97192504348641 4.0697757298785291 0 4.0697757298785291 -17.037868932728088 0 0 0 0 612.86141387357929 253.38155084661685 0 253.38155084661685 -243.72493441791084 0 0 0 0 864.20112725180297 -101.29863940663199 0 -101.29863940663199 -301.81264181213191 0 0 0 0 433.02316964976035 3.7155031064080504 0 3.7155031064080504 -202.22060987353689 0 0 0 0 314.50333491765196 166.44274957699599 0 166.44274957699599 -261.37807597647043 0 0 0 0 286.70935241652569 456.38711493742278 0 456.38711493742278 -449.55023444527615 0 0 0 0 76.48911174654495 210.97409934656935 0 210.97409934656935 -557.16048896346729 0 0 0 0 370.80937385691504 362.52607847535182 0 362.52607847535182 -479.52925248369866 0 0 0 0 240.15127336949809 -203.77643273046488 0 -203.77643273046488 -175.27527088126772 0 0 0 0 405.38179096285967 -65.434600954114558 0 -65.434600954114558 -110.92737632574426 0 0 0 0 148.24096979399474 305.41964721154545 0 305.41964721154545 -453.7401244225457 0 0 0 0 3043.9912293961388 -1439.3390627123977 0 -1439.3390627123977 187.84010677006881 0 0 0 0 2989.7610745070997 -1037.5400398417232 0 -1037.5400398417232 435.97814932564552 0 0 0 0 2428.8270197651291 -1351.5392155495574 0 -1351.5392155495574 298.45742449957288 0 0 0 0 1090.3582639071537 460.53537285847682 0 460.53537285847682 195.49123723644971 0 0 0 0 56.207302509848262 31.618751724123385 0 31.618751724123385 12.726776259733928 0 0 0 0 -174.48218802176416 641.57513076946088 0 641.57513076946088 -491.63793602166425 0 0 0 0 64.396972820664615 40.862463133786861 0 40.862463133786861 18.708788163321749 0 0 0 0 40.493579960078932 31.456070705016373 0 31.456070705016373 -3.5166524119213136 0 0 0 0 -224.0466001801833 478.45870062196809 0 478.45870062196809 -404.91767128553784 0 0 0 0 -59.056130188037059 466.08772669372047 0 466.08772669372047 -242.01675373050966 0 0 0 0 -66.670339213407715 413.68510448463348 0 413.68510448463348 -596.78185623433274 0 0 0 0 -873.3829179701861 346.1041220336956 0 346.1041220336956 -80.476550183251675 0 0 0 0 650.5872062187118 477.09011118281887 0 477.09011118281887 -350.36595369698261 0 0 0 0 695.31269128390704 413.34622202482205 0 413.34622202482205 8.2807039198487473 0 0 0 0 9.4581431556289317 423.81371637377561 0 423.81371637377561 106.29538443834826 0 0 0 0 16.793134311425547 724.05277081692498 0 724.05277081692498 -167.29678267517738 0 0 0 0 -258.86467775645724 361.78191830745891 0 361.78191830745891 229.42684951853153 0 0 0 0 14.704677132676579 -2.1612658925742494 0 -2.1612658925742494 -10.279044122866082 0 0 0 0 -1197.073850396835 954.54681416815947 0 954.54681416815947 154.83050552185887 0 0 0 0 285.86977270986245 45.609534753607477 0 45.609534753607477 -314.6903860651546 0 0 0 0 1704.5460508629913 -610.72193494830503 0 -610.72193494830503 482.43669834422406 0 0 0 0 45.894910252687254 50.186928002065088 0 50.186928002065088 50.835123681810714 0 0 0 0 -87.966797295832293 124.43831665067023 0 124.43831665067023 -161.93546627078831 0 0 0 0 -1293.6962767206278 698.07906276576614 0 698.07906276576614 1837.5831871700175 0 0 0 0 -929.92235015649931 -59.703523515601773 0 -59.703523515601773 573.125698848311 0 0 0 0 -374.23010640966822 811.57251160831584 0 811.57251160831584 -349.30551250842291 0 0 0 0 -406.21955733120558 743.32745840791131 0 743.32745840791131 1091.7390712415245 0 0 0 0 -753.52702451054938 794.84753515964803 0 794.84753515964803 1540.0116310993908 0 0 0 0 -110.59219178328931 1006.2442772303175 0 1006.2442772303175 1348.7658909426464 0 0 0 0 -11.625059316815168 646.9263210400286 0 646.9263210400286 512.43101689487958 0 0 0 0 -416.92207236719696 702.0002988772244 0 702.0002988772244 940.05167686965433 0 0 0 0 320.78168758323591 511.09574665576292 0 511.09574665576292 489.21042180936183 0 0 0 0 -5.1010393567266874 1214.4768693939241 0 1214.4768693939241 339.12164973416077 0 0 0 0 469.7794592721657 716.27094523532378 0 716.27094523532378 826.33883447263634 0 0 0 0 345.6007856881115 953.04806489664918 0 953.04806489664918 383.02976069784017 0 0 0 0 -154.79276964723977 1317.2510575580354 0 1317.2510575580354 1350.6871527445628 0 0 0 0 2298.2777472315356 2603.9593037838004 0 2603.9593037838004 1590.3185114600856 0 0 0 0 4605.6335402903933 -595.55755405444302 0 -595.55755405444302 -143.38152529211609 0 0 0 0 1918.9487425926836 -2483.6276238640298 0 -2483.6276238640298 1792.6872556314363 0 0 0 0 1831.6310191115872 -1262.9675240736226 0 -1262.9675240736226 3316.1924715936339 0 0 0 0 6649.7414849373308 646.14922059871128 0 646.14922059871128 2196.0142511711711 0 0 0 0 -252.08598575185533 1741.3186372931682 0 1741.3186372931682 3011.8921250583426 0 0 0 0 7095.5299025901841 -34.803371556576337 0 -34.803371556576337 1831.4440670673748 0 0 0 0 22.847099044158938 16.991063292573074 0 16.991063292573074 18.505274575095825 0 0 0 0 6275.0960040863138 -1622.5007147340975 0 -1622.5007147340975 1497.8283797430859 0 0 0 0 -91.362634243373577 85.653638151626978 0 85.653638151626978 2229.5299278166676 0 0 0 0 4265.4542742427147 -2884.7432607858868 0 -2884.7432607858868 1004.0812085540811 0 0 0 0 1856.4032847171657 -2233.8682513009821 0 -2233.8682513009821 1380.9939695808143 0 0 0 0 4551.8790441212896 -930.74676740412497 0 -930.74676740412497 2038.3955643404884 0 0 0 0 3280.073985690593 -1677.2343135166138 0 -1677.2343135166138 1043.6757810619615 0 0 0 0 8389.7081832133263 27.662092698504807 0 27.662092698504807 -315.51260852272094 0 0 0 0 17.576138296832681 -10.650796902149693 0 -10.650796902149693 5.8382380025037275 0 0 0 0 -635.09945198702917 -1926.2004955278057 0 -1926.2004955278057 1082.5404445284862 0 0 0 0 4644.5202786936279 548.26112337208997 0 548.26112337208997 -155.97835153323877 0 0 0 0 2751.8627669815469 460.62486038887755 0 460.62486038887755 -140.98912796222987 0 0 0 0 4225.7486855824754 -381.30341192513083 0 -381.30341192513083 -399.26424285325834 0 0 0 0 3299.5029746540822 -1086.4549728203983 0 -1086.4549728203983 -29.374624756973503 0 0 0 0 5261.6029269063292 -2118.1142542256766 0 -2118.1142542256766 11.65014833926557 0 0 0 0 3099.571183386779 -1288.6887481805143 0 -1288.6887481805143 -107.69520449993752 0 0 0 0 2117.8283069576282 862.0468961253697 0 862.0468961253697 -328.57559607920894 0 0 0 0 4998.8462825133174 459.10846359484572 0 459.10846359484572 -1221.0783295689753 0 0 0 0 1942.1184244218894 -622.87326868206424 0 -622.87326868206424 -966.55894574171543 0 0 0 0 34.756502014405186 -21.513098010080625 0 -21.513098010080625 7.1374872520979924 0 0 0 0 1700.7163666938868 891.02711408028529 0 891.02711408028529 -920.35281574884789 0 0 0 0 3296.480624150412 -658.60978585639839 0 -658.60978585639839 -4.6249844127660893 0 0 0 0 2648.2326334717254 -93.890235003131167 0 -93.890235003131167 -80.444250516258208 0 0 0 0 5000.4248289117459 -1741.3627040724332 0 -1741.3627040724332 110.96369227172346 0 0 0 0 1246.2333231410448 -1734.8585933710413 0 -1734.8585933710413 2752.9664874867613 0 0 0 0 1214.8691979122814 -1119.3788562882555 0 -1119.3788562882555 1241.8580466753249 0 0 0 0 2030.2525825039484 -2301.0891450388826 0 -2301.0891450388826 1248.1922701721023 0 0 0 0 2391.4751751087388 -1889.4924415570163 0 -1889.4924415570163 1585.5585778498842 0 0 0 0 5054.6254244400916 -3461.5825035615389 0 -3461.5825035615389 583.21074546845546 0 0 0 0 2649.0409061435257 -2477.6221525089036 0 -2477.6221525089036 363.85625477709465 0 0 0 0 98.380700618085285 -19.356936681147985 0 -19.356936681147985 -2.515825145610755 0 0 0 0 -3101.2930474458262 -1649.2728654626624 0 -1649.2728654626624 7187.1543361891072 0 0 0 0 1881.6050304413584 -3089.0206392018454 0 -3089.0206392018454 1175.8753627704541 0 0 0 0 5.3029820061934352 -71.436043184045857 0 -71.436043184045857 2.5278366170392963 0 0 0 0 5005.5623393762608 290.59235283429729 0 290.59235283429729 24.578212259021548 0 0 0 0 3.6718714862908284 28.143336339199813 0 28.143336339199813 -13.593351269998157 0 0 0 0 119.8547180036403 24.184397385745115 0 24.184397385745115 -117.4700796537004 0 0 0 0 81.117755383387703 30.179983752729868 0 30.179983752729868 -12.106037515316984 0 0 0 0 110.40358067630223 2.8958839890863146 0 2.8958839890863146 -71.224316705054662 0 0 0 0 87.80319974584927 50.365052518485982 0 50.365052518485982 -67.533180596426291 0 0 0 0 -812.76942081557354 -1419.0473914876372 0 -1419.0473914876372 1512.2495163479973 0 0 0 0 117.72404034014147 -14.241490003018166 0 -14.241490003018166 -0.86133720532537872 0 0 0 0 1878.0921246224934 -364.79596706651853 0 -364.79596706651853 -3197.5593989901954 0 0 0 0 379.33390322155174 1727.4413867881483 0 1727.4413867881483 -208.58009025882916 0 0 0 0 211.95050669597549 -649.24269590774031 0 -649.24269590774031 -144.03745089603379 0 0 0 0 66.856623710260465 -33.8453711170323 0 -33.8453711170323 -175.59644334305585 0 0 0 0 136.27230170256371 76.504460933931796 0 76.504460933931796 -244.87627797404716 0 0 0 0 82.08768371404949 33.350542561118345 0 33.350542561118345 -63.469114138423265 0 0 0 0 111.47330159741068 76.660140491564903 0 76.660140491564903 -74.430052832417005 0 0 0 0 203.59037930846898 -38.030250258492629 0 -38.030250258492629 49.135934799790562 0 0 0 0 114.4699353765709 124.43811420293815 0 124.43811420293815 34.698717657141515 0 0 0 0 45.474611199282663 59.693383512449941 0 59.693383512449941 28.90719959373132 0 0 0 0 80.97538856645042 79.469152383765277 0 79.469152383765277 15.28104269002506 0 0 0 0 4997.1722040937748 360.46650115145536 0 360.46650115145536 -108.20599108995887 0 0 0 0 53.280041260891267 41.375601460582061 0 41.375601460582061 -3.3322723275909993 0 0 0 0 5014.3420163654446 312.393518417351 0 312.393518417351 -49.76494469372188 0 0 0 0 2.4036766977064445 22.936780823349892 0 22.936780823349892 -9.800702786624333 0 0 0 0 90.924217930056329 49.37620909404086 0 49.37620909404086 -1.6392673607736015 0 0 0 0 76.932277027852251 66.381550081048317 0 66.381550081048317 -22.164318666023064 0 0 0 0 4117.8563033663668 128.60283665374419 0 128.60283665374419 -574.43348075023346 0 0 0 0 4230.4325519545382 390.88336107743356 0 390.88336107743356 -895.63518909444474 0 0 0 0 4998.442087598225 39.077840874323954 0 39.077840874323954 -1006.525574130987 0 0 0 0 4999.8570327413545 815.63842390731088 0 815.63842390731088 -943.96559367373129 0 0 0 0 4195.4221677083115 467.22749682367044 0 467.22749682367044 -900.7227114441506 0 0 0 0 4040.3530280190607 697.02504942374253 0 697.02504942374253 -530.70756905824055 0 0 0 0 3313.8193175137276 409.41069501834386 0 409.41069501834386 -548.20320556315107 0 0 0 0 2651.7751194019365 549.26393447796306 0 549.26393447796306 -174.97007988764074 0 0 0 0 2687.3381266313991 408.91216755266993 0 408.91216755266993 -6.9198788767491806 0 0 0 0 2185.6997297665803 522.13494650350503 0 522.13494650350503 42.825780981438811 0 0 0 0 2766.0018281048397 280.13444405326743 0 280.13444405326743 -286.12748585953364 0 0 0 0 3306.2431077111687 340.73146173827445 0 340.73146173827445 -303.1967348213343 0 0 0 0 2744.6108370757138 -17.208557913293475 0 -17.208557913293475 -288.37944552782858 0 0 0 0 3366.6834503703672 63.354835333022514 0 63.354835333022514 -345.8067535882019 0 0 0 0 2635.2388513083861 55.260622190001243 0 55.260622190001243 -170.30850439394135 0 0 0 0 2713.0280652986839 123.64176957150552 0 123.64176957150552 -208.36348164645369 0 0 0 0 2592.1706018637342 24.281347443172081 0 24.281347443172081 -263.15165312048703 0 0 0 0 3221.4897035612667 -77.802555637146668 0 -77.802555637146668 -355.04544941014831 0 0 0 0 3131.5508123528271 -348.26839589045647 0 -348.26839589045647 -489.01592561430067 0 0 0 0 4319.0047557490107 -683.30660473435751 0 -683.30660473435751 -518.41097731357468 0 0 0 0 4169.6327223298722 -218.40584634368116 0 -218.40584634368116 -564.99081181652207 0 0 0 0 3365.5677016009417 14.699758233633091 0 14.699758233633091 -531.49276846597172 0 0 0 0 4188.4261205108851 -155.36948147496653 0 -155.36948147496653 -971.6894308664838 0 0 0 0 5002.301113225345 -432.95365308013419 0 -432.95365308013419 -932.65925933578103 0 0 0 0 3167.5894679460616 -687.85312525163181 0 -687.85312525163181 -422.00864880183019 0 0 0 0 2735.2790245803189 -770.86547972810968 0 -770.86547972810968 -343.25984185160024 0 0 0 0 4987.4689429772334 -2199.6212849620842 0 -2199.6212849620842 68.079089675869284 0 0 0 0 18.465486258421294 -8.8649473375867842 0 -8.8649473375867842 3.9140777149804449 0 0 0 0 1.6191975376277696 -1740.9654113762874 0 -1740.9654113762874 544.70348737796712 0 0 0 0 1224.3145712642217 547.17487836485429 0 547.17487836485429 -240.20593849095394 0 0 0 0 1761.5702702767958 -335.90292816573583 0 -335.90292816573583 -928.07633712962183 0 0 0 0 4995.0661719692507 2146.4272446166874 0 2146.4272446166874 244.17991361653401 0 0 0 0 3244.8084714079159 -423.85427118575825 0 -423.85427118575825 -244.88208595276137 0 0 0 0 2904.0730088239143 -55.940420921410123 0 -55.940420921410123 -390.32753878638982 0 0 0 0 2944.8881293162267 -60.268663116404696 0 -60.268663116404696 -530.47473588260084 0 0 0 0 1856.2304123340018 140.68075716276235 0 140.68075716276235 29.381182136083225 0 0 0 0 2020.7170738673958 -112.28310292710675 0 -112.28310292710675 159.14581451065686 0 0 0 0 2597.4216696875374 201.50397367887879 0 201.50397367887879 -477.37621703221879 0 0 0 0 2647.9993358326465 -121.78510699766127 0 -121.78510699766127 -343.10902300128828 0 0 0 0 2749.4710838133469 -42.024330303213034 0 -42.024330303213034 -322.44372666421629 0 0 0 0 2513.7364242221229 -131.39635767090667 0 -131.39635767090667 -272.22609567544225 0 0 0 0 2488.0738613015637 -153.55211212534653 0 -153.55211212534653 -239.16380488251889 0 0 0 0 2992.6378506962501 -481.98238808808907 0 -481.98238808808907 -27.590228592763879 0 0 0 0 3122.2455733021143 -158.4214306016155 0 -158.4214306016155 -337.89855470937277 0 0 0 0 2636.750470048908 -130.10860327703347 0 -130.10860327703347 -262.85041661022359 0 0 0 0 2075.5657305851637 -135.40476872772956 0 -135.40476872772956 -191.9074806502631 0 0 0 0 2039.3115616575742 -40.470170431152837 0 -40.470170431152837 -265.51166227890417 0 0 0 0 1699.500582629109 -315.29613272202096 0 -315.29613272202096 -186.40252089854812 0 0 0 0 1314.8782894119504 -381.61768296771857 0 -381.61768296771857 -80.456543814433644 0 0 0 0 0.40036316865381139 -2.4579810516230225 0 -2.4579810516230225 -7.7109839881302165 0 0 0 0 1512.0093727965577 -171.07355645074443 0 -171.07355645074443 -90.103877482820508 0 0 0 0 1950.3968184960022 -485.44914027472555 0 -485.44914027472555 -132.01269191517247 0 0 0 0 2426.173184404819 -27.371545730474452 0 -27.371545730474452 -291.42131828253679 0 0 0 0 1966.4490392136213 -251.37530353892259 0 -251.37530353892259 -165.34792631963529 0 0 0 0 2734.9098997095571 -411.91913531222377 0 -411.91913531222377 -232.29099471006066 0 0 0 0 2224.3524300721474 -635.95060147830918 0 -635.95060147830918 -52.713970829747268 0 0 0 0 2242.540014817554 -241.34656585647582 0 -241.34656585647582 -165.02854655852963 0 0 0 0 2156.7336317251793 -514.51960979901946 0 -514.51960979901946 -135.31328131422183 0 0 0 0 2103.4943177260866 -410.75219126129298 0 -410.75219126129298 -52.834980072124836 0 0 0 0 1436.9577129679528 -598.68416565248697 0 -598.68416565248697 394.31649649029441 0 0 0 0 242.35074691406408 -31.401207210255734 0 -31.401207210255734 -121.57912437489995 0 0 0 0 7.1235946421091256 -6.9117816087663186 0 -6.9117816087663186 -17.347290111712041 0 0 0 0 96.87704932016004 -26.390401353891633 0 -26.390401353891633 48.476316865150693 0 0 0 0 50.727022081329039 31.971989354297261 0 31.971989354297261 19.655767047936912 0 0 0 0 4.9906089390662487 1.9378480281046429 0 1.9378480281046429 -1.6073296393909995 0 0 0 0 2286.0975275539095 -1609.7871011919042 0 -1609.7871011919042 739.03702625035112 0 0 0 0 2879.136672333756 -478.38548436505977 0 -478.38548436505977 279.05480876222418 0 0 0 0 3127.3828258084541 -652.42115285879504 0 -652.42115285879504 -55.473857536410378 0 0 0 0 158.11994443275682 52.448439307638679 0 52.448439307638679 11.452567696170355 0 0 0 0 327.04048513801536 176.81138630073201 0 176.81138630073201 -331.72267556218003 0 0 0 0 335.8138484109295 314.84223048774948 0 314.84223048774948 -751.75869511576639 0 0 0 0 147.64485896638226 58.836866217775281 0 58.836866217775281 16.658219998354262 0 0 0 0 336.13363294868032 -29.206724422783282 0 -29.206724422783282 -263.09671035198153 0 0 0 0 92.898297296359033 113.38553144691537 0 113.38553144691537 -128.14514298765698 0 0 0 0 30.817138919535779 -3.4583829451340478 0 -3.4583829451340478 -18.778937854436524 0 0 0 0 245.65547115930531 -96.970271475479421 0 -96.970271475479421 13.012090301897842 0 0 0 0 301.51310817895865 145.61089631072855 0 145.61089631072855 5.3893522602511439 0 0 0 0 215.00862284552204 59.614691401088464 0 59.614691401088464 -187.42276581307397 0 0 0 0 92.231549535710656 -6.468696179942981 0 -6.468696179942981 -86.858278019823047 0 0 0 0 555.90298702503787 95.051617082156326 0 95.051617082156326 -7.546829594566816 0 0 0 0 287.63470223293552 433.84879215362167 0 433.84879215362167 473.91399807023936 0 0 0 0 402.2147914339439 -28.402798978056126 0 -28.402798978056126 43.038980887274647 0 0 0 0 386.51059895368235 -14.867286373125694 0 -14.867286373125694 52.813659318337614 0 0 0 0 705.20433565849089 -35.870757734169501 0 -35.870757734169501 51.590096048178566 0 0 0 0 457.07807272905484 317.79119441914219 0 317.79119441914219 180.96432614267724 0 0 0 0 385.28469515011966 172.16760263088639 0 172.16760263088639 -96.183133439133599 0 0 0 0 151.56177627852594 185.73776101342736 0 185.73776101342736 370.52182067061824 0 0 0 0 576.83419256692287 176.73498784503545 0 176.73498784503545 61.44424995951772 0 0 0 0 -68.998895771233947 4.4009544652282671 0 4.4009544652282671 292.66929563616435 0 0 0 0 334.70148550726299 291.12912893532757 0 291.12912893532757 348.48829885632017 0 0 0 0 3.0829779096559946 3.6307913570801702 0 3.6307913570801702 4.9377638777954846 0 0 0 0 47.429054568652646 348.63174123664226 0 348.63174123664226 453.8640376655336 0 0 0 0 738.01365531850024 689.21337061258555 0 689.21337061258555 490.00568650733027 0 0 0 0 1228.701018603897 112.65779710238485 0 112.65779710238485 -71.033330505723143 0 0 0 0 1.5481832893103444 0.0067287974324017341 0 0.0067287974324017341 -2.0491168611310924 0 0 0 0 1790.1170351511537 291.77254738021861 0 291.77254738021861 -244.32254779709183 0 0 0 0 653.13027360876731 485.64148344504963 0 485.64148344504963 95.808229944829691 0 0 0 0 291.51609528689005 348.9125249477222 0 348.9125249477222 328.22112690126232 0 0 0 0 766.29076881118817 533.76227140542096 0 533.76227140542096 277.6290347777699 0 0 0 0 802.63169608995668 -71.843595399611331 0 -71.843595399611331 122.16495976262468 0 0 0 0 1604.8705600375542 53.798077345738022 0 53.798077345738022 -52.510226529906049 0 0 0 0 1679.123183868418 -108.2789009332339 0 -108.2789009332339 -54.154508878970972 0 0 0 0 1608.7160925906355 98.522767297911059 0 98.522767297911059 -0.21428550414020719 0 0 0 0 2210.1767334885371 -68.693942808343763 0 -68.693942808343763 -182.83712729889055 0 0 0 0 2005.1823438654246 145.1110578079759 0 145.1110578079759 34.58382683125069 0 0 0 0 2027.1394503666525 126.14047199786864 0 126.14047199786864 37.93941219357356 0 0 0 0 1622.0534434599613 448.73560523364904 0 448.73560523364904 30.551215742353634 0 0 0 0 1422.3419757398951 301.92109587876598 0 301.92109587876598 399.46744049421125 0 0 0 0 1410.2898186003731 12.509532346478863 0 12.509532346478863 378.29554102418592 0 0 0 0 2094.1638346369 363.97179633834287 0 363.97179633834287 -66.216169269634861 0 0 0 0 2127.5797848930961 274.77121559763157 0 274.77121559763157 -7.6902116650904873 0 0 0 0 2352.1559180204931 339.12234774392198 0 339.12234774392198 -110.02530925107067 0 0 0 0 1355.1529624371833 755.58930230977194 0 755.58930230977194 109.65120392006929 0 0 0 0 1832.7275013564795 250.36809461487485 0 250.36809461487485 93.713419743415443 0 0 0 0 944.24887999555358 22.123012322588579 0 22.123012322588579 30.246924418019717 0 0 0 0 154.18565952481003 -2.5201428989144574 0 -2.5201428989144574 370.11374163252276 0 0 0 0 8.6243865562178144 8.2703775307988678 0 8.2703775307988678 9.5119861688204992 0 0 0 0 93.351129387679975 -163.33677804894342 0 -163.33677804894342 -46.906782662953759 0 0 0 0 67.658383404377673 170.84126340714252 0 170.84126340714252 173.34232484713039 0 0 0 0 17.597285161667969 46.968635537620344 0 46.968635537620344 -87.089249637918442 0 0 0 0 69.707878354893182 -77.230496835360213 0 -77.230496835360213 -66.640420335984345 0 0 0 0 1494.5309276822918 228.47808568132987 0 228.47808568132987 22.51739082753511 0 0 0 0 303.53231789081474 -217.481816215202 0 -217.481816215202 53.650385128405333 0 0 0 0 11.420644010220713 1.2765067702679573 0 1.2765067702679573 8.2707573779335064 0 0 0 0 20.252788836660216 -0.96573599885277872 0 -0.96573599885277872 -3.168027280640441 0 0 0 0 45.467039127379394 -20.717071416908681 0 -20.717071416908681 -26.217756632905321 0 0 0 0 -23.971621998382034 -1.708357132938275 0 -1.708357132938275 -2.8334070095521469 0 0 0 0 -20.97918106133875 -38.037392641313843 0 -38.037392641313843 -10.545774889229449 0 0 0 0 20.140958832787874 -26.22164086232425 0 -26.22164086232425 10.497971030951646 0 0 0 0 10.088594238623045 -0.43376317360235817 0 -0.43376317360235817 101.64710807032844 0 0 0 0 82.650220070805517 -5.9305005265713646 0 -5.9305005265713646 222.94832659554368 0 0 0 0 90.655937102186726 -9.1108155020284016 0 -9.1108155020284016 0.83384303744134058 0 0 0 0 267.31910005376267 7.5481105299851379 0 7.5481105299851379 -36.046274425397655 0 0 0 0 149.93491724313935 -23.551700953488393 0 -23.551700953488393 -33.444429498698128 0 0 0 0 120.92536133929389 30.551366449522675 0 30.551366449522675 -130.97319250376631 0 0 0 0 -44.764930205506971 -49.100853402301027 0 -49.100853402301027 54.90675729332375 0 0 0 0 23.575166200371257 -5.5699441659740785 0 -5.5699441659740785 -2.7705446606142106 0 0 0 0 10.939024737628642 -106.9907753240588 0 -106.9907753240588 -78.940482867949584 0 0 0 0 24.800706328300294 -27.732119490093481 0 -27.732119490093481 2.8318246047230673 0 0 0 0 14.083757531749143 4.7579378957356582 0 4.7579378957356582 42.320329832398045 0 0 0 0 35.011783555372062 -0.31331844496510541 0 -0.31331844496510541 -0.65541334096763659 0 0 0 0 12.12276507151546 12.521525757064367 0 12.521525757064367 11.983236611247037 0 0 0 0 125.10137486021267 -68.327607396861708 0 -68.327607396861708 -127.91999525544867 0 0 0 0 12.485363758372841 24.297765793576829 0 24.297765793576829 17.846809333839815 0 0 0 0 38.331283593653936 24.898668448071561 0 24.898668448071561 0.50544308076052769 0 0 0 0 8.5223435151492595 24.795793491434694 0 24.795793491434694 28.607422658505016 0 0 0 0 13.196878044323967 23.232846062890587 0 23.232846062890587 19.194301791603039 0 0 0 0 30.492790431278991 92.617981135409309 0 92.617981135409309 48.122982948715389 0 0 0 0 1.3757823316918802 29.036291454383701 0 29.036291454383701 132.74069877867259 0 0 0 0 30.277547436722671 -28.577372460210313 0 -28.577372460210313 36.362064527839152 0 0 0 0 14.854653386246355 -13.480324315282758 0 -13.480324315282758 217.7954018001144 0 0 0 0 29.871489304903662 74.855154595567683 0 74.855154595567683 200.79245390358005 0 0 0 0 164.01432027342889 52.893899211649071 0 52.893899211649071 128.47181156568558 0 0 0 0 80.874673171216273 -68.825278622456835 0 -68.825278622456835 -222.81745433081073 0 0 0 0 45.506254668332986 84.998002592587454 0 84.998002592587454 41.094154420467248 0 0 0 0 84.027561315662751 68.560176387861702 0 68.560176387861702 -61.678175093547907 0 0 0 0 70.885946218942991 112.56855638066895 0 112.56855638066895 -9.7312160129190488 0 0 0 0 -0.10509276882800123 -1.3056320138832263 0 -1.3056320138832263 -1.2319167767146926 0 0 0 0 35.157654836177244 154.36524506946671 0 154.36524506946671 58.834641941851601 0 0 0 0 248.15354339020269 115.4838364233774 0 115.4838364233774 65.676299436833688 0 0 0 0 18.296924330802995 15.500382697230059 0 15.500382697230059 3.3544581304910697 0 0 0 0 94.146188902697759 85.608984211517964 0 85.608984211517964 109.23412502344536 0 0 0 0 212.23909987501975 233.12254737282001 0 233.12254737282001 -89.535923901816204 0 0 0 0 129.56777134408549 281.37078668901461 0 281.37078668901461 148.95487242508261 0 0 0 0 155.39167606516065 64.668251618401555 0 64.668251618401555 15.70997328162899 0 0 0 0 231.97890688624466 -78.917822204017284 0 -78.917822204017284 -259.34711087875257 0 0 0 0 -125.49561325174 3.883094930284642 0 3.883094930284642 -33.140484077317524 0 0 0 0 209.25215225443389 -34.164245607325938 0 -34.164245607325938 -178.00868352349062 0 0 0 0 24.3158431629764 -4.4864803476431945 0 -4.4864803476431945 -29.097354492620081 0 0 0 0 -94.556268387605087 -2.8597474111866177 0 -2.8597474111866177 -88.103681969270838 0 0 0 0 287.21706405919394 61.994146579201697 0 61.994146579201697 -595.9495013781343 0 0 0 0 120.2709435429424 -91.326408237135183 0 -91.326408237135183 -7.8650369548340677 0 0 0 0 159.28191135497036 -117.52229689063279 0 -117.52229689063279 -174.09675134913414 0 0 0 0 -357.00933115107182 576.52069507436318 0 576.52069507436318 146.32697604888926 0 0 0 0 44.858730445748733 -522.20878731858193 0 -522.20878731858193 -759.24800498865261 0 0 0 0 9.9201863580668004 8.8313564524282668 0 8.8313564524282668 0.18365707514940688 0 0 0 0 654.94757092987129 381.62310929944852 0 381.62310929944852 -442.74606100622441 0 0 0 0 636.19462510263293 318.99483858842245 0 318.99483858842245 -593.54746465666176 0 0 0 0 1.6285133628392146 2.3789101511131499 0 2.3789101511131499 1.5053103348752579 0 0 0 0 -86.384767359377292 -56.690172622784303 0 -56.690172622784303 6.0387308305671468 0 0 0 0 488.15930743841454 78.769635998507511 0 78.769635998507511 -61.387107982080124 0 0 0 0 -125.50805571927708 2.5946796714809253 0 2.5946796714809253 122.39489062239591 0 0 0 0 227.38999438183964 187.47794000404792 0 187.47794000404792 -268.17256330143937 0 0 0 0 6.1811753922166304 -9.4450999451898312 0 -9.4450999451898312 -5.2441566155375448 0 0 0 0 789.79063241416588 89.387477691474487 0 89.387477691474487 -207.93339003486835 0 0 0 0 1080.0086484992062 676.69772906637445 0 676.69772906637445 -232.37025363222347 0 0 0 0 815.06708943916601 -92.311691437218542 0 -92.311691437218542 -131.55517770945244 0 0 0 0 106.94044825682711 11.371336234459925 0 11.371336234459925 -0.13198451748130502 0 0 0 0 -150.63345673770527 77.786222573908162 0 77.786222573908162 139.44472309829735 0 0 0 0 -5.4195533859943339 22.047011040607877 0 22.047011040607877 5.6233317529902287 0 0 0 0 122.10712167669872 84.152961619485055 0 84.152961619485055 34.658402288645419 0 0 0 0 116.62766227248358 15.451063350341883 0 15.451063350341883 19.084461732891668 0 0 0 0 119.58620659759617 19.847866658342582 0 19.847866658342582 13.966129290892695 0 0 0 0 119.07061143460305 6.847006321714673 0 6.847006321714673 17.567488138823933 0 0 0 0 84.399837951306836 24.222093146456473 0 24.222093146456473 20.219028803799119 0 0 0 0 91.319064990653715 47.748350990203676 0 47.748350990203676 -3.03032621471948 0 0 0 0 45.27837986472727 38.518265865497597 0 38.518265865497597 17.366937028355274 0 0 0 0 27.55148926275433 62.394660114046474 0 62.394660114046474 22.965449570842708 0 0 0 0 36.684465549202287 63.943215411852293 0 63.943215411852293 -3.5606277059928289 0 0 0 0 29.941860459757635 33.988235050337181 0 33.988235050337181 9.8347888539841488 0 0 0 0 110.24893718677049 8.3682105939648181 0 8.3682105939648181 19.753582835392876 0 0 0 0 119.54554782243576 -4.1300784876628853 0 -4.1300784876628853 14.404439238866757 0 0 0 0 -2.1134444675581374 -1.641043223833293 0 -1.641043223833293 10.080024154580444 0 0 0 0 138.18264105346316 4.4797260027578432 0 4.4797260027578432 11.426293811989126 0 0 0 0 141.69513864250621 8.314901931876193 0 8.314901931876193 -6.2886788449932283 0 0 0 0 130.52417554015119 55.065313740711872 0 55.065313740711872 15.673979814757558 0 0 0 0 89.592087460943731 33.383583645017552 0 33.383583645017552 6.9202219059019967 0 0 0 0 37.164174511570309 -5.9302722097268088 0 -5.9302722097268088 30.102344529749644 0 0 0 0 247.6237218791357 46.257095029410266 0 46.257095029410266 -30.895807310585951 0 0 0 0 -0.055691997893575262 1.7368316224449245 0 1.7368316224449245 1.3611721839064863 0 0 0 0 123.14549526383053 -19.906626581140245 0 -19.906626581140245 16.86734178419033 0 0 0 0 98.731363693252206 -18.504924778874738 0 -18.504924778874738 20.737545934158334 0 0 0 0 120.00945341200895 9.5670064606817959 0 9.5670064606817959 16.146884370206863 0 0 0 0 25.517301437593339 -0.46919564703456729 0 -0.46919564703456729 11.436516322467037 0 0 0 0 140.03160207281326 11.661668345262569 0 11.661668345262569 9.9231484125796214 0 0 0 0 104.86115296411074 14.088379087600368 0 14.088379087600368 0.88396537352268112 0 0 0 0 129.6501247028574 -7.2561615451408024 0 -7.2561615451408024 -6.6719370483942839 0 0 0 0 100.66552507205051 46.08923959448839 0 46.08923959448839 -41.518855141569475 0 0 0 0 104.05688754835887 7.4740532277387928 0 7.4740532277387928 -3.3212035335382604 0 0 0 0 120.41748575630118 50.499517789727179 0 50.499517789727179 -83.747982602599222 0 0 0 0 236.59555759932482 -76.164240111650997 0 -76.164240111650997 -55.588925970198034 0 0 0 0 181.79158459198152 52.538337855164855 0 52.538337855164855 -341.30930322176209 0 0 0 0 32.974978072830638 3.7938675773661004 0 3.7938675773661004 -6.786652381012253 0 0 0 0 131.44153532156633 99.523997102573958 0 99.523997102573958 -40.692619717119669 0 0 0 0 -242.42658920054919 -393.30569144819481 0 -393.30569144819481 -105.14134278232814 0 0 0 0 30.775052779456018 124.22742740783269 0 124.22742740783269 -120.82356311600233 0 0 0 0 386.17886331032787 -63.13707989244358 0 -63.13707989244358 -473.0729966455965 0 0 0 0 273.58394282872905 -474.1755862494465 0 -474.1755862494465 -827.58372113580663 0 0 0 0 109.43541512787488 -14.311723511698801 0 -14.311723511698801 -18.346044191304827 0 0 0 0 93.202581874639606 7.5762934846558725 0 7.5762934846558725 -3.9131467111177356 0 0 0 0 18.869222265923298 -3.5092340309088428 0 -3.5092340309088428 -2.7517580192411941 0 0 0 0 193.68778360761462 -51.911010894838626 0 -51.911010894838626 -38.424635468375072 0 0 0 0 85.573498078803823 -4.5171934377228808 0 -4.5171934377228808 -16.572230999629028 0 0 0 0 89.864939291022893 -15.138514899364964 0 -15.138514899364964 9.2063252136822484 0 0 0 0 50.899167729537709 -2.1136076107904387 0 -2.1136076107904387 -12.117474023169095 0 0 0 0 69.559243193260045 -15.521263914353312 0 -15.521263914353312 -11.620165200629344 0 0 0 0 94.17942761471204 9.3310513424075907 0 9.3310513424075907 -1.7498988034353715 0 0 0 0 69.160939447375654 -4.06953805525362 0 -4.06953805525362 -8.4438001594884184 0 0 0 0 108.07023341344757 28.043841914241796 0 28.043841914241796 24.051182212077947 0 0 0 0 97.44271541616763 8.6989027986542169 0 8.6989027986542169 -10.943188806411172 0 0 0 0 53.447200660856083 -18.886747523985697 0 -18.886747523985697 -8.0714749468089479 0 0 0 0 68.715592815147829 -64.092478301010715 0 -64.092478301010715 -29.181433573144773 0 0 0 0 159.22877041643369 -39.343206474338672 0 -39.343206474338672 35.172401688689206 0 0 0 0 77.268771803588606 3.3326381038818909 0 3.3326381038818909 28.754180829164397 0 0 0 0 85.568729231194084 -21.906325337393127 0 -21.906325337393127 -22.680516685509701 0 0 0 0 43.758160105222487 -46.868221310476883 0 -46.868221310476883 22.847024302026483 0 0 0 0 87.731339404468599 -15.942901515389167 0 -15.942901515389167 1.6295190380706117 0 0 0 0 59.665016390499659 -27.510989924066507 0 -27.510989924066507 -3.1528667328666842 0 0 0 0 50.732700453503639 -6.0389183310899739 0 -6.0389183310899739 -12.685729988962294 0 0 0 0 51.012443126284666 -19.907249527978877 0 -19.907249527978877 -13.405087102784027 0 0 0 0 50.401164917456555 -8.9032894541747396 0 -8.9032894541747396 -9.8428047762574487 0 0 0 0 82.242967956268785 -8.2959883487777688 0 -8.2959883487777688 -12.730517739201201 0 0 0 0 92.981092751993856 -4.2840000325530809 0 -4.2840000325530809 23.767440977517708 0 0 0 0 106.34840721377259 12.159339692977511 0 12.159339692977511 22.163562250367022 0 0 0 0 101.2050906176737 19.78893662959365 0 19.78893662959365 11.703331563484547 0 0 0 0 29.09754983519656 -26.33768128576213 0 -26.33768128576213 -1.6573417999453357 0 0 0 0 66.075927464000415 2.4633843544252159 0 2.4633843544252159 19.151686016848487 0 0 0 0 41.206373297515313 -18.755391479371639 0 -18.755391479371639 -4.4206849222732325 0 0 0 0 59.992129405989544 -18.192911954835495 0 -18.192911954835495 6.8574526128813886 0 0 0 0 66.555901209663716 -5.6648883744823024 0 -5.6648883744823024 -0.82028786196178771 0 0 0 0 69.815468297636954 -14.05040555511394 0 -14.05040555511394 -5.4591625390164564 0 0 0 0 140.17831279958773 -2.7053689683498305 0 -2.7053689683498305 -34.087007802640414 0 0 0 0 70.30964237335138 -22.551097394513135 0 -22.551097394513135 -13.97644549525171 0 0 0 0 25.744588616759259 4.9420284237628636 0 4.9420284237628636 1.9682801561581202 0 0 0 0 81.774959404705442 -14.640874677168654 0 -14.640874677168654 12.966594479041305 0 0 0 0 105.11211083072703 -24.162053280088458 0 -24.162053280088458 3.0296661459284024 0 0 0 0 19.220057994312668 -1.4442154641311618 0 -1.4442154641311618 9.1115431460308791 0 0 0 0 131.23012924438808 -10.860650150231891 0 -10.860650150231891 13.585144632586434 0 0 0 0 128.96197871831828 -9.3042780012217463 0 -9.3042780012217463 16.216868513075951 0 0 0 0 129.33903532609111 -5.3931632314883586 0 -5.3931632314883586 -5.5733745813408859 0 0 0 0 127.58117278138525 -10.792969478467512 0 -10.792969478467512 14.747711769631678 0 0 0 0 109.6922207605021 12.187167366312963 0 12.187167366312963 7.5308924442198304 0 0 0 0 16.27285925254948 1.6102534793445784 0 1.6102534793445784 0.90354024547936884 0 0 0 0 181.46702088517486 52.139639103498894 0 52.139639103498894 -29.206582690831794 0 0 0 0 127.46147946678411 -15.807603228605885 0 -15.807603228605885 7.7714209520299846 0 0 0 0 141.82981448696228 18.108050511954843 0 18.108050511954843 -89.296237661708346 0 0 0 0 89.342821938193879 -19.916301490455879 0 -19.916301490455879 -5.8679213776783783 0 0 0 0 66.185581883540834 -22.768101000455168 0 -22.768101000455168 -0.44329948246617046 0 0 0 0 150.8489660177147 31.959153152248746 0 31.959153152248746 52.053996748030386 0 0 0 0 21.264833800550921 0.4588912014183677 0 0.4588912014183677 0.063570578656691801 0 0 0 0 70.534082558180671 -34.567271484126763 0 -34.567271484126763 -47.563333308551819 0 0 0 0 105.92339823371731 98.483492170940508 0 98.483492170940508 -36.498380751783145 0 0 0 0 92.43911231799575 9.0057700184395628 0 9.0057700184395628 5.3342778660702095 0 0 0 0 66.429182104053325 -2.7609389009849252 0 -2.7609389009849252 5.8701612148524873 0 0 0 0 62.81855211058064 -18.454735213853517 0 -18.454735213853517 11.457609819780714 0 0 0 0 74.207830087922048 -2.5939695766160185 0 -2.5939695766160185 -9.3150557932512754 0 0 0 0 94.698628578960779 -12.985818175828626 0 -12.985818175828626 1.0898510091662104 0 0 0 0 82.765843824432523 -26.249880241153363 0 -26.249880241153363 4.7244319816149982 0 0 0 0 176.84436846758763 23.498602170455968 0 23.498602170455968 -82.369564533039693 0 0 0 0 183.68045381852426 38.578197510646959 0 38.578197510646959 -73.540443528107289 0 0 0 0 155.33393380895723 57.534660377173765 0 57.534660377173765 57.56447168337246 0 0 0 0 -1.63755613431168 -0.96118330799532714 0 -0.96118330799532714 0.0028995852286125556 0 0 0 0 209.17762228558422 50.354876503435491 0 50.354876503435491 48.274167300282329 0 0 0 0 206.86454383522505 50.951779860961963 0 50.951779860961963 208.03476552916834 0 0 0 0 35.040610776741232 31.141647483431257 0 31.141647483431257 24.298384031606474 0 0 0 0 34.908568433733308 22.755904962966667 0 22.755904962966667 18.88543944358458 0 0 0 0 32.629256475716147 -28.540341331284793 0 -28.540341331284793 2.4936580109662447 0 0 0 0 90.552871056795993 5.936468348164567 0 5.936468348164567 25.876418435791493 0 0 0 0 101.35747092119709 11.651787519882646 0 11.651787519882646 19.253565683918396 0 0 0 0 116.1825572631351 9.7796931434654653 0 9.7796931434654653 21.858546059892433 0 0 0 0 100.2187324270235 14.275659405896747 0 14.275659405896747 22.77007943270894 0 0 0 0 121.58129986021959 18.024516223401974 0 18.024516223401974 17.882558544130404 0 0 0 0 89.986347597077838 5.4247761294947452 0 5.4247761294947452 21.957435947173195 0 0 0 0 102.18353731784009 4.8412443358442943 0 4.8412443358442943 29.46962669009099 0 0 0 0 107.49184180751763 10.180353353567511 0 10.180353353567511 22.415844769868727 0 0 0 0 98.983870689859032 8.2989013774679279 0 8.2989013774679279 25.740339550339527 0 0 0 0 97.337058119199355 -28.101860086053762 0 -28.101860086053762 15.583474122124471 0 0 0 0 216.17042755580042 -78.717908877397917 0 -78.717908877397917 36.507511679911829 0 0 0 0 33.767326909087728 -30.080621007888311 0 -30.080621007888311 7.9572544356497916 0 0 0 0 90.529814640169207 5.4679055824416309 0 5.4679055824416309 30.793581757191987 0 0 0 0 97.8284733479436 5.2561222640758416 0 5.2561222640758416 30.409174420374711 0 0 0 0 105.42564819949621 7.459039241679875 0 7.459039241679875 30.607479626508848 0 0 0 0 85.444574582652422 -55.973594048563271 0 -55.973594048563271 -63.373020008865367 0 0 0 0 88.697690048024128 -4.9081646069286222 0 -4.9081646069286222 -6.7469468554053309 0 0 0 0 56.495239500640309 -27.383122724772022 0 -27.383122724772022 -12.308072150226295 0 0 0 0 96.955176934351641 -8.6007209995708962 0 -8.6007209995708962 -7.2231404635974013 0 0 0 0 119.44447819245397 -69.625917567346491 0 -69.625917567346491 -110.07610196795301 0 0 0 0 97.630029851461586 8.3491933538176184 0 8.3491933538176184 33.347431417520511 0 0 0 0 75.666693384268001 13.967018268568394 0 13.967018268568394 -29.830887849778179 0 0 0 0 168.95332138966478 -35.414517968550321 0 -35.414517968550321 -5.1501450638038211 0 0 0 0 163.6296184030216 33.352840542572757 0 33.352840542572757 11.767181051281018 0 0 0 0 147.9300217025193 -5.2890867026444166 0 -5.2890867026444166 62.737724799010209 0 0 0 0 100.34948475179408 14.233077751698891 0 14.233077751698891 55.503492962199495 0 0 0 0 162.36833896097278 -14.546403795962201 0 -14.546403795962201 9.7437891648932311 0 0 0 0 172.8786017155071 -37.920536097058843 0 -37.920536097058843 32.138052966639862 0 0 0 0 163.81219116256398 -9.838032363053852 0 -9.838032363053852 -0.028493637221993308 0 0 0 0 162.13730334490538 -9.1608777954149065 0 -9.1608777954149065 2.9428163101844373 0 0 0 0 49.056513835166697 2.1482722819212685 0 2.1482722819212685 -0.0056308523146213606 0 0 0 0 136.13481837236031 15.072572103238443 0 15.072572103238443 -6.8092210045537183 0 0 0 0 143.57699250237783 26.469906367436216 0 26.469906367436216 -17.168026250430223 0 0 0 0 200.08524196399958 -16.128185007257642 0 -16.128185007257642 -20.950089463159262 0 0 0 0 144.1908362335671 47.838846661812177 0 47.838846661812177 -7.0688587591269751 0 0 0 0 12.237314942962257 25.28391092688306 0 25.28391092688306 4.5896487250947224 0 0 0 0 -14.057401144549658 -15.630693943926534 0 -15.630693943926534 -5.2594530489225448 0 0 0 0 10.508399668688071 -104.03544845895179 0 -104.03544845895179 41.822492441824622 0 0 0 0 -68.80112258362351 -61.577398332950771 0 -61.577398332950771 58.476244912921629 0 0 0 0 1.4093811569827039 -0.42080055026485752 0 -0.42080055026485752 0.11253679728337881 0 0 0 0 44.409777718887199 -106.35121906564903 0 -106.35121906564903 38.713871357195139 0 0 0 0 182.65360266022617 -28.598827729142247 0 -28.598827729142247 -22.860555930251927 0 0 0 0 17.080351948476164 -33.671694450771874 0 -33.671694450771874 21.418469032905925 0 0 0 0 27.240185084141558 -60.886026728654286 0 -60.886026728654286 58.341212370329401 0 0 0 0 133.02135309732694 -13.410600603476979 0 -13.410600603476979 10.886312537782857 0 0 0 0 17.993270390304108 2.1120554509941485 0 2.1120554509941485 0.93570830848613784 0 0 0 0 19.521966124065528 5.4583406778530446 0 5.4583406778530446 3.0352852980598248 0 0 0 0 83.24727348817396 11.969282607089411 0 11.969282607089411 36.395496931871492 0 0 0 0 72.732227791362675 45.259704229228149 0 45.259704229228149 14.344957506684381 0 0 0 0 27.988682336785132 32.775546955173638 0 32.775546955173638 28.946250688428684 0 0 0 0 54.833073839719873 -34.443660887270397 0 -34.443660887270397 37.660763878730705 0 0 0 0 56.925774433242623 59.748652925520759 0 59.748652925520759 -22.150636647281431 0 0 0 0 2.8148562423841099 -0.65287323877865333 0 -0.65287323877865333 -0.0079815855127464454 0 0 0 0 44.544671265466604 -42.13669792621711 0 -42.13669792621711 -99.168115819225875 0 0 0 0 13.585394727575476 -19.6404858799417 0 -19.6404858799417 -48.463902843811482 0 0 0 0 -19.309519561109482 39.814972557732837 0 39.814972557732837 23.058857232623012 0 0 0 0 -0.27277761517325416 16.624729224881825 0 16.624729224881825 -21.085273297689184 0 0 0 0 1.8011760719527956 1.8963041023894449 0 1.8963041023894449 0.057030491297953519 0 0 0 0 22.59906989679439 25.888094061653959 0 25.888094061653959 0.38157275134646695 0 0 0 0 158.00980429582705 73.938707902725028 0 73.938707902725028 72.242764103737301 0 0 0 0 119.33696838909236 6.9923398374554697 0 6.9923398374554697 4.1815534433113211 0 0 0 0 24.233342138209991 -40.58269267777991 0 -40.58269267777991 -23.269306359963551 0 0 0 0 208.89577618901967 34.864187260770741 0 34.864187260770741 -0.11782570568667464 0 0 0 0 208.84275053170859 92.185616790182635 0 92.185616790182635 -3.3448355329878581 0 0 0 0 1.4432466493157676 -0.16035493042414828 0 -0.16035493042414828 -0.04499518473765915 0 0 0 0 82.060274733434198 -9.3966261057000366 0 -9.3966261057000366 30.999311319751975 0 0 0 0 228.57692397944629 86.187003615160421 0 86.187003615160421 -61.584346937878152 0 0 0 0 111.91993010535953 -31.905295635507684 0 -31.905295635507684 -27.062361531599549 0 0 0 0 98.909988527899259 -22.045655827879109 0 -22.045655827879109 -25.479187416637814 0 0 0 0 -0.54461182626255322 -0.34852152204362596 0 -0.34852152204362596 0.74353252451721308 0 0 0 0 263.30010127424612 53.714055786321723 0 53.714055786321723 -15.951898323246454 0 0 0 0 77.533244115954346 -8.9198113797105663 0 -8.9198113797105663 -3.3029102660661032 0 0 0 0 49.684057550912257 45.076755985496163 0 45.076755985496163 16.204410936472641 0 0 0 0 142.3280766865937 4.9479199321547185 0 4.9479199321547185 -30.44495284027505 0 0 0 0 109.59900699695572 20.80687254186455 0 20.80687254186455 -77.045528277431913 0 0 0 0 76.88910629744629 -6.3906183221562713 0 -6.3906183221562713 -5.8374333277512731 0 0 0 0 110.90317231328663 -65.704793357957129 0 -65.704793357957129 -39.24592956024884 0 0 0 0 4.0435347681923304 -59.655924798600608 0 -59.655924798600608 205.72458689432483 0 0 0 0 15.851507117447909 -27.942189746713211 0 -27.942189746713211 -0.21401591072594783 0 0 0 0 5.9921742920276415 -1.7450557880876687 0 -1.7450557880876687 1.3981328107382371 0 0 0 0 -61.463548635525513 117.2934776740434 0 117.2934776740434 184.42462115332717 0 0 0 0 55.510304549323337 -68.532227947331023 0 -68.532227947331023 0.22146861524674932 0 0 0 0 95.013692909677047 -22.609091441812097 0 -22.609091441812097 -174.33967584748279 0 0 0 0 167.12305860199558 -229.09202330595485 0 -229.09202330595485 -4.3297066806549083 0 0 0 0 485.41774349669868 -136.2074412033827 0 -136.2074412033827 -197.19738571263406 0 0 0 0 -272.89433420586283 -49.108161101685482 0 -49.108161101685482 169.50783432567096 0 0 0 0 41.673402052586795 4.0477612968528547 0 4.0477612968528547 1.855727441897729 0 0 0 0 73.143256474047121 -5.1286070030711528 0 -5.1286070030711528 -4.0168256241265379 0 0 0 0 91.718985565370531 16.522543193624713 0 16.522543193624713 16.375211141220348 0 0 0 0 140.54401113017229 10.954775272230108 0 10.954775272230108 -21.793131539782053 0 0 0 0 72.504874035017565 18.352411507773468 0 18.352411507773468 35.275419833250453 0 0 0 0 32.701236733695389 1.2400759059387099 0 1.2400759059387099 16.887800425742089 0 0 0 0 43.165867441289663 -29.326772535789615 0 -29.326772535789615 1.0599446363475251 0 0 0 0 116.53578625123191 -14.63229566813277 0 -14.63229566813277 4.8503409171994463 0 0 0 0 92.444033165709698 17.066504470745713 0 17.066504470745713 37.479770863748627 0 0 0 0 94.561484641955758 3.4233091450791662 0 3.4233091450791662 26.628697780630745 0 0 0 0 11.809809958993696 -11.207268321902177 0 -11.207268321902177 -5.1236529464840608 0 0 0 0 66.392426562356036 8.6599137830678217 0 8.6599137830678217 -5.697772944231847 0 0 0 0 91.609297312767012 -1.0443786295558652 0 -1.0443786295558652 46.955740562433192 0 0 0 0 180.3684832965555 324.92107425922268 0 324.92107425922268 -60.610342880208236 0 0 0 0 75.107648598903324 11.001219215704936 0 11.001219215704936 43.374883574376248 0 0 0 0 56.018911922583356 22.78610548174845 0 22.78610548174845 38.526132561961276 0 0 0 0 108.91166672205145 25.569985330608311 0 25.569985330608311 20.392176195737107 0 0 0 0 53.045429381149006 -1.5104551476575949 0 -1.5104551476575949 27.910306623601798 0 0 0 0 149.21466777844762 19.380501314762355 0 19.380501314762355 13.754355449737872 0 0 0 0 19.574637542415843 -1.1046804275176498 0 -1.1046804275176498 3.5289447765146322 0 0 0 0 114.37419372583099 5.1384869546752157 0 5.1384869546752157 24.556789746346524 0 0 0 0 260.68113714001561 86.342965666467592 0 86.342965666467592 37.013964686202499 0 0 0 0 164.06261768384138 -41.584844660673525 0 -41.584844660673525 15.035770882639781 0 0 0 0 0.33761878182393046 0.055265144291354318 0 0.055265144291354318 1.1915339452918019 0 0 0 0 127.95981529389974 12.238589499789477 0 12.238589499789477 24.700254161262478 0 0 0 0 66.694151719959336 28.278751828003543 0 28.278751828003543 37.004629174793081 0 0 0 0 124.45280613653631 43.984167847985802 0 43.984167847985802 29.195819396905165 0 0 0 0 -21.381569273828063 0.14362372047233407 0 0.14362372047233407 49.230597757231763 0 0 0 0 28.736402471316978 24.641412484749139 0 24.641412484749139 22.058570734269381 0 0 0 0 -52.926571960211731 35.607015756253247 0 35.607015756253247 17.329298915284078 0 0 0 0 -23.368199379501675 -11.016890301876286 0 -11.016890301876286 5.8847289255896555 0 0 0 0 -17.812191173899919 -9.8743559989730159 0 -9.8743559989730159 -1.5376115478113377 0 0 0 0 2.8236761686068803 -1.0273422778933536 0 -1.0273422778933536 -0.39516037292637907 0 0 0 0 29.946277836803347 -71.487924896046906 0 -71.487924896046906 82.681064225626585 0 0 0 0 38.456392396590672 -67.828552261379514 0 -67.828552261379514 82.692204103476342 0 0 0 0 118.886671278211 -113.81570017985845 0 -113.81570017985845 57.027578306039771 0 0 0 0 110.4705447784072 -50.990944865401232 0 -50.990944865401232 78.008531371440057 0 0 0 0 82.129838357504923 -74.064774058796786 0 -74.064774058796786 54.833265537578995 0 0 0 0 -2.5473629372900177 -93.159205651175284 0 -93.159205651175284 70.629324600969198 0 0 0 0 26.438939913758077 -201.64345140796857 0 -201.64345140796857 -54.912265899381509 0 0 0 0 13.039935741258262 1.4362570489797406 0 1.4362570489797406 -8.4846625193662621 0 0 0 0 63.209521981887292 6.9474776545906565 0 6.9474776545906565 -5.0310445214676935 0 0 0 0 51.627101208607201 -46.402118729115244 0 -46.402118729115244 78.135228830361086 0 0 0 0 76.72048032519524 -30.829734427489754 0 -30.829734427489754 32.344326883208566 0 0 0 0 -38.436519179020252 -13.284128509899936 0 -13.284128509899936 47.658429600044599 0 0 0 0 -0.49712323776014955 -0.26919394934768093 0 -0.26919394934768093 0.46595362915745087 0 0 0 0 -144.67252160677162 59.242678607512971 0 59.242678607512971 102.52308898876268 0 0 0 0 -7.8787604529570672 -239.43018846822085 0 -239.43018846822085 268.4731220411004 0 0 0 0 648.04213715583319 -103.31901912386422 0 -103.31901912386422 68.021738684889669 0 0 0 0 -103.49077561021841 55.541940097159227 0 55.541940097159227 -22.15445172387291 0 0 0 0 143.58352252485929 14.823626389379289 0 14.823626389379289 -209.26376787092076 0 0 0 0 -111.83267765112396 -64.920256321842174 0 -64.920256321842174 13.371829494177831 0 0 0 0 14.781107486722533 -0.3603545493600393 0 -0.3603545493600393 3.3326336132906471 0 0 0 0 351.20321678265464 -317.08511844620318 0 -317.08511844620318 -136.87373831771259 0 0 0 0 3.2160568677149399 1.1182042696312067 0 1.1182042696312067 1.7233971417529435 0 0 0 0 9.3010241748634144 -45.62722951494753 0 -45.62722951494753 257.26606231157956 0 0 0 0 -345.94615305305342 -175.16103884697102 0 -175.16103884697102 317.95596529042689 0 0 0 0 370.76461505000771 511.72167126017996 0 511.72167126017996 265.01473379264758 0 0 0 0 1909.7272711898186 560.4125443930966 0 560.4125443930966 8.7045057647983413 0 0 0 0 5.0834258586784813 3.701025341021051 0 3.701025341021051 1.5753697030364475 0 0 0 0 1210.452456018771 -188.94323943296115 0 -188.94323943296115 35.380283591037028 0 0 0 0 1771.0735913656681 753.5042236671909 0 753.5042236671909 172.55705123848475 0 0 0 0 2153.2174315248485 530.21722596109191 0 530.21722596109191 301.95352471741739 0 0 0 0 2047.7101165102213 601.43221924359602 0 601.43221924359602 67.251091277244086 0 0 0 0 1592.0617115387577 819.29672371197557 0 819.29672371197557 115.98738851478174 0 0 0 0 1845.3634748662589 634.79569153401508 0 634.79569153401508 36.930085644456 0 0 0 0 1331.7961776980956 264.40730803017931 0 264.40730803017931 -55.722245791975581 0 0 0 0 817.46187974925851 362.37920040319938 0 362.37920040319938 202.056865518775 0 0 0 0 423.88166951069434 113.20527530859746 0 113.20527530859746 74.979531226244092 0 0 0 0 327.80641693051439 132.30121273570253 0 132.30121273570253 162.88799758019934 0 0 0 0 1162.701780262083 711.91467822564482 0 711.91467822564482 93.147676010099246 0 0 0 0 0.34437388207419417 0.94008606171112774 0 0.94008606171112774 2.1885035893684224 0 0 0 0 -21.800582116091391 576.92035584818791 0 576.92035584818791 84.395784557390314 0 0 0 0 17.296179995579223 -127.09736925394404 0 -127.09736925394404 -41.030270240675691 0 0 0 0 1964.7434078631923 821.02233901166232 0 821.02233901166232 488.82225638230727 0 0 0 0 1946.6789084035554 865.47715906842166 0 865.47715906842166 268.57897251766781 0 0 0 0 1909.1132715553395 692.61701741894649 0 692.61701741894649 292.99715676922523 0 0 0 0 1323.5836182212806 524.37419840110238 0 524.37419840110238 282.79807185149434 0 0 0 0 1910.1865631440305 850.93483625375234 0 850.93483625375234 435.34585091023087 0 0 0 0 1101.786159848838 -219.61856549681653 0 -219.61856549681653 38.350930921730196 0 0 0 0 1516.07821123951 875.82793246577285 0 875.82793246577285 505.68859443047353 0 0 0 0 461.48728287476115 159.88495019598599 0 159.88495019598599 251.13526595685653 0 0 0 0 407.00540762070887 23.211827641261038 0 23.211827641261038 -21.206236262910807 0 0 0 0 1.8754351515420637 0.88517314710063033 0 0.88517314710063033 2.0430515146073125 0 0 0 0 764.84671059164975 -294.13015152238245 0 -294.13015152238245 22.6084597588615 0 0 0 0 596.88382243570231 10.801087776374288 0 10.801087776374288 -226.66595816136351 0 0 0 0 180.12550439139159 22.30499906696582 0 22.30499906696582 9.6182237700277255 0 0 0 0 47.290889625859563 26.42963163212346 0 26.42963163212346 -256.05887631723942 0 0 0 0 285.54493280837778 -99.748530443097025 0 -99.748530443097025 -56.04180053294499 0 0 0 0 10.103136153638559 -1.1341961453409652 0 -1.1341961453409652 1.083926418980063 0 0 0 0 55.73068300396335 -149.5084806713943 0 -149.5084806713943 -79.207384595621647 0 0 0 0 9.3649171757278964 -33.432824267655405 0 -33.432824267655405 -4.2833103167447462 0 0 0 0 28.385722915060086 -17.716509119162367 0 -17.716509119162367 1.1475436897640368 0 0 0 0 20.031232936045853 -17.215280382522167 0 -17.215280382522167 -11.618893349259139 0 0 0 0 -106.80734156144899 -107.93479963224743 0 -107.93479963224743 162.41498694264072 0 0 0 0 69.182578278945584 -94.700006983026583 0 -94.700006983026583 -72.285555179669075 0 0 0 0 142.57664937677328 -220.3934501601488 0 -220.3934501601488 107.49972495956186 0 0 0 0 38.837484202118048 -21.260296215752277 0 -21.260296215752277 8.2279189682373133 0 0 0 0 9.0655743354582228 -21.444910381444629 0 -21.444910381444629 8.6007532574307817 0 0 0 0 9.3270691532234196 -28.938274221456595 0 -28.938274221456595 6.3409820903964373 0 0 0 0 60.092135950515512 21.549449707771146 0 21.549449707771146 10.741804147246057 0 0 0 0 17.971841444115057 -7.4803751911807908 0 -7.4803751911807908 -1.4904145198123713 0 0 0 0 15.576257739812718 -17.788141264320757 0 -17.788141264320757 -9.5592428687391475 0 0 0 0 34.829718741180841 -63.86851438578492 0 -63.86851438578492 -53.341801691606634 0 0 0 0 18.894444737844367 -20.923638464456786 0 -20.923638464456786 -3.9350106739011057 0 0 0 0 30.973202833239498 -13.316879331231007 0 -13.316879331231007 -13.47944649074771 0 0 0 0 69.730372038137887 -9.1006539522482512 0 -9.1006539522482512 -2.9515639744108517 0 0 0 0 93.433431539888261 -13.601763600391592 0 -13.601763600391592 -67.34488936688993 0 0 0 0 99.399409002740867 -12.171341338376074 0 -12.171341338376074 -67.208637324127139 0 0 0 0 40.508675135439262 42.581719752178522 0 42.581719752178522 -79.40626550990018 0 0 0 0 14.523476310128274 -5.309246491618353 0 -5.309246491618353 -4.5678523743531114 0 0 0 0 109.52095069611096 24.269170851939904 0 24.269170851939904 -91.580785578954931 0 0 0 0 97.367558624031517 -46.953809790598122 0 -46.953809790598122 -32.801032837849448 0 0 0 0 98.562023308333664 -32.370795314744541 0 -32.370795314744541 -29.185046947057991 0 0 0 0 144.75307956644974 -32.381622305340755 0 -32.381622305340755 -29.185183657678223 0 0 0 0 180.76992971307482 0.32350963295720447 0 0.32350963295720447 0.41540117631638296 0 0 0 0 128.06526085612131 -26.896413749164687 0 -26.896413749164687 69.250570348225224 0 0 0 0 130.41819428455528 -8.9118449894948331 0 -8.9118449894948331 10.204310994233371 0 0 0 0 113.26226589467842 13.136385399495218 0 13.136385399495218 -2.0325538681822479 0 0 0 0 117.63273706205655 3.191922294498065 0 3.191922294498065 0.15007900071344943 0 0 0 0 96.928635989286704 10.410266615444135 0 10.410266615444135 18.33751179017046 0 0 0 0 120.27658604977205 7.6379100612606194 0 7.6379100612606194 -8.4016963371480706 0 0 0 0 92.288320459482975 2.4756653171463636 0 2.4756653171463636 -0.02728545435931682 0 0 0 0 191.90094418712397 -26.93977334109778 0 -26.93977334109778 43.836086572082216 0 0 0 0 40.143461286903275 -4.431573270997859 0 -4.431573270997859 -0.23846135537230406 0 0 0 0 231.56241919583408 -78.726726135235154 0 -78.726726135235154 -0.036099954988071066 0 0 0 0 46.643555876216851 -22.644151120600124 0 -22.644151120600124 -16.493602210715245 0 0 0 0 6.0741159067137005 -12.127623216457593 0 -12.127623216457593 3.1730994599768292 0 0 0 0 154.89014561509248 -132.97724074313837 0 -132.97724074313837 62.530212156551968 0 0 0 0 67.824767882295419 -58.632725513091209 0 -58.632725513091209 -0.67888469240405414 0 0 0 0 114.46572086809465 -79.585627458464543 0 -79.585627458464543 -56.099646131740741 0 0 0 0 302.97269502163908 -57.213463996318296 0 -57.213463996318296 -70.07862215755631 0 0 0 0 249.55272664940276 6.3135953954457591 0 6.3135953954457591 -145.62099000604394 0 0 0 0 160.01284604542889 89.97510787332979 0 89.97510787332979 -112.39089197946231 0 0 0 0 19.334386355442064 -52.902586872244513 0 -52.902586872244513 -3.038875809029383 0 0 0 0 297.47088343766518 -14.922581279844962 0 -14.922581279844962 -369.40227286536083 0 0 0 0 591.34919349332631 377.12533748497583 0 377.12533748497583 -962.95521303790338 0 0 0 0 649.36399159629582 -177.15226179091178 0 -177.15226179091178 -486.82950217920734 0 0 0 0 15.511719851056114 27.88973515804355 0 27.88973515804355 1119.8155171220246 0 0 0 0 782.22690008324571 -815.61076221711664 0 -815.61076221711664 -292.52911232651877 0 0 0 0 987.19805734348483 -508.10463617375899 0 -508.10463617375899 -702.10524936873719 0 0 0 0 678.52630184718873 -286.48888673203874 0 -286.48888673203874 -720.74243644187845 0 0 0 0 719.43759076992865 -452.24057253806563 0 -452.24057253806563 -391.33985440440665 0 0 0 0 533.59772112942301 -170.55101889220487 0 -170.55101889220487 -283.43330204145241 0 0 0 0 22.748367627280984 -2.6941842432698024 0 -2.6941842432698024 -5.0984395223815397 0 0 0 0 -598.1350408217404 -686.46016392116098 0 -686.46016392116098 -75.884920206635798 0 0 0 0 310.72632310679182 -341.22433976404136 0 -341.22433976404136 -112.2140518377073 0 0 0 0 322.64464684663108 -349.24238185526701 0 -349.24238185526701 -408.76740360239455 0 0 0 0 -58.270471829222515 -287.04595977575991 0 -287.04595977575991 44.724487394008065 0 0 0 0 -210.81706842244603 -337.98207502447985 0 -337.98207502447985 30.323614391572846 0 0 0 0 -162.4594805950037 -571.12975671608842 0 -571.12975671608842 -221.85349940123706 0 0 0 0 329.84370423527434 -595.94832874246276 0 -595.94832874246276 -333.37510635297986 0 0 0 0 -66.903653790126555 -667.44741710739981 0 -667.44741710739981 -270.34309019753164 0 0 0 0 332.06553063855972 -602.52271374881366 0 -602.52271374881366 -384.66716023498702 0 0 0 0 359.74120928671618 -412.72742624815334 0 -412.72742624815334 78.177691115408379 0 0 0 0 -165.24648827940109 -162.84164971597784 0 -162.84164971597784 1134.4683923554549 0 0 0 0 368.7958488171862 -458.25665257249136 0 -458.25665257249136 -597.31944929829115 0 0 0 0 163.34335746814031 -671.7263081391684 0 -671.7263081391684 -816.30038697712598 0 0 0 0 -187.28763740602881 1195.1315474061867 0 1195.1315474061867 -402.93293226800142 0 0 0 0 -131.17323422362097 -859.99353033852003 0 -859.99353033852003 -579.3408396234372 0 0 0 0 699.29487834218889 -990.06196001759417 0 -990.06196001759417 524.07600449874826 0 0 0 0 1407.4508180302801 -995.91174711220765 0 -995.91174711220765 -189.54221842523475 0 0 0 0 1640.6958616858683 -354.66778712261032 0 -354.66778712261032 -970.06920509914198 0 0 0 0 88.883160077115235 -25.580677511684414 0 -25.580677511684414 -4.8278973799126552 0 0 0 0 176.26472411234863 -698.4183053647721 0 -698.4183053647721 -333.67539132326783 0 0 0 0 102.08919578636414 -21.25432430606179 0 -21.25432430606179 -190.66583465087251 0 0 0 0 -18.123121732001891 -16.161288400453486 0 -16.161288400453486 120.42822972751037 0 0 0 0 9.9476147662062431 -50.087220250313749 0 -50.087220250313749 29.293578160693869 0 0 0 0 140.30476893880405 -34.993700128303317 0 -34.993700128303317 15.309735430720337 0 0 0 0 14.794621459749806 -16.341450899634339 0 -16.341450899634339 4.5391395590348607 0 0 0 0 3.9671624999198229 -1.0838592158598601 0 -1.0838592158598601 -0.50889966084971938 0 0 0 0 254.69986692086968 181.01673651075077 0 181.01673651075077 135.61463970057775 0 0 0 0 17.704958444127357 -9.4101313185360027 0 -9.4101313185360027 0.40777589243943346 0 0 0 0 320.07490956326365 409.46836749931526 0 409.46836749931526 317.77147064894143 0 0 0 0 542.28432934633747 397.11213603875774 0 397.11213603875774 8.2657366905432355 0 0 0 0 552.08527127202206 -215.06011722028705 0 -215.06011722028705 1170.6176677705207 0 0 0 0 8.6224552748514611 -5.9183179031564777 0 -5.9183179031564777 3.1246876259520282 0 0 0 0 486.26774435598054 196.63146230289976 0 196.63146230289976 -267.54889806056144 0 0 0 0 -2.5333107326690083 2.8969743305420366 0 2.8969743305420366 0.28619556927771583 0 0 0 0 408.94685225868307 452.23905097514807 0 452.23905097514807 555.93215784753374 0 0 0 0 1050.3940615399624 433.54290502711615 0 433.54290502711615 117.67198053676319 0 0 0 0 2109.6576202079596 1750.0068172480501 0 1750.0068172480501 502.65854715496653 0 0 0 0 1532.3844125985197 1334.9292101498079 0 1334.9292101498079 772.5412478204305 0 0 0 0 2053.4586330078746 1267.9746738021522 0 1267.9746738021522 364.04845854552372 0 0 0 0 731.78851733720512 735.94355330433427 0 735.94355330433427 706.31683233816193 0 0 0 0 996.71328476906638 1728.7893971016458 0 1728.7893971016458 1910.7002253168084 0 0 0 0 1141.7359853545149 832.6649248988515 0 832.6649248988515 407.10954632875746 0 0 0 0 548.68001381561044 560.84397898042334 0 560.84397898042334 739.40836885369436 0 0 0 0 842.00219287692016 729.42811477208375 0 729.42811477208375 184.69262414558307 0 0 0 0 496.10402140664519 3.7063441440413953 0 3.7063441440413953 -244.06912425289875 0 0 0 0 -130.70852537492465 -162.54709758445824 0 -162.54709758445824 285.52145616720918 0 0 0 0 92.16021644956345 181.80544456945998 0 181.80544456945998 -231.82855862547251 0 0 0 0 22.724501083886835 11.339156026121344 0 11.339156026121344 -19.874401054277417 0 0 0 0 89.289009350502852 30.761062743296367 0 30.761062743296367 5.6518410602636333 0 0 0 0 828.76511076906172 171.11696497548201 0 171.11696497548201 97.596627789064769 0 0 0 0 323.92663961510698 321.69782546313445 0 321.69782546313445 69.440465019877593 0 0 0 0 205.89438963460998 -81.960260129427894 0 -81.960260129427894 150.62091982166868 0 0 0 0 125.52228582298267 9.5207928478059358 0 9.5207928478059358 -9.1096526022758582 0 0 0 0 37.114951526776679 6.3935781495799233 0 6.3935781495799233 0.72531939020179381 0 0 0 0 770.18256151671812 39.058711302886778 0 39.058711302886778 1.7178294667076899 0 0 0 0 4977.6339455140696 -1487.7222212039524 0 -1487.7222212039524 56.568340334852266 0 0 0 0 1252.8029713567958 2765.3939878819883 0 2765.3939878819883 4652.1907558142293 0 0 0 0 36.347067362771782 13.749324379325266 0 13.749324379325266 8.9657992773143071 0 0 0 0 4989.8436277685541 3542.3914380832439 0 3542.3914380832439 1113.8732528047835 0 0 0 0 159.40199991232657 469.81455180851492 0 469.81455180851492 1208.4149919207557 0 0 0 0 3075.3814584384527 2247.9383245550443 0 2247.9383245550443 695.99839469852191 0 0 0 0 3072.1104190051701 2415.7256314582878 0 2415.7256314582878 452.04452944530618 0 0 0 0 5001.4815170556685 2472.4066528694611 0 2472.4066528694611 -146.05586305875272 0 0 0 0 3735.620259864183 1750.5969030575884 0 1750.5969030575884 -466.87329309769854 0 0 0 0 2907.5407130206731 1356.1518507891114 0 1356.1518507891114 -131.55520974637182 0 0 0 0 3728.8580140461108 1731.216245844993 0 1731.216245844993 -12.968066722188496 0 0 0 0 2748.4528776971565 2020.9292447825492 0 2020.9292447825492 449.92983203869113 0 0 0 0 2389.0602212786907 1294.5362436630789 0 1294.5362436630789 290.14200192029375 0 0 0 0 1744.9165689938091 1343.8155872221855 0 1343.8155872221855 469.47040031192211 0 0 0 0 1988.4495190870293 1030.3150430968565 0 1030.3150430968565 456.4737112346636 0 0 0 0 2021.5857403880509 940.00088244372898 0 940.00088244372898 170.82012192924319 0 0 0 0 2265.4707465310712 890.66244683826858 0 890.66244683826858 335.67230729566825 0 0 0 0 2258.1303504477346 1004.9281472700275 0 1004.9281472700275 150.95105302782372 0 0 0 0 2119.7375686406158 945.5238441079598 0 945.5238441079598 510.84678037255463 0 0 0 0 2204.3610592695186 801.23326278300397 0 801.23326278300397 211.59538572767161 0 0 0 0 2831.395940069051 1425.3513755303516 0 1425.3513755303516 321.36970453991967 0 0 0 0 2798.6588641183334 1150.0540713871737 0 1150.0540713871737 158.77618304580437 0 0 0 0 3013.1912229085428 956.11550653413281 0 956.11550653413281 -230.46965264077289 0 0 0 0 2429.8531628618293 753.87784650615913 0 753.87784650615913 28.567064953148929 0 0 0 0 2291.8993818314193 898.63368376022652 0 898.63368376022652 62.368563843751645 0 0 0 0 2071.4263556379883 754.94158480659155 0 754.94158480659155 196.59521252527634 0 0 0 0 2665.0823955262167 857.78004119462184 0 857.78004119462184 10.854107107657455 0 0 0 0 2961.3659380842873 558.25005333830813 0 558.25005333830813 -183.20215838151711 0 0 0 0 3349.9907698587849 963.10228022966726 0 963.10228022966726 -239.91179828498275 0 0 0 0 3603.6337489561265 685.92514362258464 0 685.92514362258464 -500.29771382525337 0 0 0 0 4124.6501384768926 1000.5687001556121 0 1000.5687001556121 -696.27765627464294 0 0 0 0 4998.5358727307612 1685.2137577974888 0 1685.2137577974888 -619.63492611485208 0 0 0 0 3635.0248948242515 1393.5896413257478 0 1393.5896413257478 -169.05297190523925 0 0 0 0 4049.7677246751118 1134.5443733362317 0 1134.5443733362317 -661.82408570893949 0 0 0 0 135.02157472199178 -61.315043732789036 0 -61.315043732789036 -20.922040225394994 0 0 0 0 119.44795330047418 -34.7866861053555 0 -34.7866861053555 18.780177902006017 0 0 0 0 125.29858901008743 -18.435401576325575 0 -18.435401576325575 7.7723270949008398 0 0 0 0 113.63825149214608 -46.022343159796321 0 -46.022343159796321 22.222296968683168 0 0 0 0 163.04570679295284 36.252568330796294 0 36.252568330796294 -16.729344870815567 0 0 0 0 110.32299037941266 -29.472865216806326 0 -29.472865216806326 39.745698848458687 0 0 0 0 128.75867044115148 -47.451752285075997 0 -47.451752285075997 57.534083824784716 0 0 0 0 129.17268872848945 -53.235476239456318 0 -53.235476239456318 36.417718062125687 0 0 0 0 156.66167616556413 -52.654899591750961 0 -52.654899591750961 41.474101489452551 0 0 0 0 157.77076316076273 -54.23164720507998 0 -54.23164720507998 13.238201879407825 0 0 0 0 182.11983966216212 -57.84221432325603 0 -57.84221432325603 39.564966926557645 0 0 0 0 201.68893742198998 -46.772979390638284 0 -46.772979390638284 -12.948095185356578 0 0 0 0 162.09525675029727 -51.440039693440212 0 -51.440039693440212 -9.6116403036139673 0 0 0 0 133.12160695379134 -41.959803153515168 0 -41.959803153515168 7.1754256266290213 0 0 0 0 169.59658512852911 -129.73887816483602 0 -129.73887816483602 -144.27632674781955 0 0 0 0 170.31941339942568 -54.165339952703107 0 -54.165339952703107 -51.414740509585499 0 0 0 0 151.0672426283474 -37.092793724067747 0 -37.092793724067747 7.0274724108043403 0 0 0 0 153.85764304213808 -62.172135106501401 0 -62.172135106501401 -64.574340393686043 0 0 0 0 157.15125329068633 -25.094567979193087 0 -25.094567979193087 -81.593007340175063 0 0 0 0 281.09290854432038 -51.748588880019611 0 -51.748588880019611 -76.437704749853992 0 0 0 0 136.52132529731307 -31.621624411966984 0 -31.621624411966984 3.4304083375138559 0 0 0 0 196.47197912746924 -40.767458951927665 0 -40.767458951927665 -132.47185814517775 0 0 0 0 167.40288704588602 26.760781306379442 0 26.760781306379442 -37.689190188174962 0 0 0 0 179.30601382821624 53.46297172549987 0 53.46297172549987 -72.73722546120905 0 0 0 0 257.72752108986606 72.532929548800439 0 72.532929548800439 -71.767570819293155 0 0 0 0 181.16485232237756 63.387111851109182 0 63.387111851109182 -19.820704073186789 0 0 0 0 46.141108369339207 56.567014338793257 0 56.567014338793257 15.748342635129269 0 0 0 0 108.21374702658795 -52.908427877937811 0 -52.908427877937811 -5.1078503854972723 0 0 0 0 70.790547071082983 131.33056344950694 0 131.33056344950694 -27.253309327441912 0 0 0 0 115.69147361666546 46.900175384763315 0 46.900175384763315 55.552249440111382 0 0 0 0 160.96476376405917 40.475541169908865 0 40.475541169908865 -25.087877232478093 0 0 0 0 352.65786868851865 50.575025245096185 0 50.575025245096185 -45.593975268660813 0 0 0 0 -68.420163591639721 -48.21927917383573 0 -48.21927917383573 51.311239480447512 0 0 0 0 2.0395632512007893 4.322597517774966 0 4.322597517774966 5.6629536145795019 0 0 0 0 12.973580834255699 60.706066524027392 0 60.706066524027392 47.862937677367881 0 0 0 0 63.693141441006446 -40.326240934466114 0 -40.326240934466114 111.53519834572944 0 0 0 0 265.58980520203477 -44.27176585900088 0 -44.27176585900088 -26.708220440959508 0 0 0 0 153.26168026442247 -9.1035109462130777 0 -9.1035109462130777 6.5528562416147906 0 0 0 0 308.70829587195476 8.2782953739374534 0 8.2782953739374534 -30.778130471504483 0 0 0 0 142.29259717927198 -47.148278991326151 0 -47.148278991326151 -64.275188548584083 0 0 0 0 2.031405806237089 4.2592907798721171 0 4.2592907798721171 5.4484979529591335 0 0 0 0 100.98815201461548 30.960859930871266 0 30.960859930871266 7.3853844530258357 0 0 0 0 -38.037709995485784 13.655734831931113 0 13.655734831931113 59.813712957547068 0 0 0 0 129.1243548340608 -32.439209474830477 0 -32.439209474830477 27.67511963425568 0 0 0 0 299.79777888541867 43.034682374615841 0 43.034682374615841 -0.60847103652395162 0 0 0 0 315.53993506019469 77.736117052765621 0 77.736117052765621 70.548788502481784 0 0 0 0 58.767770056437769 59.33655621435193 0 59.33655621435193 29.059134631993835 0 0 0 0 13.815752874286488 19.256082476757186 0 19.256082476757186 7.7378346514206831 0 0 0 0 194.89130408970232 -37.403609231069822 0 -37.403609231069822 -24.225759424979515 0 0 0 0 207.93296084395843 -26.438544647514391 0 -26.438544647514391 -1.7658240527716771 0 0 0 0 234.64468037959887 10.568800408240349 0 10.568800408240349 -44.131774997620596 0 0 0 0 39.43084384460235 99.818155256679347 0 99.818155256679347 97.662158385733164 0 0 0 0 141.64013472044098 18.083360363029897 0 18.083360363029897 -7.8885737118380348 0 0 0 0 20.385238035389222 9.6158398892965238 0 9.6158398892965238 32.868252237137597 0 0 0 0 182.49448639890761 -79.937422815348327 0 -79.937422815348327 104.00575275250912 0 0 0 0 192.69825177471648 -3.427926079722738 0 -3.427926079722738 -33.434383072637502 0 0 0 0 199.87723030657799 15.062912630505707 0 15.062912630505707 -43.242239904797771 0 0 0 0 27.475256763980724 -82.988893535185071 0 -82.988893535185071 158.04260508225343 0 0 0 0 317.2160032056272 63.381390928500878 0 63.381390928500878 -31.425041539067024 0 0 0 0 1.6343947142304671 2.5795809998062396 0 2.5795809998062396 1.6970017315061412 0 0 0 0 108.47541867163818 -78.479677201097729 0 -78.479677201097729 171.11348910051856 0 0 0 0 96.02195607732574 -93.854852021768238 0 -93.854852021768238 40.965255511806845 0 0 0 0 64.116536607123635 -26.086842030066009 0 -26.086842030066009 212.56397810295312 0 0 0 0 97.094699789318838 -54.83493312344126 0 -54.83493312344126 125.62609099053952 0 0 0 0 86.919312079131487 -78.447022944121272 0 -78.447022944121272 141.64954163949278 0 0 0 0 136.07849078568688 -35.334496919142111 0 -35.334496919142111 81.223961546254941 0 0 0 0 119.90638969724569 -73.815532079143964 0 -73.815532079143964 135.59359449650765 0 0 0 0 120.15832825566395 -74.121034679073318 0 -74.121034679073318 89.269084546020167 0 0 0 0 166.84524327138206 45.333521514714903 0 45.333521514714903 180.53563935290003 0 0 0 0 128.27499652402184 -19.368447028645278 0 -19.368447028645278 72.821035562694306 0 0 0 0 193.76506175329268 -0.13555770778020815 0 -0.13555770778020815 10.513283284999488 0 0 0 0 167.86631662027503 6.043919037939304 0 6.043919037939304 58.957077841645514 0 0 0 0 160.04197758651571 -57.842627028428979 0 -57.842627028428979 34.220915743127989 0 0 0 0 175.7654726075998 -18.493346945784651 0 -18.493346945784651 -7.3014021678081917 0 0 0 0 186.21307787561091 -37.190480590237712 0 -37.190480590237712 25.703337025603105 0 0 0 0 107.81653562554857 -31.429474335516716 0 -31.429474335516716 95.999795688476297 0 0 0 0 180.22353847671184 -56.357992451466998 0 -56.357992451466998 9.2689900088225841 0 0 0 0 152.93667575761356 -77.164918497792314 0 -77.164918497792314 17.881749097032298 0 0 0 0 252.69131117503275 -73.608385421505773 0 -73.608385421505773 35.659108388688765 0 0 0 0 86.934659790014848 23.164696417942196 0 23.164696417942196 267.75839861156237 0 0 0 0 265.57105996678001 24.7264675822762 0 24.7264675822762 51.09758066566792 0 0 0 0 180.73836560486598 1.8026464139584277 0 1.8026464139584277 9.2437199486666941 0 0 0 0 178.16351707821013 -13.826632297284959 0 -13.826632297284959 40.857150345399532 0 0 0 0 152.13908686950163 -70.553441179804395 0 -70.553441179804395 41.811198477273138 0 0 0 0 97.609690024124575 -22.876006912816592 0 -22.876006912816592 20.000720395180423 0 0 0 0 65.417675244938437 -59.834281746463603 0 -59.834281746463603 55.429101768915643 0 0 0 0 9.749686499705831 8.1665751101280932 0 8.1665751101280932 29.542318102214097 0 0 0 0 2.3198191095644347 10.596963509885427 0 10.596963509885427 32.874610408783596 0 0 0 0 80.35351795333554 -32.592698373739211 0 -32.592698373739211 64.865399846140917 0 0 0 0 -31.350089853745885 30.968949806087039 0 30.968949806087039 80.720770986559046 0 0 0 0 -8.8636611959373113 83.857027222529723 0 83.857027222529723 109.63332636820905 0 0 0 0 104.49033662895818 -46.839147524446901 0 -46.839147524446901 65.310058516687945 0 0 0 0 79.340771681276237 -24.721784561965933 0 -24.721784561965933 8.8727456398191862 0 0 0 0 103.24952040471908 -42.954886824484163 0 -42.954886824484163 53.850737567971009 0 0 0 0 125.1390699317999 -49.539838892048124 0 -49.539838892048124 56.932426736169191 0 0 0 0 1.7068430246985429 11.529464368513118 0 11.529464368513118 34.379263557565523 0 0 0 0 148.24007940209049 -46.375341310944215 0 -46.375341310944215 85.925883811120457 0 0 0 0 148.70128040919371 -49.468796332414726 0 -49.468796332414726 49.545147267903104 0 0 0 0 126.92053236617357 -40.087892672979933 0 -40.087892672979933 80.918710991226817 0 0 0 0 187.2151720221882 -39.597333081832744 0 -39.597333081832744 62.958979848495005 0 0 0 0 146.03829298303754 -49.667016956871294 0 -49.667016956871294 69.863358448382314 0 0 0 0 174.88596980585498 -30.617648121823606 0 -30.617648121823606 59.49596052192328 0 0 0 0 183.14584846568323 -43.513262325822438 0 -43.513262325822438 65.946645126043222 0 0 0 0 141.15048157567799 -55.907742787284405 0 -55.907742787284405 38.889098866721724 0 0 0 0 141.36176141978649 -38.39343363939679 0 -38.39343363939679 67.108639597861838 0 0 0 0 46.637216718787386 -10.174550970206155 0 -10.174550970206155 100.17254767504346 0 0 0 0 153.46523867560609 -23.805605200607715 0 -23.805605200607715 33.485263627248742 0 0 0 0 157.00095148506443 -10.414855831814293 0 -10.414855831814293 81.726580473198737 0 0 0 0 173.01206882833321 -35.862596946013412 0 -35.862596946013412 72.056692253390793 0 0 0 0 173.13278990209801 -29.233202408085617 0 -29.233202408085617 57.054412723303358 0 0 0 0 150.35799536886043 -34.221019345985042 0 -34.221019345985042 106.77125066852977 0 0 0 0 145.64768830941102 -53.675050471750978 0 -53.675050471750978 76.379740920519907 0 0 0 0 187.45140527638432 -43.543957456549379 0 -43.543957456549379 75.705300617707053 0 0 0 0 239.17009852820775 -52.714503387378954 0 -52.714503387378954 52.96475951786806 0 0 0 0 199.24164428838776 -65.078100785151264 0 -65.078100785151264 61.067491449181034 0 0 0 0 208.79764694630285 -35.798763228020562 0 -35.798763228020562 60.7592157207132 0 0 0 0 203.043584081679 -27.490981498373344 0 -27.490981498373344 68.142916243317359 0 0 0 0 208.31555024762338 -46.619738289248772 0 -46.619738289248772 55.196199109733243 0 0 0 0 246.13125684851548 -44.076820615509178 0 -44.076820615509178 53.270406243191246 0 0 0 0 261.78291759683634 -62.238822121404155 0 -62.238822121404155 42.26190343014764 0 0 0 0 257.88787857747957 -31.921486483916055 0 -31.921486483916055 57.647554555238457 0 0 0 0 283.39615093413158 -69.912706089500375 0 -69.912706089500375 44.772889071322879 0 0 0 0 243.19312074427216 -69.657856993480834 0 -69.657856993480834 42.131472481972196 0 0 0 0 264.71638004950364 -70.771653911836893 0 -70.771653911836893 36.293385726886299 0 0 0 0 272.51881891605444 -62.620491900368506 0 -62.620491900368506 34.815391036706387 0 0 0 0 251.88729240949033 -30.994517895808713 0 -30.994517895808713 62.540927139848463 0 0 0 0 168.17806361498515 -45.723550394510085 0 -45.723550394510085 70.873335385636892 0 0 0 0 189.42540852079401 22.921373682225749 0 22.921373682225749 205.15779782601203 0 0 0 0 221.84220659776474 -85.676295222809586 0 -85.676295222809586 66.838164610084732 0 0 0 0 263.33720550613361 -64.315777800658225 0 -64.315777800658225 39.453431945999228 0 0 0 0 263.18364949256647 -98.884080431252983 0 -98.884080431252983 70.92409777085544 0 0 0 0 410.77024768556294 -97.2463713961466 0 -97.2463713961466 41.298795411022581 0 0 0 0 263.45137874808381 -71.599766665465893 0 -71.599766665465893 50.6638049802159 0 0 0 0 -20.287379975314252 -48.894933662909807 0 -48.894933662909807 29.58001985557712 0 0 0 0 68.331935888418229 -144.90947449930752 0 -144.90947449930752 77.182938386875392 0 0 0 0 154.67278467654251 -65.920909977544596 0 -65.920909977544596 -71.671782489806105 0 0 0 0 91.28584164557833 19.222422138596102 0 19.222422138596102 -133.15381752569283 0 0 0 0 64.344028580856957 17.751595078873372 0 17.751595078873372 1.7253679710720484 0 0 0 0 115.73604108992731 62.03083991662379 0 62.03083991662379 -50.1682994440323 0 0 0 0 469.33739018990309 -116.92063889309512 0 -116.92063889309512 46.364376430811376 0 0 0 0 220.97396980896883 192.63829551450294 0 192.63829551450294 63.662670433305038 0 0 0 0 6.8181049223276631 4.835521621194772 0 4.835521621194772 3.5974649937817338 0 0 0 0 -1.0004895808122001 4.0128926075443943 0 4.0128926075443943 4.465875554594458 0 0 0 0 370.91635282785865 32.35407277345243 0 32.35407277345243 122.76708675344331 0 0 0 0 244.1269450611544 -40.708933216406976 0 -40.708933216406976 96.950713076537056 0 0 0 0 181.35569822401158 -53.331575762420925 0 -53.331575762420925 97.641681235850001 0 0 0 0 242.07014891473227 -28.513341386468596 0 -28.513341386468596 72.031454284931073 0 0 0 0 239.47084494039882 -26.320607381620448 0 -26.320607381620448 65.382916676675165 0 0 0 0 186.58936070259551 -38.805441191801961 0 -38.805441191801961 85.831160205195033 0 0 0 0 240.06962506504487 -41.849650670408863 0 -41.849650670408863 64.751582537495324 0 0 0 0 356.92525560411741 -102.71435501598188 0 -102.71435501598188 59.682038970221384 0 0 0 0 312.37876301977667 -7.3533921415709926 0 -7.3533921415709926 75.788247151871332 0 0 0 0 39.695925352549239 -12.629410063360268 0 -12.629410063360268 0.54418043095085977 0 0 0 0 37.97133106781672 -22.724387117051606 0 -22.724387117051606 -1.3117506754916892 0 0 0 0 101.50513808711548 -3.4608315111572665 0 -3.4608315111572665 -3.1283464731870794 0 0 0 0 73.368770620294526 -9.9763563900830832 0 -9.9763563900830832 -4.0255019676906159 0 0 0 0 57.903585123531229 -44.122000581925704 0 -44.122000581925704 15.894871395970767 0 0 0 0 40.554669679362149 -20.736208517364361 0 -20.736208517364361 -8.5590848011252731 0 0 0 0 45.468561257883266 -6.5526211987366878 0 -6.5526211987366878 4.7923238640919408 0 0 0 0 21.78977224929622 -44.132166712835442 0 -44.132166712835442 95.000719830228718 0 0 0 0 32.454778491926845 1.2214268535681185 0 1.2214268535681185 4.3700165677869336 0 0 0 0 1.8276483177905902 -50.218444948621027 0 -50.218444948621027 43.485486821345148 0 0 0 0 288.53315351842321 3.6882682812127427 0 3.6882682812127427 -24.622626974188279 0 0 0 0 194.3304907905549 -53.110789229403281 0 -53.110789229403281 30.128349110136583 0 0 0 0 237.54765983061225 80.250124636751707 0 80.250124636751707 19.798471172260406 0 0 0 0 279.79794637140003 -56.233909811735771 0 -56.233909811735771 45.460442196826762 0 0 0 0 -2.23250762933381 -3.0081110726431461 0 -3.0081110726431461 3.8574950456258135 0 0 0 0 204.56992725894088 212.64915817205792 0 212.64915817205792 181.22905752419581 0 0 0 0 50.675241581804585 15.803032732159636 0 15.803032732159636 24.191884797365788 0 0 0 0 81.498817328999451 18.013492951676916 0 18.013492951676916 3.7555219009868761 0 0 0 0 210.64638688300329 101.2370605625924 0 101.2370605625924 -208.60323726321297 0 0 0 0 96.775092030846281 26.796663654624581 0 26.796663654624581 -61.908310039122625 0 0 0 0 53.009963353950297 7.3502127276944975 0 7.3502127276944975 20.155229010173116 0 0 0 0 76.347346166199713 24.588660346992242 0 24.588660346992242 12.523316321268339 0 0 0 0 122.07244651847577 21.211891679524342 0 21.211891679524342 -46.915898360666233 0 0 0 0 86.200864796161113 141.36089863221483 0 141.36089863221483 -22.267119262432288 0 0 0 0 96.471589081340539 17.917370980281184 0 17.917370980281184 2.4317865583870155 0 0 0 0 28.579005506078829 4.8742756805905287 0 4.8742756805905287 57.598634177880854 0 0 0 0 56.526012109823569 -13.943483621337002 0 -13.943483621337002 -1.8398214954738705 0 0 0 0 15.213044907697821 7.8600192531687725 0 7.8600192531687725 4.2876373061756592 0 0 0 0 53.008010721139726 5.0853817797922076 0 5.0853817797922076 4.8534863876609506 0 0 0 0 109.27502967554028 11.84907113173881 0 11.84907113173881 -1.9538283765114102 0 0 0 0 205.82496163775795 -40.928724574941953 0 -40.928724574941953 -17.41304962312131 0 0 0 0 143.36555754410801 -41.745038198830684 0 -41.745038198830684 -12.836399025155515 0 0 0 0 48.743194900296089 -9.0966023847304385 0 -9.0966023847304385 -1.90073698779641 0 0 0 0 79.384847456793068 -1.5232054447265 0 -1.5232054447265 -13.413597957182787 0 0 0 0 75.932140974416996 -5.9417998118800313 0 -5.9417998118800313 -3.9180708556066133 0 0 0 0 82.085377707771841 -10.130248087659993 0 -10.130248087659993 -14.298515122277195 0 0 0 0 54.028637652310152 -10.856443385507987 0 -10.856443385507987 -6.4619368705702325 0 0 0 0 151.68432399821177 38.66977264293962 0 38.66977264293962 26.451858422418809 0 0 0 0 76.407493306396645 12.88000158048763 0 12.88000158048763 34.723548735209533 0 0 0 0 13.135542111985501 -3.1773717835996536 0 -3.1773717835996536 -0.0672774621663077 0 0 0 0 196.84861701320915 16.569632986660736 0 16.569632986660736 -5.5623698966596749 0 0 0 0 117.99893937619345 18.097695272644842 0 18.097695272644842 80.724946098440569 0 0 0 0 172.33608702316269 -20.084909751430445 0 -20.084909751430445 28.444098992297313 0 0 0 0 133.48068791051628 2.8766542580511754 0 2.8766542580511754 15.392206262522194 0 0 0 0 129.67852388237952 -7.1645548702319388 0 -7.1645548702319388 25.328366744337572 0 0 0 0 95.743999182159314 5.8742065892525375 0 5.8742065892525375 47.31236367138456 0 0 0 0 102.51123849008582 4.0144592677779656 0 4.0144592677779656 9.4475769896749853 0 0 0 0 118.03047815819855 18.362225209911713 0 18.362225209911713 22.495266275688664 0 0 0 0 94.570598798251012 42.910628186951385 0 42.910628186951385 32.78638244408512 0 0 0 0 73.003103865456069 22.489064476041335 0 22.489064476041335 32.691172003018437 0 0 0 0 99.962219819572056 20.103532052125814 0 20.103532052125814 22.728101901677064 0 0 0 0 101.95694065048883 16.067496416198424 0 16.067496416198424 29.964704339138848 0 0 0 0 17.563632463532144 -23.385964150723254 0 -23.385964150723254 -1.5565533931710587 0 0 0 0 113.05561769640917 3.9310390815588505 0 3.9310390815588505 14.380979284202795 0 0 0 0 138.33061592491867 -2.0258697814047082 0 -2.0258697814047082 10.056080775864018 0 0 0 0 128.1882011800044 3.3137611658822266 0 3.3137611658822266 8.5572438795250036 0 0 0 0 112.8123392442867 4.0244161153194966 0 4.0244161153194966 17.996272453804465 0 0 0 0 129.61697054954129 0.44230686864852942 0 0.44230686864852942 14.285443570161419 0 0 0 0 116.2395382662362 7.2472319703463199 0 7.2472319703463199 15.716401598374546 0 0 0 0 135.33026512669312 7.0258690453682391 0 7.0258690453682391 13.790254362832798 0 0 0 0 160.38991395934136 -4.654842826220829 0 -4.654842826220829 -10.703735623201055 0 0 0 0 223.18644307878276 -24.613558826818462 0 -24.613558826818462 -33.739804424078102 0 0 0 0 220.35560082923621 -41.405653110577987 0 -41.405653110577987 -19.262753652440551 0 0 0 0 194.34667317926142 -36.993404838850324 0 -36.993404838850324 0.57828008810884057 0 0 0 0 249.01087464332522 -66.245011927813948 0 -66.245011927813948 13.571856767498048 0 0 0 0 247.80746971635381 -77.238172712591449 0 -77.238172712591449 111.35419604827709 0 0 0 0 350.96303710296343 -22.008045490705172 0 -22.008045490705172 -44.032971643896417 0 0 0 0 78.811034956917865 16.393701515207681 0 16.393701515207681 -2.5963223502558321 0 0 0 0 23.204564113839297 40.19507136052016 0 40.19507136052016 40.094771483495151 0 0 0 0 1.2083679086811401 31.095334447689481 0 31.095334447689481 2.1237836673879595 0 0 0 0 2.0034969107794893 -0.66025154185635415 0 -0.66025154185635415 0.40829646336077019 0 0 0 0 149.14330484895618 27.669172419650067 0 27.669172419650067 3.8255332589956197 0 0 0 0 29.47725747297514 -21.324396149416799 0 -21.324396149416799 -1.9392061662395665 0 0 0 0 112.56811329664197 11.71775663821785 0 11.71775663821785 12.79907638345594 0 0 0 0 95.756226049939869 12.152231088037922 0 12.152231088037922 13.037778372592072 0 0 0 0 150.96770697260217 96.877887375739647 0 96.877887375739647 4.3251702688932028 0 0 0 0 52.39745472683353 42.987505444867566 0 42.987505444867566 -9.6053780060781637 0 0 0 0 88.078576251995401 5.1177170277824189 0 5.1177170277824189 9.249859034497149 0 0 0 0 95.258196013222914 -0.080688533796006823 0 -0.080688533796006823 12.626801886921802 0 0 0 0 116.31853304501419 20.787381353955254 0 20.787381353955254 4.584331825616232 0 0 0 0 78.796023217233596 2.2152634271938041 0 2.2152634271938041 20.692000410539094 0 0 0 0 94.375152555832756 -10.637402029562509 0 -10.637402029562509 -31.48041311003135 0 0 0 0 89.554048354124689 -6.1710804181107761 0 -6.1710804181107761 -6.502619806315117 0 0 0 0 95.809098852547322 -17.174637911947812 0 -17.174637911947812 -21.980425287305934 0 0 0 0 99.421651350450702 8.4948036873715012 0 8.4948036873715012 44.169921921458567 0 0 0 0 211.91580726500251 -24.109782702362281 0 -24.109782702362281 -32.934367053033384 0 0 0 0 77.018343673779697 21.990415918179878 0 21.990415918179878 -21.862902973734439 0 0 0 0 210.79627330864605 -21.030358781424638 0 -21.030358781424638 -29.064065607851717 0 0 0 0 185.43563722848194 -23.6355392290277 0 -23.6355392290277 -25.8573073939815 0 0 0 0 168.00160080235275 -38.595266060516657 0 -38.595266060516657 1.900901399514868 0 0 0 0 116.94183726846313 -129.12549812958343 0 -129.12549812958343 -32.401813846936648 0 0 0 0 163.94093629033887 -96.721498338290985 0 -96.721498338290985 -16.547902302933153 0 0 0 0 25.052621769184526 -11.324390716840242 0 -11.324390716840242 -3.8400568868929903 0 0 0 0 71.375660793635689 -28.485930578940767 0 -28.485930578940767 -14.671647959100525 0 0 0 0 68.907003878455725 -68.002120299061843 0 -68.002120299061843 -36.18335876854907 0 0 0 0 -5.3222731093013067 -0.52477256419314244 0 -0.52477256419314244 0.30481308417524877 0 0 0 0 59.383505431949743 -34.395915854643675 0 -34.395915854643675 19.759511160751678 0 0 0 0 129.52308813284617 -39.328675640122299 0 -39.328675640122299 18.098045840746408 0 0 0 0 81.687007349421037 -11.987033510734896 0 -11.987033510734896 21.681843179678125 0 0 0 0 79.91974269439612 -10.639545507476043 0 -10.639545507476043 -2.960717823241461 0 0 0 0 110.35663042844681 43.54603599577554 0 43.54603599577554 0.82513995857337363 0 0 0 0 67.015081869802088 38.143758919365496 0 38.143758919365496 21.707826715379205 0 0 0 0 -23.092968852335616 88.937432754802657 0 88.937432754802657 -13.075660506170067 0 0 0 0 68.34601633627608 15.103956750585972 0 15.103956750585972 -2.1461248446840742 0 0 0 0 0.38622475234296871 26.438637561750724 0 26.438637561750724 -34.854462539735287 0 0 0 0 20.166019110867637 -12.224685895642622 0 -12.224685895642622 -13.316473620798398 0 0 0 0 0.59302822241170361 0.42018355111233063 0 0.42018355111233063 0.29089768688167117 0 0 0 0 271.03129048120172 -66.709751623598919 0 -66.709751623598919 -4.6724656189819953 0 0 0 0 110.27997996631893 -8.2951858117744308 0 -8.2951858117744308 -5.4461367478804945 0 0 0 0 1.6686310838450709 1.3068536733143787 0 1.3068536733143787 0.58633269007172706 0 0 0 0 123.99412033629778 -38.86092373886585 0 -38.86092373886585 9.221980821279935 0 0 0 0 27.74064709963568 -13.224461742008451 0 -13.224461742008451 -8.7519125787935295 0 0 0 0 14.313382460168214 -38.757533578581793 0 -38.757533578581793 57.81265219089579 0 0 0 0 12.585412918495422 -26.818161759266463 0 -26.818161759266463 -9.9439805102573189 0 0 0 0 111.37612469462329 5.2978134129464252 0 5.2978134129464252 25.301159418328552 0 0 0 0 105.34775276108758 -10.098266823637573 0 -10.098266823637573 -6.5841051779803648 0 0 0 0 116.92522102157818 4.0379967146570834 0 4.0379967146570834 19.055006187531035 0 0 0 0 121.54777461054618 -5.0357479968482721 0 -5.0357479968482721 15.739946310794494 0 0 0 0 109.56148738736437 -15.001288856972977 0 -15.001288856972977 -6.2842412452987855 0 0 0 0 80.603705072127923 -34.214366504465019 0 -34.214366504465019 -13.424318907673513 0 0 0 0 183.85089676742791 6.4087041132795264 0 6.4087041132795264 -50.011955264715326 0 0 0 0 24.323971320826331 2.9277352509476202 0 2.9277352509476202 1.9635168856578347 0 0 0 0 41.632142879749097 -17.160246927451311 0 -17.160246927451311 -0.69299702345864134 0 0 0 0 101.50134326329135 10.101044526881878 0 10.101044526881878 -5.7811393062697789 0 0 0 0 72.925132420724083 -11.811351489641524 0 -11.811351489641524 -2.8746769440704161 0 0 0 0 128.63125400641002 -30.119797415944543 0 -30.119797415944543 -31.657822764463102 0 0 0 0 110.26046461318037 23.584869209744056 0 23.584869209744056 42.407011306960307 0 0 0 0 119.10951157586533 -37.17083264484927 0 -37.17083264484927 20.219884694682179 0 0 0 0 35.049826617716462 -14.459815489130271 0 -14.459815489130271 -5.282929672087171 0 0 0 0 64.010876891785301 21.430946783480923 0 21.430946783480923 -6.72555768955693 0 0 0 0 112.12603075104926 43.624568359697143 0 43.624568359697143 14.211293108978005 0 0 0 0 249.73132788628573 57.402029120624746 0 57.402029120624746 -22.727742316442701 0 0 0 0 75.901648153972928 29.84028529899313 0 29.84028529899313 14.653053884948136 0 0 0 0 -0.69443778325768335 -1.6407815110248976 0 -1.6407815110248976 0.92707061247441747 0 0 0 0 149.65124781159102 74.514696033003858 0 74.514696033003858 47.413963753869737 0 0 0 0 177.54367553515476 -59.15360049492827 0 -59.15360049492827 -127.82704035737706 0 0 0 0 154.12961777005694 14.171916132125505 0 14.171916132125505 32.339068435303417 0 0 0 0 147.14752015965496 3.6511628241611387 0 3.6511628241611387 18.635614910975125 0 0 0 0 200.66074972529896 -12.340484699998004 0 -12.340484699998004 38.949597912397905 0 0 0 0 1.0003554204749321 -0.57717507211782504 0 -0.57717507211782504 -0.0011586657215105767 0 0 0 0 366.64733855397208 86.116512546131645 0 86.116512546131645 7.0392036799188897 0 0 0 0 -14.76951284937968 -37.97023022554248 0 -37.97023022554248 8.4083559353738053 0 0 0 0 101.58340956435131 -39.903977710806366 0 -39.903977710806366 6.6223088990368844 0 0 0 0 163.81229029463429 -3.7682892498325056 0 -3.7682892498325056 -3.7778360751024556 0 0 0 0 92.116315435734577 6.9427990391834458 0 6.9427990391834458 -4.2791301657187191 0 0 0 0 99.761074740992626 -1.1315205378762183 0 -1.1315205378762183 -11.963312954743177 0 0 0 0 96.321637172804913 -6.2627069149936112 0 -6.2627069149936112 0.35622535000049993 0 0 0 0 88.17850595589357 -1.7894381164230611 0 -1.7894381164230611 11.207607830157883 0 0 0 0 88.599561381073727 -1.1725956836589189 0 -1.1725956836589189 -0.0056124167295463099 0 0 0 0 114.30881070224132 -2.3081026613088365 0 -2.3081026613088365 0.009575159376773449 0 0 0 0 103.40431952774088 -14.464694674544905 0 -14.464694674544905 2.222802835177657 0 0 0 0 137.96143205402768 -23.757204810709403 0 -23.757204810709403 4.1834965349748439 0 0 0 0 151.83805873832898 -4.2375102178827273 0 -4.2375102178827273 0.0012675720732419973 0 0 0 0 2.8278861559233519 2.3218239667833132 0 2.3218239667833132 1.3788418975700596 0 0 0 0 2.2567101403888898 -0.63577535493618598 0 -0.63577535493618598 -0.65680194397747615 0 0 0 0 6.4241048678231891 4.0326618323365011 0 4.0326618323365011 -3.5961565554964636 0 0 0 0 11.836460760539921 -0.61996152503537871 0 -0.61996152503537871 -4.198748415673208 0 0 0 0 5.484079555128119 -4.9248934553103396 0 -4.9248934553103396 1.9752010789969745 0 0 0 0 2.1823470310143875 1.9170560019534832 0 1.9170560019534832 1.0621479492352495 0 0 0 0 1.6130911888903938 11.668692390234639 0 11.668692390234639 -13.103433066149201 0 0 0 0 71.532030516100349 -23.274006644669768 0 -23.274006644669768 6.3830362832708971 0 0 0 0 55.397403312876122 -8.7478745575968482 0 -8.7478745575968482 1.9105726270064665 0 0 0 0 99.674493276048452 -7.0350420495640051 0 -7.0350420495640051 -4.067464106806078 0 0 0 0 70.925598697576788 -7.1581881204605766 0 -7.1581881204605766 -3.0223147985252536 0 0 0 0 72.017726504418533 -15.153646920016438 0 -15.153646920016438 -1.0060624213242431 0 0 0 0 71.391794736915472 -8.2365310134360907 0 -8.2365310134360907 -2.1005178759498331 0 0 0 0 38.413567708048504 -9.0172983634824728 0 -9.0172983634824728 5.496409589787965 0 0 0 0 71.653624410915654 -9.7214994898859146 0 -9.7214994898859146 5.6250072802854723 0 0 0 0 88.192861337167415 -1.2995563866846787 0 -1.2995563866846787 -4.7413857321656199 0 0 0 0 49.184088663067087 0.4020529966657323 0 0.4020529966657323 0.0085420074607984141 0 0 0 0 45.618075562262675 -5.078079348777325 0 -5.078079348777325 5.3933095730317548 0 0 0 0 0.61496377378477973 0.22091867832162393 0 0.22091867832162393 0.10566011023744117 0 0 0 0 31.712168846024724 5.520379803253908 0 5.520379803253908 0.39343441675968105 0 0 0 0 150.53053019210347 -5.2109688705890846 0 -5.2109688705890846 3.627172195238467 0 0 0 0 142.77046125846391 18.520036285714511 0 18.520036285714511 5.2607230661183451 0 0 0 0 1.6391174544363594 0.76610529359504653 0 0.76610529359504653 0.23454587687552456 0 0 0 0 3.5686313030601013 1.4796514996645762 0 1.4796514996645762 0.0014751149490254455 0 0 0 0 3.3799839308048831 0.1486837485349321 0 0.1486837485349321 -0.22392214299473917 0 0 0 0 1.9202338580798823 1.4089976958356678 0 1.4089976958356678 -0.0010579080580147403 0 0 0 0 0.77383138231300563 0.26789667128107908 0 0.26789667128107908 0.080056336743174208 0 0 0 0 428.46685828262707 -47.726145887340643 0 -47.726145887340643 -13.054171894400845 0 0 0 0 255.3566348371387 23.377030044634914 0 23.377030044634914 -15.798068052079671 0 0 0 0 314.82900969281036 60.457622526112473 0 60.457622526112473 0.097747435469539429 0 0 0 0 307.40510741035541 43.553573771759758 0 43.553573771759758 -17.134114493708722 0 0 0 0 187.72662513706018 -24.650588872485315 0 -24.650588872485315 -15.154212783158023 0 0 0 0 311.00504067171278 38.364617045962305 0 38.364617045962305 -23.273319585370302 0 0 0 0 0.88561557996185059 0.47234023901842193 0 0.47234023901842193 -0.26925635506008117 0 0 0 0 183.22528321450227 34.338104763569497 0 34.338104763569497 10.637942997231306 0 0 0 0 244.79106817697175 51.066040500674816 0 51.066040500674816 -0.075962591118033468 0 0 0 0 252.53592998387467 9.6693233306263622 0 9.6693233306263622 -20.605746265029836 0 0 0 0 488.68779041840025 -81.970516658287849 0 -81.970516658287849 -19.268693497101189 0 0 0 0 264.0887537332892 -61.179298156827464 0 -61.179298156827464 40.496774840018396 0 0 0 0 448.98503830303162 -61.813942768081219 0 -61.813942768081219 -89.596141441928808 0 0 0 0 326.27668929442007 -10.478644770804578 0 -10.478644770804578 5.1074732142867276 0 0 0 0 1.3407811837422798 1.3125644195573329 0 1.3125644195573329 0.18931725892470175 0 0 0 0 355.16167445559404 2.8725585260798994 0 2.8725585260798994 -20.301378685903842 0 0 0 0 399.74623294119374 -103.17649714365757 0 -103.17649714365757 -110.10856676797135 0 0 0 0 341.90399544347019 -188.73452789784216 0 -188.73452789784216 16.698498685483742 0 0 0 0 287.7916019045515 79.944417674399347 0 79.944417674399347 -2.7170843521644485 0 0 0 0 169.67971190715616 32.130520622302797 0 32.130520622302797 -8.2503905799035522 0 0 0 0 327.33130658441223 -8.7487714879717373 0 -8.7487714879717373 -20.532099765711994 0 0 0 0 452.35964793083258 -54.556487691338219 0 -54.556487691338219 12.536404307197074 0 0 0 0 410.70477144455072 144.33224127250531 0 144.33224127250531 21.076326874874781 0 0 0 0 1.4396218066571578 -0.96732800630616111 0 -0.96732800630616111 -0.24557036763417162 0 0 0 0 257.73122276444337 53.539351321404752 0 53.539351321404752 6.1406303083645355 0 0 0 0 0.86299359435074052 -0.38159565543247709 0 -0.38159565543247709 -0.0049500240423636654 0 0 0 0 -0.28679932057275437 17.383966142601665 0 17.383966142601665 113.45194071656573 0 0 0 0 7.2324131355562713 5.6846236480858181 0 5.6846236480858181 6.817964040743135 0 0 0 0 -10.770473437125474 -92.50079271071489 0 -92.50079271071489 154.67892378903443 0 0 0 0 -9.6659516739309765 -85.197751721374033 0 -85.197751721374033 -4.1609124288531358 0 0 0 0 296.68668287243054 -41.803260883008946 0 -41.803260883008946 -30.04244382199353 0 0 0 0 285.86908155685524 -12.581127260380335 0 -12.581127260380335 443.62220675960793 0 0 0 0 527.1070798063738 73.716552907258631 0 73.716552907258631 55.884794646775845 0 0 0 0 584.33973556134879 162.21638095562133 0 162.21638095562133 148.54292023214168 0 0 0 0 722.39406586770201 23.745335172135441 0 23.745335172135441 8.7906182119230607 0 0 0 0 304.58438659716194 204.44488513086662 0 204.44488513086662 599.28404063716891 0 0 0 0 1.0117761362238156 0.65665074985989236 0 0.65665074985989236 0.50829178141707687 0 0 0 0 640.80720237501373 -207.30466276664555 0 -207.30466276664555 -67.601439633662721 0 0 0 0 300.14048819846357 -326.82490781204763 0 -326.82490781204763 275.2545059547856 0 0 0 0 17.000490499776788 57.299854575669997 0 57.299854575669997 633.33515797260543 0 0 0 0 6.350074066020909 2.2075539135704503 0 2.2075539135704503 -1.0300578973384598 0 0 0 0 1.2284974068595034 -1.3927134944692483 0 -1.3927134944692483 -2.6120205593702712 0 0 0 0 502.64101697548176 511.96443569835128 0 511.96443569835128 562.96148915465574 0 0 0 0 1232.185150393896 263.01332349225299 0 263.01332349225299 88.283255182158427 0 0 0 0 603.76411907409783 105.20762122447334 0 105.20762122447334 50.083784711468354 0 0 0 0 633.65517670474946 364.82672387739876 0 364.82672387739876 194.10218477209094 0 0 0 0 193.0177926060278 217.15906673317977 0 217.15906673317977 228.8485281582648 0 0 0 0 45.227650484986953 62.723506332846938 0 62.723506332846938 213.53520181853196 0 0 0 0 83.643094983592164 254.0277944217998 0 254.0277944217998 411.32856376196617 0 0 0 0 867.86159849389514 -174.74435068517451 0 -174.74435068517451 133.00083818569556 0 0 0 0 508.73530584384571 -126.64870220210329 0 -126.64870220210329 141.1560823398199 0 0 0 0 544.82260014133499 -152.94863013884557 0 -152.94863013884557 46.885528356701883 0 0 0 0 391.0518248664448 80.540378219110721 0 80.540378219110721 -44.539386461853042 0 0 0 0 724.49370683048619 107.40097839869372 0 107.40097839869372 13.330821208456996 0 0 0 0 263.31923972326331 113.92526624730607 0 113.92526624730607 0.60596054886343609 0 0 0 0 253.2425878308859 176.10364203817372 0 176.10364203817372 106.85947263075732 0 0 0 0 458.74957835237728 218.70802206181929 0 218.70802206181929 42.815690475289159 0 0 0 0 444.52706601590035 30.030099401708299 0 30.030099401708299 -2.1074836293606154 0 0 0 0 185.35488346833154 148.50582222287267 0 148.50582222287267 -7.0191669015406433 0 0 0 0 349.54157662924263 48.139624882396333 0 48.139624882396333 -65.56552633093338 0 0 0 0 418.71324626292153 -105.54419359091119 0 -105.54419359091119 -29.192969551430224 0 0 0 0 221.44245488640445 -132.82248066714118 0 -132.82248066714118 -28.643034779976119 0 0 0 0 234.36150486909901 -46.062297735432765 0 -46.062297735432765 -47.229494421566869 0 0 0 0 126.18709967461473 -126.38182270900529 0 -126.38182270900529 77.999631324555594 0 0 0 0 126.17829324901686 -130.9978222364316 0 -130.9978222364316 25.922812408785035 0 0 0 0 60.557363105195691 -121.26466911277754 0 -121.26466911277754 86.85112839923363 0 0 0 0 81.272811670525698 -231.3490244688434 0 -231.3490244688434 97.262007107656757 0 0 0 0 290.23579373193206 -115.93717970953061 0 -115.93717970953061 42.086758225144607 0 0 0 0 302.67645158994128 -168.49406259629029 0 -168.49406259629029 33.792082984402391 0 0 0 0 43.635667653848913 50.362130669461209 0 50.362130669461209 3.4345572738046237 0 0 0 0 -126.17713585010642 40.275581464162826 0 40.275581464162826 198.81713518476511 0 0 0 0 325.94722535114852 64.837643083818989 0 64.837643083818989 -80.62975032779525 0 0 0 0 1.7079435933549121 2.8021063058058928 0 2.8021063058058928 1.8116709861872407 0 0 0 0 312.00629288252094 45.455519914986553 0 45.455519914986553 96.21765793476311 0 0 0 0 298.09945579073974 82.160141809125093 0 82.160141809125093 7.1833645666797565 0 0 0 0 11.91418809202878 -54.567766460716584 0 -54.567766460716584 70.769304879719812 0 0 0 0 -39.052776142518269 95.343315289834266 0 95.343315289834266 22.377957346916673 0 0 0 0 149.39063285323209 95.147195697262305 0 95.147195697262305 -44.166559547138831 0 0 0 0 130.80553758269525 162.87495653568004 0 162.87495653568004 97.114214051054034 0 0 0 0 104.57987503111508 106.37669249402869 0 106.37669249402869 9.2141029690166079 0 0 0 0 91.482702354434878 87.697874797266081 0 87.697874797266081 109.46099935559985 0 0 0 0 -8.6931298926647287 97.298837098703927 0 97.298837098703927 -34.933757941690203 0 0 0 0 -87.662740867410321 161.2524226497099 0 161.2524226497099 27.704731731212064 0 0 0 0 4.2190288221754599 54.604362281158899 0 54.604362281158899 85.635735633272304 0 0 0 0 -19.21830075015896 6.7914889452767966 0 6.7914889452767966 47.596208164780137 0 0 0 0 2.6828659883176442 33.193813953326412 0 33.193813953326412 74.449314108435601 0 0 0 0 34.205624303285731 -2.9283192082530149 0 -2.9283192082530149 107.58965620964898 0 0 0 0 59.279080751002766 105.93570145972541 0 105.93570145972541 116.84958780912427 0 0 0 0 7.9764582659699954 84.785890336196189 0 84.785890336196189 209.64069730253732 0 0 0 0 115.57479330624483 -1.3469451744809078 0 -1.3469451744809078 -52.845812039317821 0 0 0 0 11.363714915907963 -0.67699804067189007 0 -0.67699804067189007 -2.9936578271538821 0 0 0 0 4.1496588658325777 6.0415741462005954 0 6.0415741462005954 0.89734543252545906 0 0 0 0 49.990639563067816 -78.098636643188229 0 -78.098636643188229 68.157589778657439 0 0 0 0 11.823960068984888 13.36953766602511 0 13.36953766602511 -33.35003192552211 0 0 0 0 20.495343483422801 5.2688772773448278 0 5.2688772773448278 0.65089447701935255 0 0 0 0 1.6866243613476399 19.352824536818787 0 19.352824536818787 -29.424443972513473 0 0 0 0 -2.3873544300494132 17.202705097627657 0 17.202705097627657 -1.8314499857616111 0 0 0 0 11.111187140253605 32.991000235496472 0 32.991000235496472 -10.983398327953353 0 0 0 0 -77.986886068283638 65.034668549665696 0 65.034668549665696 17.164524564257817 0 0 0 0 44.379057915886705 43.115233287864896 0 43.115233287864896 -12.415256965597059 0 0 0 0 -2.4970097524783341 116.31287150222101 0 116.31287150222101 -21.273579446014537 0 0 0 0 151.20746245604823 66.832721925775559 0 66.832721925775559 -151.05558715634788 0 0 0 0 5.0084657171610161 53.943704416760056 0 53.943704416760056 -11.282187825894653 0 0 0 0 36.990953502380563 15.522926766969476 0 15.522926766969476 -20.110623334030276 0 0 0 0 31.02562801665789 13.117113757027528 0 13.117113757027528 -5.9176203192202017 0 0 0 0 27.065430201796858 13.687261567951666 0 13.687261567951666 -0.040548232779001991 0 0 0 0 46.43244546756614 15.805491713720244 0 15.805491713720244 -35.265337651579557 0 0 0 0 11.725415204040473 61.753148242212717 0 61.753148242212717 -38.967224348226836 0 0 0 0 20.835900812931868 -1.6634997616870102 0 -1.6634997616870102 -1.353585296493236 0 0 0 0 35.177278035713243 35.011751390444985 0 35.011751390444985 12.322670830147288 0 0 0 0 -5.2601159361729515 44.040124168567154 0 44.040124168567154 -2.8132782628692468 0 0 0 0 25.090814609458903 19.021101301304668 0 19.021101301304668 -12.183966647001171 0 0 0 0 159.31256296289212 -44.798758475886089 0 -44.798758475886089 -17.19489968947579 0 0 0 0 42.485145840037148 51.579685163022134 0 51.579685163022134 -57.779001644992604 0 0 0 0 58.50121683155885 -77.211916211929747 0 -77.211916211929747 19.22546476127701 0 0 0 0 114.26801819558023 -7.1672710668603585 0 -7.1672710668603585 -13.549786765797926 0 0 0 0 107.11498665339604 -11.872326806450861 0 -11.872326806450861 22.479002336344081 0 0 0 0 252.86188019183464 -81.229376661144983 0 -81.229376661144983 -15.720020302162837 0 0 0 0 262.69811918797996 -27.628560694389019 0 -27.628560694389019 1.7729818120631222 0 0 0 0 132.89461556970491 -19.584531519521967 0 -19.584531519521967 36.871252294430327 0 0 0 0 157.5648382329091 8.540003785792873 0 8.540003785792873 -0.025432166531145578 0 0 0 0 266.85933912851033 -47.765802923359871 0 -47.765802923359871 7.1344269953665336 0 0 0 0 294.45945517632936 3.653907551617718 0 3.653907551617718 0.16297461177131273 0 0 0 0 35.652153853799973 26.166941380461367 0 26.166941380461367 -19.343532645729042 0 0 0 0 123.2497042761097 17.179046540984171 0 17.179046540984171 8.9014651750271625 0 0 0 0 45.10944592973101 -6.0501557780816508 0 -6.0501557780816508 24.12506470911266 0 0 0 0 99.113221931969747 -20.713218388514065 0 -20.713218388514065 18.74247355405728 0 0 0 0 49.618899882319965 22.29242182369434 0 22.29242182369434 0.016402196221898202 0 0 0 0 -6.5454225630383007 -4.2893892928319985 0 -4.2893892928319985 14.76436667633692 0 0 0 0 -0.73368157651216848 0.74336718143479175 0 0.74336718143479175 0.021077197496755712 0 0 0 0 -36.355414150624711 31.942029316881342 0 31.942029316881342 0.011437032338474411 0 0 0 0 66.914232147071743 -21.599131746853971 0 -21.599131746853971 34.891174798433823 0 0 0 0 238.01146082533523 -66.393150616871466 0 -66.393150616871466 -16.619773830133052 0 0 0 0 138.11583225839422 35.669643539894544 0 35.669643539894544 0.096451592418605459 0 0 0 0 69.151614841946866 -4.2340198567623304 0 -4.2340198567623304 -5.8710325975014186 0 0 0 0 61.278816270350944 30.833325280623271 0 30.833325280623271 -17.360228137201602 0 0 0 0 53.671300881876959 22.814303108724594 0 22.814303108724594 -0.022945362074950879 0 0 0 0 65.094205646077171 29.563524742103926 0 29.563524742103926 -32.077897180345332 0 0 0 0 79.174920760736654 4.0585275712896021 0 4.0585275712896021 -10.30279204293644 0 0 0 0 116.03583814125159 54.318697341695142 0 54.318697341695142 -60.465697002818722 0 0 0 0 253.63322911268915 154.09474779142693 0 154.09474779142693 -239.71952702486124 0 0 0 0 80.270445299197377 8.0156737558355786 0 8.0156737558355786 -10.202275262809573 0 0 0 0 92.591523285300354 -22.036679826617274 0 -22.036679826617274 -115.98110426283165 0 0 0 0 168.78888082469348 -112.63005548468755 0 -112.63005548468755 -76.905481438059724 0 0 0 0 266.0381985745189 -426.27792241787142 0 -426.27792241787142 78.146930599697953 0 0 0 0 631.30722026780131 -25.932965667796907 0 -25.932965667796907 -126.30425187279354 0 0 0 0 -60.914174995967187 32.305351867949412 0 32.305351867949412 1.7722007775237216 0 0 0 0 87.930765230063116 41.868774886168012 0 41.868774886168012 -5.5509756708008808 0 0 0 0 38.127393964765361 39.22205908328533 0 39.22205908328533 -57.244089350106378 0 0 0 0 28.126080756715965 145.02729134841366 0 145.02729134841366 -101.69477423823787 0 0 0 0 136.82453435317439 -14.550849860168483 0 -14.550849860168483 -37.230227334866527 0 0 0 0 77.187730768469635 11.935289083216915 0 11.935289083216915 -12.186154038693523 0 0 0 0 12.250825726240151 -1.5059329926814087 0 -1.5059329926814087 0.69150370194156663 0 0 0 0 149.66125490388367 4.7179447026133152 0 4.7179447026133152 15.126937827697427 0 0 0 0 164.63709270398249 12.368131258833181 0 12.368131258833181 16.85494588627769 0 0 0 0 171.50744616394513 30.009255890270151 0 30.009255890270151 43.77150260090216 0 0 0 0 172.9161621612584 5.4073975829988861 0 5.4073975829988861 0.023507594141082604 0 0 0 0 182.30563042260474 11.132203289340659 0 11.132203289340659 3.5079036492688793 0 0 0 0 161.70169077350874 9.0920402292368756 0 9.0920402292368756 12.307282682742095 0 0 0 0 147.83233982190723 21.233228560893107 0 21.233228560893107 -2.7219234772595073 0 0 0 0 160.69900687620975 7.5992132578252054 0 7.5992132578252054 11.718770863128576 0 0 0 0 159.08634344273014 -7.1036876922932199 0 -7.1036876922932199 27.805404300066154 0 0 0 0 175.7666352855158 -2.6406345327632508 0 -2.6406345327632508 -11.213914997839238 0 0 0 0 20.92282912557863 -42.419342561744287 0 -42.419342561744287 23.654826733411014 0 0 0 0 23.697055493117659 4.4242574348186894 0 4.4242574348186894 25.336924472066777 0 0 0 0 138.76786747454753 -36.052171043938785 0 -36.052171043938785 5.3533615898711737 0 0 0 0 118.339772610605 6.9346487577400104 0 6.9346487577400104 21.324544626857463 0 0 0 0 143.21330305392621 10.741981346768711 0 10.741981346768711 21.784271156731123 0 0 0 0 150.05221176554915 -1.1520876656757606 0 -1.1520876656757606 28.428314053458799 0 0 0 0 168.57947504901676 -18.522785791923194 0 -18.522785791923194 0.0079389305200525014 0 0 0 0 199.78387089289026 -38.935180899247712 0 -38.935180899247712 3.5929036059534987 0 0 0 0 12.584816320310097 -13.091945140979675 0 -13.091945140979675 -0.11976831551372552 0 0 0 0 56.915222982439445 10.615489570402307 0 10.615489570402307 -21.236730670150365 0 0 0 0 83.023622280539712 9.999239045276715 0 9.999239045276715 41.192296484310738 0 0 0 0 19.323838780508552 -1.2771301320004795 0 -1.2771301320004795 -1.4633856096020024 0 0 0 0 87.699137532086752 -53.878127422668058 0 -53.878127422668058 -24.638729278573919 0 0 0 0 111.75781442204607 -47.132265462007126 0 -47.132265462007126 -103.56591972100341 0 0 0 0 16.476035763516848 -75.654279916036785 0 -75.654279916036785 28.321420240557927 0 0 0 0 58.931483698659576 -173.36341188160623 0 -173.36341188160623 37.11764046873941 0 0 0 0 -32.582448715169448 -87.645778113067536 0 -87.645778113067536 42.905802783173385 0 0 0 0 -116.34439385187579 -177.9818004359272 0 -177.9818004359272 37.085706812771605 0 0 0 0 -58.128236052783905 -37.456737994190917 0 -37.456737994190917 67.861215819783865 0 0 0 0 -102.29704019901692 -65.668634083927827 0 -65.668634083927827 68.771998755477398 0 0 0 0 19.874669757797179 -39.914115599795593 0 -39.914115599795593 18.890608489581037 0 0 0 0 25.12112183845602 -147.82136270504833 0 -147.82136270504833 199.30522630291298 0 0 0 0 -13.396702716258005 -52.877209556842899 0 -52.877209556842899 36.82704525401914 0 0 0 0 269.52492966876889 -44.097872402652186 0 -44.097872402652186 -47.343672924268624 0 0 0 0 236.76487377821468 34.645983788107714 0 34.645983788107714 -96.866988246953781 0 0 0 0 132.91292585915653 84.696592348273384 0 84.696592348273384 -49.822194833881333 0 0 0 0 147.51533902385563 14.645513736074115 0 14.645513736074115 -16.670066179551348 0 0 0 0 121.55059912538854 -27.056451631018401 0 -27.056451631018401 28.400355040323699 0 0 0 0 189.57183587405598 -90.514734391112995 0 -90.514734391112995 85.849304232650951 0 0 0 0 35.758441264741123 -27.791412437727665 0 -27.791412437727665 90.911997689852853 0 0 0 0 100.30289392260602 -48.60510719943445 0 -48.60510719943445 97.368793632243253 0 0 0 0 166.44016559726151 48.956351184740868 0 48.956351184740868 -46.662528175202624 0 0 0 0 10.196937398552279 1.1390213312843969 0 1.1390213312843969 -0.74633233092593732 0 0 0 0 91.009762000758201 24.494048219063252 0 24.494048219063252 73.374882547792566 0 0 0 0 51.130323019911884 13.015041948287761 0 13.015041948287761 79.905125729141716 0 0 0 0 29.02083474592655 48.287316899391811 0 48.287316899391811 64.638096454946606 0 0 0 0 67.498159886483336 49.786595539166036 0 49.786595539166036 75.248665032175012 0 0 0 0 155.59451755631017 61.835987509448131 0 61.835987509448131 71.884127162544559 0 0 0 0 128.03844108461635 -6.3822397923604264 0 -6.3822397923604264 84.763072350026192 0 0 0 0 109.03183556000295 21.904632375800155 0 21.904632375800155 44.342745995745254 0 0 0 0 -5.699843140872872 -103.51039953575795 0 -103.51039953575795 -101.71944127505935 0 0 0 0 28.934934530698229 -0.64270005578305245 0 -0.64270005578305245 -152.68955463108659 0 0 0 0 18.376124792077746 -8.8252924833155362 0 -8.8252924833155362 11.241732246788818 0 0 0 0 28.998959641913075 -6.4094534322273233 0 -6.4094534322273233 2.9092920067605847 0 0 0 0 1513.4394488108228 -840.98400275740914 0 -840.98400275740914 160.1739627490897 0 0 0 0 75.723833668860607 1.4045400241096218 0 1.4045400241096218 -30.544255335521051 0 0 0 0 2341.8360735115421 -497.12649360436262 0 -497.12649360436262 -871.63676000776843 0 0 0 0 27.894418379641138 -38.892066908092602 0 -38.892066908092602 -78.885485437094758 0 0 0 0 -9.9445012159867474 -58.12048752260344 0 -58.12048752260344 -61.175925931795064 0 0 0 0 229.02482442604378 -92.669087588870752 0 -92.669087588870752 -74.226043693856127 0 0 0 0 63.87922403759876 -17.204265651823423 0 -17.204265651823423 2.4373294953742364 0 0 0 0 2.9621047753898893 -27.20765973332675 0 -27.20765973332675 9.6087719730395236 0 0 0 0 56.551606776876724 -51.145130162119472 0 -51.145130162119472 -83.686565858281028 0 0 0 0 36.245576970846741 -77.259597460646205 0 -77.259597460646205 -60.734235072585761 0 0 0 0 116.12716738220479 22.729655331566164 0 22.729655331566164 44.198534678379474 0 0 0 0 -0.81490710165084579 1.7906016266271365 0 1.7906016266271365 2.3646257280692549 0 0 0 0 -74.882937992399093 -153.48495550886946 0 -153.48495550886946 -40.791976369968324 0 0 0 0 -318.67400423658546 -30.5436732440794 0 -30.5436732440794 25.41366187294625 0 0 0 0 2.7911840240703896 -138.00889905275744 0 -138.00889905275744 -317.3524943063012 0 0 0 0 -77.530588371591193 112.66388367212811 0 112.66388367212811 199.3810729028728 0 0 0 0 -328.56530214301893 -212.92179036069774 0 -212.92179036069774 42.716502468601902 0 0 0 0 -6.1504185455595461 -12.179938022416913 0 -12.179938022416913 8.0606069445045083 0 0 0 0 121.10089492237603 126.73091666525806 0 126.73091666525806 96.076032893006641 0 0 0 0 40.768324428216147 101.2326488676556 0 101.2326488676556 89.422276793028914 0 0 0 0 52.644997211595182 90.161721844473021 0 90.161721844473021 -7.6531173491924847 0 0 0 0 33.688577619632269 32.924875111340484 0 32.924875111340484 -67.485562425737044 0 0 0 0 9.3254384668834973 22.244354334565742 0 22.244354334565742 1.4570963099238838 0 0 0 0 76.425323190167546 127.5108432952261 0 127.5108432952261 28.016108140720007 0 0 0 0 2.6795658844117725 -1.352295382734539 0 -1.352295382734539 -1.0676383901211932 0 0 0 0 49.283465910470113 128.20325328787249 0 128.20325328787249 43.887996381421544 0 0 0 0 164.53524973301683 60.706426011530766 0 60.706426011530766 -25.291955659271935 0 0 0 0 77.366425625863485 36.128613041896699 0 36.128613041896699 40.697856625926875 0 0 0 0 -0.5328369427005839 1.0317676497417381 0 1.0317676497417381 6.0659542263429991 0 0 0 0 162.02084878489404 71.486755407994508 0 71.486755407994508 -37.573888483698511 0 0 0 0 93.443449994039838 50.236142628268581 0 50.236142628268581 -34.54923385848295 0 0 0 0 89.482079301429621 55.958540558120262 0 55.958540558120262 -42.440879664276508 0 0 0 0 576.17634932178771 88.224147479019848 0 88.224147479019848 -26.871683235652199 0 0 0 0 252.26228766542044 206.78041857119933 0 206.78041857119933 182.98183693056171 0 0 0 0 160.6993567092577 45.897398164222068 0 45.897398164222068 -75.630030203300521 0 0 0 0 115.2396670775488 -35.810358856349922 0 -35.810358856349922 2.3513325577896467 0 0 0 0 114.76685732332407 76.871787015366408 0 76.871787015366408 -43.461156201157337 0 0 0 0 240.55902231190703 -8.3864976180805115 0 -8.3864976180805115 -51.77869674773865 0 0 0 0 131.42738609059597 -2.5210112473184836 0 -2.5210112473184836 -33.365918684865846 0 0 0 0 171.02588439802639 1.0558043843602718 0 1.0558043843602718 -25.399182076876968 0 0 0 0 290.83073385822354 50.210016519292367 0 50.210016519292367 -8.2204347311571837 0 0 0 0 222.45010411419207 -17.348605790114561 0 -17.348605790114561 -37.661806281670124 0 0 0 0 312.26601068576565 -40.974921340267429 0 -40.974921340267429 -33.323072062695246 0 0 0 0 79.257144382972911 -97.279220873024997 0 -97.279220873024997 -7.1796905744186006 0 0 0 0 29.309188562911004 15.798705346092817 0 15.798705346092817 -32.156885465738895 0 0 0 0 -133.37091250560479 -21.122190100615967 0 -21.122190100615967 -29.886086164350672 0 0 0 0 92.182581531822507 -188.76002960151931 0 -188.76002960151931 100.15416694336363 0 0 0 0 21.173079475556733 -23.390339856350238 0 -23.390339856350238 87.344099395342553 0 0 0 0 -20.100432638835628 44.244553586963093 0 44.244553586963093 118.88284727010796 0 0 0 0 21.847282308859121 -1.4597947531037505 0 -1.4597947531037505 0.10481606010857347 0 0 0 0 189.25598872246337 -59.313342604823447 0 -59.313342604823447 -104.20889180029235 0 0 0 0 225.42531961163331 -352.71825585816646 0 -352.71825585816646 296.91778024277352 0 0 0 0 206.09228193612216 235.42178237078383 0 235.42178237078383 309.13231756800178 0 0 0 0 7.6604199605847612 -0.39214451027855546 0 -0.39214451027855546 0.19273141143893247 0 0 0 0 -10.984001959281159 166.80139518545047 0 166.80139518545047 458.81344390033701 0 0 0 0 290.20016317967384 363.55681069527509 0 363.55681069527509 228.94230517716426 0 0 0 0 623.86387044629373 -102.07995634436918 0 -102.07995634436918 27.680389502708749 0 0 0 0 71.794944927823963 -331.160962604617 0 -331.160962604617 3.3037323683358863 0 0 0 0 -0.81860718053928849 -1.2734697781256727 0 -1.2734697781256727 2.6498985880186341 0 0 0 0 -30.912683369402657 -39.134746128720792 0 -39.134746128720792 24.641068790986424 0 0 0 0 129.37488226575078 72.68669619606618 0 72.68669619606618 -103.86065674641486 0 0 0 0 0.95467497392593259 -1.526896099461112 0 -1.526896099461112 2.6224887041105225 0 0 0 0 -13.252788008747302 -23.76494780500667 0 -23.76494780500667 19.498942874423847 0 0 0 0 21.62147443050344 -56.965891519680554 0 -56.965891519680554 -140.84681730194387 0 0 0 0 48.792119869416638 41.201016399189712 0 41.201016399189712 6.651281319819077 0 0 0 0 232.69995344072231 -18.66837966144135 0 -18.66837966144135 -4.8118950749570644 0 0 0 0 257.75791491806012 -72.184116086459994 0 -72.184116086459994 -5.1254298417497921 0 0 0 0 304.86057745851031 -144.63108765620561 0 -144.63108765620561 58.56426214494445 0 0 0 0 315.91774129023543 -12.108083138906977 0 -12.108083138906977 -0.061056935079704999 0 0 0 0 107.99984462834254 -113.75396119471796 0 -113.75396119471796 142.79250692740447 0 0 0 0 249.52546015844564 -45.068948922403365 0 -45.068948922403365 173.49007992729344 0 0 0 0 248.85568382157362 -150.31589519360307 0 -150.31589519360307 93.412484313768417 0 0 0 0 235.92809563352785 -91.004013585351117 0 -91.004013585351117 22.466280552250737 0 0 0 0 299.62292201124365 -21.530064586421759 0 -21.530064586421759 43.649536140637565 0 0 0 0 299.46334836943424 -3.6085993478541241 0 -3.6085993478541241 -23.891245976286427 0 0 0 0 427.02253988676239 18.309485320364274 0 18.309485320364274 -24.368588037663784 0 0 0 0 474.18997487875458 46.100244856706922 0 46.100244856706922 29.025093924909015 0 0 0 0 629.68153193657054 -53.613372994808742 0 -53.613372994808742 -50.102849292948576 0 0 0 0 343.69960802415153 -66.878405216428291 0 -66.878405216428291 -42.739840322181408 0 0 0 0 375.38357482158608 -176.78807548145323 0 -176.78807548145323 -17.807513251842465 0 0 0 0 353.27631278548688 55.858469262261508 0 55.858469262261508 -12.497723338396099 0 0 0 0 490.99445601104526 67.508627288802927 0 67.508627288802927 -12.544185875982294 0 0 0 0 233.30933388436097 -56.030066309203448 0 -56.030066309203448 -8.8696800234502007 0 0 0 0 134.23564432899002 3.8525175356844557 0 3.8525175356844557 -6.6461152144824496 0 0 0 0 235.25442208227469 -50.847558392417341 0 -50.847558392417341 4.9362334710990581 0 0 0 0 338.68221882960643 -60.356887192448085 0 -60.356887192448085 -24.486195914450946 0 0 0 0 368.51032116165152 -213.57077972171464 0 -213.57077972171464 15.994886054362723 0 0 0 0 113.82545127323829 -95.028625172613829 0 -95.028625172613829 37.908193435103385 0 0 0 0 -22.239651658223011 -47.956670777668478 0 -47.956670777668478 94.048477845357411 0 0 0 0 196.01299430039944 -113.6826046952574 0 -113.6826046952574 42.133420520827713 0 0 0 0 133.08426571980817 0.55720568591368647 0 0.55720568591368647 1.0060220112276284 0 0 0 0 106.01048785602688 -44.155038193051951 0 -44.155038193051951 -88.74595760358352 0 0 0 0 3.4194091689441848 -2.9406679197122969 0 -2.9406679197122969 2.8971182119409207 0 0 0 0 80.272666390002996 29.733328850247972 0 29.733328850247972 -29.073728507893065 0 0 0 0 -85.527691616211087 -81.974506242004281 0 -81.974506242004281 91.073310947249411 0 0 0 0 -148.26163193199318 -295.00973359783166 0 -295.00973359783166 -1.3306574642992928 0 0 0 0 41.445035190088674 -31.998111753837293 0 -31.998111753837293 161.7485459891177 0 0 0 0 43.71819570439402 -197.68015516209925 0 -197.68015516209925 84.129793373860593 0 0 0 0 68.547852620395133 -177.10370571581916 0 -177.10370571581916 32.600490393146174 0 0 0 0 436.83363726758398 -508.30186543774107 0 -508.30186543774107 172.40267193640466 0 0 0 0 453.94609091518214 -416.98123244893759 0 -416.98123244893759 376.8355955925872 0 0 0 0 3.1924794398845506 -1.5070451315030837 0 -1.5070451315030837 -0.91348881296871198 0 0 0 0 -0.2334339587017098 0.061332433192532676 0 0.061332433192532676 0.20540202385624973 0 0 0 0 342.53117487239069 380.83401542105548 0 380.83401542105548 83.379745580888994 0 0 0 0 294.3902692162228 68.677518743699579 0 68.677518743699579 146.23574244874544 0 0 0 0 445.59008894214639 17.684092396193591 0 17.684092396193591 40.436740327579173 0 0 0 0 899.18026774644386 200.71228054055609 0 200.71228054055609 85.27146358760001 0 0 0 0 435.9733708864369 36.360232190385432 0 36.360232190385432 383.96866168321321 0 0 0 0 560.00399889345863 -130.78454960233012 0 -130.78454960233012 -11.732641297912778 0 0 0 0 1007.1738812581752 -265.63899573590425 0 -265.63899573590425 -17.181545979005023 0 0 0 0 713.54219002387254 -75.379820636821023 0 -75.379820636821023 21.540851481138816 0 0 0 0 341.36348239934887 -61.674084002763266 0 -61.674084002763266 105.19922666521506 0 0 0 0 295.73534564551665 75.783749314007764 0 75.783749314007764 -63.848731620243598 0 0 0 0 344.52121213694045 72.029924686513368 0 72.029924686513368 -69.016351767088963 0 0 0 0 486.725373200592 90.876839413914695 0 90.876839413914695 -86.29065934350001 0 0 0 0 164.36330557861947 124.40799723450027 0 124.40799723450027 -62.351737921034328 0 0 0 0 329.80808541153601 114.38616295113252 0 114.38616295113252 -132.19842446569419 0 0 0 0 339.10342089180904 68.676531203417525 0 68.676531203417525 -61.430347560477458 0 0 0 0 337.74559320606329 160.01303557106112 0 160.01303557106112 27.276292793094399 0 0 0 0 13.948567406856455 45.848933315196518 0 45.848933315196518 -20.939087653196566 0 0 0 0 -121.64282736023597 -257.4471997407918 0 -257.4471997407918 -32.160681654287146 0 0 0 0 40.60720698555815 -218.78940210231349 0 -218.78940210231349 -178.9824953331422 0 0 0 0 3.8658334531901346 -4.5810424952949234 0 -4.5810424952949234 4.2396082845077832 0 0 0 0 -13.099818267408409 -9.433334659783668 0 -9.433334659783668 2.684529495571951 0 0 0 0 -0.80272412665362936 -4.8256145977609322 0 -4.8256145977609322 2.1512787728470357 0 0 0 0 0.081946245845756494 -2.5896578860342743 0 -2.5896578860342743 5.8162972767684096 0 0 0 0 1.0682531822307624 -2.0943681797607496 0 -2.0943681797607496 -1.2029745379034829 0 0 0 0 114.85348864097614 -23.189271277894932 0 -23.189271277894932 -29.918893846615902 0 0 0 0 5.1413706414459739 -27.882310280341699 0 -27.882310280341699 12.189491407429614 0 0 0 0 0.90479137464717496 -0.19414681799548816 0 -0.19414681799548816 1.4439789406210366 0 0 0 0 -26.081865219734027 18.497456397080555 0 18.497456397080555 0.10541320876745885 0 0 0 0 1.6099426157874177 -1.678691725927095 0 -1.678691725927095 -1.198384960314745 0 0 0 0 0.71836631381302141 7.8825162683529015 0 7.8825162683529015 -2.4993705802594377 0 0 0 0 5.3825846132476158 -1.333719636022785 0 -1.333719636022785 -1.6141636575085863 0 0 0 0 -2.3580518650280737 0.56572271164060339 0 0.56572271164060339 2.2794936055134212 0 0 0 0 180.16667820781004 -60.818782091761022 0 -60.818782091761022 13.46691048979892 0 0 0 0 -12.178894280572422 -28.086068524153234 0 -28.086068524153234 35.942480003126548 0 0 0 0 118.45808764713001 18.720113697906527 0 18.720113697906527 -6.0060268961415204 0 0 0 0 9.1676964356593089 -24.001564705948567 0 -24.001564705948567 7.1770338535097835 0 0 0 0 134.7671909754572 7.8876856513402345 0 7.8876856513402345 -10.414376742606692 0 0 0 0 -2.3089082487227301 -0.095773996391784522 0 -0.095773996391784522 2.1653580262073149 0 0 0 0 12.003195441764547 10.306327181521283 0 10.306327181521283 3.3162143151007513 0 0 0 0 1.3407697260117857 -0.31390640334063846 0 -0.31390640334063846 -3.6158739751117537 0 0 0 0 342.3941245029564 -101.24940261967731 0 -101.24940261967731 375.0969112216244 0 0 0 0 866.37883931829128 -60.056088405223818 0 -60.056088405223818 49.535619698930532 0 0 0 0 449.48684371067066 92.468753304183792 0 92.468753304183792 96.303014701583379 0 0 0 0 325.78832190624598 23.417698474289409 0 23.417698474289409 131.27697141269527 0 0 0 0 125.54903715959517 32.600801628213958 0 32.600801628213958 174.55962738810558 0 0 0 0 30.254662838124204 152.21756981377803 0 152.21756981377803 172.49165088427981 0 0 0 0 -0.22821836032096599 0.081515817027877802 0 0.081515817027877802 8.6924134791164871 0 0 0 0 -9.6989403705956647 -9.0220452880475932 0 -9.0220452880475932 186.62325465326649 0 0 0 0 174.26294805450016 47.267597725465748 0 47.267597725465748 17.954552725163012 0 0 0 0 288.22646853214246 -1.9992655375117465 0 -1.9992655375117465 -29.989912085384276 0 0 0 0 149.56698649915052 -19.796589597793172 0 -19.796589597793172 -28.071989495515425 0 0 0 0 205.62293242140004 38.151288576584193 0 38.151288576584193 -20.553128713309889 0 0 0 0 175.39425402577035 35.365849989783783 0 35.365849989783783 -16.240245829996638 0 0 0 0 140.85386960933101 31.328989161702168 0 31.328989161702168 -8.0347765905853521 0 0 0 0 637.44412813161034 147.74965029713894 0 147.74965029713894 -339.44075042619079 0 0 0 0 741.94922299706377 -397.4803745839672 0 -397.4803745839672 870.19238572186441 0 0 0 0 963.3745636685635 -187.34362693934872 0 -187.34362693934872 -320.93776901520812 0 0 0 0 2.6708896705670213 4.052046126266788 0 4.052046126266788 0.22684591386144959 0 0 0 0 899.28565277286179 -406.95631818660627 0 -406.95631818660627 -36.217917367790506 0 0 0 0 1.2376666009658948 22.365395208451446 0 22.365395208451446 42.823579321491707 0 0 0 0 665.11563633881087 -140.93775963610022 0 -140.93775963610022 135.39111028809748 0 0 0 0 595.74814160508686 -95.416754881781344 0 -95.416754881781344 263.44104209124998 0 0 0 0 0.11311537459123144 0.36500658687242549 0 0.36500658687242549 4.7362934919512512 0 0 0 0 616.47000887121976 -28.048147027122582 0 -28.048147027122582 93.744749413293903 0 0 0 0 431.21418505888869 605.9382979233676 0 605.9382979233676 388.48876254066272 0 0 0 0 125.69500051881187 -39.433635226036131 0 -39.433635226036131 73.447965145365743 0 0 0 0 163.59963884932222 33.205572439939033 0 33.205572439939033 86.519977005067631 0 0 0 0 117.30193296929065 -14.474737281138914 0 -14.474737281138914 220.44430825014751 0 0 0 0 297.66637399309548 -281.06149488799747 0 -281.06149488799747 217.83913382412101 0 0 0 0 174.52278836014375 -85.707143077190267 0 -85.707143077190267 -15.265946258765325 0 0 0 0 185.87888787218981 -125.44939607818173 0 -125.44939607818173 46.733179787803238 0 0 0 0 591.19902570095292 130.96608667913006 0 130.96608667913006 -16.851340431541757 0 0 0 0 38.965767485322431 -6.584483353934047 0 -6.584483353934047 -45.864668649006489 0 0 0 0 29.138557570433477 70.644144394886098 0 70.644144394886098 225.06043000271438 0 0 0 0 -8.4083248462047777 5.427920276727491 0 5.427920276727491 24.046251395930994 0 0 0 0 88.821617760972003 18.61872029190522 0 18.61872029190522 25.802853373750622 0 0 0 0 131.06751293429988 -72.219285237533768 0 -72.219285237533768 72.761128634786928 0 0 0 0 17.42861753818579 38.756536590139604 0 38.756536590139604 10.686587933498231 0 0 0 0 -17.646483672346221 -37.478384208013267 0 -37.478384208013267 1.058353369428005 0 0 0 0 2.3787818182383944 -4.4141722253300202 0 -4.4141722253300202 4.8955224510091995 0 0 0 0 -81.512203725851577 23.101697932517482 0 23.101697932517482 71.123346838558064 0 0 0 0 244.46010945524904 -33.806168672314925 0 -33.806168672314925 -27.720576004784107 0 0 0 0 -0.45445136347882453 -2.1741352621820624 0 -2.1741352621820624 3.5623396857360987 0 0 0 0 -145.2528102954966 -76.244835018334243 0 -76.244835018334243 187.81121524726041 0 0 0 0 128.95720403231098 -67.606659547147501 0 -67.606659547147501 -91.124087255000632 0 0 0 0 28.047834849593187 -2.1311206456732634 0 -2.1311206456732634 4.196607285235018 0 0 0 0 334.55008389163413 -36.433864206785984 0 -36.433864206785984 -88.384957273352484 0 0 0 0 -37.015560495608952 -104.56845406852335 0 -104.56845406852335 185.59179243292306 0 0 0 0 78.334294362095534 -48.219796483536811 0 -48.219796483536811 127.4427474713184 0 0 0 0 -109.02599578849913 -39.625720885984265 0 -39.625720885984265 160.12039245948836 0 0 0 0 13.085055721689173 -8.345262365742883 0 -8.345262365742883 3.7756810655998549 0 0 0 0 32.554908420328061 4.2574570203378528 0 4.2574570203378528 -2.3514453596455951 0 0 0 0 -102.99385065379101 89.299416356364191 0 89.299416356364191 0.94328527696052333 0 0 0 0 281.3157058347133 104.56398372840795 0 104.56398372840795 -180.02565701396452 0 0 0 0 -10.735008528456092 144.30409490625061 0 144.30409490625061 -19.903825650607814 0 0 0 0 278.71583387107239 -141.31338419732856 0 -141.31338419732856 8.0038647587089145 0 0 0 0 202.82183512083429 -174.73104051508381 0 -174.73104051508381 62.069758682187967 0 0 0 0 52.163610343734035 52.297486211309661 0 52.297486211309661 176.12371508625165 0 0 0 0 161.13616851260304 -138.97069853269568 0 -138.97069853269568 39.432709133147 0 0 0 0 28.045670737337787 142.03369713003849 0 142.03369713003849 -40.118947823908456 0 0 0 0 49.469756786157859 20.529720708654708 0 20.529720708654708 -4.7928361861893336 0 0 0 0 53.686869266748545 -20.19294694447035 0 -20.19294694447035 -18.216113177903026 0 0 0 0 27.164337876437799 31.534182224982459 0 31.534182224982459 5.7735807642379342 0 0 0 0 63.328988512337673 12.131446188707741 0 12.131446188707741 -2.0494568051581155 0 0 0 0 145.68361758682295 -13.497437431998605 0 -13.497437431998605 0.55441035553667461 0 0 0 0 31.902978941894219 28.889579914027848 0 28.889579914027848 3.7104043862224358 0 0 0 0 51.546973526479348 10.718275075219751 0 10.718275075219751 -0.40052244995906605 0 0 0 0 49.117210749442165 31.476190859680628 0 31.476190859680628 0.48577552379356348 0 0 0 0 60.973981500894297 2.4725806912902044 0 2.4725806912902044 -1.8269758543392527 0 0 0 0 352.36288457852788 -110.60275085669855 0 -110.60275085669855 84.463351860496914 0 0 0 0 518.49660401634173 27.804810034365801 0 27.804810034365801 5.043573907976679 0 0 0 0 4.8041406521331282 6.6451015944365679 0 6.6451015944365679 -2.3030672219981057 0 0 0 0 233.57869417460461 93.287638557962055 0 93.287638557962055 34.522442847606726 0 0 0 0 137.62957412190735 -51.2054719134685 0 -51.2054719134685 71.639775516676309 0 0 0 0 189.79851276811678 16.719194875986432 0 16.719194875986432 20.827302054716711 0 0 0 0 101.00435031720554 -39.255305330880219 0 -39.255305330880219 74.679201711624046 0 0 0 0 91.385517186106881 24.707621264977206 0 24.707621264977206 -1.5448942094226368 0 0 0 0 95.64355891854575 15.064797258894032 0 15.064797258894032 3.2437159365108528 0 0 0 0 62.516442921760557 29.623823715775146 0 29.623823715775146 6.2836003522878485 0 0 0 0 90.879472870059544 19.019184521789612 0 19.019184521789612 -3.9638322445098311 0 0 0 0 95.939594241783198 26.001340225824606 0 26.001340225824606 2.4200958553847158 0 0 0 0 72.867189403128577 22.926425930327241 0 22.926425930327241 4.3999957917585562 0 0 0 0 251.11252065887675 7.9891187184521186 0 7.9891187184521186 -39.841778750575031 0 0 0 0 8.1714622697250974 14.078754936367801 0 14.078754936367801 -2.0450809910729078 0 0 0 0 75.723811065705377 -66.290395605230515 0 -66.290395605230515 -55.838378686214128 0 0 0 0 255.48391310710576 9.7231123879937513 0 9.7231123879937513 -51.505527430053917 0 0 0 0 -195.27439709857572 25.895713932110084 0 25.895713932110084 217.97799475247029 0 0 0 0 -16.595109689224046 151.46717684959913 0 151.46717684959913 -12.959284639498946 0 0 0 0 -25.26147164865688 -147.95890672382666 0 -147.95890672382666 266.55257951567546 0 0 0 0 11.206207325914875 98.050599372498255 0 98.050599372498255 63.500160854882779 0 0 0 0 65.659783023700584 26.217108396651383 0 26.217108396651383 19.77389495094576 0 0 0 0 78.699204142292729 22.21297377191604 0 22.21297377191604 15.352334917448388 0 0 0 0 78.650725860192324 38.087709049079422 0 38.087709049079422 11.202607491424715 0 0 0 0 55.295961346824242 38.08638280183483 0 38.08638280183483 9.6118128208571392 0 0 0 0 20.483633563429635 10.081794530983501 0 10.081794530983501 0.60083803031193384 0 0 0 0 -129.38220615449973 49.359544590382939 0 49.359544590382939 54.376482445797592 0 0 0 0 91.008429574314505 70.65121956611074 0 70.65121956611074 -62.120190671632827 0 0 0 0 4.9044807152720864 2.5166833688239478 0 2.5166833688239478 -0.21872010277871823 0 0 0 0 346.45206777224666 352.59727686620863 0 352.59727686620863 -44.059430169678308 0 0 0 0 631.62553961088997 -210.88321222045306 0 -210.88321222045306 44.722212161594143 0 0 0 0 270.81722459525918 226.5218880659495 0 226.5218880659495 82.482733595547757 0 0 0 0 -146.3103924281022 292.40925119637177 0 292.40925119637177 74.529204281891452 0 0 0 0 102.36719889409142 2.7222318012923097 0 2.7222318012923097 -166.61670854803378 0 0 0 0 -31.409390485001495 186.55872833281137 0 186.55872833281137 -173.86958692336026 0 0 0 0 108.16286997422867 41.979408339626389 0 41.979408339626389 -122.93952061085474 0 0 0 0 87.634025660227053 -39.285997832701469 0 -39.285997832701469 27.230073167620503 0 0 0 0 130.69838864621124 -76.533657433220469 0 -76.533657433220469 80.775595497667382 0 0 0 0 156.12605094484752 -116.13279715969747 0 -116.13279715969747 93.30681116488995 0 0 0 0 145.76456947388942 -56.267362362896165 0 -56.267362362896165 -24.045379444149148 0 0 0 0 35.734269455148024 -26.011508728754052 0 -26.011508728754052 31.074827009208093 0 0 0 0 167.89600649387285 20.309675124388377 0 20.309675124388377 44.176260243026263 0 0 0 0 353.72493847986334 -110.74217424809194 0 -110.74217424809194 126.55228294822427 0 0 0 0 146.39961428154129 -81.262255950998679 0 -81.262255950998679 396.00477511243298 0 0 0 0 158.07343901728746 -52.071348350641529 0 -52.071348350641529 156.40997294478507 0 0 0 0 108.12079996913963 -98.174309201199321 0 -98.174309201199321 170.71845772800043 0 0 0 0 203.59523895804887 46.531898774583169 0 46.531898774583169 110.90245092757141 0 0 0 0 194.46139303538075 66.264214137384442 0 66.264214137384442 113.11425212284848 0 0 0 0 256.06359552839422 212.71196617819214 0 212.71196617819214 371.18771136995201 0 0 0 0 472.32740650797496 226.70475002325111 0 226.70475002325111 47.698246449103863 0 0 0 0 366.0741674418241 -191.23478736891764 0 -191.23478736891764 138.49576902397894 0 0 0 0 -26.832851045721327 47.814897890792054 0 47.814897890792054 413.36808567445132 0 0 0 0 23.400018043088494 -55.632176346029155 0 -55.632176346029155 127.34203594647079 0 0 0 0 256.10691873148608 -163.42966117224296 0 -163.42966117224296 121.5986181482931 0 0 0 0 4.6093291891095873 -2.7191751524390924 0 -2.7191751524390924 1.9474741578035371 0 0 0 0 304.87677170206734 302.95061218943755 0 302.95061218943755 183.37779443034924 0 0 0 0 1072.0931712137826 -104.29112731527312 0 -104.29112731527312 -51.229490750756668 0 0 0 0 1777.6563396203128 -1023.2279729986176 0 -1023.2279729986176 375.02896285911629 0 0 0 0 2830.1471452500118 -619.72340026622805 0 -619.72340026622805 75.601752114636383 0 0 0 0 1628.9118122329673 -1620.9803073738913 0 -1620.9803073738913 995.79900326778079 0 0 0 0 5.4063259397417482 -8.5083426953896151 0 -8.5083426953896151 13.149569313315624 0 0 0 0 -850.03581304453837 -946.37195343141457 0 -946.37195343141457 1064.7955093352066 0 0 0 0 1083.7725569028844 -10.746870753801886 0 -10.746870753801886 228.23882708884412 0 0 0 0 366.50700557789969 517.40761233425565 0 517.40761233425565 25.889587531568395 0 0 0 0 1022.7725745923963 -332.17017824172945 0 -332.17017824172945 -344.78404549384868 0 0 0 0 15.274154067035738 -6.4014240528997703 0 -6.4014240528997703 2.6119848431215686 0 0 0 0 2000.9320139352058 -231.90653164577361 0 -231.90653164577361 -558.36528759159773 0 0 0 0 574.93849239702104 -829.72599017270477 0 -829.72599017270477 -773.39603463738058 0 0 0 0 -291.92787966749165 -1340.7198022992943 0 -1340.7198022992943 257.89843803652957 0 0 0 0 1226.3813430229056 615.91071550980632 0 615.91071550980632 -181.07959890541133 0 0 0 0 16.607906280283373 -19.810626354881094 0 -19.810626354881094 19.833255735555632 0 0 0 0 1919.8761037216755 609.36051835981107 0 609.36051835981107 -782.78001774031873 0 0 0 0 1035.2197729862382 1062.8623033335107 0 1062.8623033335107 846.09993645115901 0 0 0 0 17.347779628777317 -16.199290778115767 0 -16.199290778115767 11.584551328032049 0 0 0 0 757.89495241676923 -73.207516257583848 0 -73.207516257583848 -263.0949972235594 0 0 0 0 958.20248028643255 215.2288513989115 0 215.2288513989115 84.747964779366157 0 0 0 0 95.674355509960151 -25.388816755077642 0 -25.388816755077642 -494.73766652469203 0 0 0 0 70.103100919528515 117.59844607750529 0 117.59844607750529 -6.182549215472136 0 0 0 0 202.75103803360253 -229.23185460378681 0 -229.23185460378681 -347.63870319111447 0 0 0 0 188.14442740931554 -47.195954071322831 0 -47.195954071322831 255.40734229795635 0 0 0 0 175.73499252584588 -99.44244267740487 0 -99.44244267740487 35.630101247108541 0 0 0 0 740.76548239646945 -442.6642934457941 0 -442.6642934457941 365.13898073795281 0 0 0 0 1028.2492353142734 -251.96652064647242 0 -251.96652064647242 75.504898017537926 0 0 0 0 219.66299360536505 -52.116981562703586 0 -52.116981562703586 155.76082094303456 0 0 0 0 904.64291285048239 -381.91977365014827 0 -381.91977365014827 -377.93129256146494 0 0 0 0 1335.7820082858088 -402.18451690122311 0 -402.18451690122311 -250.30984044821162 0 0 0 0 751.65364361826869 -435.16283995936283 0 -435.16283995936283 369.35412230327347 0 0 0 0 1288.2345658773265 -1019.7143527840526 0 -1019.7143527840526 245.78408544887134 0 0 0 0 14.858997388143962 4.9783263087669667 0 4.9783263087669667 -0.2474008959629046 0 0 0 0 2192.6860747198953 -1812.4098051083092 0 -1812.4098051083092 1071.6094893205695 0 0 0 0 1857.339844787035 -582.21252610037391 0 -582.21252610037391 568.35024307732601 0 0 0 0 1538.1917300139321 -896.71979369236033 0 -896.71979369236033 310.54014059645533 0 0 0 0 36.968798221796533 18.190955380576384 0 18.190955380576384 4.1925997571132285 0 0 0 0 -43.826525885844603 76.822606518944667 0 76.822606518944667 49.190423002324678 0 0 0 0 1406.9670683126024 -727.99839072306895 0 -727.99839072306895 637.8036794852942 0 0 0 0 1563.3566317011282 -1191.8087385542767 0 -1191.8087385542767 441.80796701048735 0 0 0 0 46.153831581017585 -57.467611594645859 0 -57.467611594645859 -109.1319885808042 0 0 0 0 -1.4608972628921038 177.32233716936571 0 177.32233716936571 -125.93574691136382 0 0 0 0 99.185703452298185 -21.32598999237598 0 -21.32598999237598 -60.143346627017308 0 0 0 0 60.597149678331334 -44.062508744716979 0 -44.062508744716979 10.373392812973179 0 0 0 0 48.499891722691245 99.941518025327241 0 99.941518025327241 -20.982306883568526 0 0 0 0 134.78818517467153 8.4894569767557186 0 8.4894569767557186 19.880929999984801 0 0 0 0 47.799784725611971 -4.2486111761863867 0 -4.2486111761863867 43.282234015296126 0 0 0 0 79.739991827838821 37.822030228637232 0 37.822030228637232 41.352853293839871 0 0 0 0 71.509599744458683 -5.1164042575437634 0 -5.1164042575437634 43.017747280274989 0 0 0 0 452.39313587527431 178.83588567311199 0 178.83588567311199 11.504381579476103 0 0 0 0 -81.114733931135561 212.60223838808201 0 212.60223838808201 18.420349583775533 0 0 0 0 -0.66358647105516866 40.332788741055992 0 40.332788741055992 177.50275294452149 0 0 0 0 0.16963195357129734 -4.9019242523462765 0 -4.9019242523462765 98.805721087534039 0 0 0 0 178.09544566361001 136.43082325065279 0 136.43082325065279 11.291736489756659 0 0 0 0 52.837143925330565 82.91328645950864 0 82.91328645950864 56.081458713419124 0 0 0 0 56.616743701873929 132.04760757451368 0 132.04760757451368 178.99735034607147 0 0 0 0 134.75818898509169 145.73896140096599 0 145.73896140096599 -186.11318620055317 0 0 0 0 55.668026257568272 76.705868099754298 0 76.705868099754298 39.879153115238296 0 0 0 0 78.259011808310646 56.853252410475491 0 56.853252410475491 7.9431482289504061 0 0 0 0 51.415012973011471 60.562514960027329 0 60.562514960027329 97.93975720760136 0 0 0 0 60.182220367190894 64.521997853282301 0 64.521997853282301 40.084287097562992 0 0 0 0 61.464917393721407 62.226221412340237 0 62.226221412340237 29.744654186988555 0 0 0 0 1243.2219227858586 -1154.9921264674904 0 -1154.9921264674904 720.1164694893705 0 0 0 0 1137.3582420398488 -947.16295390856749 0 -947.16295390856749 1315.0641667508025 0 0 0 0 1488.4852196323191 -232.90808668776299 0 -232.90808668776299 -46.084025878368266 0 0 0 0 1178.0583758485445 -1485.2490933076988 0 -1485.2490933076988 804.90021605758557 0 0 0 0 -4.6819548010221865 2.6070677761232446 0 2.6070677761232446 0.43375608132159016 0 0 0 0 125.68934943983913 -178.28332071515524 0 -178.28332071515524 58.318088614708358 0 0 0 0 562.0459605621727 -389.29614380357702 0 -389.29614380357702 115.29704457357002 0 0 0 0 521.13392533757724 -517.79138613665236 0 -517.79138613665236 608.50729192598828 0 0 0 0 806.9617604744999 -826.30658102905363 0 -826.30658102905363 1456.3808431576399 0 0 0 0 1303.505079943614 -1106.9419097718637 0 -1106.9419097718637 136.83732840409357 0 0 0 0 1151.9656406303693 -1234.6197123780112 0 -1234.6197123780112 724.30098624473317 0 0 0 0 784.9353525881379 -447.43538286562898 0 -447.43538286562898 322.00509356702969 0 0 0 0 242.36098756101273 -107.88360449176707 0 -107.88360449176707 565.32572710224667 0 0 0 0 788.0116034456305 -476.46517538985404 0 -476.46517538985404 258.89630468708128 0 0 0 0 -46.043060162686743 215.5851004435508 0 215.5851004435508 48.73970820177783 0 0 0 0 311.53598330686509 -5.3279018905832345 0 -5.3279018905832345 0.32428757352317916 0 0 0 0 -59.983923151055933 67.316550125066897 0 67.316550125066897 36.873263539185473 0 0 0 0 293.67404438088124 210.23240424738742 0 210.23240424738742 -294.43949834026398 0 0 0 0 28.082043295202254 6.2183750150782995 0 6.2183750150782995 -1.7365193394407661 0 0 0 0 -235.54386172597151 -52.535649313203521 0 -52.535649313203521 348.8035290806929 0 0 0 0 -89.156937018860845 250.05299626883232 0 250.05299626883232 44.596649106439145 0 0 0 0 73.576638415390221 60.521061105960882 0 60.521061105960882 7.3931551869914074 0 0 0 0 -107.31601005306584 96.491858663222956 0 96.491858663222956 72.859785715339967 0 0 0 0 134.48764750565169 154.10803393140122 0 154.10803393140122 63.558135854713328 0 0 0 0 153.93677275285154 210.54006202930259 0 210.54006202930259 -146.81196525545965 0 0 0 0 -153.04879777839233 -0.36579423693115132 0 -0.36579423693115132 62.642481167637015 0 0 0 0 89.986635529261548 56.971007353420646 0 56.971007353420646 -21.746297672942092 0 0 0 0 15.337261354930547 15.605122065027757 0 15.605122065027757 -5.542650215167285 0 0 0 0 86.967125945986481 34.068238140071117 0 34.068238140071117 -43.175658381922403 0 0 0 0 114.20331144030206 88.642131742944912 0 88.642131742944912 -11.167470687807509 0 0 0 0 111.45816477076733 60.763275755367431 0 60.763275755367431 -54.677451776908129 0 0 0 0 -95.220529284866643 122.45364667471449 0 122.45364667471449 -13.81318482433926 0 0 0 0 42.621351223630001 28.182364863628877 0 28.182364863628877 -3.7908526914369816 0 0 0 0 36.370679584011668 27.059366010798087 0 27.059366010798087 -6.5405047442922264 0 0 0 0 16.641817657401418 43.615833820506367 0 43.615833820506367 -6.2556603719399639 0 0 0 0 -67.87857060926035 2.0537479394424736 0 2.0537479394424736 -35.978768372891636 0 0 0 0 36.390155381697696 34.95208063877908 0 34.95208063877908 -19.571903217049112 0 0 0 0 50.366109039168805 75.358257240961393 0 75.358257240961393 -69.753182598797139 0 0 0 0 86.22324768351973 105.51935897055409 0 105.51935897055409 149.05786658352667 0 0 0 0 -2.8815761345239252 5.2835981508695005 0 5.2835981508695005 0.90426819232223776 0 0 0 0 -50.069267895305529 135.344710449579 0 135.344710449579 -59.986137710166076 0 0 0 0 -59.880081471026642 189.78022920790045 0 189.78022920790045 158.5146621994063 0 0 0 0 -74.593974498580792 15.691197933582771 0 15.691197933582771 111.20845535528497 0 0 0 0 24.873587538677384 28.252451871508583 0 28.252451871508583 -7.9186087006974049 0 0 0 0 -14.071975275001023 -10.566542763873258 0 -10.566542763873258 -22.766568328492212 0 0 0 0 -6.3620407254213944 16.806749466524337 0 16.806749466524337 -4.1770848293001777 0 0 0 0 37.585872320400085 46.280537106398242 0 46.280537106398242 8.9928926819524122 0 0 0 0 29.060292792855762 47.523555780031074 0 47.523555780031074 -9.5023160586524682 0 0 0 0 34.21614650594347 18.80179042942882 0 18.80179042942882 -5.1768992701117895 0 0 0 0 150.37896340043517 -68.501266299373583 0 -68.501266299373583 -199.14288447657964 0 0 0 0 116.78678823672817 -249.57529784114695 0 -249.57529784114695 230.84909096232877 0 0 0 0 29.962366181733898 16.458950864159078 0 16.458950864159078 -5.0316069313722682 0 0 0 0 515.32247696174818 -141.41662572053997 0 -141.41662572053997 -96.902907676405448 0 0 0 0 6.2286727569492371 0.93370764333815259 0 0.93370764333815259 1.3854987061749178 0 0 0 0 66.758546040873625 62.747935446109977 0 62.747935446109977 147.30728993981302 0 0 0 0 48.320079830155009 2.9117207361506416 0 2.9117207361506416 -27.398006043489659 0 0 0 0 78.461508675274672 13.083726125271824 0 13.083726125271824 -9.5993051967971041 0 0 0 0 -16.017149302206235 44.443229825965091 0 44.443229825965091 13.565389862497454 0 0 0 0 55.359256516492962 21.903880361920955 0 21.903880361920955 -10.624604326691129 0 0 0 0 82.634572622089763 119.85226095099731 0 119.85226095099731 -28.265827811813789 0 0 0 0 42.352957098244644 22.679971954854068 0 22.679971954854068 -12.849819112999494 0 0 0 0 74.817071921483148 29.534960892166893 0 29.534960892166893 -72.728315962844661 0 0 0 0 98.151211283897283 -104.05390582406581 0 -104.05390582406581 -127.10986802668694 0 0 0 0 360.28471648285631 -72.915341768512917 0 -72.915341768512917 -134.43687734263494 0 0 0 0 296.51519763874239 110.13059169551707 0 110.13059169551707 -43.838873873093235 0 0 0 0 -3.452546835354326 -5.5439077141039093 0 -5.5439077141039093 6.9017834281670911 0 0 0 0 -140.63693675790273 -188.29774550707992 0 -188.29774550707992 -46.617892991162762 0 0 0 0 80.042102522260393 -57.718040944061286 0 -57.718040944061286 27.717234414124889 0 0 0 0 88.528630048414925 -390.30574325203816 0 -390.30574325203816 -372.08858669416895 0 0 0 0 959.00189882295672 -2.0248108533560298 0 -2.0248108533560298 -886.53278588265584 0 0 0 0 2606.4377402973478 -1112.4316246387684 0 -1112.4316246387684 575.50079386838297 0 0 0 0 159.82306411035825 271.83494010474715 0 271.83494010474715 423.86556896614161 0 0 0 0 11.908009465171688 -5.203695036209167 0 -5.203695036209167 -0.0079861759751376216 0 0 0 0 629.19709178208723 416.96949121354783 0 416.96949121354783 -47.843871315997603 0 0 0 0 263.88128463517205 11.063197822753978 0 11.063197822753978 -183.85247085175615 0 0 0 0 574.65063392027514 -496.7690803637588 0 -496.7690803637588 110.93789315616618 0 0 0 0 -187.70629522603122 -614.50777732688948 0 -614.50777732688948 471.95558202783468 0 0 0 0 -74.505417714739451 705.69571161887416 0 705.69571161887416 1339.0829680431998 0 0 0 0 2957.5484585624072 -1716.301381514573 0 -1716.301381514573 638.06063968887247 0 0 0 0 2.4608919947823438 0.077059843439201359 0 0.077059843439201359 2.0850283822376383 0 0 0 0 2454.5215839693847 -1723.9347703024705 0 -1723.9347703024705 1066.7522018156451 0 0 0 0 1327.2464104754617 -1318.5566896253767 0 -1318.5566896253767 1361.5444465953824 0 0 0 0 1363.4822503629839 -1301.3068699766627 0 -1301.3068699766627 970.51290142362427 0 0 0 0 1658.950171662138 -1220.5632261077039 0 -1220.5632261077039 885.0609535301337 0 0 0 0 1805.9775282699993 -1023.683096911474 0 -1023.683096911474 406.26212046408546 0 0 0 0 995.67369441798655 -153.63009745536692 0 -153.63009745536692 725.35322405447096 0 0 0 0 1013.378760723067 -213.34294631886274 0 -213.34294631886274 85.864411261834903 0 0 0 0 989.91030771503574 -442.9983009487305 0 -442.9983009487305 581.42910862065582 0 0 0 0 1125.682456016948 -373.03638240587134 0 -373.03638240587134 262.59411432753063 0 0 0 0 604.87612101164996 -671.39776672593143 0 -671.39776672593143 925.9695944780924 0 0 0 0 1196.9617642914091 -796.66560555864271 0 -796.66560555864271 935.89951803015902 0 0 0 0 1670.8135994888726 -1033.7393963334443 0 -1033.7393963334443 809.27954247857565 0 0 0 0 1700.1610181558353 -1094.5574600151213 0 -1094.5574600151213 732.85290855936455 0 0 0 0 1627.5843183922261 -1168.4161535058547 0 -1168.4161535058547 939.1192899567377 0 0 0 0 1184.0096634788206 -661.95731465075005 0 -661.95731465075005 646.69337393072237 0 0 0 0 1318.7902866809745 -611.77346034711172 0 -611.77346034711172 436.09778683287004 0 0 0 0 1238.1500092057213 -435.64043376862332 0 -435.64043376862332 272.20902899808789 0 0 0 0 1364.1036458230519 -677.22494809880618 0 -677.22494809880618 392.02391178925973 0 0 0 0 2008.8484719618064 -820.78758363458337 0 -820.78758363458337 338.12050315383021 0 0 0 0 1571.7060735304549 -859.18323295836126 0 -859.18323295836126 513.5220688035738 0 0 0 0 1453.3893227597946 -998.23484357930101 0 -998.23484357930101 761.17287825728454 0 0 0 0 1665.3722113208496 -1199.7804447816366 0 -1199.7804447816366 565.62421839106401 0 0 0 0 1793.4679957432381 -987.95223572108489 0 -987.95223572108489 588.881658206456 0 0 0 0 1601.6000314705598 -1122.2917301906264 0 -1122.2917301906264 496.12333549551749 0 0 0 0 1722.1793785502814 -1027.7722224911686 0 -1027.7722224911686 91.637149462982961 0 0 0 0 1735.0261024249921 -1156.1076502249346 0 -1156.1076502249346 421.00068603395948 0 0 0 0 1650.7793936478265 -1099.9102867275237 0 -1099.9102867275237 486.06565621646905 0 0 0 0 2958.3677685205639 -301.73920091959519 0 -301.73920091959519 489.45286272262547 0 0 0 0 2718.78761037 -1600.4146988660009 0 -1600.4146988660009 539.4910473682321 0 0 0 0 894.93367946986109 -1376.2631479663639 0 -1376.2631479663639 1748.9053521845874 0 0 0 0 12.279080187356499 -10.245653680884907 0 -10.245653680884907 5.1509906639562306 0 0 0 0 1214.9472914081562 658.64712870768392 0 658.64712870768392 394.82973574856987 0 0 0 0 2757.6979801616981 -501.52059614129604 0 -501.52059614129604 -223.37393331935345 0 0 0 0 47.760136904827959 -9.720795184975259 0 -9.720795184975259 1.317312076617327 0 0 0 0 19.518669888206745 -4.2729903215542038 0 -4.2729903215542038 -1.0889092956890085 0 0 0 0 4.2159479465373977 -12.394365830764798 0 -12.394365830764798 2.2129529807269144 0 0 0 0 244.27392673460417 -345.60140533694994 0 -345.60140533694994 1022.2593687521312 0 0 0 0 104.72550610509643 -22.508430252101789 0 -22.508430252101789 1.7008156022689036 0 0 0 0 115.83805610969284 -32.620527563281755 0 -32.620527563281755 -10.646771230902573 0 0 0 0 106.63785113178164 -20.96669344673186 0 -20.96669344673186 -46.492408545452008 0 0 0 0 51.125846899435999 14.472125432938128 0 14.472125432938128 -16.429268865939694 0 0 0 0 154.79304278262862 -34.919792806362778 0 -34.919792806362778 -45.492094512857847 0 0 0 0 38.629937809024852 2.8395556278768055 0 2.8395556278768055 -1.2947084123817785 0 0 0 0 70.117452626445584 -19.66589513046749 0 -19.66589513046749 2.8668157270700472 0 0 0 0 81.331811466079671 -27.572881952548869 0 -27.572881952548869 -1.4324107787845151 0 0 0 0 57.636678870519972 -9.0984869232212873 0 -9.0984869232212873 6.5124120753295074 0 0 0 0 24.520578169106955 1.9860840304461931 0 1.9860840304461931 -1.8467587394849341 0 0 0 0 93.152247389371041 -31.302669898228714 0 -31.302669898228714 -3.716167577579256 0 0 0 0 47.274335890007933 12.184844888715901 0 12.184844888715901 4.0930309183161171 0 0 0 0 23.241531372041322 12.74547120288284 0 12.74547120288284 -1.4615649166449756 0 0 0 0 42.449911045201588 -6.2978804711697762 0 -6.2978804711697762 6.1983358568889173 0 0 0 0 11.669307172377842 7.9153294542479671 0 7.9153294542479671 -0.5385266619962632 0 0 0 0 41.736241687685833 -4.9086647310976161 0 -4.9086647310976161 9.9458918314711582 0 0 0 0 562.12510921295325 32.469516218540591 0 32.469516218540591 30.560625960140481 0 0 0 0 1347.020763483044 -257.07070398557062 0 -257.07070398557062 -130.5691437588321 0 0 0 0 827.96776253878488 -479.48655880625279 0 -479.48655880625279 113.60885875181805 0 0 0 0 2078.5655263068329 -410.04885495291575 0 -410.04885495291575 -137.1480413333004 0 0 0 0 1718.6031928974553 -101.77395798755117 0 -101.77395798755117 -248.36051062069976 0 0 0 0 2.6709706392364296 0.92914538380895806 0 0.92914538380895806 -0.58165721221930955 0 0 0 0 93.243097739032237 -10.958654801375587 0 -10.958654801375587 0.43428257305873785 0 0 0 0 49.156819733412703 -8.9360259825332378 0 -8.9360259825332378 32.039422207762982 0 0 0 0 2.0269477309909689 -4.5675281285599851 0 -4.5675281285599851 6.4764240582268027 0 0 0 0 73.169848103527329 -296.97094244832624 0 -296.97094244832624 69.301981918321417 0 0 0 0 -98.145148175157374 -236.85591848364766 0 -236.85591848364766 49.034708869692736 0 0 0 0 -26.871981323405635 -154.56997259715217 0 -154.56997259715217 8.8815406458115831 0 0 0 0 150.84430679728393 -225.61558989438345 0 -225.61558989438345 -0.14469523628633851 0 0 0 0 265.97134965606165 -223.08057902195009 0 -223.08057902195009 -107.15216820885871 0 0 0 0 158.25914779860977 -359.20549970984962 0 -359.20549970984962 58.992589851046432 0 0 0 0 213.37878388890431 652.90675399800762 0 652.90675399800762 128.39043457585467 0 0 0 0 33.80443488168919 19.287433841168337 0 19.287433841168337 0.4306963792345595 0 0 0 0 233.12047396480921 -382.16840631263312 0 -382.16840631263312 -38.879189407977378 0 0 0 0 953.51768842488673 248.06246637655698 0 248.06246637655698 -34.119494077306854 0 0 0 0 343.01284351387585 -340.86683285595302 0 -340.86683285595302 -27.006708725472436 0 0 0 0 -268.84664353726112 49.138095251683126 0 49.138095251683126 48.518707613636025 0 0 0 0 40.530977643287599 15.81064475318189 0 15.81064475318189 1.9156357916936519 0 0 0 0 53.337220388581045 25.98518461306594 0 25.98518461306594 -17.439179055300428 0 0 0 0 60.448951320922788 13.916401413590961 0 13.916401413590961 -12.580872627211193 0 0 0 0 60.953104204454576 7.4689259592076951 0 7.4689259592076951 -7.3322680558226239 0 0 0 0 51.879968048895535 20.602447691638645 0 20.602447691638645 -6.9011680065768815 0 0 0 0 31.562421931327322 13.569656442153757 0 13.569656442153757 -0.31610504626845115 0 0 0 0 -138.75772550565307 244.99007899250608 0 244.99007899250608 32.147940952417912 0 0 0 0 52.174450200400315 1.0099693849847142 0 1.0099693849847142 -3.388945938172629 0 0 0 0 -86.117405339959078 -19.196957719750884 0 -19.196957719750884 80.129231808361837 0 0 0 0 40.018622419942403 3.5057162276792155 0 3.5057162276792155 113.3778827161108 0 0 0 0 455.43453547894023 -377.54865373295337 0 -377.54865373295337 383.70899413423729 0 0 0 0 28.392532246423684 -1.7602929269041567 0 -1.7602929269041567 1.0691428233866489 0 0 0 0 317.60805335418991 -73.09048015275738 0 -73.09048015275738 -574.71764934278463 0 0 0 0 316.71487808291567 -83.158117173168989 0 -83.158117173168989 -26.391817997375995 0 0 0 0 139.80472832317901 145.84786571317343 0 145.84786571317343 135.33896185641652 0 0 0 0 11.040490011777763 -2.7902014055421276 0 -2.7902014055421276 0.66889671565224629 0 0 0 0 346.75096625737206 293.14760254342809 0 293.14760254342809 289.64746819417439 0 0 0 0 -544.64665914086072 -802.87020956039851 0 -802.87020956039851 534.68065743347609 0 0 0 0 1005.98200725473 860.37373861699916 0 860.37373861699916 74.222046428830083 0 0 0 0 839.13088430164498 123.56051912215577 0 123.56051912215577 12.32189199001013 0 0 0 0 -561.75042127736378 -239.91543726344139 0 -239.91543726344139 -345.84897186284195 0 0 0 0 47.400661005201982 132.64829586814773 0 132.64829586814773 205.39189837280219 0 0 0 0 -0.45609922657604329 -0.51273996839290703 0 -0.51273996839290703 110.54166420617935 0 0 0 0 -146.08247819385724 480.40088402650349 0 480.40088402650349 331.10224784600234 0 0 0 0 10.379191892739641 -5.2136513126282011 0 -5.2136513126282011 1.6859374456301872 0 0 0 0 260.1277385634603 107.7786814954404 0 107.7786814954404 35.328881197518143 0 0 0 0 172.40443562928704 51.856498867900001 0 51.856498867900001 13.133739474876695 0 0 0 0 151.37258105582441 109.67651867014123 0 109.67651867014123 95.223321355075782 0 0 0 0 388.94175954753882 209.84882635148369 0 209.84882635148369 93.517252319898375 0 0 0 0 161.91375503407471 95.300235961179112 0 95.300235961179112 47.459253683810573 0 0 0 0 368.57902017516608 36.561670195687164 0 36.561670195687164 -13.318253890706252 0 0 0 0 369.07153270570416 31.074798455301654 0 31.074798455301654 -5.8749702061479923 0 0 0 0 209.35664789029397 -3.3159745950778108 0 -3.3159745950778108 -14.710668405004524 0 0 0 0 300.79964340036895 9.8188911453567105 0 9.8188911453567105 -18.749779107533477 0 0 0 0 254.85144125705847 -184.29850894706956 0 -184.29850894706956 108.29760677003821 0 0 0 0 -3.0137850521714427 -82.725617144037074 0 -82.725617144037074 48.525265939528083 0 0 0 0 103.28393206586043 -23.225646971349647 0 -23.225646971349647 25.26883292431236 0 0 0 0 115.85195668237429 -69.382794353674939 0 -69.382794353674939 23.344829499137209 0 0 0 0 120.46282875633915 -3.8884160887861174 0 -3.8884160887861174 -0.064440908962510729 0 0 0 0 164.52021203537151 -24.568141029712368 0 -24.568141029712368 -16.07077031457942 0 0 0 0 219.83514474658296 -9.0122266776086164 0 -9.0122266776086164 -14.698721951476116 0 0 0 0 204.01205972327443 8.4171718703323553 0 8.4171718703323553 -0.026596808219810274 0 0 0 0 190.09538335129037 18.462930550890242 0 18.462930550890242 1.6131838303624682 0 0 0 0 181.42987648847338 23.25153383334624 0 23.25153383334624 1.7763564251046216 0 0 0 0 233.34015116546652 50.236864319477945 0 50.236864319477945 12.912540074406827 0 0 0 0 21.986280212896759 7.9451194110598635 0 7.9451194110598635 -3.9025127213957513 0 0 0 0 34.732523410126646 -12.049256647855394 0 -12.049256647855394 10.081712508607666 0 0 0 0 34.663992940331809 -6.7911886225734861 0 -6.7911886225734861 5.3901036039801511 0 0 0 0 21.459567648125812 4.156938355378557 0 4.156938355378557 7.1874510625577308 0 0 0 0 35.65524044810445 0.51916703886996451 0 0.51916703886996451 3.1383611090340384 0 0 0 0 24.595835028972942 3.9779443087757436 0 3.9779443087757436 6.8422942209735353 0 0 0 0 33.715261562058004 0.83739105581376894 0 0.83739105581376894 8.7719515841789146 0 0 0 0 37.273227970523294 -6.5806397701625663 0 -6.5806397701625663 12.684704496218824 0 0 0 0 23.660550243324394 11.595603004000594 0 11.595603004000594 -2.4505022333680273 0 0 0 0 21.687529204053533 -8.632803432427437 0 -8.632803432427437 2.991452033572743 0 0 0 0 33.21972425992135 0.54773666207551486 0 0.54773666207551486 7.9649540982477021 0 0 0 0 1024.7546781392739 -369.70506052423889 0 -369.70506052423889 51.893071247714829 0 0 0 0 26.821967735362705 -1.8087882176315588 0 -1.8087882176315588 6.7841653441132621 0 0 0 0 1295.5769435477705 -700.51330903473047 0 -700.51330903473047 232.07220587979697 0 0 0 0 18.971494446470956 4.3670594786043466 0 4.3670594786043466 -0.57153531934735713 0 0 0 0 30.485575553517265 -8.15390710294038 0 -8.15390710294038 12.623513497233375 0 0 0 0 -131.55351440225786 94.348195362115476 0 94.348195362115476 9.2413620959130753 0 0 0 0 -19.431376992171863 1.8536054136683831 0 1.8536054136683831 -8.8602113274249596 0 0 0 0 -10.920001817014054 24.520181094175644 0 24.520181094175644 31.707898719651375 0 0 0 0 -30.783747729496099 28.812615401592993 0 28.812615401592993 3.541178002196645 0 0 0 0 29.182514634812833 -3.9044374289254238 0 -3.9044374289254238 7.7343941305771509 0 0 0 0 -7.6898442278034054 3.1999441586079205 0 3.1999441586079205 1.0798619688981821 0 0 0 0 67.780840958293993 -41.404836459390957 0 -41.404836459390957 3.4716681082609107 0 0 0 0 -10.534974414127646 -20.141208855299588 0 -20.141208855299588 19.165451094320634 0 0 0 0 -0.44258472535869942 -0.16424313230714915 0 -0.16424313230714915 0.1393157189255787 0 0 0 0 1.0586465406959178 -1.3378807023443235 0 -1.3378807023443235 0.0022365926756284229 0 0 0 0 3.3668423670678749 5.3663785408109872 0 5.3663785408109872 1.3441585842406063 0 0 0 0 16.45885719746002 -0.54790947185061922 0 -0.54790947185061922 -0.00048688918829302647 0 0 0 0 23.969412699894747 2.3152752856115288 0 2.3152752856115288 -2.8997295028130674 0 0 0 0 2.4378248102904081 1.616245936820917 0 1.616245936820917 -0.34868723833974624 0 0 0 0 17.711557135276962 -0.4496722778743667 0 -0.4496722778743667 1.228564250387473 0 0 0 0 17.541321073891595 3.3746962314825177 0 3.3746962314825177 -1.6562123843698848 0 0 0 0 20.196126164111774 -1.0371129910754648 0 -1.0371129910754648 0.075123160627210694 0 0 0 0 24.166252629744122 2.4747311558895642 0 2.4747311558895642 1.9908857831404174 0 0 0 0 17.375610756083915 1.1746265502878726 0 1.1746265502878726 6.8736595748075899 0 0 0 0 23.22145856404677 0.0016679038840070604 0 0.0016679038840070604 2.9740509244391724 0 0 0 0 32.246438958740328 1.8513252262244491 0 1.8513252262244491 1.7212717062182421 0 0 0 0 27.024745946575422 -0.69810659697570188 0 -0.69810659697570188 3.5990092337688449 0 0 0 0 28.515778851637151 1.6677017478990255 0 1.6677017478990255 2.9668205951827247 0 0 0 0 27.001690415054327 -1.7924555783487723 0 -1.7924555783487723 0.38781428823075537 0 0 0 0 23.865507211128715 1.4629188465551373 0 1.4629188465551373 0.20907205922323377 0 0 0 0 28.301344767212868 -1.6987919593287872 0 -1.6987919593287872 -0.0042873482944884231 0 0 0 0 26.563522123295115 -2.1629997534186565 0 -2.1629997534186565 1.9343699140843613 0 0 0 0 8.3048291872474351 1.1774880851356784 0 1.1774880851356784 -1.6351966478043354 0 0 0 0 25.753731444943696 -0.66738384917739069 0 -0.66738384917739069 0.00437215443922405 0 0 0 0 2837.2971605042403 -1392.8379312669388 0 -1392.8379312669388 520.52479061454858 0 0 0 0 1520.8565166511835 -631.34459538328599 0 -631.34459538328599 404.28619650754024 0 0 0 0 31.446080405553403 -6.0265807265456672 0 -6.0265807265456672 3.2438961937712887 0 0 0 0 38.27628844181163 -5.5488379353242774 0 -5.5488379353242774 2.2751729689508551 0 0 0 0 18.016571430463614 7.2863488379753107 0 7.2863488379753107 -3.7252224854528202 0 0 0 0 1844.0243339338267 -908.59685495223846 0 -908.59685495223846 367.07825459098495 0 0 0 0 1327.6255984705931 -627.35874493554445 0 -627.35874493554445 320.96039928735127 0 0 0 0 1518.6737667968264 -693.80697457124108 0 -693.80697457124108 159.37624578569063 0 0 0 0 1589.3074993074988 -624.7393425259512 0 -624.7393425259512 11.713760139098611 0 0 0 0 1267.7330394918245 -542.62539892674931 0 -542.62539892674931 213.15682906381943 0 0 0 0 1444.9020171419252 -570.52479310547074 0 -570.52479310547074 -46.609617076634549 0 0 0 0 1170.7821946076147 -549.18979505503182 0 -549.18979505503182 132.61090103312767 0 0 0 0 1347.3096829563437 -427.74451485588941 0 -427.74451485588941 104.2305429201794 0 0 0 0 1675.1243289212871 -638.06200514197508 0 -638.06200514197508 146.50629740686884 0 0 0 0 1289.2630595290757 -181.57318787693342 0 -181.57318787693342 184.23826583389973 0 0 0 0 1217.5847230407089 -510.10910107536097 0 -510.10910107536097 273.56865836613974 0 0 0 0 1774.2495141179606 -304.20199699821171 0 -304.20199699821171 2.2150222161796882 0 0 0 0 1069.0303032679221 -258.22281398308894 0 -258.22281398308894 15.084615905492086 0 0 0 0 675.46585686763865 -125.57424207470886 0 -125.57424207470886 -0.17570765768226598 0 0 0 0 517.77166202141962 -200.5852362961333 0 -200.5852362961333 181.50898545501775 0 0 0 0 226.4722158549921 -71.975311814096429 0 -71.975311814096429 13.744884584533679 0 0 0 0 345.10883539594215 -259.76347249791411 0 -259.76347249791411 140.56378003510176 0 0 0 0 496.90068938292097 -138.99258602089077 0 -138.99258602089077 18.685311461226384 0 0 0 0 0.74515117348005333 -0.11026782386321088 0 -0.11026782386321088 -0.22471801855374959 0 0 0 0 21.016764263607911 -248.05312239753954 0 -248.05312239753954 4.7027052095098885 0 0 0 0 136.93863101917668 75.372078688805914 0 75.372078688805914 164.13395059916706 0 0 0 0 569.58781312085921 9.9392909416961288 0 9.9392909416961288 90.414127842760251 0 0 0 0 116.75667752962272 129.43513981841554 0 129.43513981841554 84.807672850654626 0 0 0 0 121.15890093164307 54.672026023512828 0 54.672026023512828 136.98922175460484 0 0 0 0 866.34151700124494 -379.0075089286143 0 -379.0075089286143 211.71921953102873 0 0 0 0 815.54634857304336 -119.75325081447738 0 -119.75325081447738 113.59801688179122 0 0 0 0 456.40990605138359 -132.01888894977958 0 -132.01888894977958 206.88981224703025 0 0 0 0 694.00069425470429 -99.875860680117569 0 -99.875860680117569 106.45954172626216 0 0 0 0 767.65830043260939 -338.52061367590625 0 -338.52061367590625 149.94619266789834 0 0 0 0 939.22132459947898 -193.27752951477953 0 -193.27752951477953 173.57539729463571 0 0 0 0 527.2716013210229 -266.54675125777271 0 -266.54675125777271 223.31964771990681 0 0 0 0 357.97836601478048 -76.389963071783086 0 -76.389963071783086 218.07825099411127 0 0 0 0 335.83287659331108 -149.97679959040011 0 -149.97679959040011 98.477316663791498 0 0 0 0 315.38862716295989 32.768208191271242 0 32.768208191271242 -41.715898098457274 0 0 0 0 443.87855377538654 -102.22971736726851 0 -102.22971736726851 95.690307836204511 0 0 0 0 49.167406377728184 219.56804370993643 0 219.56804370993643 -15.426462217727931 0 0 0 0 170.85915844232659 83.010950921858353 0 83.010950921858353 81.988856829108954 0 0 0 0 6.175164735323051 45.492810651234095 0 45.492810651234095 87.282797946736991 0 0 0 0 396.8566492876198 -48.486516152713904 0 -48.486516152713904 40.215309567787699 0 0 0 0 178.81473937461851 106.2023788502687 0 106.2023788502687 131.85126631420189 0 0 0 0 150.23321750031027 17.183805692560099 0 17.183805692560099 -63.336867550974148 0 0 0 0 148.60430241079303 42.438211211801672 0 42.438211211801672 81.32333979068369 0 0 0 0 52.976695498451591 138.81328242963491 0 138.81328242963491 -11.647225538635894 0 0 0 0 -102.34560521208914 27.379052815581645 0 27.379052815581645 -68.182518915999481 0 0 0 0 -269.9618919475397 260.37878727546558 0 260.37878727546558 11.897662418523851 0 0 0 0 102.05753382295518 37.092545916408042 0 37.092545916408042 -0.050871804223920236 0 0 0 0 185.15585818015097 9.5868884160963148 0 9.5868884160963148 -364.55070277420191 0 0 0 0 -114.90749142912682 187.44067638672141 0 187.44067638672141 -79.713181302791781 0 0 0 0 20.589687711254044 -4.0825987830799306 0 -4.0825987830799306 -7.4384517439858895 0 0 0 0 22.056057738256641 127.21963805727637 0 127.21963805727637 -162.94515927739599 0 0 0 0 16.915475622721715 109.70308208023835 0 109.70308208023835 -161.1750934161937 0 0 0 0 18.095259640802396 121.87010616823954 0 121.87010616823954 -55.299439621474903 0 0 0 0 4.7979836562008131 106.09232321110403 0 106.09232321110403 -15.959463766252156 0 0 0 0 143.47910138289444 89.44578420495327 0 89.44578420495327 -101.34791265243075 0 0 0 0 130.24227056540985 73.667758726452519 0 73.667758726452519 1.9669397717862012 0 0 0 0 25.14707832725253 88.791774869740493 0 88.791774869740493 -13.374361339490406 0 0 0 0 67.325520525990783 45.441650880954995 0 45.441650880954995 -8.5601383085070886 0 0 0 0 45.608882463100599 110.51253908721992 0 110.51253908721992 -55.696304620752926 0 0 0 0 128.65138070385365 105.22307506962113 0 105.22307506962113 -78.849218100326652 0 0 0 0 -9.8271092859795317 121.06568743957607 0 121.06568743957607 7.6407860554784293 0 0 0 0 -18.147393214977967 13.997626256436789 0 13.997626256436789 9.4412048432049751 0 0 0 0 195.62330543778808 32.664783343586237 0 32.664783343586237 -75.832254905723858 0 0 0 0 168.75065145248664 7.0315062642080193 0 7.0315062642080193 56.007536222429962 0 0 0 0 233.63307639776031 73.449178072207815 0 73.449178072207815 -81.576552486816126 0 0 0 0 148.71165407882654 69.676105064141211 0 69.676105064141211 -78.127567275606452 0 0 0 0 117.88599740961217 70.461873538942939 0 70.461873538942939 -68.160229961286859 0 0 0 0 149.98497679120919 -19.005303521515089 0 -19.005303521515089 -108.50398597516823 0 0 0 0 0.66362837529516128 -0.61965713464516625 0 -0.61965713464516625 2.0485010334053424 0 0 0 0 -143.15664142835158 -240.56813578350665 0 -240.56813578350665 205.15792056977307 0 0 0 0 1109.1084627245727 -607.07367117037484 0 -607.07367117037484 311.69691861995 0 0 0 0 1245.5942700696542 -627.01394168473348 0 -627.01394168473348 187.63945339615793 0 0 0 0 914.74676955911855 -179.81571466355399 0 -179.81571466355399 -58.060677977973683 0 0 0 0 1095.3251915570727 -603.87598587250955 0 -603.87598587250955 564.79214182427222 0 0 0 0 1214.1050431722251 -472.42318047517836 0 -472.42318047517836 695.55489016796105 0 0 0 0 1626.0574086315319 -609.8344730752026 0 -609.8344730752026 555.93535019870933 0 0 0 0 1697.4411751726584 -335.59735613123848 0 -335.59735613123848 1597.5619929475317 0 0 0 0 2350.8133012053731 -1365.3099794670629 0 -1365.3099794670629 898.85629576244173 0 0 0 0 1748.6082542113872 -696.07566577973796 0 -696.07566577973796 155.15198105504965 0 0 0 0 1293.7704432396858 -748.45764019311127 0 -748.45764019311127 321.91585984380879 0 0 0 0 1655.9139566785998 -1016.5169673771006 0 -1016.5169673771006 519.17707354856157 0 0 0 0 1713.6739627867792 -762.01319250001893 0 -762.01319250001893 50.07056643347687 0 0 0 0 1659.5960568972514 -732.56488831153524 0 -732.56488831153524 148.33893809024323 0 0 0 0 1572.3766100801295 -655.52840062062842 0 -655.52840062062842 -37.452336211484862 0 0 0 0 1495.6424448258767 -667.31564391963161 0 -667.31564391963161 24.018676357087827 0 0 0 0 1444.8768151601471 -587.3893232903074 0 -587.3893232903074 11.833483431653974 0 0 0 0 1050.4173127792455 -381.332820755238 0 -381.332820755238 70.25102717427103 0 0 0 0 743.49518828722648 -577.84093759720338 0 -577.84093759720338 267.31303020597443 0 0 0 0 1205.6663498309354 -652.23868120993347 0 -652.23868120993347 209.49961834077089 0 0 0 0 821.24237441043078 147.07225599076179 0 147.07225599076179 1.0264677262303425 0 0 0 0 -112.52020631823689 512.55627438686383 0 512.55627438686383 889.24259134446368 0 0 0 0 110.28887134545948 -1129.1128354409857 0 -1129.1128354409857 2637.0510643891885 0 0 0 0 22.000380561383167 -6.7158627194748561 0 -6.7158627194748561 8.6150407267045228 0 0 0 0 82.585295907436489 11.693422374664181 0 11.693422374664181 -8.2502963047777325 0 0 0 0 654.70630540486309 687.32139803241375 0 687.32139803241375 -400.10419554670807 0 0 0 0 14.544843962406162 4.2651306791033079 0 4.2651306791033079 5.2850105703377617 0 0 0 0 4974.4143412250996 10.983381628529116 0 10.983381628529116 9.3899455935317864 0 0 0 0 4977.8280737210916 1236.5354617120706 0 1236.5354617120706 -175.08848993296107 0 0 0 0 -519.64081743001589 -262.7945163602916 0 -262.7945163602916 283.85844509940665 0 0 0 0 -48.20906360639492 93.971965317012774 0 93.971965317012774 249.04425086094636 0 0 0 0 127.48477803455899 28.972536551159603 0 28.972536551159603 -120.36293233589812 0 0 0 0 112.73330137743324 46.004804749605029 0 46.004804749605029 -75.508085698635682 0 0 0 0 77.965614081083913 114.79484911322214 0 114.79484911322214 8.9177529352705847 0 0 0 0 3.9498550179905578 10.280535551341586 0 10.280535551341586 -5.1538360215253052 0 0 0 0 1263.5833037025295 -101.57049617556234 0 -101.57049617556234 -737.44536749034842 0 0 0 0 95.783912942060851 53.115110455978538 0 53.115110455978538 -78.447636693853639 0 0 0 0 86.733927515641597 20.451005036458412 0 20.451005036458412 -4.9919213323470313 0 0 0 0 116.96822241976042 30.29211185705573 0 30.29211185705573 -73.393083867567384 0 0 0 0 102.36990530672483 29.723845862592171 0 29.723845862592171 -62.604529177890726 0 0 0 0 117.51917017409141 27.964165600446485 0 27.964165600446485 -64.958437256073069 0 0 0 0 93.166927932237741 26.259842095261234 0 26.259842095261234 -63.738343312689821 0 0 0 0 136.27731038683851 2.6008227957959313 0 2.6008227957959313 -64.199040591275249 0 0 0 0 189.08094012083166 -0.97393373610160872 0 -0.97393373610160872 -1.4235087131446065 0 0 0 0 97.735613281118276 5.064906356804503 0 5.064906356804503 -0.2368560017593424 0 0 0 0 129.24271848675562 -31.88098417689255 0 -31.88098417689255 -0.056417554070273553 0 0 0 0 58.725081964686979 -33.96123935550618 0 -33.96123935550618 33.255821386301307 0 0 0 0 24.534907672353597 35.693284155073087 0 35.693284155073087 -52.827941046347341 0 0 0 0 95.69785012966895 28.69933201921355 0 28.69933201921355 -50.45675768582516 0 0 0 0 89.072437553870259 6.278232857133375 0 6.278232857133375 -57.21783188652531 0 0 0 0 57.956455559644382 16.181989083654074 0 16.181989083654074 -49.725824895176316 0 0 0 0 66.601805232232437 10.800540768905194 0 10.800540768905194 -51.314425480870085 0 0 0 0 0.44770400958066148 0.097793732566998415 0 0.097793732566998415 -1.5222153766818032 0 0 0 0 56.29936082338827 19.596740854171568 0 19.596740854171568 -52.17883620887909 0 0 0 0 6.7721269335452234 -65.785954611890162 0 -65.785954611890162 -94.499821819408879 0 0 0 0 143.09674445187557 124.28313014577725 0 124.28313014577725 80.916725993952241 0 0 0 0 103.43843888011179 54.660157373624997 0 54.660157373624997 -6.5463754661730036 0 0 0 0 62.014671974786324 17.147335970597595 0 17.147335970597595 -58.494698410578152 0 0 0 0 5.596920632281126 5.4963329820402294 0 5.4963329820402294 -2.0713753323074555 0 0 0 0 53.197878923354438 -4.3200744303549925 0 -4.3200744303549925 -56.9183947163719 0 0 0 0 89.147596434282605 28.91367078205667 0 28.91367078205667 -47.70800923809108 0 0 0 0 47.316317491851805 11.817924767901165 0 11.817924767901165 -35.311156416505014 0 0 0 0 103.76547502810041 36.610834811243606 0 36.610834811243606 -1.2440025254934364 0 0 0 0 80.894450630818028 127.26787299377366 0 127.26787299377366 -125.1719861628859 0 0 0 0 59.831957286917316 64.750994494099672 0 64.750994494099672 -20.155108927787893 0 0 0 0 314.16127773263725 -166.1705453255156 0 -166.1705453255156 29.016306165410299 0 0 0 0 3.6406177246428797 4.6001316633494369 0 4.6001316633494369 1.1627682008804099 0 0 0 0 -90.536039513797732 285.98333521693962 0 285.98333521693962 296.53878036151593 0 0 0 0 464.50776319403667 199.09697898642344 0 199.09697898642344 778.31809739963683 0 0 0 0 -0.45743925646735306 -0.6646045317121434 0 -0.6646045317121434 -0.10408555577680367 0 0 0 0 824.11991645631497 -101.45363726239532 0 -101.45363726239532 -346.56319842027119 0 0 0 0 9.2141122272514622 154.05490640546006 0 154.05490640546006 -142.73080717731955 0 0 0 0 20.418177384257433 184.45998360123656 0 184.45998360123656 -125.05986038038725 0 0 0 0 298.11045678712253 387.80274960094005 0 387.80274960094005 42.770887656540367 0 0 0 0 199.78319244195882 202.64886260631431 0 202.64886260631431 -240.54689029508017 0 0 0 0 102.42034584197245 -167.11396846944206 0 -167.11396846944206 -355.73609190264892 0 0 0 0 104.57696111005498 170.7020797291575 0 170.7020797291575 -194.2052651678714 0 0 0 0 325.80375052453019 -201.14070625148645 0 -201.14070625148645 213.56841020480067 0 0 0 0 312.51471630247033 -783.63416011920117 0 -783.63416011920117 302.72492542472946 0 0 0 0 955.19581579491205 455.68421075385169 0 455.68421075385169 49.008262354334192 0 0 0 0 664.28765984548954 151.22874989071894 0 151.22874989071894 -310.83934091626287 0 0 0 0 -142.78966215636592 25.998802954034694 0 25.998802954034694 161.04544822465354 0 0 0 0 58.442698328978395 25.582967939164057 0 25.582967939164057 -4.8176356038418602 0 0 0 0 -148.2912445050024 101.5370045145263 0 101.5370045145263 0.18128770676116801 0 0 0 0 38.326612147546257 36.150272463904969 0 36.150272463904969 -65.5560461690485 0 0 0 0 13.655931282062369 13.571820504298259 0 13.571820504298259 -2.6539305928212897 0 0 0 0 63.444332782838273 14.197707374894918 0 14.197707374894918 -1.8031630104135234 0 0 0 0 122.86088514865338 45.946441771742833 0 45.946441771742833 -50.93168663835587 0 0 0 0 68.734113825688837 35.472608174223794 0 35.472608174223794 -14.959769831279644 0 0 0 0 -204.66475008643465 43.728540751102628 0 43.728540751102628 63.954366494824171 0 0 0 0 122.79170883910331 23.439965164100801 0 23.439965164100801 -60.691040530808152 0 0 0 0 99.010378235840619 14.663470681222336 0 14.663470681222336 -5.0182030848183325 0 0 0 0 21.209749406476703 9.2658879429833263 0 9.2658879429833263 -1.9750002092168315 0 0 0 0 460.80796403370914 295.36521696070804 0 295.36521696070804 -296.57058647868371 0 0 0 0 415.12840199860511 -895.09371128055011 0 -895.09371128055011 853.08146912925076 0 0 0 0 736.44054797377612 -1264.7636778035196 0 -1264.7636778035196 1132.4573479771441 0 0 0 0 11.453370749408577 -4.9264372328047443 0 -4.9264372328047443 -0.7227157020978261 0 0 0 0 -466.61936307833821 -25.420422222337152 0 -25.420422222337152 466.871625778414 0 0 0 0 807.69976429704911 -1327.8752449015467 0 -1327.8752449015467 244.53244473759952 0 0 0 0 1865.1691074112314 -500.39568835186287 0 -500.39568835186287 -132.65968933562203 0 0 0 0 1360.4821490533504 -1298.1055161862216 0 -1298.1055161862216 121.49532509209712 0 0 0 0 181.72020636222442 -131.71140522386085 0 -131.71140522386085 29.759431864589033 0 0 0 0 1836.2953208791005 -451.23643237810791 0 -451.23643237810791 -175.54025930233172 0 0 0 0 1547.5587450541498 456.99514651678868 0 456.99514651678868 -1249.5737485861896 0 0 0 0 563.79680642218955 749.80815177166187 0 749.80815177166187 -366.81752146154747 0 0 0 0 18.244032265957969 -5.4395991098330185 0 -5.4395991098330185 -0.11459203935819406 0 0 0 0 992.96744002388732 -1614.0770623866224 0 -1614.0770623866224 -147.99495421374013 0 0 0 0 172.13090481747349 -737.38281554986543 0 -737.38281554986543 -17.36767596442769 0 0 0 0 2527.8565312692808 -2182.7991732450228 0 -2182.7991732450228 -376.64388282708251 0 0 0 0 18.331660562643378 -5.4303598036680576 0 -5.4303598036680576 -1.1048036056549697 0 0 0 0 4989.2948438485764 579.57790117214631 0 579.57790117214631 -1792.0315513976791 0 0 0 0 565.85226583113399 -1370.6093747598877 0 -1370.6093747598877 472.64168654361373 0 0 0 0 1187.0576491359825 -172.74393844076059 0 -172.74393844076059 -450.87660264837228 0 0 0 0 862.95954477236228 -1069.2547458982854 0 -1069.2547458982854 718.31088427614122 0 0 0 0 1332.7892463351454 -1074.6561801005885 0 -1074.6561801005885 699.05087967370366 0 0 0 0 4993.0296334582317 -1478.2322965935066 0 -1478.2322965935066 -27.415209369071782 0 0 0 0 1705.9628834335454 -2191.8814781983474 0 -2191.8814781983474 2177.2207746892791 0 0 0 0 5000.2145555168681 1242.4696465982429 0 1242.4696465982429 -706.43157654189565 0 0 0 0 2870.2043245192472 1711.0601333324857 0 1711.0601333324857 -298.90239497429064 0 0 0 0 2908.4221557285491 933.21592058320243 0 933.21592058320243 -130.16968571879153 0 0 0 0 3207.7442119269781 678.28028772471475 0 678.28028772471475 -190.81731177107145 0 0 0 0 3189.5925347085722 563.42904089063745 0 563.42904089063745 -892.4485583579866 0 0 0 0 5000.923451576964 -33.346560490429809 0 -33.346560490429809 -1160.3815047778414 0 0 0 0 3253.0681806853718 -822.30231067822763 0 -822.30231067822763 -1258.0858026963294 0 0 0 0 4988.4231264669652 -1461.2662720369758 0 -1461.2662720369758 -1360.3530858170216 0 0 0 0 3290.3298023377993 -386.45525535364862 0 -386.45525535364862 -413.16355802651037 0 0 0 0 1470.9956934609072 347.52803906098569 0 347.52803906098569 -223.41020045163594 0 0 0 0 1260.9697001229069 161.64724486838998 0 161.64724486838998 -124.22805156574708 0 0 0 0 1137.530872326548 270.62624836545922 0 270.62624836545922 -24.166128694742497 0 0 0 0 1141.8340217822242 255.86939752017582 0 255.86939752017582 -54.592919008108765 0 0 0 0 1070.3740631480541 417.7735521395382 0 417.7735521395382 -4.9813117757887539 0 0 0 0 523.03563589700207 154.00273303145605 0 154.00273303145605 -2.9866296765678726 0 0 0 0 222.21152539750619 398.82718178544638 0 398.82718178544638 -3.6039180794850836 0 0 0 0 0.90947244542739725 3.1821750759238228 0 3.1821750759238228 -0.41241082576769994 0 0 0 0 2277.6936664277891 835.79278426549308 0 835.79278426549308 -48.645585075219117 0 0 0 0 -266.69675567200466 91.869971947149395 0 91.869971947149395 17.132510880609686 0 0 0 0 302.35144767758902 8.8521309386406983 0 8.8521309386406983 -27.428003368076929 0 0 0 0 297.80863184710324 80.819728297770581 0 80.819728297770581 -103.2062547241693 0 0 0 0 437.1135714091115 -107.42116210605067 0 -107.42116210605067 15.902647165569419 0 0 0 0 426.38680484228826 115.72513383751522 0 115.72513383751522 60.434806487348965 0 0 0 0 517.11061575886924 55.305862612893492 0 55.305862612893492 99.847054807099539 0 0 0 0 706.06061539171787 -68.162755901878313 0 -68.162755901878313 -267.61609472278724 0 0 0 0 511.09074182363111 2.7386749400347696 0 2.7386749400347696 66.465674921072036 0 0 0 0 500.76625888472336 46.8151518014717 0 46.8151518014717 312.17157631559576 0 0 0 0 297.64752299862448 -118.88555387734732 0 -118.88555387734732 94.248499026512405 0 0 0 0 744.01086210225549 -158.93549325309675 0 -158.93549325309675 97.391548803666524 0 0 0 0 2.6712831186234212 2.2213336937664963 0 2.2213336937664963 2.3865187528391756 0 0 0 0 -130.11022165100439 137.30979350286967 0 137.30979350286967 122.58968007664559 0 0 0 0 -76.079734148592252 71.430043407017351 0 71.430043407017351 -65.047934154835673 0 0 0 0 7.8919168714630246 6.6903694358132668 0 6.6903694358132668 4.949113052539178 0 0 0 0 293.09616744166851 -104.13264286422296 0 -104.13264286422296 53.647031732133883 0 0 0 0 263.96396079622718 -124.06874394490922 0 -124.06874394490922 50.442253923631597 0 0 0 0 295.67222922216752 -34.488293742777614 0 -34.488293742777614 -21.248914009315115 0 0 0 0 275.77540429602959 -62.950525278592238 0 -62.950525278592238 -39.821374324577107 0 0 0 0 166.39279029496538 -48.968167353513707 0 -48.968167353513707 -7.3479252676531814 0 0 0 0 257.95016252012829 -65.283128301527483 0 -65.283128301527483 -10.19334573364938 0 0 0 0 271.34250569128562 -17.993235965739053 0 -17.993235965739053 -103.11927224253429 0 0 0 0 186.99120103409223 -63.126749276352371 0 -63.126749276352371 -127.15757742943316 0 0 0 0 -25.382138008673792 -96.93307589363792 0 -96.93307589363792 -87.523635948051037 0 0 0 0 1.7529920034054669 -0.68622585481162446 0 -0.68622585481162446 -0.86983883630046055 0 0 0 0 431.20591713777321 209.21525950539751 0 209.21525950539751 58.140099849955163 0 0 0 0 358.49990184808121 2.7102021814744006 0 2.7102021814744006 -36.414277868118575 0 0 0 0 305.11824116267962 78.247378111925698 0 78.247378111925698 -36.486657291546408 0 0 0 0 261.2143273732363 117.94834358501541 0 117.94834358501541 12.289067268251401 0 0 0 0 311.41093113983516 85.256439193831511 0 85.256439193831511 -53.807277817425778 0 0 0 0 309.22301425466139 67.58342801947083 0 67.58342801947083 -25.843740380800512 0 0 0 0 313.96347039012107 75.694850406346077 0 75.694850406346077 -44.860790221229934 0 0 0 0 -1.049952470253487 -1.72475389185837 0 -1.72475389185837 0.078048222743977491 0 0 0 0 124.54910678058513 20.348772853678383 0 20.348772853678383 -53.569972211904833 0 0 0 0 143.81513042539882 25.297029257845935 0 25.297029257845935 -100.69568150306463 0 0 0 0 138.92379687805078 11.748106859506095 0 11.748106859506095 -54.706784382049406 0 0 0 0 111.93574338615872 35.244653777490612 0 35.244653777490612 10.493132817396479 0 0 0 0 91.107878351525869 6.2419160404187863 0 6.2419160404187863 -28.633445669121954 0 0 0 0 124.48028998415975 30.977536505401115 0 30.977536505401115 5.8910649909639545 0 0 0 0 134.72075142367976 36.184916945425748 0 36.184916945425748 -30.437509198942223 0 0 0 0 143.83410531823392 49.070690262671732 0 49.070690262671732 -41.367003187075738 0 0 0 0 146.27036840250366 42.124827156071348 0 42.124827156071348 -61.713783368665361 0 0 0 0 125.08164154611859 25.792084591958481 0 25.792084591958481 -35.034417152979756 0 0 0 0 204.62665060925065 63.849898083741266 0 63.849898083741266 -94.183968681747999 0 0 0 0 175.36604558140243 73.89204265316188 0 73.89204265316188 -87.080897679495706 0 0 0 0 82.466186205521808 163.4766161200169 0 163.4766161200169 24.387237239714132 0 0 0 0 186.42242007086315 98.052466244784583 0 98.052466244784583 -62.360386575620282 0 0 0 0 -46.049407807289754 68.80910977888297 0 68.80910977888297 4.5891596821555254 0 0 0 0 -3.1373811857964142 7.4775585359190586 0 7.4775585359190586 -5.6772856704965111 0 0 0 0 117.96959651795623 71.636543051792472 0 71.636543051792472 -13.441840615235563 0 0 0 0 117.54394582394161 76.466838915223036 0 76.466838915223036 -64.435690129977814 0 0 0 0 117.2009175048006 49.34290854229878 0 49.34290854229878 -29.05746282687516 0 0 0 0 115.68836456444842 44.118701809061328 0 44.118701809061328 -20.147734490966101 0 0 0 0 103.01672362938021 36.781302525846243 0 36.781302525846243 -1.261824600756531 0 0 0 0 443.23542265215747 -544.07650439758095 0 -544.07650439758095 1017.9326008233181 0 0 0 0 1321.5268209271853 -659.83476552726438 0 -659.83476552726438 596.56214914661132 0 0 0 0 89.484375334512151 53.1644144883427 0 53.1644144883427 -22.961344980061455 0 0 0 0 15.956193376568699 13.866102147679982 0 13.866102147679982 -19.760550718515898 0 0 0 0 226.19419092409225 217.03523152041873 0 217.03523152041873 197.5988758082467 0 0 0 0 51.433596869548467 31.540233958039067 0 31.540233958039067 11.49359196032616 0 0 0 0 990.71551383289625 -1277.4165514978126 0 -1277.4165514978126 1275.1175769537588 0 0 0 0 1458.6096324920072 -1159.0955547940073 0 -1159.0955547940073 1140.4815593225699 0 0 0 0 16.622597429739919 1.9696679489704394 0 1.9696679489704394 0.48288014571613791 0 0 0 0 878.32809214261943 -1029.8471815390858 0 -1029.8471815390858 1125.806586101435 0 0 0 0 14.036680332439687 -2.7169211205512767 0 -2.7169211205512767 -8.3945205333204989 0 0 0 0 1018.1344225494031 226.11282420146654 0 226.11282420146654 -277.86810326245552 0 0 0 0 4980.3894529595418 -2155.0188956806478 0 -2155.0188956806478 1111.7252172469207 0 0 0 0 11.323920727789556 -3.925409330775409 0 -3.925409330775409 -3.435709604831561 0 0 0 0 1129.5838781637831 -957.26441931235263 0 -957.26441931235263 1653.19175379285 0 0 0 0 21.165034582822585 8.7302351180966298 0 8.7302351180966298 8.6930311071719242 0 0 0 0 4961.7943157623522 -2276.0226031640364 0 -2276.0226031640364 1171.9178989625643 0 0 0 0 528.11664780977299 2231.4483127146673 0 2231.4483127146673 3180.8039838500686 0 0 0 0 1072.1114314609295 136.32774606334507 0 136.32774606334507 -106.43995524740096 0 0 0 0 781.40439352187968 767.57349631849081 0 767.57349631849081 954.64198420483046 0 0 0 0 4989.512211474841 2572.5975351427769 0 2572.5975351427769 8.0374222424491322 0 0 0 0 584.69197454868117 -11.637407994418936 0 -11.637407994418936 169.44734310910417 0 0 0 0 449.78076931991382 180.00734477817741 0 180.00734477817741 55.255334166972716 0 0 0 0 473.23250989109511 163.21199638625149 0 163.21199638625149 83.92453221645701 0 0 0 0 128.48618427055771 150.50150103508713 0 150.50150103508713 156.89342887356179 0 0 0 0 287.95206940895878 200.21936892210579 0 200.21936892210579 75.103217385501921 0 0 0 0 121.15657966198523 129.83159741707902 0 129.83159741707902 54.441282765092183 0 0 0 0 290.49326751529588 207.64925882203715 0 207.64925882203715 -26.326059703849751 0 0 0 0 282.46688408631599 135.54833205910109 0 135.54833205910109 9.425718691354632 0 0 0 0 312.20209234948561 116.09338530130867 0 116.09338530130867 124.20713106874973 0 0 0 0 456.95301902084611 150.58230741457555 0 150.58230741457555 1.9137557375088363 0 0 0 0 593.18055876504513 95.973392378783501 0 95.973392378783501 -16.421734541709156 0 0 0 0 572.98471637662442 -122.2680906094829 0 -122.2680906094829 181.1779457949724 0 0 0 0 425.00923305292235 110.23119749379157 0 110.23119749379157 147.23527793694666 0 0 0 0 882.22610619264015 -66.795548188239081 0 -66.795548188239081 114.87100886988537 0 0 0 0 916.87833475160005 -377.13394733587756 0 -377.13394733587756 416.70265187261066 0 0 0 0 863.5652655226877 -255.58881181436391 0 -255.58881181436391 365.17926239678491 0 0 0 0 812.94515657497686 50.741639124648827 0 50.741639124648827 133.01987089661816 0 0 0 0 636.8203420380014 -36.012048430952746 0 -36.012048430952746 153.45339236658765 0 0 0 0 1119.9595925713438 -67.815754545493348 0 -67.815754545493348 176.30504889468102 0 0 0 0 591.20596161132562 22.812388895206368 0 22.812388895206368 288.04532973559071 0 0 0 0 1394.1758538177673 -640.17465078899613 0 -640.17465078899613 436.9299910429595 0 0 0 0 1084.9659920378472 -340.73356474173215 0 -340.73356474173215 400.39602995238511 0 0 0 0 1249.7706410450628 -220.632965961634 0 -220.632965961634 222.48401194140115 0 0 0 0 1812.5510519879645 -288.98186645692738 0 -288.98186645692738 311.23498394980743 0 0 0 0 1663.8121843659756 -654.86976817167783 0 -654.86976817167783 415.46551032402886 0 0 0 0 1216.2283934764855 -385.13656522074916 0 -385.13656522074916 800.56507792968523 0 0 0 0 1230.8887364683851 -231.38113940587488 0 -231.38113940587488 154.45094036838509 0 0 0 0 707.54088419871277 2.9521384365490064 0 2.9521384365490064 55.203362552847466 0 0 0 0 717.8517137185263 -129.55608826357229 0 -129.55608826357229 421.28447979452494 0 0 0 0 255.98466256701067 128.05168781715929 0 128.05168781715929 -154.39995740850281 0 0 0 0 267.74066486954689 52.454268775522905 0 52.454268775522905 255.33001075557058 0 0 0 0 145.78062118598609 90.326441101098681 0 90.326441101098681 296.83037831536285 0 0 0 0 -28.740751114935847 -193.19352827454395 0 -193.19352827454395 208.57645318606046 0 0 0 0 -0.96556713270862815 -0.062778444530778188 0 -0.062778444530778188 0.25518308518850219 0 0 0 0 16.546501548305969 -42.095425245777733 0 -42.095425245777733 -63.10743947753781 0 0 0 0 94.969139023043681 58.314772018433359 0 58.314772018433359 -50.715494729378406 0 0 0 0 91.64699085392931 15.933950173702101 0 15.933950173702101 -46.904017293805737 0 0 0 0 88.238554883431789 18.530843081521652 0 18.530843081521652 -17.714554240155849 0 0 0 0 -85.498394782742253 85.027920768410723 0 85.027920768410723 -6.5711913863120621 0 0 0 0 20.857701569657365 66.46126699405437 0 66.46126699405437 -59.885256252795898 0 0 0 0 -77.423303112838767 73.602027698351435 0 73.602027698351435 -43.535933849579237 0 0 0 0 54.979120129994158 41.921425765170312 0 41.921425765170312 -18.488430871550939 0 0 0 0 -104.29113740797038 149.55685914645755 0 149.55685914645755 -77.865570323562949 0 0 0 0 -51.487884546542773 123.57817455920826 0 123.57817455920826 -85.927550391542468 0 0 0 0 12.106062511929167 9.2193771217265805 0 9.2193771217265805 8.5205114749830777 0 0 0 0 164.33373772331106 -43.566330717213759 0 -43.566330717213759 9.8597595805002811 0 0 0 0 62.569778403951204 4.5049292025078103 0 4.5049292025078103 -8.5120456991492119 0 0 0 0 6.130247408973446 2.7432603762587462 0 2.7432603762587462 -11.484642908199291 0 0 0 0 165.2688180067853 97.089171395427456 0 97.089171395427456 11.401004419665696 0 0 0 0 -55.986246004205896 120.97449053651781 0 120.97449053651781 139.78770628880557 0 0 0 0 39.691347139802502 44.058019052756038 0 44.058019052756038 -32.882019079368391 0 0 0 0 -3.2602102600794751 64.248604879264064 0 64.248604879264064 -68.685618129916747 0 0 0 0 5.5698638634785311 90.692854095205121 0 90.692854095205121 -88.130038971253839 0 0 0 0 323.86796334473183 267.7251308703635 0 267.7251308703635 -53.207241510659514 0 0 0 0 205.15390628456953 213.04489472368277 0 213.04489472368277 24.952960721046111 0 0 0 0 -5.2421081064605346 10.572073755750068 0 10.572073755750068 -8.8226560837354668 0 0 0 0 134.64535209807764 228.77177782238846 0 228.77177782238846 183.7110929566843 0 0 0 0 2.9467797510151286 -16.780100315132586 0 -16.780100315132586 109.93178677961532 0 0 0 0 57.213082283236417 15.634359974533169 0 15.634359974533169 -13.755431975173607 0 0 0 0 189.97581908066059 -63.816827519116487 0 -63.816827519116487 -59.270582196746545 0 0 0 0 310.80693442596385 291.92213730912135 0 291.92213730912135 -470.20115009853907 0 0 0 0 132.27315357454063 349.45434730862826 0 349.45434730862826 -304.76745286298683 0 0 0 0 10.00166160052126 19.045049584767725 0 19.045049584767725 2.1345622079034587 0 0 0 0 -4.7331029971551004 61.898027713762815 0 61.898027713762815 -68.574069417600796 0 0 0 0 140.29826542078081 44.496744109711329 0 44.496744109711329 -15.964499952714903 0 0 0 0 111.27863453195528 46.847031081717503 0 46.847031081717503 -46.179151941145626 0 0 0 0 70.460076631134143 -27.059600338920916 0 -27.059600338920916 6.1871598412921855 0 0 0 0 42.00999702451459 -3.1221465130488184 0 -3.1221465130488184 -23.781260177248193 0 0 0 0 188.01417612016081 86.104075383487938 0 86.104075383487938 -39.206186899721402 0 0 0 0 181.66595733221038 114.09875186847421 0 114.09875186847421 -34.189084304496646 0 0 0 0 79.384925591541105 228.79906484907042 0 228.79906484907042 -70.412212610477582 0 0 0 0 159.53257650406158 -55.741840744231581 0 -55.741840744231581 9.0247784471681349 0 0 0 0 188.7730774449883 -8.9132295925704739 0 -8.9132295925704739 -17.617705909548476 0 0 0 0 82.912622650335834 13.435272976056325 0 13.435272976056325 -28.577556517621815 0 0 0 0 85.983446916055982 -14.538934863977431 0 -14.538934863977431 13.02456522125533 0 0 0 0 175.85119127568032 -1.4942155046128391 0 -1.4942155046128391 -13.961460073032242 0 0 0 0 180.79578543586831 -24.797368256128152 0 -24.797368256128152 -5.5892593505026866 0 0 0 0 155.46305888330971 57.715643314412318 0 57.715643314412318 37.633708449132143 0 0 0 0 123.79001218805206 -35.824643691117899 0 -35.824643691117899 -11.497887225488114 0 0 0 0 91.260853959131055 -9.1968934031813205 0 -9.1968934031813205 29.325894238032788 0 0 0 0 94.983477340108948 -14.045345523473628 0 -14.045345523473628 -16.426385172379696 0 0 0 0 67.287794885800395 -55.432110679773643 0 -55.432110679773643 -22.548052977407451 0 0 0 0 10.133210754316721 4.3335198734654483 0 4.3335198734654483 0.44868273022105143 0 0 0 0 164.0759761891677 36.838049498923283 0 36.838049498923283 -6.7843407594145901 0 0 0 0 22.448472760966979 -20.688318357230855 0 -20.688318357230855 -15.825777303804443 0 0 0 0 47.024185721478204 -28.44124546207847 0 -28.44124546207847 -10.779334496201924 0 0 0 0 34.713506630415225 -43.773594875463772 0 -43.773594875463772 -39.012420234626973 0 0 0 0 87.143921870469057 -19.447283928094734 0 -19.447283928094734 -13.705615048130312 0 0 0 0 107.4824904188572 -56.206050468936922 0 -56.206050468936922 -55.39416763719943 0 0 0 0 40.951688258086335 -25.861299391996589 0 -25.861299391996589 -5.2123594438066236 0 0 0 0 37.16461883635202 -46.528145098644984 0 -46.528145098644984 -97.422584630853265 0 0 0 0 43.870855115965242 -10.659560025744412 0 -10.659560025744412 31.082702950751063 0 0 0 0 349.33646470150416 77.802495573274427 0 77.802495573274427 -66.13196139818865 0 0 0 0 223.51359049735765 -7.8568539206626156 0 -7.8568539206626156 64.162681564310333 0 0 0 0 102.02326007597694 -42.205014590156424 0 -42.205014590156424 -29.055141912982123 0 0 0 0 -11.201666749315336 -80.660986560179936 0 -80.660986560179936 76.688928272109479 0 0 0 0 374.1295659500247 -120.88890088686549 0 -120.88890088686549 -79.186089551643818 0 0 0 0 63.979930144515251 -9.0266239003270101 0 -9.0266239003270101 -22.705575958437766 0 0 0 0 333.18908939887478 122.53136372482004 0 122.53136372482004 -21.101316090331238 0 0 0 0 528.02982772702671 -49.452266827573112 0 -49.452266827573112 -147.28745422984866 0 0 0 0 -2.1607744469292243 -8.2486987703595887 0 -8.2486987703595887 -4.3663415720422414 0 0 0 0 60.410535853050533 55.384246178502508 0 55.384246178502508 -21.214563297782661 0 0 0 0 361.39416594388604 -36.383915176349547 0 -36.383915176349547 -142.36477185607419 0 0 0 0 422.91584580716881 -110.53959957413917 0 -110.53959957413917 -12.855253093926876 0 0 0 0 297.86635645751085 17.612056864167243 0 17.612056864167243 -142.45939519743843 0 0 0 0 387.57505117118126 142.77073984039589 0 142.77073984039589 -56.045290772717635 0 0 0 0 172.09868830039886 170.56930368962526 0 170.56930368962526 -35.711089141095727 0 0 0 0 39.028776024433853 35.035822623785194 0 35.035822623785194 -24.365322203368223 0 0 0 0 208.40647824965708 -72.836504184375372 0 -72.836504184375372 -332.60324598221814 0 0 0 0 116.2849742660037 16.025586116744307 0 16.025586116744307 -33.717790119237179 0 0 0 0 137.0440730839054 -22.045706977934998 0 -22.045706977934998 -7.066553184902304 0 0 0 0 226.76494219890446 58.307398255095904 0 58.307398255095904 -125.09909615008655 0 0 0 0 285.64453975891229 22.435910931368198 0 22.435910931368198 -188.97372006045771 0 0 0 0 144.53381459080265 67.209065597202425 0 67.209065597202425 -243.92461487776018 0 0 0 0 236.34840773779433 -106.14893547049724 0 -106.14893547049724 -346.20960276575352 0 0 0 0 262.61581252966425 102.52857456492347 0 102.52857456492347 -144.04235174310088 0 0 0 0 260.79457170408568 75.228317953897204 0 75.228317953897204 -347.79750786116711 0 0 0 0 275.58935870003188 -12.513204334372858 0 -12.513204334372858 -76.874433696975757 0 0 0 0 184.25588273787037 72.953206867228644 0 72.953206867228644 -42.102984104854485 0 0 0 0 255.2831430644801 149.7608927798301 0 149.7608927798301 -239.21026240782521 0 0 0 0 233.49670392577536 128.01154581156879 0 128.01154581156879 -67.290167450448735 0 0 0 0 186.3068588317301 187.42795434874074 0 187.42795434874074 -141.86090621599578 0 0 0 0 240.08404752466595 211.91143044304954 0 211.91143044304954 -133.99656329118443 0 0 0 0 236.91022485861322 234.43142739573159 0 234.43142739573159 -211.86025753304057 0 0 0 0 277.99634527979651 206.587309786064 0 206.587309786064 -194.61625351920156 0 0 0 0 277.84514509420842 180.83708683483565 0 180.83708683483565 -281.53361905262136 0 0 0 0 237.66328750350294 82.603857911537943 0 82.603857911537943 -386.41945635151933 0 0 0 0 252.81496397391311 183.7708053726019 0 183.7708053726019 -266.5572770755316 0 0 0 0 295.08165078374441 244.11505222672895 0 244.11505222672895 -216.21581151716964 0 0 0 0 300.39712730923202 188.97750043467386 0 188.97750043467386 -146.35392287121613 0 0 0 0 364.28751936815297 222.02569245242694 0 222.02569245242694 -129.27558745403076 0 0 0 0 238.11211177930818 101.58210595764467 0 101.58210595764467 -145.97272628279825 0 0 0 0 237.44234884224716 85.432597088660259 0 85.432597088660259 -451.57068867965791 0 0 0 0 186.17163265537238 262.88496281665357 0 262.88496281665357 -166.42751483673055 0 0 0 0 322.21713818845456 236.81646972649378 0 236.81646972649378 -220.20970078257233 0 0 0 0 275.38112728792476 286.04704062814562 0 286.04704062814562 -260.99936492552479 0 0 0 0 840.25783064676216 -133.3204711377839 0 -133.3204711377839 -135.40493461447841 0 0 0 0 635.22062234422629 0.43049961093493039 0 0.43049961093493039 -34.547582880120899 0 0 0 0 708.10974194100709 -290.25257673539636 0 -290.25257673539636 79.469203328615549 0 0 0 0 376.74478236721734 64.122820515154672 0 64.122820515154672 10.718623876207857 0 0 0 0 316.27825701984693 203.91718494188899 0 203.91718494188899 -140.45679478345482 0 0 0 0 408.29095936534577 -88.848616394672717 0 -88.848616394672717 -49.787127785461053 0 0 0 0 108.71685230924049 97.380773984219559 0 97.380773984219559 -158.10000591389871 0 0 0 0 220.4464056797442 186.0153745922762 0 186.0153745922762 -260.03892602299675 0 0 0 0 318.84710242553047 123.06436327662755 0 123.06436327662755 -220.87828168986016 0 0 0 0 103.20991652307566 12.41187388956314 0 12.41187388956314 -409.19321937323366 0 0 0 0 308.46974361018511 94.300035488921822 0 94.300035488921822 -445.75188311867532 0 0 0 0 432.62256563658593 -341.38217426627489 0 -341.38217426627489 -228.78810860859267 0 0 0 0 -308.62938470990048 -91.202376519002428 0 -91.202376519002428 -304.63888724288699 0 0 0 0 451.06757037377974 273.38084034409167 0 273.38084034409167 -110.83534359424812 0 0 0 0 248.28112002418493 70.842990637451294 0 70.842990637451294 -737.861995402709 0 0 0 0 514.04410156607628 172.27513454498694 0 172.27513454498694 46.410645311327244 0 0 0 0 44.314068115459975 -13.198113616054727 0 -13.198113616054727 5.8851782482070547 0 0 0 0 192.07377284826362 -222.65111482594875 0 -222.65111482594875 -790.64936969164273 0 0 0 0 -16.124794873176143 -121.88352771073551 0 -121.88352771073551 -402.79125593705476 0 0 0 0 252.79908273043111 103.5699162384044 0 103.5699162384044 -442.97094961574476 0 0 0 0 71.909814969754905 -1.8590942231488015 0 -1.8590942231488015 6.1120612084609718 0 0 0 0 -99.37068049312802 42.140414410245285 0 42.140414410245285 182.71308014077658 0 0 0 0 35.960881394098422 20.687129325005543 0 20.687129325005543 -5.3041464296900642 0 0 0 0 122.1082217184703 -11.564660689234643 0 -11.564660689234643 -20.594430400909914 0 0 0 0 60.535398911917582 36.470565061812522 0 36.470565061812522 -88.189413059131766 0 0 0 0 -53.270542427082546 -127.32987807210884 0 -127.32987807210884 -219.63711153543409 0 0 0 0 42.589164944190998 40.147914511269846 0 40.147914511269846 21.867087652426562 0 0 0 0 91.906446005159523 138.02491182692029 0 138.02491182692029 25.845114846550359 0 0 0 0 551.16424889000336 -36.311603399690284 0 -36.311603399690284 46.09296355007973 0 0 0 0 1032.7386880245467 248.56750016207297 0 248.56750016207297 -109.80518097662616 0 0 0 0 543.75666333936169 -0.52951778768238 0 -0.52951778768238 -43.021298774845491 0 0 0 0 1156.4102842049324 537.26511350222518 0 537.26511350222518 239.01427032463107 0 0 0 0 2217.6116856172557 826.49991711348457 0 826.49991711348457 -221.66801482543451 0 0 0 0 1407.8499869367224 141.48138386524079 0 141.48138386524079 -156.45360756097216 0 0 0 0 91.561553903884487 24.784667978508878 0 24.784667978508878 -18.91825741516368 0 0 0 0 455.58222229981038 283.68630970731829 0 283.68630970731829 162.25621983626206 0 0 0 0 72.016397543833591 -11.27834994238583 0 -11.27834994238583 19.365532093412185 0 0 0 0 709.20152889403107 -402.8227943607144 0 -402.8227943607144 -110.1302876160189 0 0 0 0 -114.95721897308249 -141.24744685696351 0 -141.24744685696351 191.8790071348194 0 0 0 0 -198.19847652767203 267.49496231316516 0 267.49496231316516 -78.680317374802598 0 0 0 0 57.076708135560011 41.220604846758235 0 41.220604846758235 -33.42465727372209 0 0 0 0 36.286431927656963 23.268399379384789 0 23.268399379384789 -9.6707682846959813 0 0 0 0 1022.4011952204601 -861.69413581327535 0 -861.69413581327535 825.43817261632648 0 0 0 0 1425.5358365957945 -230.19193554340018 0 -230.19193554340018 -395.21444400505425 0 0 0 0 972.69093537784647 -758.2730199691523 0 -758.2730199691523 -296.01858891133452 0 0 0 0 706.33510118903359 -222.41721455017978 0 -222.41721455017978 -323.1663092427043 0 0 0 0 -72.426374780159676 160.30193784421499 0 160.30193784421499 -99.067741051934718 0 0 0 0 17.513814487156367 28.48669246424484 0 28.48669246424484 -0.87144738370939479 0 0 0 0 65.341737779561328 37.101653304786026 0 37.101653304786026 -63.713418537298999 0 0 0 0 -73.389005693657964 88.258912135263927 0 88.258912135263927 -110.97298669076554 0 0 0 0 -98.491341996552364 107.38769505303799 0 107.38769505303799 -115.07670727468394 0 0 0 0 50.336539903284574 -33.07957607723074 0 -33.07957607723074 56.821357929260557 0 0 0 0 104.79582707733425 28.083472669424282 0 28.083472669424282 -28.650499157673039 0 0 0 0 -124.75783600850264 131.43858852800258 0 131.43858852800258 -108.98575592449038 0 0 0 0 44.907395736696614 41.138760788762809 0 41.138760788762809 -71.53041959015772 0 0 0 0 46.564623162463249 10.452662807980232 0 10.452662807980232 -181.22086890574428 0 0 0 0 -3.6288683090792233 22.7751798810074 0 22.7751798810074 -5.4711608412038046 0 0 0 0 327.81923011213075 -360.38389811778325 0 -360.38389811778325 265.48418409693022 0 0 0 0 823.81518360479095 96.732442003869437 0 96.732442003869437 -16.385438920820889 0 0 0 0 1313.1523254711183 131.63832531410242 0 131.63832531410242 48.158093559486588 0 0 0 0 2.2777708270459698 2.2956113038607384 0 2.2956113038607384 0.81028214349186811 0 0 0 0 204.91409934495459 -6.7309043684908829 0 -6.7309043684908829 57.909102584463653 0 0 0 0 -88.899509652736015 95.6840169349598 0 95.6840169349598 25.461637176300428 0 0 0 0 7.1325285697267873 0.61472304377794984 0 0.61472304377794984 2.9998831384687747 0 0 0 0 105.57423949834265 -83.611153619889137 0 -83.611153619889137 81.847742365755039 0 0 0 0 272.75669346758514 -254.98819983255089 0 -254.98819983255089 -50.636444431173004 0 0 0 0 423.27714870055206 -173.62105372231599 0 -173.62105372231599 -91.416895274396666 0 0 0 0 1.0506157607254636 -0.10339896975882823 0 -0.10339896975882823 -1.4630078972409208 0 0 0 0 811.1081011725546 71.870810204985901 0 71.870810204985901 -44.133008987229914 0 0 0 0 180.77219626063015 245.29410872179506 0 245.29410872179506 198.63341286318609 0 0 0 0 143.2963791302318 76.207292756188963 0 76.207292756188963 57.816359048978484 0 0 0 0 1.9462086432591548 1.8246379257789442 0 1.8246379257789442 1.1683265507409146 0 0 0 0 394.25603470827627 161.84019674751289 0 161.84019674751289 82.26653463889852 0 0 0 0 364.63497037568595 131.83649725025862 0 131.83649725025862 549.83059578252687 0 0 0 0 505.92970200793934 274.22514264954589 0 274.22514264954589 153.73755908477324 0 0 0 0 629.9299298228143 -39.609989986216533 0 -39.609989986216533 -46.810114107400295 0 0 0 0 647.23547027857421 18.868541080777504 0 18.868541080777504 -37.906758790026288 0 0 0 0 -203.31138214403472 160.59258088792649 0 160.59258088792649 89.859913976255484 0 0 0 0 25.675687881855993 253.2710120370939 0 253.2710120370939 70.477457964564564 0 0 0 0 471.88740728261473 276.3624517210792 0 276.3624517210792 -49.316618914865103 0 0 0 0 6.4492029012326384 61.204988967219833 0 61.204988967219833 -120.72092487817463 0 0 0 0 127.12647555206786 260.96124198938196 0 260.96124198938196 -240.10461375827435 0 0 0 0 95.958413260189758 23.709245187620297 0 23.709245187620297 -26.432748195527566 0 0 0 0 83.069903639261611 28.830218437222356 0 28.830218437222356 -18.477711377370724 0 0 0 0 360.74985370984359 159.32889501877435 0 159.32889501877435 -285.16363702994022 0 0 0 0 440.01992095976311 -85.290056511202238 0 -85.290056511202238 -89.549855818167998 0 0 0 0 505.19703101044433 -33.19329034349721 0 -33.19329034349721 -217.18133863094045 0 0 0 0 303.47481374676863 161.44904267583297 0 161.44904267583297 -85.879613993890871 0 0 0 0 432.82577564139137 67.990300391150868 0 67.990300391150868 -251.61546808096318 0 0 0 0 462.24325800449878 -56.884534337206787 0 -56.884534337206787 -173.89972479679318 0 0 0 0 393.44346068128652 4.2289543213423713 0 4.2289543213423713 -143.09472093606018 0 0 0 0 376.94012405756803 -45.627630781436892 0 -45.627630781436892 -98.074097164600971 0 0 0 0 443.33589974902497 -79.181871733323533 0 -79.181871733323533 -145.32639360908433 0 0 0 0 352.05133868500707 -52.523238100800427 0 -52.523238100800427 -138.91439330928915 0 0 0 0 196.83902864261472 -26.662910884962912 0 -26.662910884962912 -103.20766098252079 0 0 0 0 348.4637912712642 -96.80883429946698 0 -96.80883429946698 -99.280660307889775 0 0 0 0 294.01752349887101 -16.267932418048076 0 -16.267932418048076 -51.44727246045295 0 0 0 0 122.79862190619315 15.893148132112401 0 15.893148132112401 69.599659739604704 0 0 0 0 197.90171489838394 -90.776145622083277 0 -90.776145622083277 16.553333061972808 0 0 0 0 476.83209573134081 23.053128120424844 0 23.053128120424844 18.053609698290529 0 0 0 0 481.57532791035192 121.93679342691848 0 121.93679342691848 225.57668294761334 0 0 0 0 475.2976168213354 -121.37105295867696 0 -121.37105295867696 109.9394163320394 0 0 0 0 325.98987493288587 -85.340475713055639 0 -85.340475713055639 90.967490518938575 0 0 0 0 469.32109214966476 -78.810254806439843 0 -78.810254806439843 -86.17845898255473 0 0 0 0 48.605103358495398 -32.234507235154069 0 -32.234507235154069 -43.411897820780268 0 0 0 0 6.6908153373515233 -45.536832508266514 0 -45.536832508266514 -38.068799623396899 0 0 0 0 163.08900100830942 -13.147437127466219 0 -13.147437127466219 -70.287129628144612 0 0 0 0 -74.119360105833039 -131.81350796035349 0 -131.81350796035349 -27.343099751968111 0 0 0 0 66.957681849780386 -15.414830300864793 0 -15.414830300864793 -39.249268257338066 0 0 0 0 53.231798680862994 -66.657335912399503 0 -66.657335912399503 -78.121651585856398 0 0 0 0 182.57013237375941 -116.09222277038236 0 -116.09222277038236 -170.21300927549964 0 0 0 0 115.92187715665204 11.378244049054047 0 11.378244049054047 -90.848330303640068 0 0 0 0 128.66867998609814 -4.7823157525745046 0 -4.7823157525745046 -15.672844106032016 0 0 0 0 39.843152894860395 -71.831597677844456 0 -71.831597677844456 0.48244079152209451 0 0 0 0 42.000070885711466 -79.431260800135078 0 -79.431260800135078 -38.473745749925001 0 0 0 0 53.177024163467507 -27.547126301591319 0 -27.547126301591319 -26.580985854015175 0 0 0 0 54.446093482656579 -32.119373479711612 0 -32.119373479711612 -39.467425248296422 0 0 0 0 60.677741789186257 -26.335403111880623 0 -26.335403111880623 -17.390787352621828 0 0 0 0 55.698666055568538 -43.852791726371265 0 -43.852791726371265 -34.655875897653459 0 0 0 0 73.681265982675541 -51.991217097905974 0 -51.991217097905974 -26.774022384870477 0 0 0 0 20.841622139409168 4.4324706664256013 0 4.4324706664256013 -8.7192760087934609 0 0 0 0 156.99081428058707 96.998681033635876 0 96.998681033635876 -32.091805367752386 0 0 0 0 813.89262953442903 48.399743000059061 0 48.399743000059061 -72.535061901890003 0 0 0 0 835.62444651672558 76.608460178578753 0 76.608460178578753 -55.52992051378078 0 0 0 0 273.90823495244695 -63.031584469736117 0 -63.031584469736117 77.344673092999074 0 0 0 0 205.33435121914226 61.970529560213436 0 61.970529560213436 49.999664695830006 0 0 0 0 156.70627946788591 13.833895696911895 0 13.833895696911895 2.4379693901701103 0 0 0 0 546.9702855380965 -224.79173795394581 0 -224.79173795394581 -5.2598723682531272 0 0 0 0 -63.449576468556188 -138.30417364857931 0 -138.30417364857931 -16.188029371389348 0 0 0 0 1.7457890263047346 -1.3763531478111162 0 -1.3763531478111162 3.0077460491787704 0 0 0 0 1354.3914758680376 558.54117369646826 0 558.54117369646826 39.28283325007942 0 0 0 0 724.14857643727737 342.53327960740171 0 342.53327960740171 264.72544268427555 0 0 0 0 902.99162216520199 217.59355879853956 0 217.59355879853956 -184.92870183660489 0 0 0 0 637.63734715058672 175.21619226478106 0 175.21619226478106 -14.81140385321487 0 0 0 0 179.00183525426837 -13.705447030108189 0 -13.705447030108189 -91.311824304215406 0 0 0 0 92.838312555468292 27.554159651775535 0 27.554159651775535 -53.500604197419307 0 0 0 0 98.300193480543726 39.649899846871385 0 39.649899846871385 -13.586933277829434 0 0 0 0 142.22058999712317 55.792866240569765 0 55.792866240569765 -57.251145914702647 0 0 0 0 19.945823109349703 -4.7743053180551698 0 -4.7743053180551698 2.2060649795464613 0 0 0 0 63.354289265102125 -41.392939577566722 0 -41.392939577566722 -79.489590845050316 0 0 0 0 138.48380511480354 145.43505429401011 0 145.43505429401011 83.748237085470464 0 0 0 0 -8.443794236865898 6.0073838960267203 0 6.0073838960267203 2.8703754702608961 0 0 0 0 398.89103478437755 447.50034678345401 0 447.50034678345401 127.40362359975916 0 0 0 0 510.48551692004548 -48.254261338761353 0 -48.254261338761353 -30.934802125335409 0 0 0 0 454.72387811112276 29.490297209425989 0 29.490297209425989 152.48541147948526 0 0 0 0 416.58557306549119 -107.06544433776571 0 -107.06544433776571 27.866383424079686 0 0 0 0 534.54455803707242 4.4437344130892598 0 4.4437344130892598 -67.178109572428184 0 0 0 0 603.22607781187617 58.848472063687495 0 58.848472063687495 -24.411263871807023 0 0 0 0 638.04058459070802 199.69318492434104 0 199.69318492434104 116.20608349101758 0 0 0 0 818.21049967524596 110.42249360390633 0 110.42249360390633 7.7658368041647918 0 0 0 0 235.3082655870214 -343.30062288426001 0 -343.30062288426001 -500.51885914074683 0 0 0 0 133.4843096265883 -52.528606242146047 0 -52.528606242146047 -31.669830019657528 0 0 0 0 235.50413719833668 212.85286548308895 0 212.85286548308895 -270.79877597357881 0 0 0 0 141.3430397016831 36.631479469813861 0 36.631479469813861 -15.827818007718388 0 0 0 0 97.272668682486255 147.42070459936076 0 147.42070459936076 -198.06544916547955 0 0 0 0 -12.638047895570708 261.11011838900367 0 261.11011838900367 -47.71251191461306 0 0 0 0 -20.244554341901676 56.885676185183655 0 56.885676185183655 4.8133238803320779 0 0 0 0 425.97303772877603 468.73503333843064 0 468.73503333843064 100.81751150528589 0 0 0 0 1375.4203012982734 -124.83515147218941 0 -124.83515147218941 -602.38863659469644 0 0 0 0 723.12133168332548 -69.056384969429814 0 -69.056384969429814 -66.375475725566503 0 0 0 0 643.76422452319639 -173.97028585989847 0 -173.97028585989847 52.076247834685546 0 0 0 0 1.5924057983966833 11.199670200987253 0 11.199670200987253 5.2887730841851628 0 0 0 0 0.010944981395368814 136.39386151343226 0 136.39386151343226 316.63276959478861 0 0 0 0 103.50504786277634 -2.5421413248844118 0 -2.5421413248844118 -84.771304682300809 0 0 0 0 22.083739819282542 -4.953227553351482 0 -4.953227553351482 3.488344277223872 0 0 0 0 518.79106405485891 -63.447552166087121 0 -63.447552166087121 22.196411851322068 0 0 0 0 561.95885353812264 56.277614730292726 0 56.277614730292726 -109.68413917954601 0 0 0 0 293.15553005984111 2.2517812805363064 0 2.2517812805363064 -95.712884387397025 0 0 0 0 397.00466391682858 -46.538135347025673 0 -46.538135347025673 -80.987070910967304 0 0 0 0 328.99299341516598 -107.88085500343823 0 -107.88085500343823 -15.427167595735227 0 0 0 0 317.39865579370962 23.944556202705826 0 23.944556202705826 -40.715996466307843 0 0 0 0 379.06890979123273 95.83221088182836 0 95.83221088182836 -76.39974895339401 0 0 0 0 -31.348384449659704 64.273363029865578 0 64.273363029865578 -36.655404408314475 0 0 0 0 143.95647546336113 114.06317753029998 0 114.06317753029998 -40.932162165085174 0 0 0 0 90.643259110467625 110.77605510301782 0 110.77605510301782 -57.439253076738169 0 0 0 0 105.99529513824837 12.033461026394463 0 12.033461026394463 0.4923203323080827 0 0 0 0 143.78564234322403 225.61229962758171 0 225.61229962758171 -106.05379757495894 0 0 0 0 122.29881965023458 42.071870731157972 0 42.071870731157972 -26.199318297922815 0 0 0 0 232.44847559831396 -21.333383360663447 0 -21.333383360663447 -96.988777206493978 0 0 0 0 205.28274751747085 61.585545983148222 0 61.585545983148222 -149.04479912376928 0 0 0 0 279.3520328845043 -74.055452325622355 0 -74.055452325622355 -61.657524335118069 0 0 0 0 228.32522855176649 -33.436221229534567 0 -33.436221229534567 -52.673968290722769 0 0 0 0 309.83485221446608 -85.087284767745587 0 -85.087284767745587 -41.635135428870854 0 0 0 0 257.93910809323643 -75.114775987218763 0 -75.114775987218763 -31.34767903068132 0 0 0 0 281.34247430140385 -115.56447586736249 0 -115.56447586736249 2.034249316133355 0 0 0 0 244.25302846152044 -69.921407826410359 0 -69.921407826410359 -13.33651110833398 0 0 0 0 274.18604981177486 -108.26498386238381 0 -108.26498386238381 2.1418276727636112 0 0 0 0 282.81615080028132 -165.86051069672976 0 -165.86051069672976 46.551487441232894 0 0 0 0 315.57881492856541 -108.94129907192837 0 -108.94129907192837 -13.699325154735561 0 0 0 0 335.27866687480127 -138.98446592454275 0 -138.98446592454275 8.5480542142167906 0 0 0 0 242.60567286873993 -189.18457758052136 0 -189.18457758052136 134.33903264023274 0 0 0 0 208.96471928837127 -116.32958735628017 0 -116.32958735628017 115.77615521777534 0 0 0 0 250.84020770827192 -121.83702787896618 0 -121.83702787896618 68.932891406737326 0 0 0 0 240.97633083451365 -100.43010817795039 0 -100.43010817795039 19.424673020813316 0 0 0 0 252.01300965018163 -109.21031362599297 0 -109.21031362599297 16.158392514422303 0 0 0 0 195.12980997982959 -85.804596007605141 0 -85.804596007605141 51.339192456143792 0 0 0 0 190.81674255026155 -70.859225372121728 0 -70.859225372121728 -17.105015126670878 0 0 0 0 240.85698392856284 -91.501389777584336 0 -91.501389777584336 -9.024458439402224 0 0 0 0 234.51051116047165 -60.753639575272246 0 -60.753639575272246 -21.799814499325294 0 0 0 0 205.04539908172956 -102.53274454123789 0 -102.53274454123789 -6.0953053789453406 0 0 0 0 147.4408015407389 -103.91577297121421 0 -103.91577297121421 -2.6340737524915312 0 0 0 0 194.82681196707017 -89.459917742654284 0 -89.459917742654284 9.6889486332511296 0 0 0 0 28.675615710180324 4.306824950743831 0 4.306824950743831 -6.6832769838091366 0 0 0 0 73.125358894976671 15.134597689209841 0 15.134597689209841 -73.717555022121815 0 0 0 0 200.86730602703756 45.46210695649097 0 45.46210695649097 -22.489264110463409 0 0 0 0 262.50607861649678 102.70061137925268 0 102.70061137925268 16.061000753205008 0 0 0 0 409.08677161026571 214.10410370155296 0 214.10410370155296 41.951728620990252 0 0 0 0 0.27867994057305623 -97.851094592340814 0 -97.851094592340814 -121.49773576587177 0 0 0 0 -20.635413099138532 -137.91225052478603 0 -137.91225052478603 -156.40173244196922 0 0 0 0 57.098792305507232 -92.225169519286283 0 -92.225169519286283 -208.21834740102349 0 0 0 0 -1.4463405302065553 0.34267774217569524 0 0.34267774217569524 3.400477214053538 0 0 0 0 -81.883113505551592 -98.460286709050706 0 -98.460286709050706 -103.33298811945133 0 0 0 0 76.755077289519249 27.179954776651357 0 27.179954776651357 -136.01911983653554 0 0 0 0 18.226460605451948 -14.206308648034437 0 -14.206308648034437 -11.777595891515077 0 0 0 0 55.283997717517195 -52.269103509461274 0 -52.269103509461274 -83.828309595989595 0 0 0 0 119.03414877952309 -35.475290739974298 0 -35.475290739974298 -143.40925501026868 0 0 0 0 107.62486306659412 -31.120288866259216 0 -31.120288866259216 -132.80227215498962 0 0 0 0 107.96665278251749 -40.797973089385778 0 -40.797973089385778 -163.68116372158875 0 0 0 0 169.70185421119095 -39.592866138804311 0 -39.592866138804311 -157.3203665741421 0 0 0 0 211.03690057074709 36.470017008276045 0 36.470017008276045 -139.5393930221536 0 0 0 0 133.64461086364463 0.30956229410367087 0 0.30956229410367087 -184.89435757128376 0 0 0 0 113.1592613340872 9.1736579853204603 0 9.1736579853204603 -140.4944635879001 0 0 0 0 82.429601935640676 20.778016928086799 0 20.778016928086799 -68.551462172463289 0 0 0 0 274.58459337909881 -0.19226209260523319 0 -0.19226209260523319 -177.82651782864923 0 0 0 0 131.95632075694448 -79.188347283771691 0 -79.188347283771691 27.804130280484969 0 0 0 0 327.74570838564978 -131.03052835182825 0 -131.03052835182825 -83.732523540995317 0 0 0 0 1.0286501897261076 0.1053356752545227 0 0.1053356752545227 -1.4504314115112606 0 0 0 0 192.77426661976278 -200.11569963124202 0 -200.11569963124202 -84.951337094793416 0 0 0 0 84.033419639206841 20.611559549100093 0 20.611559549100093 -149.39907124216506 0 0 0 0 110.13524684501317 -17.153390088716151 0 -17.153390088716151 25.028981450559513 0 0 0 0 161.49491464191669 -17.290644526303367 0 -17.290644526303367 -27.154715224056417 0 0 0 0 219.53430570523778 -74.798208155381872 0 -74.798208155381872 27.069617346416635 0 0 0 0 162.08531276175927 -66.200280832779754 0 -66.200280832779754 -1.5664012218494463 0 0 0 0 1.3916320143213454 -0.13782406858689455 0 -0.13782406858689455 -2.4732154901900572 0 0 0 0 193.65215404071205 -82.223622362051174 0 -82.223622362051174 29.539635105255002 0 0 0 0 181.4444008435712 -98.112094805073866 0 -98.112094805073866 25.89258425436492 0 0 0 0 155.7252531866252 -29.049646227525955 0 -29.049646227525955 59.675652745390835 0 0 0 0 187.22058693043437 -83.597302008863153 0 -83.597302008863153 40.938003096176544 0 0 0 0 204.88844563703606 -67.260432030515403 0 -67.260432030515403 41.452826686596381 0 0 0 0 129.02245342469541 -5.146266788487992 0 -5.146266788487992 228.665027815543 0 0 0 0 573.54242345319653 -98.192011493634709 0 -98.192011493634709 6.5220498995718117 0 0 0 0 -120.51795256129117 -249.47762505673199 0 -249.47762505673199 35.702275724328501 0 0 0 0 336.08492631938861 225.38343181288838 0 225.38343181288838 -233.26455639199412 0 0 0 0 317.25870846505859 -235.18106400770466 0 -235.18106400770466 -71.386604378960328 0 0 0 0 480.17503907249193 -184.40260266705445 0 -184.40260266705445 -423.30143120333469 0 0 0 0 558.8405950901215 -30.679752389882196 0 -30.679752389882196 -124.21943651225229 0 0 0 0 440.31439711441635 -109.76610915964829 0 -109.76610915964829 -24.804152172579052 0 0 0 0 327.52303839777596 -184.97513352375245 0 -184.97513352375245 -70.238485314361242 0 0 0 0 287.742805678281 -165.92088335284643 0 -165.92088335284643 20.848824111319118 0 0 0 0 325.00350503035042 -179.86362388940006 0 -179.86362388940006 21.193794422546489 0 0 0 0 281.56485044161991 -107.8380365085327 0 -107.8380365085327 -49.215181169725838 0 0 0 0 -194.95808879116521 138.84520278570562 0 138.84520278570562 -178.94129759708682 0 0 0 0 312.80196803183935 -237.25076718163837 0 -237.25076718163837 48.692746397617157 0 0 0 0 1.2259341372044616 1.0835514924766443 0 1.0835514924766443 -1.0821561005674951 0 0 0 0 -4.1714286593310135 -1.5461200594041884 0 -1.5461200594041884 -3.4491708566250239 0 0 0 0 -106.24232148522424 358.08356185256116 0 358.08356185256116 -435.02963209658992 0 0 0 0 3438.6184957097939 -390.76229694382766 0 -390.76229694382766 -1018.7991486194105 0 0 0 0 3066.6785216358548 116.32243925080218 0 116.32243925080218 -531.9637922233087 0 0 0 0 1648.7879530467326 -124.91205841184615 0 -124.91205841184615 -556.33892705030792 0 0 0 0 3196.8816762999777 -781.88235320945751 0 -781.88235320945751 -998.43984354329768 0 0 0 0 821.56921779679396 -445.77908340336876 0 -445.77908340336876 -476.64836930743513 0 0 0 0 4999.6356964037295 -1318.842177585107 0 -1318.842177585107 -1260.0894813903631 0 0 0 0 3487.4138076458548 -331.34755528694063 0 -331.34755528694063 -1065.976195253779 0 0 0 0 2648.1415595371873 -934.54562478098774 0 -934.54562478098774 -728.05012871747431 0 0 0 0 14.967691096244636 -2.3572872662560087 0 -2.3572872662560087 -4.8262856860077585 0 0 0 0 4994.4924582541362 -2975.7151556052249 0 -2975.7151556052249 948.66416006844202 0 0 0 0 1480.0807064677174 -1262.9163248816249 0 -1262.9163248816249 355.44849436152322 0 0 0 0 1007.0919556820008 -949.94502115895034 0 -949.94502115895034 246.64857462090902 0 0 0 0 2642.2984272951421 -988.01899451962538 0 -988.01899451962538 -610.94747555056915 0 0 0 0 21.607407868173027 -0.52536715029745551 0 -0.52536715029745551 -9.0785985696563856 0 0 0 0 2314.5319814999239 -2102.6157317261923 0 -2102.6157317261923 1252.6679095245358 0 0 0 0 580.59781743383792 -587.89153551616948 0 -587.89153551616948 991.30384647146036 0 0 0 0 10.432026102558552 -0.36992179541819326 0 -0.36992179541819326 -4.6954076474267508 0 0 0 0 7.3811846439996316 -1.4301134756624236 0 -1.4301134756624236 -4.8029205953234886 0 0 0 0 683.78202504108776 -1633.1038575012415 0 -1633.1038575012415 1153.0451116403547 0 0 0 0 1488.5585633012888 579.24090744703221 0 579.24090744703221 -424.7135379361016 0 0 0 0 3100.9866237564565 -797.17125078183244 0 -797.17125078183244 -701.49162089691254 0 0 0 0 1361.8808171452529 -54.346538170817382 0 -54.346538170817382 -108.97310647166705 0 0 0 0 1759.5401583842759 -32.527506985448213 0 -32.527506985448213 -52.564407010287368 0 0 0 0 1293.0355591881817 -268.25011898987532 0 -268.25011898987532 -98.475752112968877 0 0 0 0 1930.2135740576559 70.556506841391297 0 70.556506841391297 -1195.079557784027 0 0 0 0 882.37973372120177 1244.3475185867148 0 1244.3475185867148 -1600.922886875732 0 0 0 0 965.42087532344885 221.63049183936522 0 221.63049183936522 -127.4668061547689 0 0 0 0 562.93640887355286 -293.10831905618693 0 -293.10831905618693 211.13437361941556 0 0 0 0 1060.8350619380799 60.924425416827489 0 60.924425416827489 82.437386270588377 0 0 0 0 205.32431039126095 -26.010889520328192 0 -26.010889520328192 168.41508237504991 0 0 0 0 183.02481551410165 -72.661589652966313 0 -72.661589652966313 94.254993129590261 0 0 0 0 239.33110038687664 -1.5927030129923878 0 -1.5927030129923878 -49.365945302737828 0 0 0 0 103.69708748911216 37.682942932891592 0 37.682942932891592 70.121756385994559 0 0 0 0 2.8206837765173987 -45.397170032881149 0 -45.397170032881149 182.78738684887557 0 0 0 0 0.17493369650952673 -0.4234954652424392 0 -0.4234954652424392 2.7904770219046124 0 0 0 0 1281.8162125858034 -313.88329715622922 0 -313.88329715622922 -262.87452685233984 0 0 0 0 1354.2274444724808 -101.30619607925729 0 -101.30619607925729 -327.28428772037933 0 0 0 0 -104.34537371999613 -333.22693870627677 0 -333.22693870627677 340.43055363192479 0 0 0 0 41.551558869733299 8.4920189806230866 0 8.4920189806230866 0.80973716080591984 0 0 0 0 115.43318480898614 46.074205402266749 0 46.074205402266749 5.228539295960938 0 0 0 0 1268.9145141842646 230.23080780691654 0 230.23080780691654 26.649049875840774 0 0 0 0 136.67165066610323 23.713846518648722 0 23.713846518648722 6.7642654844681971 0 0 0 0 30.743038798880548 10.046026163804129 0 10.046026163804129 -2.6884349398676815 0 0 0 0 425.22061243719872 -708.73711426726663 0 -708.73711426726663 1126.1055679940396 0 0 0 0 152.09493118376122 49.677445016453206 0 49.677445016453206 7.3767521993476901 0 0 0 0 116.49502561937015 40.121089818414191 0 40.121089818414191 -3.3916109421819849 0 0 0 0 152.76079931640925 14.199081073767957 0 14.199081073767957 -51.98939136529998 0 0 0 0 760.78059407962428 390.88196760489541 0 390.88196760489541 -879.11154206550646 0 0 0 0 137.14916642817843 -80.942333710939693 0 -80.942333710939693 -211.03383156624932 0 0 0 0 212.50334570358973 -261.89451973280529 0 -261.89451973280529 16.622487185841237 0 0 0 0 9.5722401105886092 907.60970001708358 0 907.60970001708358 500.04646482104567 0 0 0 0 8.4207256952834086 -3.9924508109570525 0 -3.9924508109570525 2.3141750935176679 0 0 0 0 20.063956973273889 -127.50480492878046 0 -127.50480492878046 201.48373272151349 0 0 0 0 29.340826960130698 -7.2131145334544442 0 -7.2131145334544442 2.8086640703043386 0 0 0 0 17.013869112805423 -46.95615299426742 0 -46.95615299426742 -46.90638548973925 0 0 0 0 34.278641832555877 -62.978274924048037 0 -62.978274924048037 -67.3063704636088 0 0 0 0 140.0675148813898 -57.967010941134049 0 -57.967010941134049 -36.379506030948505 0 0 0 0 37.712954291462665 -65.130046301590028 0 -65.130046301590028 -31.431974605223786 0 0 0 0 71.866471052004613 -35.041932757523711 0 -35.041932757523711 -24.953278062461514 0 0 0 0 14.026140647059947 -59.041147476298192 0 -59.041147476298192 -29.257405154066873 0 0 0 0 110.82262107878685 26.243586692211863 0 26.243586692211863 -14.180434682662133 0 0 0 0 116.08670391353371 121.78262490626935 0 121.78262490626935 -51.779653817627832 0 0 0 0 184.41581430601946 12.051425143617848 0 12.051425143617848 -5.3742396529743814 0 0 0 0 39.787050841849123 -17.634185591671837 0 -17.634185591671837 33.060212581296128 0 0 0 0 17.852697650235768 1.1098524776303407 0 1.1098524776303407 -6.6866656096021453 0 0 0 0 27.487849769699096 -60.939038515942798 0 -60.939038515942798 -42.96088520409694 0 0 0 0 19.145049335365997 -29.714004046524174 0 -29.714004046524174 -30.106629337259434 0 0 0 0 -9.8839898995502153 -148.30006060111742 0 -148.30006060111742 -23.506255500182753 0 0 0 0 15.449674788673292 -64.63780704014988 0 -64.63780704014988 -61.053566398593134 0 0 0 0 115.23144781401788 -166.01447508065186 0 -166.01447508065186 41.799720458741028 0 0 0 0 70.513552027499827 -261.59891011885531 0 -261.59891011885531 -82.50266405181543 0 0 0 0 126.08915443816406 -63.560127466741193 0 -63.560127466741193 -18.32060070660183 0 0 0 0 -520.87535298093326 -428.04463920679916 0 -428.04463920679916 386.86938533514422 0 0 0 0 596.61508319813379 133.20088792041685 0 133.20088792041685 -173.83551991357626 0 0 0 0 473.51732225257138 42.815468131272581 0 42.815468131272581 -53.233445154155561 0 0 0 0 336.91072964998739 181.74824641923544 0 181.74824641923544 -46.327010760670362 0 0 0 0 -29.80606924220956 -285.47750773972552 0 -285.47750773972552 -120.37066315853076 0 0 0 0 294.1441531973469 -114.25477055945657 0 -114.25477055945657 -143.11883171547379 0 0 0 0 127.00605423300924 -64.541651030764172 0 -64.541651030764172 -16.450373353566452 0 0 0 0 132.89290838646411 -164.27404881699704 0 -164.27404881699704 -95.339446023651817 0 0 0 0 201.96529226613347 29.803077141072436 0 29.803077141072436 -31.32016132963038 0 0 0 0 343.37484956128355 -32.642679886891926 0 -32.642679886891926 -91.341153376154125 0 0 0 0 373.61966985065374 1.7826141743137214 0 1.7826141743137214 -169.52268752827808 0 0 0 0 292.56642968137749 13.011104040820896 0 13.011104040820896 -93.413789997316684 0 0 0 0 301.82774056712515 -93.93171513627297 0 -93.93171513627297 5.6483632601963336 0 0 0 0 529.99897984655399 -46.114382355025384 0 -46.114382355025384 -171.27112900450334 0 0 0 0 80.050924536614502 -69.483858774157369 0 -69.483858774157369 -66.132940619734313 0 0 0 0 345.12135792800109 -172.18792600339037 0 -172.18792600339037 -40.769579451007502 0 0 0 0 295.74617529682291 -164.75697610701391 0 -164.75697610701391 168.26286509681046 0 0 0 0 150.12707207292624 -23.928471101707864 0 -23.928471101707864 32.296689029212985 0 0 0 0 554.32646395810298 -83.986542780280487 0 -83.986542780280487 -3.4904501776864549 0 0 0 0 531.53919959214545 -74.424829416374592 0 -74.424829416374592 143.16439685683144 0 0 0 0 882.24975511639059 63.301650519594446 0 63.301650519594446 -62.222335436445348 0 0 0 0 458.82144137323485 708.3552886225134 0 708.3552886225134 351.8038211839131 0 0 0 0 2220.3407896396238 710.01479040191339 0 710.01479040191339 -50.727150100449649 0 0 0 0 3881.7336153542237 488.11989514006711 0 488.11989514006711 -74.899422641359365 0 0 0 0 -338.7323387600336 461.17810536455215 0 461.17810536455215 275.33202806135648 0 0 0 0 2.7152617154228551 5.1240153849790744 0 5.1240153849790744 5.6046097384366771 0 0 0 0 249.90787008211919 -49.114166155952262 0 -49.114166155952262 -173.42092954705754 0 0 0 0 378.50875216249551 79.289259930349203 0 79.289259930349203 -50.034402434381832 0 0 0 0 28.878125009759955 7.1523687502982511 0 7.1523687502982511 9.7215214463923623 0 0 0 0 67.684791233092255 89.736960999647295 0 89.736960999647295 -143.83236628853774 0 0 0 0 401.84860590071912 39.725564185869018 0 39.725564185869018 -262.8826004427201 0 0 0 0 404.81853325987504 146.89525049471627 0 146.89525049471627 24.859549242604771 0 0 0 0 30.845844450745801 11.790411774242585 0 11.790411774242585 -3.7898248888254482 0 0 0 0 304.22208543149463 454.03901326576374 0 454.03901326576374 551.52783205569813 0 0 0 0 770.05232614551642 537.55915024893079 0 537.55915024893079 471.69888126130371 0 0 0 0 407.25183975161417 -253.96543746000464 0 -253.96543746000464 -181.40014566721027 0 0 0 0 1218.4156591935862 -68.711270227222201 0 -68.711270227222201 -150.90244523990748 0 0 0 0 2861.6928927143963 854.4594718487092 0 854.4594718487092 -78.74557315272807 0 0 0 0 2911.5170943847725 1856.2739931513549 0 1856.2739931513549 249.97961152056908 0 0 0 0 2145.9603416781902 1319.733575530528 0 1319.733575530528 118.1362728882271 0 0 0 0 4997.2268830843423 1309.228565269517 0 1309.228565269517 -474.51580002013981 0 0 0 0 3620.0195022595326 875.08572382566376 0 875.08572382566376 -583.47965553504173 0 0 0 0 3556.3301555227881 722.76261599713848 0 722.76261599713848 175.08859898021592 0 0 0 0 2596.99444653914 37.842811414442394 0 37.842811414442394 -312.97077241779493 0 0 0 0 4999.1707491286506 136.73805049984009 0 136.73805049984009 -881.16339322694625 0 0 0 0 4458.4947348171154 -809.50976038463034 0 -809.50976038463034 174.12988216981614 0 0 0 0 -418.29803335487577 -327.74625182990451 0 -327.74625182990451 -220.66188555504687 0 0 0 0 19.82635519288532 -17.758905262384147 0 -17.758905262384147 7.6234058930922526 0 0 0 0 -846.26925736724752 -542.38754369214143 0 -542.38754369214143 -137.86182128607857 0 0 0 0 4.9263387983766478 14.317236850728602 0 14.317236850728602 24.212940877519721 0 0 0 0 -232.16934830848913 -464.18283213157872 0 -464.18283213157872 -318.17546052804687 0 0 0 0 283.09841396568754 -321.96276302075273 0 -321.96276302075273 -357.1262299323871 0 0 0 0 -45.260992460984198 -575.85475473503107 0 -575.85475473503107 -337.46835600034285 0 0 0 0 -93.833028225948979 -315.89704245036882 0 -315.89704245036882 -324.83629057117741 0 0 0 0 5000.1353780634036 -199.16537044218828 0 -199.16537044218828 -235.01977050050704 0 0 0 0 17.099528891212451 17.304758157925157 0 17.304758157925157 40.364770683573667 0 0 0 0 -94.100993293379361 -345.34818483638537 0 -345.34818483638537 -221.28617440253657 0 0 0 0 4701.5207094492798 732.86791920946325 0 732.86791920946325 145.32682817440181 0 0 0 0 79.093341292776657 -28.54639363451918 0 -28.54639363451918 -22.409281198897666 0 0 0 0 116.06074978636389 120.54575490785815 0 120.54575490785815 -180.20016630946884 0 0 0 0 3.4492136202182575 3.2949860221728002 0 3.2949860221728002 14.496142106632906 0 0 0 0 491.86807840550318 77.489113998585708 0 77.489113998585708 -203.64649498149993 0 0 0 0 6510.7367131979663 1480.5226557434221 0 1480.5226557434221 902.27480846047831 0 0 0 0 -479.65702559105557 83.575334902676474 0 83.575334902676474 749.0679223306995 0 0 0 0 5002.1751307313089 3670.3084781097446 0 3670.3084781097446 3011.6779253305995 0 0 0 0 4864.6860025239748 3179.0151673603364 0 3179.0151673603364 1292.8498822798094 0 0 0 0 184.83034186602163 1138.3217953818857 0 1138.3217953818857 2253.2421141236618 0 0 0 0 789.1879640468851 27.451204543121605 0 27.451204543121605 -41.601867909883822 0 0 0 0 1654.821146487684 1517.9144473981507 0 1517.9144473981507 955.27130640262408 0 0 0 0 93.249591020156942 -45.277960901705526 0 -45.277960901705526 -12.322763178511295 0 0 0 0 46.027682743810146 -277.65824194576362 0 -277.65824194576362 129.15985047301729 0 0 0 0 116.61198676144795 -163.37101673911025 0 -163.37101673911025 -282.10729383306574 0 0 0 0 180.14761334962805 -44.071883800021624 0 -44.071883800021624 -66.351894834374434 0 0 0 0 117.33314379758605 -47.314021003029488 0 -47.314021003029488 0.4608039592596942 0 0 0 0 245.51772513892138 24.338572502272655 0 24.338572502272655 -46.944717580595807 0 0 0 0 256.57700557113913 -23.450037220784594 0 -23.450037220784594 -49.271850841094874 0 0 0 0 234.85668683610129 44.32426947804197 0 44.32426947804197 1.3662791204723135 0 0 0 0 92.899163184267508 77.823155164836123 0 77.823155164836123 7.530344523128198 0 0 0 0 269.16807643460425 -35.42843720294502 0 -35.42843720294502 -271.58312677999402 0 0 0 0 384.907405621213 40.985955284668989 0 40.985955284668989 -318.64055702878937 0 0 0 0 37.912017942372231 9.031072308325232 0 9.031072308325232 -13.547637807251915 0 0 0 0 401.29960941547847 89.646023961730577 0 89.646023961730577 -948.40377114741909 0 0 0 0 331.95223663487559 155.66170358157387 0 155.66170358157387 29.270260771360199 0 0 0 0 -26.549512054761635 -264.51100642020839 0 -264.51100642020839 -657.35071372193943 0 0 0 0 610.33120793717717 -308.60518569485424 0 -308.60518569485424 -518.30380029338403 0 0 0 0 257.65347784543519 -155.35197028754385 0 -155.35197028754385 -288.38902049589655 0 0 0 0 290.72189392150722 -139.54504699286883 0 -139.54504699286883 -582.22659213062764 0 0 0 0 314.91715389671322 -360.02851987620556 0 -360.02851987620556 -331.90675821199534 0 0 0 0 567.55718275726372 31.293445214794843 0 31.293445214794843 -538.4013386306608 0 0 0 0 42.693957940496148 175.71803235244442 0 175.71803235244442 -281.55674542123597 0 0 0 0 -21.606206392231513 111.58381638068843 0 111.58381638068843 -231.97513967854007 0 0 0 0 159.49906899930147 133.02569658282553 0 133.02569658282553 -270.83508938263077 0 0 0 0 295.08999072587312 69.601095223166595 0 69.601095223166595 -419.99544777824644 0 0 0 0 -304.60009593827272 219.51002917697912 0 219.51002917697912 -358.39247433291894 0 0 0 0 -22.406956390900689 120.61847666589303 0 120.61847666589303 -327.69773125045504 0 0 0 0 -17.035846367431077 -175.09518165015621 0 -175.09518165015621 -775.75525610778323 0 0 0 0 36.845583783792449 -5.3342990987984003 0 -5.3342990987984003 -8.5607469950323285 0 0 0 0 -276.89982404214015 -275.16679206535025 0 -275.16679206535025 -109.93390880929491 0 0 0 0 -77.144271602555364 224.0487795361837 0 224.0487795361837 -217.44524488312163 0 0 0 0 133.60902658913383 -58.986900514063464 0 -58.986900514063464 -17.825684889673784 0 0 0 0 265.73816902526596 -24.453933314247479 0 -24.453933314247479 -28.686005016379028 0 0 0 0 -82.145183135753086 -137.78404211833055 0 -137.78404211833055 -67.510309426332867 0 0 0 0 -63.164778890485877 -241.57927471533247 0 -241.57927471533247 -158.68476995839944 0 0 0 0 7.8288208976939586 -39.552703219302764 0 -39.552703219302764 -67.639429553848927 0 0 0 0 126.33472921068142 -31.146983744205698 0 -31.146983744205698 29.210663661754552 0 0 0 0 1146.6567360858353 284.77278082757351 0 284.77278082757351 -102.337289501025 0 0 0 0 497.9887006601607 -224.94891682842658 0 -224.94891682842658 -118.26662153950562 0 0 0 0 534.01595909553998 162.45216615914535 0 162.45216615914535 -71.313399832894504 0 0 0 0 293.04334641112246 -44.206139700782416 0 -44.206139700782416 -241.53338644929573 0 0 0 0 181.47562685087223 -3.7351583450766555 0 -3.7351583450766555 -191.32102398511108 0 0 0 0 499.58588962735121 77.019511500226855 0 77.019511500226855 -288.05071122061065 0 0 0 0 505.78718802612781 -87.442206957779632 0 -87.442206957779632 -340.78219874608328 0 0 0 0 106.47863317162819 94.706494755308697 0 94.706494755308697 -216.02169279646171 0 0 0 0 333.81251567331083 -128.12919380323061 0 -128.12919380323061 -98.997332570212137 0 0 0 0 631.37142000012273 -105.78993032713397 0 -105.78993032713397 -127.58155460448731 0 0 0 0 3.8711223374955281 2.1834889761307696 0 2.1834889761307696 1.0911063595291635 0 0 0 0 259.49057354240904 278.10893346698003 0 278.10893346698003 252.69848257870177 0 0 0 0 -148.4918420019772 341.34034820289821 0 341.34034820289821 243.77927335643051 0 0 0 0 -30.844397127594817 -68.667074598043797 0 -68.667074598043797 77.984274142080665 0 0 0 0 12.985594501748665 78.729688770599296 0 78.729688770599296 331.80417899996576 0 0 0 0 289.77217399817317 125.24034523283228 0 125.24034523283228 188.3956119139873 0 0 0 0 282.83480654789929 132.94955788426103 0 132.94955788426103 329.45517426634478 0 0 0 0 305.50063007992139 -189.62903729849847 0 -189.62903729849847 -113.27694829493717 0 0 0 0 8.1389090019695107 4.2869593994424573 0 4.2869593994424573 1.2207663005672034 0 0 0 0 81.026280826167408 323.71356091075478 0 323.71356091075478 -188.14606942683449 0 0 0 0 115.24217864097898 108.6165733614054 0 108.6165733614054 -255.94201748466912 0 0 0 0 -58.397962274655583 85.758171726243916 0 85.758171726243916 -221.08059395287461 0 0 0 0 -84.11118198021677 236.24508791583833 0 236.24508791583833 -291.73487791520671 0 0 0 0 4.5969581729184572 1.9054387471272105 0 1.9054387471272105 0.0081143201350495353 0 0 0 0 742.77181868806792 -69.282141900201438 0 -69.282141900201438 -247.18695733929346 0 0 0 0 732.08874718959783 -142.06637603840264 0 -142.06637603840264 -287.38659119118489 0 0 0 0 646.08909013046787 -76.143613020831395 0 -76.143613020831395 -335.69965161484868 0 0 0 0 1133.9639352613622 -106.15361222438486 0 -106.15361222438486 -287.29652086795267 0 0 0 0 912.98139122206726 -121.83024511408766 0 -121.83024511408766 22.164253768829894 0 0 0 0 654.76040624789937 75.071755452919376 0 75.071755452919376 38.776787390008792 0 0 0 0 1404.3922350123678 254.73981466279696 0 254.73981466279696 69.185534562405309 0 0 0 0 2438.0958272696089 -442.96040730724894 0 -442.96040730724894 -150.099841844336 0 0 0 0 1670.0606433083708 -251.73838021518335 0 -251.73838021518335 -69.319437677654378 0 0 0 0 4997.387716921161 -510.08867805924518 0 -510.08867805924518 -1014.9543771140785 0 0 0 0 2359.9006731388035 -1159.6154264787699 0 -1159.6154264787699 -537.49972361718051 0 0 0 0 2700.2691535068993 -1094.7664559625041 0 -1094.7664559625041 -622.23478899775989 0 0 0 0 4500.5012438828053 -2622.3989539485074 0 -2622.3989539485074 -311.74231172272363 0 0 0 0 4998.6034160134868 -4792.6621490313737 0 -4792.6621490313737 568.93872382120162 0 0 0 0 327.9411764981287 -2416.7179551358577 0 -2416.7179551358577 188.67808343942772 0 0 0 0 1857.2676374042671 -1265.3189153533583 0 -1265.3189153533583 299.02269391587947 0 0 0 0 91.287181646755016 -342.97399249175078 0 -342.97399249175078 -181.9234122993588 0 0 0 0 915.70837998555771 -288.44114679735281 0 -288.44114679735281 -47.887198070326434 0 0 0 0 470.94578258711908 -689.09173551895742 0 -689.09173551895742 -592.60338446885817 0 0 0 0 -277.25370311234383 -650.63923158717103 0 -650.63923158717103 -332.81774457372126 0 0 0 0 2.4277912222566425 -8.761401607317012 0 -8.761401607317012 3.3594415824435888 0 0 0 0 -2781.4059561247245 -810.61361574381112 0 -810.61361574381112 251.71408387511724 0 0 0 0 5003.819157723904 689.70459037974263 0 689.70459037974263 33.684658692007709 0 0 0 0 6538.3191262216478 -2620.3652437971505 0 -2620.3652437971505 343.60510929438595 0 0 0 0 114.56362836495464 -87.98983363777802 0 -87.98983363777802 -339.15093351658379 0 0 0 0 169.73789474841442 -11.106487131742142 0 -11.106487131742142 -138.318103533672 0 0 0 0 175.44284922682414 1.7240627977162148 0 1.7240627977162148 -210.64424925885214 0 0 0 0 56.512067690408912 -18.40614910498698 0 -18.40614910498698 -235.12986465374769 0 0 0 0 -3.0169905660118399 2.3892892524914888 0 2.3892892524914888 -0.054636523821691707 0 0 0 0 -60.744406388632342 -296.49160074705867 0 -296.49160074705867 -760.09278540436162 0 0 0 0 58.125032135319998 105.84780191632461 0 105.84780191632461 -277.76212328311647 0 0 0 0 -16.64447168323386 314.23548870536393 0 314.23548870536393 -646.47926372838356 0 0 0 0 65.498705828271341 198.60417530932432 0 198.60417530932432 -210.45181093128531 0 0 0 0 190.77319037421057 160.93069623665929 0 160.93069623665929 -391.30058644086989 0 0 0 0 273.88784418134401 136.28045556629206 0 136.28045556629206 -169.06905729564687 0 0 0 0 201.52228261621735 94.702134333008487 0 94.702134333008487 -185.87770135316669 0 0 0 0 195.93135833948872 -25.955645834495726 0 -25.955645834495726 -193.76699360393684 0 0 0 0 373.28166200732085 -4.9869646129031935 0 -4.9869646129031935 -248.12279748033416 0 0 0 0 234.36261689892035 141.44120377793541 0 141.44120377793541 20.71533279536834 0 0 0 0 8.7225792506069411 13.58288405561829 0 13.58288405561829 -3.1914832007934333 0 0 0 0 213.90702740663983 -64.720450785498997 0 -64.720450785498997 -93.316686029816196 0 0 0 0 273.33762344466959 -68.451771102577368 0 -68.451771102577368 -128.76021135233987 0 0 0 0 188.85839656889584 -86.50629497430873 0 -86.50629497430873 -111.07204322733924 0 0 0 0 222.1367639594946 -43.48209712043581 0 -43.48209712043581 -55.686601004811564 0 0 0 0 171.66337741659299 -82.887776218758063 0 -82.887776218758063 -38.851834671688266 0 0 0 0 301.46650668870598 -19.825373031711251 0 -19.825373031711251 -65.884558979309077 0 0 0 0 188.75364398598322 32.109908455013283 0 32.109908455013283 -24.251344724024761 0 0 0 0 101.53780428360304 49.182256704780798 0 49.182256704780798 -29.458716736185295 0 0 0 0 234.64872965918255 -63.35253066573091 0 -63.35253066573091 -34.982916630418913 0 0 0 0 238.60343777516459 -28.597990842535211 0 -28.597990842535211 4.8538028844623113 0 0 0 0 123.06418890642263 -70.152011890625971 0 -70.152011890625971 6.6017842517232701 0 0 0 0 183.77956047187399 -48.586940194717045 0 -48.586940194717045 -11.626715774706099 0 0 0 0 215.49853425334732 -24.858515186555451 0 -24.858515186555451 -4.9887367642586469 0 0 0 0 120.72828986541187 -70.256437390607658 0 -70.256437390607658 10.307885796270632 0 0 0 0 171.53349069769746 -70.437455287952346 0 -70.437455287952346 -36.912371672672634 0 0 0 0 109.4947729140622 -126.46926760911811 0 -126.46926760911811 -37.039662683165886 0 0 0 0 28.549865249018175 -13.48130168028128 0 -13.48130168028128 -16.341115041375268 0 0 0 0 55.739059303131398 -61.126958324813813 0 -61.126958324813813 -79.87682006630348 0 0 0 0 134.92272546891218 -128.43598405378452 0 -128.43598405378452 -200.34864767069126 0 0 0 0 150.95976841711672 -77.060241507318096 0 -77.060241507318096 -81.138704927574508 0 0 0 0 170.19612215816596 -58.676331630393179 0 -58.676331630393179 -68.415632630129494 0 0 0 0 178.49744424561504 -100.12400905542927 0 -100.12400905542927 -121.7004109401862 0 0 0 0 143.61319070383615 78.59185537341375 0 78.59185537341375 -46.537043737318911 0 0 0 0 181.50751747623553 92.145761912686964 0 92.145761912686964 -48.186354179601835 0 0 0 0 64.752264153357828 -99.985214780065689 0 -99.985214780065689 -202.50261807705192 0 0 0 0 32.752948813110038 14.894313690968389 0 14.894313690968389 -14.787325148399395 0 0 0 0 214.41150920135988 -30.398881157414166 0 -30.398881157414166 -26.76353587885751 0 0 0 0 213.97627614594239 -30.931339133895563 0 -30.931339133895563 -26.50565305093005 0 0 0 0 147.75158158033344 35.051799449664195 0 35.051799449664195 -19.078260729909104 0 0 0 0 139.89276457588312 27.927952021659735 0 27.927952021659735 -52.819761625143599 0 0 0 0 138.93278991264526 35.789252553449344 0 35.789252553449344 -21.205927657699554 0 0 0 0 148.90702317860428 54.059997940700768 0 54.059997940700768 -113.42560764603257 0 0 0 0 181.12750427833544 59.893736929006991 0 59.893736929006991 -115.53639459507946 0 0 0 0 140.51342775300918 139.15875370684978 0 139.15875370684978 -223.39650335012266 0 0 0 0 130.96916995127458 66.874977433326308 0 66.874977433326308 -10.433472442774814 0 0 0 0 108.55388393773956 96.186851666470432 0 96.186851666470432 -47.436303959744578 0 0 0 0 143.26624671398034 58.847936158223845 0 58.847936158223845 -85.811530341471553 0 0 0 0 1.4744704664113506 -2.8918335599002809 0 -2.8918335599002809 2.0969358663165543 0 0 0 0 84.091311134351599 8.3754983698015053 0 8.3754983698015053 -79.296783127441842 0 0 0 0 171.28971475994035 10.574172181589152 0 10.574172181589152 -188.34409169670181 0 0 0 0 376.76357164567708 -253.63456112484073 0 -253.63456112484073 -172.72979049549716 0 0 0 0 -41.141808332812616 -226.60894598698215 0 -226.60894598698215 -167.01475206196332 0 0 0 0 711.41303006608086 -111.82244363762108 0 -111.82244363762108 -338.62026144263677 0 0 0 0 281.7860555839643 -8.0052079721587006 0 -8.0052079721587006 -225.37236902514388 0 0 0 0 287.2845398622344 14.14847331550115 0 14.14847331550115 -263.1750472912841 0 0 0 0 395.02081245350206 -15.653186139004127 0 -15.653186139004127 -253.41990955013773 0 0 0 0 497.08234393822977 -60.465332320254255 0 -60.465332320254255 -303.17367223871241 0 0 0 0 482.21940216620624 -93.483438188154068 0 -93.483438188154068 -301.87532635518642 0 0 0 0 233.76212495186655 169.85413123505589 0 169.85413123505589 -778.3537580263378 0 0 0 0 63.624958256323225 283.76280119264004 0 283.76280119264004 -8.7169715517799506 0 0 0 0 238.69102898722213 115.96218642837835 0 115.96218642837835 -299.69987767074588 0 0 0 0 290.71484729137364 75.512414126476273 0 75.512414126476273 -268.2589824792592 0 0 0 0 400.43879795572047 10.67484964660585 0 10.67484964660585 -433.63613532056547 0 0 0 0 -98.179337560372915 -23.12810339280054 0 -23.12810339280054 -272.31889199847467 0 0 0 0 271.65211002674505 78.084369705391097 0 78.084369705391097 -258.50288085735497 0 0 0 0 38.370404765415515 128.08577295730379 0 128.08577295730379 -63.368542665633868 0 0 0 0 266.62707672816543 -60.998126190156192 0 -60.998126190156192 -227.96948265406894 0 0 0 0 413.780720009162 58.703176798072789 0 58.703176798072789 -131.76733261275305 0 0 0 0 498.93383754252363 -124.58631802301461 0 -124.58631802301461 63.317779634931611 0 0 0 0 501.89891042127272 283.06582380040504 0 283.06582380040504 -5.6747214801742416 0 0 0 0 164.35090877525181 91.752250971829511 0 91.752250971829511 -61.734633070887753 0 0 0 0 546.36354949772203 -20.593946975785173 0 -20.593946975785173 -293.26435707560125 0 0 0 0 508.34267733602519 -67.945732686270617 0 -67.945732686270617 -246.70494390824445 0 0 0 0 473.2469898246261 -69.27125671418456 0 -69.27125671418456 -37.375158440663569 0 0 0 0 556.55097599451778 143.34726353599004 0 143.34726353599004 40.538520074908007 0 0 0 0 373.18366273618688 19.222859386221856 0 19.222859386221856 333.90427768899974 0 0 0 0 336.10276398366136 -0.15247316080176887 0 -0.15247316080176887 327.01852627054836 0 0 0 0 484.95547227534189 70.380321112760043 0 70.380321112760043 185.12800812997367 0 0 0 0 49.192364271921178 261.5361615178798 0 261.5361615178798 279.66738935925639 0 0 0 0 384.28985310527491 66.739736898920029 0 66.739736898920029 408.03526949577531 0 0 0 0 470.33394390830381 28.342758929842773 0 28.342758929842773 208.78259813474824 0 0 0 0 663.43509357850689 123.28897096418444 0 123.28897096418444 249.92374040732932 0 0 0 0 4.0679240915026389 2.6694217446147865 0 2.6694217446147865 2.4316058337992992 0 0 0 0 376.73764489672362 -276.58707664723687 0 -276.58707664723687 113.47135696852297 0 0 0 0 -44.640053165879181 85.485641062707259 0 85.485641062707259 194.76395279008943 0 0 0 0 800.10194724806979 -234.11274054766071 0 -234.11274054766071 117.69637212982286 0 0 0 0 -3.2207970568633755 31.223910010455256 0 31.223910010455256 -40.31497779140318 0 0 0 0 -6.5612965643740608 -11.0929746612901 0 -11.0929746612901 -136.61898106208855 0 0 0 0 -73.701939690473409 -8.8607622855176942 0 -8.8607622855176942 67.609312467334121 0 0 0 0 -20.406151740038695 101.58427630909387 0 101.58427630909387 146.74525082266962 0 0 0 0 -63.415860356371923 -25.616288127211646 0 -25.616288127211646 -0.86724284011506825 0 0 0 0 1.4409546040515124 35.75081614454848 0 35.75081614454848 -50.127972926543521 0 0 0 0 5.7426071732170385 48.167638369180168 0 48.167638369180168 -32.846701419392048 0 0 0 0 -3.7533483915503894 64.733726792901734 0 64.733726792901734 -95.517675353142749 0 0 0 0 -4.2415056583802198 13.117962711972531 0 13.117962711972531 -35.855514417925406 0 0 0 0 -7.8810733174741472 51.452874669349399 0 51.452874669349399 11.317407944472507 0 0 0 0 2.3421605394942162 49.948637900824792 0 49.948637900824792 15.068483148278801 0 0 0 0 -6.1651051279186504 30.58282878319369 0 30.58282878319369 -14.390606744733077 0 0 0 0 22.801372881113821 70.100368553256317 0 70.100368553256317 9.8757018500768936 0 0 0 0 15.476901615265888 111.26520713247368 0 111.26520713247368 77.435230248723656 0 0 0 0 -33.775502366746878 45.292987345774691 0 45.292987345774691 33.460556053728624 0 0 0 0 3.1451133451741953 81.490152836363166 0 81.490152836363166 22.239540920464151 0 0 0 0 28.672748645885804 125.14244672624791 0 125.14244672624791 87.209922935736074 0 0 0 0 6.2980973219964653 114.45186664262431 0 114.45186664262431 93.445636514619196 0 0 0 0 170.85063942249872 225.45572380525968 0 225.45572380525968 -43.432900387534858 0 0 0 0 62.782495359137101 212.50793989533634 0 212.50793989533634 111.6618411228576 0 0 0 0 41.842448849601169 159.66524346876457 0 159.66524346876457 -21.589263813048603 0 0 0 0 43.834048471571805 130.06867867608784 0 130.06867867608784 46.362722821929736 0 0 0 0 80.77335783196304 156.77432379419221 0 156.77432379419221 -99.616010887636662 0 0 0 0 80.45512757254437 169.43471141379013 0 169.43471141379013 -19.158228905608439 0 0 0 0 94.768359178649007 217.93538315900099 0 217.93538315900099 -104.70920805026719 0 0 0 0 129.22480742595417 146.10106745240796 0 146.10106745240796 -101.84970993138961 0 0 0 0 127.79614074698338 161.75339527665147 0 161.75339527665147 -190.98966963879934 0 0 0 0 95.025927431866876 215.98343433273834 0 215.98343433273834 -186.89112078958388 0 0 0 0 84.263241998319927 163.60095956827615 0 163.60095956827615 -84.387108095589269 0 0 0 0 166.4953633303985 19.081849144320941 0 19.081849144320941 -138.1952578791585 0 0 0 0 123.5215288791569 3.2792381794529319 0 3.2792381794529319 -73.00784431679827 0 0 0 0 152.3494445041415 135.99583001888703 0 135.99583001888703 -188.52923774637588 0 0 0 0 191.01281800804736 83.989221231479931 0 83.989221231479931 -118.88045129788338 0 0 0 0 91.808743455370859 95.60436480339763 0 95.60436480339763 -91.385164953475567 0 0 0 0 98.449201179844749 119.17915051021079 0 119.17915051021079 -38.149815998194583 0 0 0 0 38.605125525712083 108.81592235830972 0 108.81592235830972 -39.630828266676929 0 0 0 0 85.086336674961785 65.600810032501329 0 65.600810032501329 -54.118103017161786 0 0 0 0 95.578365555390519 41.255870764104884 0 41.255870764104884 -41.683416177385425 0 0 0 0 91.944048663532158 31.015995877489786 0 31.015995877489786 -66.383628381086453 0 0 0 0 62.023304359279791 43.976611226308023 0 43.976611226308023 -40.251405093706126 0 0 0 0 53.018807400640071 31.674071930731316 0 31.674071930731316 -33.058621325102536 0 0 0 0 76.52039824838721 33.029582191793452 0 33.029582191793452 -33.892681981972828 0 0 0 0 75.039604480059097 21.922182686145369 0 21.922182686145369 -34.206115268007579 0 0 0 0 54.231795116718786 83.41140120905834 0 83.41140120905834 -1.3539721977435875 0 0 0 0 21.181585996746435 64.417453613878024 0 64.417453613878024 -8.5509106562245734 0 0 0 0 50.35183045114718 68.7811782446704 0 68.7811782446704 -34.266440413811893 0 0 0 0 66.239084972546152 53.833451088552692 0 53.833451088552692 -20.279560787265837 0 0 0 0 37.288750292475015 41.723928430098113 0 41.723928430098113 -25.341218228715661 0 0 0 0 42.650356676661431 52.574430866632781 0 52.574430866632781 -10.438124898184924 0 0 0 0 18.539675758087469 35.481218258525587 0 35.481218258525587 -21.14274563838535 0 0 0 0 21.352402919685119 39.541740710136764 0 39.541740710136764 -15.779675704605097 0 0 0 0 25.242790829448495 39.572156419044404 0 39.572156419044404 -25.068970473011632 0 0 0 0 27.213214175399116 42.367854234330025 0 42.367854234330025 -21.796492263829805 0 0 0 0 36.959647711998514 26.457033918540105 0 26.457033918540105 -33.964977147680656 0 0 0 0 23.45443537518986 24.160239403232936 0 24.160239403232936 -40.783604899387001 0 0 0 0 4.7864436873011869 28.367560360691584 0 28.367560360691584 -30.743630405973818 0 0 0 0 24.115695503112875 34.989347619642558 0 34.989347619642558 -48.781936297383481 0 0 0 0 66.6954354127638 21.147206910492059 0 21.147206910492059 -38.790997368521403 0 0 0 0 54.985453047243936 37.105484116614207 0 37.105484116614207 -28.375905682792336 0 0 0 0 39.6806718794669 32.847472068335037 0 32.847472068335037 -36.60409375092604 0 0 0 0 52.574960200467103 19.375156392464532 0 19.375156392464532 -43.922245402302508 0 0 0 0 61.640312573240863 26.402040580767448 0 26.402040580767448 -40.984349441537233 0 0 0 0 65.763054760840987 14.574967618756318 0 14.574967618756318 -43.019876941354596 0 0 0 0 85.951724815909984 19.144754216318915 0 19.144754216318915 -43.889050579578793 0 0 0 0 83.441669800822638 11.256369831593929 0 11.256369831593929 -40.546712583001863 0 0 0 0 86.593327954737106 -2.3746010488298452 0 -2.3746010488298452 -46.254720060002683 0 0 0 0 93.29780599413607 13.063100227210043 0 13.063100227210043 -49.640374111620758 0 0 0 0 83.634658521108577 6.0520696043213889 0 6.0520696043213889 -36.009320961232845 0 0 0 0 82.357612576546671 8.4654931880809272 0 8.4654931880809272 -66.710500123761676 0 0 0 0 110.28901092010801 -16.419007540073594 0 -16.419007540073594 -18.471149787373065 0 0 0 0 96.372172832242541 17.967680501456897 0 17.967680501456897 -37.095724774362907 0 0 0 0 98.567099869602316 3.3937093211072522 0 3.3937093211072522 -23.144419837538805 0 0 0 0 91.658926195010281 26.436461408012264 0 26.436461408012264 -37.950660278955269 0 0 0 0 70.361675020079929 26.234870513610701 0 26.234870513610701 -35.217863673313104 0 0 0 0 -105.22243219858137 76.740485669422924 0 76.740485669422924 -290.80597558885165 0 0 0 0 -114.27067546958824 -7.3125968787271631 0 -7.3125968787271631 -161.82906011280284 0 0 0 0 -205.68030582316806 -9.6243469742403249 0 -9.6243469742403249 105.69054684969888 0 0 0 0 -152.15300167013265 -24.872843594938786 0 -24.872843594938786 -31.153152433296782 0 0 0 0 -164.93756726794527 9.6412584366262308 0 9.6412584366262308 76.450026509766758 0 0 0 0 -154.73889678746127 15.720164937363734 0 15.720164937363734 73.39117486921532 0 0 0 0 -368.84228849879037 105.86059965370259 0 105.86059965370259 -74.171825876844196 0 0 0 0 -1.7105076429248456 -9.0940517877648848 0 -9.0940517877648848 -33.800652601229999 0 0 0 0 94.776449077528014 -9.6801402680018782 0 -9.6801402680018782 -48.113722088156692 0 0 0 0 44.18997279586074 -209.99500725948633 0 -209.99500725948633 -99.587970136110926 0 0 0 0 -154.47670449653742 19.307857727555529 0 19.307857727555529 77.644085549804004 0 0 0 0 71.543161256689928 -21.330667429509958 0 -21.330667429509958 -50.86002774690769 0 0 0 0 1251.6833269917406 -68.049215390569088 0 -68.049215390569088 -189.33345203169029 0 0 0 0 -207.05253081552837 -353.14103105463892 0 -353.14103105463892 -20.467662571081746 0 0 0 0 -611.87387426905025 -632.75890133922712 0 -632.75890133922712 -291.91366280982766 0 0 0 0 0.79721823333051711 -3.420284468277746 0 -3.420284468277746 -5.2982189301043512 0 0 0 0 -1938.0723086211574 -268.45972617740108 0 -268.45972617740108 341.7403451952614 0 0 0 0 -614.36060687041117 415.63168223463936 0 415.63168223463936 -370.64733459214403 0 0 0 0 -0.75611975031700673 -5.158783009351195 0 -5.158783009351195 -19.606527011110977 0 0 0 0 537.41804673960632 6.1044304887695944 0 6.1044304887695944 205.12642326154219 0 0 0 0 441.89849335247709 208.17905926017238 0 208.17905926017238 458.96254272350961 0 0 0 0 147.5627369792237 -198.10654824849553 0 -198.10654824849553 598.42735134825261 0 0 0 0 424.55487598006039 -305.00168935068314 0 -305.00168935068314 -227.9001446673974 0 0 0 0 612.06019492201813 -112.25669665599571 0 -112.25669665599571 -278.59856061788469 0 0 0 0 922.80559456593528 -302.10499888154845 0 -302.10499888154845 -859.15059564025705 0 0 0 0 -1053.631866724726 -758.91515014743618 0 -758.91515014743618 -255.39630571776433 0 0 0 0 -2199.1695386805604 -213.89953133263316 0 -213.89953133263316 641.69287277262083 0 0 0 0 -2.5622561577480107 -12.980720075223854 0 -12.980720075223854 -18.86598836971207 0 0 0 0 106.07102864283479 -6.876426198584511 0 -6.876426198584511 -11.344498921809645 0 0 0 0 105.95870518067204 -2.8936493605693272 0 -2.8936493605693272 -55.963006838066008 0 0 0 0 102.73124651393482 10.013442848974464 0 10.013442848974464 -28.530926428961607 0 0 0 0 139.67405072434485 -0.30925137248178203 0 -0.30925137248178203 -36.017353130458034 0 0 0 0 174.24401263664458 -28.068577042216646 0 -28.068577042216646 -31.707297698449594 0 0 0 0 123.73377883659123 11.405846170628024 0 11.405846170628024 5.8141559896891977 0 0 0 0 147.37739223173139 14.278072555115926 0 14.278072555115926 -20.906654914478054 0 0 0 0 107.35024840967526 -61.527863955863779 0 -61.527863955863779 17.18829411662341 0 0 0 0 97.028715064956486 -134.71406959220963 0 -134.71406959220963 -77.105201466059498 0 0 0 0 121.40367946658614 -14.50347568306157 0 -14.50347568306157 -47.443238365645129 0 0 0 0 107.50851016109664 -81.808358809962044 0 -81.808358809962044 -109.874816520384 0 0 0 0 79.798824372843228 9.1064689986415033 0 9.1064689986415033 -246.11663518240925 0 0 0 0 172.86936503444031 -96.385293970898914 0 -96.385293970898914 -194.15547489786786 0 0 0 0 202.94981968820503 -66.9560666402881 0 -66.9560666402881 -165.72105516754846 0 0 0 0 174.5378825296491 -78.281512666458525 0 -78.281512666458525 -276.81909949533292 0 0 0 0 291.8021210971001 -27.643523021199144 0 -27.643523021199144 -268.82997664901677 0 0 0 0 186.28191383303238 -89.688361424955019 0 -89.688361424955019 -229.27794753059607 0 0 0 0 25.927366383753739 -6.0481200337783179 0 -6.0481200337783179 -3.1796951678256287 0 0 0 0 92.358177258565547 151.49073275581569 0 151.49073275581569 -429.31641563379344 0 0 0 0 64.503594306304876 15.707817372937143 0 15.707817372937143 30.480487208757268 0 0 0 0 157.60855410788179 -24.392879060790058 0 -24.392879060790058 -4.910986012927939 0 0 0 0 305.92280883336571 15.384837783046805 0 15.384837783046805 -178.27415209048343 0 0 0 0 487.68733175431771 -108.94430480483061 0 -108.94430480483061 -130.52895222566303 0 0 0 0 -190.8123609600334 250.23410591362699 0 250.23410591362699 -259.00682786843663 0 0 0 0 -343.10469229094451 -346.57497223428072 0 -346.57497223428072 -327.88929395033756 0 0 0 0 133.11715278609336 -57.183239801875061 0 -57.183239801875061 -154.37529165817864 0 0 0 0 222.35686554446329 -268.27133300816854 0 -268.27133300816854 -362.7916014249131 0 0 0 0 292.07190467887631 -176.77309967812334 0 -176.77309967812334 -584.85360991323796 0 0 0 0 220.69304329281294 142.11162217526805 0 142.11162217526805 -192.91004878315835 0 0 0 0 101.84199630279272 -158.39965213766652 0 -158.39965213766652 -168.1284281426224 0 0 0 0 -0.16803432177767164 -1.7845610541709185 0 -1.7845610541709185 -6.6026053758326322 0 0 0 0 254.07518575096401 -196.04239231876772 0 -196.04239231876772 -588.03440714294743 0 0 0 0 976.23425537583444 329.11699064684194 0 329.11699064684194 -254.81884863517371 0 0 0 0 231.27982872440043 97.439783941485075 0 97.439783941485075 -48.322701556266111 0 0 0 0 429.30267193508553 -68.796003238068806 0 -68.796003238068806 180.87265189788914 0 0 0 0 498.35416835383376 326.9893674249638 0 326.9893674249638 161.46759939834556 0 0 0 0 215.22314037167234 -31.809824713888702 0 -31.809824713888702 -41.323253310079508 0 0 0 0 555.98793265548056 136.51526526478824 0 136.51526526478824 -264.75659822975103 0 0 0 0 -5.2947416779775649 3.3183053366491109 0 3.3183053366491109 -4.1915654431243539 0 0 0 0 -167.69826587049283 264.1441023694988 0 264.1441023694988 935.18849215809314 0 0 0 0 -1531.5120180926624 593.60967397644208 0 593.60967397644208 79.610423696376529 0 0 0 0 -708.41291026988802 365.73977254283818 0 365.73977254283818 -829.76579520726227 0 0 0 0 -718.785252151848 -940.43526013898554 0 -940.43526013898554 -363.9705652016346 0 0 0 0 -415.60862191624437 -274.86240102557349 0 -274.86240102557349 -1039.7624570307707 0 0 0 0 687.64218701392292 -91.150295420240013 0 -91.150295420240013 -208.91174130192485 0 0 0 0 505.33548581818832 49.693674662168632 0 49.693674662168632 76.568397737501073 0 0 0 0 764.39560814159267 -233.04416693449048 0 -233.04416693449048 -596.49080032769416 0 0 0 0 -1307.8836272871233 -733.27085531870853 0 -733.27085531870853 342.64477522554807 0 0 0 0 38.087817908453509 -21.720148887337565 0 -21.720148887337565 -40.966086733312224 0 0 0 0 53.131236232286028 -6.8724884348344553 0 -6.8724884348344553 -25.98368582703495 0 0 0 0 617.07883068322917 -68.923520775980251 0 -68.923520775980251 -145.68762054152148 0 0 0 0 308.33423397977458 -131.35209835941623 0 -131.35209835941623 -469.22090612468946 0 0 0 0 652.01969052079585 -181.24875409618051 0 -181.24875409618051 -215.58636500637112 0 0 0 0 419.71694011862201 27.146335925835956 0 27.146335925835956 -345.97024379863069 0 0 0 0 362.98837030629875 -321.96841047852922 0 -321.96841047852922 -373.76501515979243 0 0 0 0 455.55692183864448 -87.481923013211599 0 -87.481923013211599 -147.19224417991427 0 0 0 0 422.33347201493598 -151.71683509138438 0 -151.71683509138438 -309.09254458316423 0 0 0 0 -15.611345487946892 -207.86387967063229 0 -207.86387967063229 -39.638185910198445 0 0 0 0 72.921478182988565 -23.718028878415602 0 -23.718028878415602 5.8277164224871392 0 0 0 0 363.54174156262889 -115.58432446621373 0 -115.58432446621373 -6.4731751632934902 0 0 0 0 433.92694809753448 -130.40333650389948 0 -130.40333650389948 -19.371510521043092 0 0 0 0 273.49706405339862 -93.403794809376421 0 -93.403794809376421 16.538811069232192 0 0 0 0 339.76203839926893 -90.60027651055907 0 -90.60027651055907 -2.2546627937288122 0 0 0 0 326.45160153241886 -161.99705106191323 0 -161.99705106191323 10.07706395558489 0 0 0 0 398.83012931386475 -123.01425834694237 0 -123.01425834694237 -18.103131937626131 0 0 0 0 75.891835905475418 -18.812822339338155 0 -18.812822339338155 -10.27188248147074 0 0 0 0 77.048614086064816 -75.962339078412654 0 -75.962339078412654 21.956588639238561 0 0 0 0 366.03187597090437 23.091788708235981 0 23.091788708235981 5.9028360566171614 0 0 0 0 90.530332257665492 -114.65400249278687 0 -114.65400249278687 7.1698732024357206 0 0 0 0 277.38358586840332 -105.15882852067443 0 -105.15882852067443 15.007264204628882 0 0 0 0 212.91530866022549 -45.198380957875997 0 -45.198380957875997 -49.538368459696358 0 0 0 0 224.40288383909501 -222.90768792452218 0 -222.90768792452218 193.49694785758038 0 0 0 0 198.24762348443619 -176.06965270617548 0 -176.06965270617548 67.286870224030281 0 0 0 0 295.29395370730344 -194.44291246563444 0 -194.44291246563444 45.170965875338879 0 0 0 0 -64.171986745845061 -15.700503994710743 0 -15.700503994710743 76.974682644053246 0 0 0 0 176.75821864892089 -25.750918437121449 0 -25.750918437121449 -26.620726401007147 0 0 0 0 111.55801158570186 -62.981595864784666 0 -62.981595864784666 26.70443949807995 0 0 0 0 293.0165652622818 -55.661877293858197 0 -55.661877293858197 58.69299736697576 0 0 0 0 433.63279274371598 -153.14214266487761 0 -153.14214266487761 -12.348289448094874 0 0 0 0 416.31929360665117 -148.86650357402948 0 -148.86650357402948 -5.6497999765269924 0 0 0 0 292.80631380394334 -192.06724133896569 0 -192.06724133896569 57.270373576546262 0 0 0 0 414.75096267057233 -173.38206227975024 0 -173.38206227975024 11.399934892811871 0 0 0 0 359.14776684631943 -213.39523721046135 0 -213.39523721046135 59.9096635441947 0 0 0 0 381.33559308110853 -227.60003849150962 0 -227.60003849150962 7.911933798539394 0 0 0 0 579.47773022734327 -142.95024689802813 0 -142.95024689802813 -8.0401805793881067 0 0 0 0 200.70368752400555 -0.68553033263174257 0 -0.68553033263174257 -34.266588658221735 0 0 0 0 99.501832221927501 41.735324008335894 0 41.735324008335894 -30.049069569933074 0 0 0 0 195.02080952491451 -33.561791927996182 0 -33.561791927996182 -16.268373289920419 0 0 0 0 84.900271592061159 33.653861626168251 0 33.653861626168251 -59.353534729917314 0 0 0 0 451.48188472945185 -149.63225864417382 0 -149.63225864417382 -24.470290913239296 0 0 0 0 174.59888835759193 -11.834648095831653 0 -11.834648095831653 -4.6023343329538875 0 0 0 0 200.46734221899686 1071.3597346482288 0 1071.3597346482288 -1138.2328609466495 0 0 0 0 66.103559115515964 -0.35194244361082383 0 -0.35194244361082383 15.957077043760364 0 0 0 0 56.189653848433906 18.225693591508001 0 18.225693591508001 13.161138564611115 0 0 0 0 44.353589979480603 -11.147943768733967 0 -11.147943768733967 19.666440378621701 0 0 0 0 27.17789816253935 -26.519998121388198 0 -26.519998121388198 28.589587992024462 0 0 0 0 42.401532489434061 -17.652958174668193 0 -17.652958174668193 18.999207330453174 0 0 0 0 2630.8796719580932 572.56094670602215 0 572.56094670602215 -205.50960772235703 0 0 0 0 18.994612626049037 -15.328043590693213 0 -15.328043590693213 30.424843427670382 0 0 0 0 279.55001072093728 427.482949193678 0 427.482949193678 848.59714796071785 0 0 0 0 2131.6485030251497 919.30739751285728 0 919.30739751285728 -266.19442799015087 0 0 0 0 2012.4406811893277 -76.237840449122814 0 -76.237840449122814 -116.60013474548396 0 0 0 0 5.8858390216793737 -3.1356229684955483 0 -3.1356229684955483 13.584563758684858 0 0 0 0 -866.65935989952413 58.374194243901002 0 58.374194243901002 481.7135262117954 0 0 0 0 40.51483067513346 -30.783092014444833 0 -30.783092014444833 34.25898121846275 0 0 0 0 1832.1624007556966 -1408.7725102788845 0 -1408.7725102788845 939.64221891160378 0 0 0 0 8.1592247151579045 -10.808119998751515 0 -10.808119998751515 16.983383132709211 0 0 0 0 1654.5657057760982 562.74621909815687 0 562.74621909815687 560.6293112502608 0 0 0 0 130.47024457564112 -62.014614544485084 0 -62.014614544485084 68.715511720016366 0 0 0 0 75.931615443962187 -35.870248055947258 0 -35.870248055947258 20.642747588720766 0 0 0 0 132.06864524292905 -59.846929871463544 0 -59.846929871463544 15.195890559967665 0 0 0 0 114.48936030338518 -56.16488488691175 0 -56.16488488691175 17.647099595633335 0 0 0 0 117.34988561290083 16.559989320674504 0 16.559989320674504 -42.024780614869087 0 0 0 0 91.998779829813714 -9.3877502342885464 0 -9.3877502342885464 -2.2503362244907166 0 0 0 0 69.205992942922933 3.2569925724037532 0 3.2569925724037532 -15.030889013435939 0 0 0 0 120.65827497733699 5.3479913687042426 0 5.3479913687042426 -37.954401981791307 0 0 0 0 60.342018739611376 -3.0575269955297699 0 -3.0575269955297699 -16.037810822388565 0 0 0 0 138.48381281331604 -55.538950748314164 0 -55.538950748314164 -8.2618528548009635 0 0 0 0 77.996865705036612 -10.192977659151889 0 -10.192977659151889 -6.8471337221991533 0 0 0 0 153.85369842263754 -21.273005731771264 0 -21.273005731771264 67.754288352396543 0 0 0 0 94.3260143942789 -59.666540217594957 0 -59.666540217594957 -8.3599786414306436 0 0 0 0 187.07008127206791 -17.213217563541548 0 -17.213217563541548 -79.818255732097896 0 0 0 0 266.6550989999414 -1113.8058503423817 0 -1113.8058503423817 -654.07061397584039 0 0 0 0 108.01748711865548 -753.12776440141533 0 -753.12776440141533 -1387.6464380119687 0 0 0 0 144.13804197526585 -31.309790222950483 0 -31.309790222950483 -15.702299591148993 0 0 0 0 54.740241652113667 20.207949743649877 0 20.207949743649877 -2.8919241127481072 0 0 0 0 113.70190412753134 2.4808807125155425 0 2.4808807125155425 -5.3777406077568131 0 0 0 0 235.49637982243439 -720.10156472559902 0 -720.10156472559902 -1406.9570553377198 0 0 0 0 543.78147219027414 661.58055509974292 0 661.58055509974292 -36.292044009151141 0 0 0 0 6121.8374518520241 -1812.2048850225733 0 -1812.2048850225733 -753.40812893362454 0 0 0 0 6.5739808313677308 8.2927182109453135 0 8.2927182109453135 8.3963752011491763 0 0 0 0 4660.6602503436334 213.51171938719654 0 213.51171938719654 -529.33262201519756 0 0 0 0 3646.932782916705 -599.5003661450537 0 -599.5003661450537 -95.463281853884837 0 0 0 0 -750.76433273790553 -221.21148274964253 0 -221.21148274964253 -494.4840962290873 0 0 0 0 -582.75742269776492 -650.38906207442051 0 -650.38906207442051 601.2700847840606 0 0 0 0 935.44345198234987 -814.402864555419 0 -814.402864555419 87.496346138777881 0 0 0 0 1211.4174232235637 174.08392623388136 0 174.08392623388136 196.77519850889439 0 0 0 0 -763.71662912187548 -669.86736784911773 0 -669.86736784911773 622.91487418091492 0 0 0 0 227.35574165514936 -341.03517872511657 0 -341.03517872511657 326.38470532505016 0 0 0 0 113.19150505871949 -390.73630005330961 0 -390.73630005330961 -332.62673033806277 0 0 0 0 -293.42395913739119 -628.82820818682922 0 -628.82820818682922 -191.35282554369041 0 0 0 0 83.45579126030043 -375.40504377210709 0 -375.40504377210709 605.43753149351323 0 0 0 0 1237.2970283618924 -543.87568344956446 0 -543.87568344956446 22.562567125944042 0 0 0 0 96.597380241750216 183.64641506484077 0 183.64641506484077 268.5078085441296 0 0 0 0 52.756700523849759 0.20200851168556255 0 0.20200851168556255 -156.55872663631817 0 0 0 0 -757.15696507542725 135.44926799727796 0 135.44926799727796 127.68759809852781 0 0 0 0 3076.9340462360942 -192.13785334252862 0 -192.13785334252862 470.53083495726423 0 0 0 0 3729.5381485618145 -2019.9405966956874 0 -2019.9405966956874 922.77719845403044 0 0 0 0 1236.0478784617558 -326.43895127109738 0 -326.43895127109738 514.56476522566663 0 0 0 0 1368.8321057712656 -24.653222573561834 0 -24.653222573561834 470.65805859872853 0 0 0 0 2735.4468479225907 -508.71990634269969 0 -508.71990634269969 49.605963823119964 0 0 0 0 2626.9920854468701 -933.2673757279083 0 -933.2673757279083 1316.4547405310477 0 0 0 0 -1730.0813156365984 2518.6664428393224 0 2518.6664428393224 -129.97270699905326 0 0 0 0 -3417.0403702958383 363.66918097908865 0 363.66918097908865 -224.37424645316241 0 0 0 0 -763.55960423291981 1271.3981866087142 0 1271.3981866087142 -1082.0698804358044 0 0 0 0 -3137.9170781450084 1850.1151959793315 0 1850.1151959793315 -980.45427818525059 0 0 0 0 -3923.918183371723 2040.6393540085173 0 2040.6393540085173 -147.66982059989095 0 0 0 0 3.7555301135175583 -4.3410701529844289 0 -4.3410701529844289 14.890128679867246 0 0 0 0 2653.3221542212632 471.97135137697296 0 471.97135137697296 117.97480759751215 0 0 0 0 2518.7578679567214 883.26004467321218 0 883.26004467321218 -271.48428499374859 0 0 0 0 1966.695881240812 746.59502759586394 0 746.59502759586394 129.90526296282678 0 0 0 0 2324.926995722577 637.05900699004997 0 637.05900699004997 145.60594191553537 0 0 0 0 -6.5594829382451678 1.541706871658489 0 1.541706871658489 13.790855548230784 0 0 0 0 1668.3323066586963 1161.8891912870531 0 1161.8891912870531 -157.96690280094117 0 0 0 0 186.93131618083498 657.77666958911232 0 657.77666958911232 -312.92406889820268 0 0 0 0 221.62658798810298 571.51747136496942 0 571.51747136496942 -1141.0388743371955 0 0 0 0 -135.21634030197674 211.39121595643655 0 211.39121595643655 -645.52238517953901 0 0 0 0 161.30380353384135 311.64500780099684 0 311.64500780099684 -753.93993508112908 0 0 0 0 28.983170496181749 37.967747726669735 0 37.967747726669735 13.847334911370016 0 0 0 0 4074.1583807765819 -1444.429867070914 0 -1444.429867070914 87.994148326455615 0 0 0 0 3350.650463453846 -1117.8445258740001 0 -1117.8445258740001 41.085997956685787 0 0 0 0 2306.0737770375999 -629.95911270592933 0 -629.95911270592933 729.37653277508252 0 0 0 0 -833.68910767216585 885.72189441602018 0 885.72189441602018 -550.04841979391529 0 0 0 0 45.845066336514279 60.587522098758988 0 60.587522098758988 23.463859682359008 0 0 0 0 -93.515593191607877 82.141807072676784 0 82.141807072676784 45.152634112735086 0 0 0 0 -1160.3186749482188 -276.31282904669933 0 -276.31282904669933 413.02658206274646 0 0 0 0 1274.4271929659144 -352.65202115079501 0 -352.65202115079501 -120.12600740499875 0 0 0 0 -84.14497207644763 -30.831408672854195 0 -30.831408672854195 468.98033242745805 0 0 0 0 1457.726376986694 -2.042564800863147 0 -2.042564800863147 388.22257509952919 0 0 0 0 2615.0710798422087 -816.12587570248206 0 -816.12587570248206 52.634827582849539 0 0 0 0 2403.0252752625206 -494.96410085831144 0 -494.96410085831144 -268.75133092537726 0 0 0 0 1260.7427860915705 -554.95071729690653 0 -554.95071729690653 270.65655352522026 0 0 0 0 556.66778045329102 252.47245679171465 0 252.47245679171465 99.603693334924628 0 0 0 0 4.7306201840137874 -387.65348029689881 0 -387.65348029689881 -113.27137500377103 0 0 0 0 1300.749816435861 -368.20415680382257 0 -368.20415680382257 -294.37595098510792 0 0 0 0 -277.96264699269204 244.42338251053366 0 244.42338251053366 108.29592134606355 0 0 0 0 623.85088627291589 -86.194290254725274 0 -86.194290254725274 -68.730027485120445 0 0 0 0 1432.3732852636276 58.888728502046433 0 58.888728502046433 -27.873887229468664 0 0 0 0 659.88515143591394 -277.89638566882149 0 -277.89638566882149 178.82019626265719 0 0 0 0 1078.6969801259261 -148.08315649805218 0 -148.08315649805218 35.64856285055248 0 0 0 0 644.13921722425312 216.94732907561092 0 216.94732907561092 61.511686581388858 0 0 0 0 460.25927491372659 -11.068939569284339 0 -11.068939569284339 300.17433487780181 0 0 0 0 344.53732000613127 248.78198154635356 0 248.78198154635356 -89.791439528009164 0 0 0 0 -165.05944825804863 54.256926640552592 0 54.256926640552592 188.88436344104957 0 0 0 0 -233.32063365007707 143.65598373302998 0 143.65598373302998 -208.79506577278744 0 0 0 0 2004.7902151431654 -574.48599188348089 0 -574.48599188348089 556.70731592762968 0 0 0 0 1990.2611549823087 -721.00111428389073 0 -721.00111428389073 49.414005096725305 0 0 0 0 2069.5862816017943 -201.68975933770071 0 -201.68975933770071 43.227559937107799 0 0 0 0 971.09901003444384 -559.46330345221259 0 -559.46330345221259 377.36069383157064 0 0 0 0 2041.036711305245 -976.48023994413109 0 -976.48023994413109 -47.50867592836039 0 0 0 0 3035.8845670815663 -707.73577209165023 0 -707.73577209165023 -94.045250479842252 0 0 0 0 58.145721463824003 79.038584466035132 0 79.038584466035132 39.226446938366749 0 0 0 0 -300.32860282260663 392.11420648329761 0 392.11420648329761 -85.77647636325446 0 0 0 0 -134.77203045627539 106.27510998825778 0 106.27510998825778 34.915570720326059 0 0 0 0 248.46735420729237 149.22308163239541 0 149.22308163239541 -119.97896361378389 0 0 0 0 278.31531831790926 64.133528812258589 0 64.133528812258589 -131.37079571961451 0 0 0 0 -23.741878188098781 365.86109820426901 0 365.86109820426901 -291.98337192460031 0 0 0 0 327.93457576455694 294.16898284844831 0 294.16898284844831 -131.57110684145027 0 0 0 0 694.91120998341648 -28.128115521419772 0 -28.128115521419772 14.749762331863622 0 0 0 0 1029.9917790573963 -132.51266284867691 0 -132.51266284867691 6.3371025785307111 0 0 0 0 811.58607338138972 45.288745485094239 0 45.288745485094239 -100.74009489379637 0 0 0 0 626.13639296087786 188.5108509666901 0 188.5108509666901 -252.45666192177259 0 0 0 0 735.04848951623717 247.26014414491146 0 247.26014414491146 -44.719342611304 0 0 0 0 798.98789407411823 55.583886920906934 0 55.583886920906934 -142.74906039157668 0 0 0 0 782.66337052125891 47.765108988359771 0 47.765108988359771 173.93284395164665 0 0 0 0 570.18693020947831 89.301655115517178 0 89.301655115517178 -99.91672427350295 0 0 0 0 545.71824171961634 203.80702010886216 0 203.80702010886216 -128.54483461302993 0 0 0 0 247.96719050073898 183.16761949510288 0 183.16761949510288 80.875643834429866 0 0 0 0 784.65818626974942 28.005321494754753 0 28.005321494754753 -72.30077425007039 0 0 0 0 193.92288126243511 -16.429217462694965 0 -16.429217462694965 1.5126430334530312 0 0 0 0 190.9979248436739 -11.877942973733958 0 -11.877942973733958 -2.7835568013275922 0 0 0 0 25.497694659334059 -4.2296725105101984 0 -4.2296725105101984 -2.7431799924150031 0 0 0 0 827.29945208099525 113.91549283762333 0 113.91549283762333 -113.7890740076723 0 0 0 0 42.086651853819639 -52.250777235885153 0 -52.250777235885153 -16.882704980821728 0 0 0 0 119.40540629681345 51.811367791434918 0 51.811367791434918 -71.524097048530507 0 0 0 0 219.04768442760178 -35.165989677479786 0 -35.165989677479786 -60.941404878351591 0 0 0 0 126.68073622818702 -16.988110505978966 0 -16.988110505978966 37.235258996530838 0 0 0 0 117.35723169060412 15.206360066044668 0 15.206360066044668 -15.37438407398944 0 0 0 0 127.10355101681489 177.86530265456713 0 177.86530265456713 -209.25815705630157 0 0 0 0 226.99363167092088 250.48138086663675 0 250.48138086663675 -169.59749496201948 0 0 0 0 94.623133304039584 -21.458398281178006 0 -21.458398281178006 163.51733871007673 0 0 0 0 -63.146454968358739 71.320464147107486 0 71.320464147107486 -115.27363921298456 0 0 0 0 -32.629542333204881 194.61781197140863 0 194.61781197140863 19.250603767735811 0 0 0 0 1086.1399832414754 -83.577783209798326 0 -83.577783209798326 -114.22312025441715 0 0 0 0 1186.5040853529936 -94.351427352067731 0 -94.351427352067731 80.327296429864873 0 0 0 0 791.24068080309007 55.299028314967188 0 55.299028314967188 37.434011014091993 0 0 0 0 105.41480495129508 5.3804941042916425 0 5.3804941042916425 63.331033160726292 0 0 0 0 18.739579218799179 -18.43837537170532 0 -18.43837537170532 -12.337708962020919 0 0 0 0 74.790657965451828 -27.201832247243601 0 -27.201832247243601 -17.221617848437745 0 0 0 0 106.10554502940461 -12.145500289401944 0 -12.145500289401944 -42.956926330106853 0 0 0 0 63.141202603768058 -34.879918251991796 0 -34.879918251991796 -20.88188301686402 0 0 0 0 -59.346170081349555 58.371106175603927 0 58.371106175603927 -124.45199304243579 0 0 0 0 -59.161312792617537 44.766070899090664 0 44.766070899090664 -95.416275182771642 0 0 0 0 98.305843552038752 0.11558127181353939 0 0.11558127181353939 -25.62912526053293 0 0 0 0 -64.602744165807962 70.710410939036592 0 70.710410939036592 -108.77727791999678 0 0 0 0 1106.8202864136256 27.793738274577763 0 27.793738274577763 51.631958886088839 0 0 0 0 19.034267430408505 -6.8844942925647246 0 -6.8844942925647246 -21.357680440537436 0 0 0 0 102.20053880297201 -58.348557977627934 0 -58.348557977627934 -196.01840604857716 0 0 0 0 -387.66766747793736 120.41853521659141 0 120.41853521659141 69.910852025608619 0 0 0 0 21.803001308508115 -3.0468756238723103 0 -3.0468756238723103 -7.8117015934592366 0 0 0 0 -377.10837015675497 425.56067443810207 0 425.56067443810207 -216.68915139497307 0 0 0 0 769.82548987462974 -532.00471049886926 0 -532.00471049886926 107.5927557529194 0 0 0 0 776.42970376630547 59.00725146352579 0 59.00725146352579 -356.69198016705377 0 0 0 0 217.19982238968078 511.76435356365619 0 511.76435356365619 -557.05645156600804 0 0 0 0 36.971258199060685 -18.635694629030695 0 -18.635694629030695 -299.77233427786041 0 0 0 0 462.70913319726242 24.701957543969911 0 24.701957543969911 -677.51394689792141 0 0 0 0 335.99079215564416 -236.82611080916104 0 -236.82611080916104 -504.26903966931332 0 0 0 0 -635.39594964383286 847.24482716188277 0 847.24482716188277 -880.64339545051189 0 0 0 0 170.9961445156805 40.011201171770153 0 40.011201171770153 -637.85018160034178 0 0 0 0 -200.57985429385008 411.30716693592922 0 411.30716693592922 -810.09212168007798 0 0 0 0 305.91198682862159 -100.33462767901074 0 -100.33462767901074 -957.45437964556731 0 0 0 0 332.25479874033772 -314.75261380286065 0 -314.75261380286065 -1425.4920833913648 0 0 0 0 52.295220372016047 511.03745170027037 0 511.03745170027037 -1705.2514983292513 0 0 0 0 1175.0835322711573 -693.75849632665586 0 -693.75849632665586 -487.3121317823161 0 0 0 0 -1.2559521447117987 -3.7489417856928213 0 -3.7489417856928213 -7.2130797448865955 0 0 0 0 1054.0525215558446 -229.35076405465725 0 -229.35076405465725 -1539.9505219085049 0 0 0 0 1035.8366345624236 -165.01182745692745 0 -165.01182745692745 -876.76940304848904 0 0 0 0 911.27519962112274 -55.407208832441029 0 -55.407208832441029 -966.34738079836279 0 0 0 0 1021.6071876246206 243.91938980281975 0 243.91938980281975 -891.02325450659282 0 0 0 0 550.99126368185898 69.091289195108402 0 69.091289195108402 -786.8716018633678 0 0 0 0 496.8859695514293 -4.0604473787431061 0 -4.0604473787431061 -577.81981767094749 0 0 0 0 654.5028324858722 -226.43441464589523 0 -226.43441464589523 -270.55158006517331 0 0 0 0 724.77070740658382 -51.105999960455392 0 -51.105999960455392 110.71757467056386 0 0 0 0 1073.9261741085975 -40.770005877506264 0 -40.770005877506264 -198.09547722221123 0 0 0 0 77.056788946771121 -43.434247905130633 0 -43.434247905130633 -222.51155118710722 0 0 0 0 185.86691474039253 22.233470195468726 0 22.233470195468726 -19.164831796949329 0 0 0 0 18.634037357846267 4.8266009226299076 0 4.8266009226299076 -4.2740311554031543 0 0 0 0 176.75309516423295 32.492815956251434 0 32.492815956251434 2.7935492074420836 0 0 0 0 76.187252530513433 -30.466526526082134 0 -30.466526526082134 -130.17327224237306 0 0 0 0 75.201863029040396 -22.500519067058121 0 -22.500519067058121 -187.12876962031805 0 0 0 0 48.241640364562045 37.382117580766135 0 37.382117580766135 -140.91427835280138 0 0 0 0 121.67421316308901 15.867095350326963 0 15.867095350326963 -223.40271313929497 0 0 0 0 107.24257385203964 -12.213637793905946 0 -12.213637793905946 -193.02747024403425 0 0 0 0 8.3674300179981742 6.019104684751639 0 6.019104684751639 0.6770248885147474 0 0 0 0 -0.77200075163591464 264.64344360801323 0 264.64344360801323 -361.8400456583895 0 0 0 0 105.35191929731809 46.364016085381991 0 46.364016085381991 -278.09371854325946 0 0 0 0 217.6573295299022 86.301454610231303 0 86.301454610231303 -395.58401655891043 0 0 0 0 21.009324570957688 73.573421692892225 0 73.573421692892225 -188.33189390417829 0 0 0 0 30.057231503160352 2.645914088531562 0 2.645914088531562 4.4112948661957958 0 0 0 0 206.70734729419928 -68.710226922043148 0 -68.710226922043148 -70.947838518288336 0 0 0 0 206.70734729417018 -68.71022692207589 0 -68.71022692207589 -70.947838518306071 0 0 0 0 -39.24427047570498 -0.36404355183867665 0 -0.36404355183867665 204.80666388454665 0 0 0 0 120.04050753119461 10.787296916726959 0 10.787296916726959 -11.877334585117694 0 0 0 0 171.9778558363796 56.440813618166658 0 56.440813618166658 -190.20299889610374 0 0 0 0 272.17629410476366 101.487441105568 0 101.487441105568 -243.69484305429251 0 0 0 0 382.05113674626045 -96.304115085473313 0 -96.304115085473313 -174.99504814464717 0 0 0 0 323.17187620914774 -266.56458165125514 0 -266.56458165125514 41.131619368225074 0 0 0 0 3.5481983622549649 1.8171085850316402 0 1.8171085850316402 -0.14170233609993232 0 0 0 0 -214.41821936161432 618.22226100294483 0 618.22226100294483 -638.84446000190292 0 0 0 0 -159.45732979653803 159.57200441469155 0 159.57200441469155 -203.25246585222885 0 0 0 0 122.0044963990731 126.06396542045695 0 126.06396542045695 -273.83751101155212 0 0 0 0 384.84107159197811 121.8600189479082 0 121.8600189479082 -610.83924549450967 0 0 0 0 275.99139512446709 -90.463260348202766 0 -90.463260348202766 -367.01314701697083 0 0 0 0 322.17042420166399 57.413498772188632 0 57.413498772188632 58.64915740318429 0 0 0 0 736.29331919004471 -104.78409706421371 0 -104.78409706421371 -370.48673537809009 0 0 0 0 181.54429877438452 -85.82491568872581 0 -85.82491568872581 -161.02344222606553 0 0 0 0 -0.14287374213024862 -1.8304610865967561 0 -1.8304610865967561 0.6943171928658245 0 0 0 0 -161.94414786230664 -111.28735194598323 0 -111.28735194598323 -29.130130931132953 0 0 0 0 160.14296941263456 -14.745283422987995 0 -14.745283422987995 -13.273087990715794 0 0 0 0 172.64195125180413 -278.20831765262437 0 -278.20831765262437 140.90899813156375 0 0 0 0 318.20340532238333 -302.1446982499001 0 -302.1446982499001 217.93080524086122 0 0 0 0 374.57376814454983 -179.84415699726742 0 -179.84415699726742 3.6437347216942726 0 0 0 0 -7.9678696262781159 -102.07558091460714 0 -102.07558091460714 130.80030097445524 0 0 0 0 314.79176351705974 -291.21273571829806 0 -291.21273571829806 132.71252214430751 0 0 0 0 79.054018881961383 -72.773376188626116 0 -72.773376188626116 185.03463792354887 0 0 0 0 56.073614797300252 -261.67064981380645 0 -261.67064981380645 107.18918465917523 0 0 0 0 -1.2203568847885862 -4.1706111679538367 0 -4.1706111679538367 7.3483055937310837 0 0 0 0 506.39785053540254 -296.59543588913039 0 -296.59543588913039 -67.077541488501083 0 0 0 0 -0.7526681101433681 -3.7307249522465185 0 -3.7307249522465185 3.5894352960031526 0 0 0 0 277.68006900809996 -167.35340476249712 0 -167.35340476249712 9.496084101838278 0 0 0 0 275.38559750109562 -240.31952476227798 0 -240.31952476227798 -178.2522037877136 0 0 0 0 167.18411078916688 -271.0154003941152 0 -271.0154003941152 38.153899658108458 0 0 0 0 152.62385442660525 -302.28757195877188 0 -302.28757195877188 236.45952029985165 0 0 0 0 196.3717937025458 -60.829092450800886 0 -60.829092450800886 368.13526007886685 0 0 0 0 205.61172626738562 -154.31098725145733 0 -154.31098725145733 -87.921702466857823 0 0 0 0 180.0798864265671 70.274104905976856 0 70.274104905976856 330.91328904574038 0 0 0 0 137.90668653342436 -121.0090749488354 0 -121.0090749488354 602.35348637002608 0 0 0 0 248.93956216677907 -354.57194549334599 0 -354.57194549334599 1065.7190143038633 0 0 0 0 87.509783930727281 180.22436706366534 0 180.22436706366534 894.20560777422725 0 0 0 0 860.66326236156601 -793.3472625830882 0 -793.3472625830882 532.81036655923526 0 0 0 0 -0.52815802268169421 -2.7592695603763957 0 -2.7592695603763957 4.6143381277224336 0 0 0 0 -409.95661859813845 -117.30091264176099 0 -117.30091264176099 469.92982057204063 0 0 0 0 540.61351060098968 -873.77392467671234 0 -873.77392467671234 784.89812635835187 0 0 0 0 115.97654222248093 229.70972298145762 0 229.70972298145762 205.73146688477573 0 0 0 0 701.75278128603895 -560.47324622304814 0 -560.47324622304814 538.30614920663356 0 0 0 0 656.38333093613619 -329.41205872472801 0 -329.41205872472801 48.304540619480576 0 0 0 0 519.87624489411246 -56.613973121211529 0 -56.613973121211529 84.836680265063478 0 0 0 0 343.57380166903022 -519.45328284442439 0 -519.45328284442439 659.55109123239708 0 0 0 0 401.27295953583962 -477.8444213271905 0 -477.8444213271905 647.63863454062812 0 0 0 0 238.8033460269362 71.071646951950243 0 71.071646951950243 399.51133663785731 0 0 0 0 397.99292643400213 -34.273082453228994 0 -34.273082453228994 -0.5795354466245044 0 0 0 0 -74.587428562837886 23.338351744627289 0 23.338351744627289 128.41598360336866 0 0 0 0 -18.824326832647785 21.41262380086846 0 21.41262380086846 6.1869194774335483 0 0 0 0 188.05664467978931 57.76203590352452 0 57.76203590352452 70.203007283904299 0 0 0 0 207.82383124197077 190.07267442620105 0 190.07267442620105 -40.085542007800541 0 0 0 0 2.5284274747391464 53.979499245611805 0 53.979499245611805 27.565980390103505 0 0 0 0 3.4847049605368454 1.9082989572082596 0 1.9082989572082596 0.16656861974280446 0 0 0 0 4.3136497476240265 2.6151353016280989 0 2.6151353016280989 4.206728219045095 0 0 0 0 386.86647749812255 -464.76368257893455 0 -464.76368257893455 532.06384788212017 0 0 0 0 853.52495129437011 -514.3197145379836 0 -514.3197145379836 88.339202309900429 0 0 0 0 1275.5784801940536 202.64816466168759 0 202.64816466168759 -253.58127227142177 0 0 0 0 421.65661494250526 -323.26885957980994 0 -323.26885957980994 492.99937952044638 0 0 0 0 2055.530936779789 72.753913232407285 0 72.753913232407285 204.76994530217598 0 0 0 0 1962.3250067586923 570.27411678119643 0 570.27411678119643 293.64933906492661 0 0 0 0 2015.9004195129819 432.56669113112912 0 432.56669113112912 76.66083021085069 0 0 0 0 1726.2721876304568 602.05967033483648 0 602.05967033483648 6.7120862552601466 0 0 0 0 1255.0472852954699 52.450134434115171 0 52.450134434115171 227.20468079843704 0 0 0 0 1192.3257884051563 192.06154705319204 0 192.06154705319204 -243.90470254983029 0 0 0 0 1256.9552949441822 346.83927383106629 0 346.83927383106629 -661.08666053271736 0 0 0 0 949.13581144891577 -129.59323097486549 0 -129.59323097486549 -429.01591934475437 0 0 0 0 477.73130979285634 354.59891546856306 0 354.59891546856306 -921.73762015384909 0 0 0 0 27.237359024136822 -429.64309380719305 0 -429.64309380719305 -450.54705275813103 0 0 0 0 183.15460249579701 -440.11248396731207 0 -440.11248396731207 -414.32834557555907 0 0 0 0 286.29872567622806 -341.02590525473352 0 -341.02590525473352 -371.12531932860747 0 0 0 0 149.4726962677305 -483.78542534726103 0 -483.78542534726103 152.78755842353712 0 0 0 0 450.40284472898929 -111.3363493187353 0 -111.3363493187353 -312.52327016805702 0 0 0 0 194.0771931219133 -461.96897165944301 0 -461.96897165944301 0.95877379405283136 0 0 0 0 262.14659805651172 -187.61251804555127 0 -187.61251804555127 -363.18497592279891 0 0 0 0 192.68367622490769 -319.39668891578458 0 -319.39668891578458 78.541865870753099 0 0 0 0 120.2659729099687 -382.96312853308973 0 -382.96312853308973 656.47667043468027 0 0 0 0 453.08872710890137 -420.77711745872875 0 -420.77711745872875 159.24827233059159 0 0 0 0 100.52348797820741 -99.570875960233025 0 -99.570875960233025 622.70985128374718 0 0 0 0 196.94710772940016 -98.886951959810176 0 -98.886951959810176 272.66936020309504 0 0 0 0 95.483425493905088 -125.24075482855574 0 -125.24075482855574 505.34027891260121 0 0 0 0 106.16137852231623 -70.665172845614507 0 -70.665172845614507 676.8585565980502 0 0 0 0 131.51198562463833 88.246366837925962 0 88.246366837925962 610.64394506305325 0 0 0 0 128.89767731723259 66.257017253286904 0 66.257017253286904 555.20424826647104 0 0 0 0 124.71625172643689 105.48945251204532 0 105.48945251204532 731.43888389416043 0 0 0 0 146.79216721352714 -119.36915767177561 0 -119.36915767177561 572.20378580438592 0 0 0 0 264.65012196123462 293.85055968755796 0 293.85055968755796 -91.809458670311869 0 0 0 0 274.71362693204719 218.9183706951826 0 218.9183706951826 465.48687529650488 0 0 0 0 290.48888585357054 -125.85779466479289 0 -125.85779466479289 133.42497144996014 0 0 0 0 -70.693681272212416 353.32701729868404 0 353.32701729868404 1027.6863007301731 0 0 0 0 2187.2792669792034 -740.21866899998167 0 -740.21866899998167 1000.8967174845875 0 0 0 0 5.4659202857206424 -7.0760403262632536 0 -7.0760403262632536 8.425477751568252 0 0 0 0 257.29989980325627 -526.76809815479328 0 -526.76809815479328 1418.7848965636294 0 0 0 0 1695.7754984166677 -665.06840898598057 0 -665.06840898598057 583.8772394097432 0 0 0 0 2434.5788719872289 -447.93392302466418 0 -447.93392302466418 1325.3304680264628 0 0 0 0 2791.3487962955114 144.4982452156346 0 144.4982452156346 567.69277758991848 0 0 0 0 2149.6690340865025 280.73556878972977 0 280.73556878972977 685.38170395549241 0 0 0 0 1925.7751321464621 297.98633387544237 0 297.98633387544237 634.91944881058589 0 0 0 0 1904.4914808173598 -256.74854392911129 0 -256.74854392911129 -430.15839641645289 0 0 0 0 2929.9948076224391 -456.62485836520682 0 -456.62485836520682 -392.40320399103803 0 0 0 0 2102.8721249586051 402.37824166339669 0 402.37824166339669 -25.841075563483173 0 0 0 0 1946.2168406142373 -177.49601003824955 0 -177.49601003824955 -350.30363666586345 0 0 0 0 1844.8056163811416 -378.38402805353689 0 -378.38402805353689 -306.20472363545923 0 0 0 0 1013.1105551093206 -169.21233342410778 0 -169.21233342410778 -275.77489395252996 0 0 0 0 1012.6470280935609 -157.38461728917855 0 -157.38461728917855 -408.66820173302403 0 0 0 0 392.7017040454557 -296.0886790057848 0 -296.0886790057848 -36.499842089146114 0 0 0 0 808.72924335006246 201.4587471721552 0 201.4587471721552 -22.278964557841391 0 0 0 0 7.7135701299642534 -13.172092216719193 0 -13.172092216719193 17.355847428679823 0 0 0 0 59.565832515465445 -541.62927972921716 0 -541.62927972921716 1171.0800695417638 0 0 0 0 526.75106366974069 -86.538690832476277 0 -86.538690832476277 -309.73827196501952 0 0 0 0 437.36351415317404 -188.01580626376199 0 -188.01580626376199 68.665983729406435 0 0 0 0 249.36441897697659 -503.4000142765899 0 -503.4000142765899 388.12367984569573 0 0 0 0 561.57494031649549 -464.95647238065067 0 -464.95647238065067 127.56984968159486 0 0 0 0 556.72454522077169 -305.28705265593453 0 -305.28705265593453 -164.00042710790513 0 0 0 0 178.34324699109129 -300.60878985332238 0 -300.60878985332238 348.5330703064119 0 0 0 0 263.95373910706257 -123.54669395277597 0 -123.54669395277597 461.97976467365515 0 0 0 0 40.124657875305275 -255.95701443444705 0 -255.95701443444705 342.20575951120918 0 0 0 0 -108.61472779116593 -346.97929097869383 0 -346.97929097869383 343.71176207081407 0 0 0 0 141.72467471941491 -235.4546080961627 0 -235.4546080961627 294.76572423057223 0 0 0 0 -187.29356428553183 -26.879309590479352 0 -26.879309590479352 188.14798676378268 0 0 0 0 800.38588697537853 392.2403988325932 0 392.2403988325932 -592.44750647712135 0 0 0 0 7.1071083324710287 -5.0549770977171562 0 -5.0549770977171562 1.1510485645410782 0 0 0 0 4.8932097247109994 -7.4399860320496742 0 -7.4399860320496742 7.5806619483480091 0 0 0 0 -237.24711031019979 -360.3788438116535 0 -360.3788438116535 677.48214587425173 0 0 0 0 1269.9060749351847 50.661677677719126 0 50.661677677719126 -387.45854629632959 0 0 0 0 -460.95810536029603 -228.17750935396543 0 -228.17750935396543 627.67957500569901 0 0 0 0 -140.19297718780035 -622.83256265747332 0 -622.83256265747332 819.15362547295081 0 0 0 0 -172.99900692367555 -439.42102464527716 0 -439.42102464527716 67.741517554641177 0 0 0 0 -290.75952605961356 348.07105700505781 0 348.07105700505781 728.25604723412948 0 0 0 0 -288.81784286236507 485.81396831919119 0 485.81396831919119 -91.121389788327178 0 0 0 0 615.31220712284448 115.16889595846078 0 115.16889595846078 -260.78569458241691 0 0 0 0 63.825168859897531 -200.68458217405714 0 -200.68458217405714 579.55519685577747 0 0 0 0 544.53832177633012 -310.16569388147764 0 -310.16569388147764 50.41222185119841 0 0 0 0 263.3900752776899 -583.53295446927041 0 -583.53295446927041 906.32379936260804 0 0 0 0 1799.1839308522794 -300.77704223498404 0 -300.77704223498404 -287.79867510763142 0 0 0 0 2409.5794150836336 -375.12554952139362 0 -375.12554952139362 -282.01030145827826 0 0 0 0 1777.8967341995412 -923.80522841960556 0 -923.80522841960556 422.33858130367298 0 0 0 0 614.04717635930865 -368.72168671562758 0 -368.72168671562758 161.43315336781598 0 0 0 0 582.90841339566396 -223.9351580170769 0 -223.9351580170769 230.82717092864186 0 0 0 0 -96.23434675129829 207.02539390553648 0 207.02539390553648 -23.955401343977428 0 0 0 0 164.56889213623072 -252.25829951773267 0 -252.25829951773267 -201.9533938619586 0 0 0 0 35.663267011550488 175.18743700577215 0 175.18743700577215 54.566584702770342 0 0 0 0 13.647128091898026 -8.1373160515193916 0 -8.1373160515193916 2.0016422308827657 0 0 0 0 246.40564888316658 418.35979154751158 0 418.35979154751158 -148.6148053694269 0 0 0 0 442.37843250866717 163.65310728762233 0 163.65310728762233 36.931995231519977 0 0 0 0 -4.375092413307101 -1.7363334157360981 0 -1.7363334157360981 4.4451972522315586 0 0 0 0 -365.4505563575367 124.30178015560159 0 124.30178015560159 489.81363661735986 0 0 0 0 -118.24209772531322 453.23143072303719 0 453.23143072303719 115.2939808826377 0 0 0 0 152.2639004378043 82.00800497447608 0 82.00800497447608 15.777292989696434 0 0 0 0 139.42520611368673 144.48054561324534 0 144.48054561324534 91.231280810261524 0 0 0 0 220.55560546358174 226.17841948241585 0 226.17841948241585 172.76675234146023 0 0 0 0 198.3763534507151 168.39882575650719 0 168.39882575650719 10.105367754338658 0 0 0 0 197.08697794185719 106.62632081752236 0 106.62632081752236 22.846946181140083 0 0 0 0 397.495711945332 165.49090998187421 0 165.49090998187421 31.297112955609919 0 0 0 0 655.30919676384656 146.48590069055899 0 146.48590069055899 186.82303376131676 0 0 0 0 450.49634616618278 -626.30586190118629 0 -626.30586190118629 750.49404163612053 0 0 0 0 7.4574474050192805 -3.6841941557131577 0 -3.6841941557131577 1.277936704833941 0 0 0 0 -133.00820265420043 -404.11656879870679 0 -404.11656879870679 908.55354648342018 0 0 0 0 720.8385487483265 -357.14070840619343 0 -357.14070840619343 470.55399273011426 0 0 0 0 367.1480346598255 -100.89339481912975 0 -100.89339481912975 188.59546484417842 0 0 0 0 409.1285861388169 -67.187258594281957 0 -67.187258594281957 204.56225878896294 0 0 0 0 323.8610472533328 -308.74513058060984 0 -308.74513058060984 550.24134801293076 0 0 0 0 225.25513624061932 -156.82129813157189 0 -156.82129813157189 318.0074819139918 0 0 0 0 300.64482387117823 1.499810919985066 0 1.499810919985066 33.129034461846459 0 0 0 0 92.744485543502378 -187.73480600482799 0 -187.73480600482799 312.08406753804957 0 0 0 0 119.5934169391403 -20.493935999948008 0 -20.493935999948008 40.447272115808573 0 0 0 0 27.777568974124733 -176.54904912950224 0 -176.54904912950224 -191.01592322452962 0 0 0 0 20.555529298969645 -6.7557296856411853 0 -6.7557296856411853 5.3438016403475359 0 0 0 0 148.46146317345119 19.60737044482994 0 19.60737044482994 -267.76106028747017 0 0 0 0 228.11675795633346 35.954468980682577 0 35.954468980682577 -128.52814031960588 0 0 0 0 2.3161106909210503 -13.567359556952397 0 -13.567359556952397 -166.26995127655391 0 0 0 0 24.582632393205131 -54.953634842322572 0 -54.953634842322572 -96.180686425992462 0 0 0 0 23.596230027207639 -84.395543206244838 0 -84.395543206244838 -34.851442905826843 0 0 0 0 52.24800784817279 24.078202330897511 0 24.078202330897511 10.152799521720453 0 0 0 0 13.830720907768693 -5.0920881902694219 0 -5.0920881902694219 -3.9424995761359725 0 0 0 0 60.315858289985044 -32.816130618386524 0 -32.816130618386524 -34.32929759838683 0 0 0 0 113.73546319411253 12.401831580449652 0 12.401831580449652 -93.980183430277975 0 0 0 0 47.856559199955541 -20.510185281997877 0 -20.510185281997877 -3.0074592674101126 0 0 0 0 180.38159795964748 120.17648464895501 0 120.17648464895501 -12.608626567671308 0 0 0 0 90.714516030333471 46.979433041299671 0 46.979433041299671 -28.754902558248432 0 0 0 0 133.81377324604546 43.198056133544014 0 43.198056133544014 -80.117761810004595 0 0 0 0 100.84628263884224 45.394799849022093 0 45.394799849022093 -61.925455467389838 0 0 0 0 197.86232572086737 133.9775075857724 0 133.9775075857724 -31.555413314752514 0 0 0 0 172.63188256937428 121.75665560213383 0 121.75665560213383 -4.5993363233083073 0 0 0 0 200.82149389785627 144.24336802153812 0 144.24336802153812 3.6476734017269337 0 0 0 0 48.210451275699597 28.578840147951269 0 28.578840147951269 16.071301002340988 0 0 0 0 9.6461697793803864 -2.3584146455499209 0 -2.3584146455499209 1.8858438042607304 0 0 0 0 147.56659506240976 111.78559242753181 0 111.78559242753181 40.161170304712869 0 0 0 0 248.49462685907565 -101.43387513170319 0 -101.43387513170319 1.3833097184979124 0 0 0 0 95.775660471685114 108.58235907384733 0 108.58235907384733 163.63987278431159 0 0 0 0 302.73045274792821 80.78021027527393 0 80.78021027527393 13.617360080272192 0 0 0 0 97.926628737826832 66.294593218608497 0 66.294593218608497 56.773325591399043 0 0 0 0 263.35479649385888 79.222284960157594 0 79.222284960157594 15.744439453854284 0 0 0 0 31.657933236114332 -10.364313283786032 0 -10.364313283786032 126.78329674919587 0 0 0 0 35.773444216567441 22.708240170453792 0 22.708240170453792 169.56142086035743 0 0 0 0 53.105781287191888 22.819928796522788 0 22.819928796522788 5.9524387868153283 0 0 0 0 69.910584709126852 10.390460337728655 0 10.390460337728655 -4.6704548676409559 0 0 0 0 66.398070055007395 21.520026492541533 0 21.520026492541533 3.9513391175726715 0 0 0 0 70.894501321599819 13.419055294627469 0 13.419055294627469 1.7156119042992941 0 0 0 0 98.632034569884127 55.177246739111979 0 55.177246739111979 -41.599911716948554 0 0 0 0 120.24062720617803 81.776392964753541 0 81.776392964753541 -17.002882777116611 0 0 0 0 194.22833593900577 -37.238553182758551 0 -37.238553182758551 -78.767530575067212 0 0 0 0 73.824946249600856 -0.40503598842796151 0 -0.40503598842796151 -1.5826518171454449 0 0 0 0 56.440207158972044 -48.833513485202275 0 -48.833513485202275 42.686747376486892 0 0 0 0 48.326805170241386 -7.4799205018040027 0 -7.4799205018040027 2.3254442761135721 0 0 0 0 68.947188166101114 19.192015125956459 0 19.192015125956459 6.6202764581961446 0 0 0 0 111.19882972250343 -5.4990952267439752 0 -5.4990952267439752 7.3601409149723622 0 0 0 0 126.52202789363218 5.2602035701183922 0 5.2602035701183922 -9.6560116188447864 0 0 0 0 121.69572799468006 11.067918615088274 0 11.067918615088274 16.453109608647651 0 0 0 0 76.255991874123907 3.6202600965586953 0 3.6202600965586953 -5.1122933832989901 0 0 0 0 75.55467884276004 -33.273987967251742 0 -33.273987967251742 8.0535407906500041 0 0 0 0 83.354655287428955 -2.3114884514672127 0 -2.3114884514672127 -9.6603901067007669 0 0 0 0 53.2199956473778 2.5473401978379115 0 2.5473401978379115 -29.556332970685617 0 0 0 0 55.759092869308319 -11.861174296959859 0 -11.861174296959859 -13.470157919111401 0 0 0 0 39.266694530466339 17.027689096550603 0 17.027689096550603 -5.8004870601907896 0 0 0 0 70.665899683768657 -16.768083518370986 0 -16.768083518370986 -1.8513625868363306 0 0 0 0 3.8113048641437786 4.8443788248010051 0 4.8443788248010051 2.7437226889466597 0 0 0 0 59.988190421441686 -64.131628821225604 0 -64.131628821225604 103.55565158908576 0 0 0 0 130.05143717877218 30.158353027498379 0 30.158353027498379 -159.63553319815401 0 0 0 0 145.44949429444387 -152.00471495289094 0 -152.00471495289094 -4.7506170085033546 0 0 0 0 66.61004284174183 31.650706462624512 0 31.650706462624512 3.3792069795740503 0 0 0 0 30.472681566803658 103.03114745653784 0 103.03114745653784 89.273797163503332 0 0 0 0 101.37835677109979 63.570384276795721 0 63.570384276795721 -45.355663554779312 0 0 0 0 59.295588600803626 40.305270074819902 0 40.305270074819902 7.7528326336105096 0 0 0 0 169.43877459716168 -1.0355739541273579 0 -1.0355739541273579 -31.1002695631596 0 0 0 0 179.36383046567789 11.925129267512602 0 11.925129267512602 -14.316266635020384 0 0 0 0 9.719463994883597 6.6542263548545719 0 6.6542263548545719 2.252014939296096 0 0 0 0 233.24486488032562 -81.709156128810264 0 -81.709156128810264 13.661322264670162 0 0 0 0 125.08044348743715 -21.691059101804058 0 -21.691059101804058 -1.5849573518407851 0 0 0 0 149.70047921980586 -1.1425805854587452 0 -1.1425805854587452 -9.0828020374829066 0 0 0 0 16.50093640715022 8.7105389718452813 0 8.7105389718452813 3.479973490060928 0 0 0 0 106.75038848824624 -6.3059851118623556 0 -6.3059851118623556 7.7713111591619963 0 0 0 0 -26.196598280213948 32.579611984910457 0 32.579611984910457 -64.159445246805262 0 0 0 0 22.895232256079908 49.729738477142746 0 49.729738477142746 -100.255771534622 0 0 0 0 16.002472315449268 -0.10072798486362444 0 -0.10072798486362444 -100.47985907226666 0 0 0 0 85.884987391880713 -58.21123608950802 0 -58.21123608950802 -203.63678125454055 0 0 0 0 106.91324007100775 24.111828013885315 0 24.111828013885315 -94.485504539774411 0 0 0 0 3.9808609264450752 4.6313553232347147 0 4.6313553232347147 2.3590805070735357 0 0 0 0 -973.02998857765397 39.639492198580683 0 39.639492198580683 278.90747071200894 0 0 0 0 22.296164620841367 -0.72165810049556001 0 -0.72165810049556001 17.43504328509789 0 0 0 0 74.104164713084174 -103.52973863994703 0 -103.52973863994703 -142.88044599611931 0 0 0 0 2101.2827168461808 1074.7845418440775 0 1074.7845418440775 -194.64251473577679 0 0 0 0 -1013.1092721795721 -201.9898121131846 0 -201.9898121131846 890.73210036565251 0 0 0 0 2.761715983740217 -6.9083123987414865 0 -6.9083123987414865 7.2251508812825307 0 0 0 0 2470.2135277114103 -1680.6407722925555 0 -1680.6407722925555 324.19934428131819 0 0 0 0 1951.0292468199841 269.08043005159516 0 269.08043005159516 -533.47387282434647 0 0 0 0 -145.61330646096758 5.9060297685300611 0 5.9060297685300611 498.40239738099262 0 0 0 0 259.44476226344705 -190.62199594733465 0 -190.62199594733465 -105.58183126826043 0 0 0 0 272.35325060053538 -19.969027070535162 0 -19.969027070535162 -193.38087016619102 0 0 0 0 90.207983589098149 34.829900077736966 0 34.829900077736966 12.339993631414018 0 0 0 0 153.93461010103056 493.37147780330997 0 493.37147780330997 -396.87918652165172 0 0 0 0 -11.265951200199197 220.9391852531835 0 220.9391852531835 185.92434695275006 0 0 0 0 54.290300491548237 35.676495253051399 0 35.676495253051399 14.537773611056394 0 0 0 0 225.56426980512333 -113.6034494135929 0 -113.6034494135929 -64.867882488335454 0 0 0 0 128.75443450985404 -62.715239783395191 0 -62.715239783395191 25.813180331158947 0 0 0 0 192.16314723777032 21.916627583290392 0 21.916627583290392 -32.094031500419078 0 0 0 0 94.277907361953112 53.166502893625875 0 53.166502893625875 -215.05418027801716 0 0 0 0 34.93644703838936 36.649301961017841 0 36.649301961017841 30.346851155438344 0 0 0 0 38.154492436020519 -15.012843677295677 0 -15.012843677295677 11.320950867178908 0 0 0 0 61.924774919173302 37.085665328342337 0 37.085665328342337 19.576124935257909 0 0 0 0 77.80352586726076 18.616819786106134 0 18.616819786106134 14.150012166504894 0 0 0 0 98.685012775895302 42.859081905204221 0 42.859081905204221 26.798530740368733 0 0 0 0 27.908387869965622 4.6505860119310398 0 4.6505860119310398 9.1584948083482232 0 0 0 0 84.83701510829269 57.250625737482551 0 57.250625737482551 -38.743507432308888 0 0 0 0 101.87079454363266 7.0980361768761213 0 7.0980361768761213 17.286731221896844 0 0 0 0 34.289610047562746 162.38408632664141 0 162.38408632664141 22.922218082559084 0 0 0 0 63.573925508483768 44.088132184100644 0 44.088132184100644 10.225449893567379 0 0 0 0 104.36780164101219 40.336530775390202 0 40.336530775390202 11.114546132249927 0 0 0 0 105.79695893525059 39.891459677222883 0 39.891459677222883 15.855918644276244 0 0 0 0 26.459800423216308 6.1551048728918545 0 6.1551048728918545 1.4174542131849961 0 0 0 0 110.76008380528947 35.736980705572932 0 35.736980705572932 1.9062963811193185 0 0 0 0 92.932717284449609 35.472532241751651 0 35.472532241751651 22.287320258030377 0 0 0 0 71.918661828539484 48.10481093186273 0 48.10481093186273 22.090944420944354 0 0 0 0 216.65655779475492 92.992093783826931 0 92.992093783826931 -118.19177006244172 0 0 0 0 114.90803163743112 39.157819668261254 0 39.157819668261254 22.347720014433435 0 0 0 0 -503.2205578654175 566.99988521992418 0 566.99988521992418 328.65995384651978 0 0 0 0 23.381572317773653 7.4866498735792391 0 7.4866498735792391 -10.070556838782835 0 0 0 0 1372.1887433023803 -231.02916079292481 0 -231.02916079292481 -313.48330385047302 0 0 0 0 29.021279824699846 17.911394338585325 0 17.911394338585325 -9.129754106381867 0 0 0 0 1064.0457395811536 -35.313685092693049 0 -35.313685092693049 -282.45045211688557 0 0 0 0 51.700483831382826 34.515326235536925 0 34.515326235536925 10.968012193305185 0 0 0 0 113.57102265230787 99.318350499206645 0 99.318350499206645 -65.793243206187526 0 0 0 0 928.26111213558033 -456.9297972712011 0 -456.9297972712011 -27.324192990272422 0 0 0 0 1210.9545433662279 -807.70345755640665 0 -807.70345755640665 402.50043363749319 0 0 0 0 1694.5975553386961 -603.77827117565175 0 -603.77827117565175 -186.01931993716789 0 0 0 0 1415.3160349745522 -929.48396594052247 0 -929.48396594052247 -73.996860957780882 0 0 0 0 899.85309188906103 -1077.1424324183572 0 -1077.1424324183572 362.34038184303063 0 0 0 0 1574.0550630563521 -913.88400279643611 0 -913.88400279643611 -156.42402020307782 0 0 0 0 1485.9831967579667 -895.18801774903841 0 -895.18801774903841 -145.53067943210772 0 0 0 0 1309.051305313682 -341.06332628299242 0 -341.06332628299242 -279.28667757941002 0 0 0 0 2190.5409209664213 -939.30153808850446 0 -939.30153808850446 -301.54254733815378 0 0 0 0 1534.2704625404367 -777.89808790999632 0 -777.89808790999632 -325.16688861019793 0 0 0 0 1624.3805968411179 -1140.2363624841237 0 -1140.2363624841237 -12.731281899832538 0 0 0 0 2133.6674784335773 -1235.873938755838 0 -1235.873938755838 4.1125322602056258 0 0 0 0 3398.6182073666278 -557.60901297058444 0 -557.60901297058444 -538.13944738319242 0 0 0 0 2016.9183410271362 -261.30337290108946 0 -261.30337290108946 -585.08988833372132 0 0 0 0 1801.4354735868437 338.13630575762909 0 338.13630575762909 76.979053888251656 0 0 0 0 5218.6359779589839 858.69947444030549 0 858.69947444030549 47.834105151374388 0 0 0 0 5182.0108239465499 -3273.0492315757356 0 -3273.0492315757356 1433.3200760397594 0 0 0 0 2417.0994588972098 -1566.2688616798805 0 -1566.2688616798805 317.19519328378374 0 0 0 0 2247.8530560619256 -1402.3534674212424 0 -1402.3534674212424 379.04229328643123 0 0 0 0 1164.6889867600985 -1167.5268964065763 0 -1167.5268964065763 348.56789464842586 0 0 0 0 1226.4690836959198 -1481.8850294590011 0 -1481.8850294590011 624.49416293257673 0 0 0 0 -230.86794575993554 -854.28797126873542 0 -854.28797126873542 1407.5901414159816 0 0 0 0 2306.2538272471593 -2050.9053794760107 0 -2050.9053794760107 897.14344093021646 0 0 0 0 161.34498298713879 -1350.6375922178295 0 -1350.6375922178295 1209.5078200945281 0 0 0 0 100.2533924401796 -1769.0012744963824 0 -1769.0012744963824 2442.2805683318584 0 0 0 0 -119.46581890044035 85.668197854101891 0 85.668197854101891 1273.6960471167768 0 0 0 0 20.534674324710942 -28.468691998777274 0 -28.468691998777274 -43.431947506884299 0 0 0 0 -479.21803764702054 919.0302711839613 0 919.0302711839613 -462.39886041102727 0 0 0 0 49.947123051271774 -17.922165448219403 0 -17.922165448219403 -53.843463592274929 0 0 0 0 700.74346438380599 -1105.7867956300979 0 -1105.7867956300979 2913.3106357053293 0 0 0 0 19.964145877412989 -27.514700911051534 0 -27.514700911051534 -5.0951317927697417 0 0 0 0 3844.765878235834 703.0262413786113 0 703.0262413786113 -211.57509836657118 0 0 0 0 4480.0094519756312 -1702.7970002342663 0 -1702.7970002342663 61.297300113226811 0 0 0 0 2175.016991074177 -947.91054482191794 0 -947.91054482191794 3722.6614911696961 0 0 0 0 -41.285142051707226 -2.9831684165810657 0 -2.9831684165810657 -23.566548345635965 0 0 0 0 63.406135919212829 -61.546277268440463 0 -61.546277268440463 8.9136230190260903 0 0 0 0 -33.703918583923951 -105.70337870750518 0 -105.70337870750518 -67.119765119445219 0 0 0 0 14.003376847176696 -78.727938488016662 0 -78.727938488016662 -4.7555827851283539 0 0 0 0 12.686095770216809 -22.036834918733462 0 -22.036834918733462 1.932044683833908 0 0 0 0 -107.77625282739609 -91.721709538240248 0 -91.721709538240248 -7.4966228349076118 0 0 0 0 -18.614859687717399 -42.813039995869985 0 -42.813039995869985 11.542476992820411 0 0 0 0 -46.504131260531722 -76.615172869162052 0 -76.615172869162052 1.178982623407137 0 0 0 0 -20.384907498383853 -26.156863241745818 0 -26.156863241745818 -19.749375420722906 0 0 0 0 328.24440134066754 -238.77797999749419 0 -238.77797999749419 238.05271337675367 0 0 0 0 46.863124052193598 -28.327220412003953 0 -28.327220412003953 23.751322419808275 0 0 0 0 -50.909212625447253 -2.492339238601744 0 -2.492339238601744 32.225590807094704 0 0 0 0 -5.6185272424900177 -12.451050879447095 0 -12.451050879447095 -15.289084797542046 0 0 0 0 520.86599649386426 -22.077587233906343 0 -22.077587233906343 -533.28621424236553 0 0 0 0 58.582567094650585 41.046391063411647 0 41.046391063411647 20.783695171739964 0 0 0 0 608.31060301657999 -705.50807661070758 0 -705.50807661070758 148.90384691942745 0 0 0 0 940.96949990973917 -792.94172303700839 0 -792.94172303700839 40.155531107440765 0 0 0 0 1348.9630183434274 -622.91645717091319 0 -622.91645717091319 -186.18993122897882 0 0 0 0 439.34752600303909 -486.48966428933636 0 -486.48966428933636 -54.887592930805113 0 0 0 0 271.55638879007165 581.06213036988811 0 581.06213036988811 -1268.4157229649209 0 0 0 0 -67.317475884803571 191.35049121663724 0 191.35049121663724 -160.68494602812189 0 0 0 0 1.7734057146110445 -4.0360392219070391 0 -4.0360392219070391 -7.224143416979885 0 0 0 0 377.83311233975837 -219.17715372539669 0 -219.17715372539669 31.422062122204807 0 0 0 0 379.92523381517094 -248.7528255614211 0 -248.7528255614211 -261.10750718389681 0 0 0 0 530.75600414240034 -57.403999209818721 0 -57.403999209818721 -159.7203432476017 0 0 0 0 149.45056499929342 -89.131925432422577 0 -89.131925432422577 -37.319712436044938 0 0 0 0 6.4709646362062472 -5.2934579123845538 0 -5.2934579123845538 4.1764730948343498 0 0 0 0 -238.68057663858053 -984.68853681302789 0 -984.68853681302789 -279.03815255721565 0 0 0 0 -209.23628050192201 -291.15948676299558 0 -291.15948676299558 -219.58935856442622 0 0 0 0 339.53708394926798 -127.30197793810112 0 -127.30197793810112 -508.23789422366235 0 0 0 0 421.61326950418879 -123.11517735537927 0 -123.11517735537927 -60.143358472494583 0 0 0 0 523.43252205620229 -351.06164662039373 0 -351.06164662039373 -139.96448531780698 0 0 0 0 422.64110578992404 -259.93076454146649 0 -259.93076454146649 -219.61955011631323 0 0 0 0 71.019186730292859 -529.53928221766546 0 -529.53928221766546 -71.213681484747212 0 0 0 0 547.5330104183231 -905.04908955749124 0 -905.04908955749124 -323.85441605211236 0 0 0 0 574.36662978308232 -595.61351507369727 0 -595.61351507369727 618.62033828568383 0 0 0 0 635.28611296889721 -378.79913958990437 0 -378.79913958990437 104.71321040365729 0 0 0 0 519.84190568761551 -633.58607905775352 0 -633.58607905775352 -129.32037742434113 0 0 0 0 624.25077964289812 -507.45678167309597 0 -507.45678167309597 -70.598312403223417 0 0 0 0 448.77188579984067 -306.04305036294863 0 -306.04305036294863 59.918847564273165 0 0 0 0 615.69500944108586 -418.67133164849292 0 -418.67133164849292 302.213599720606 0 0 0 0 738.91621592373122 -460.62999734022014 0 -460.62999734022014 102.51289450220702 0 0 0 0 655.92846780073887 -220.53328069168128 0 -220.53328069168128 118.50667199613963 0 0 0 0 716.86926094604132 -254.99011964294186 0 -254.99011964294186 -19.200982515445503 0 0 0 0 1011.9276238879975 -422.29851442788276 0 -422.29851442788276 156.8482893568289 0 0 0 0 769.52701122326835 -219.77439731146114 0 -219.77439731146114 243.37065065820934 0 0 0 0 1343.3775132424489 -444.44734163235262 0 -444.44734163235262 118.0096068382245 0 0 0 0 959.46103088333621 -479.3611273571878 0 -479.3611273571878 399.41311876023974 0 0 0 0 792.41521951308823 -482.77374400731787 0 -482.77374400731787 408.8232178952785 0 0 0 0 822.55617421396892 -758.20202361322299 0 -758.20202361322299 474.66855664564719 0 0 0 0 -117.26280729513019 223.37268510417289 0 223.37268510417289 -103.22455080526561 0 0 0 0 23.768349413512993 10.482953271052992 0 10.482953271052992 0.77093786905497552 0 0 0 0 836.35956400802024 -639.79985027690691 0 -639.79985027690691 395.81918662349926 0 0 0 0 979.5979590449424 -611.76461991401811 0 -611.76461991401811 372.53403223561327 0 0 0 0 157.63756920174637 99.416756011996767 0 99.416756011996767 93.306287903746124 0 0 0 0 403.78642657460296 -45.528379030387441 0 -45.528379030387441 -38.554664703628077 0 0 0 0 415.31325082064723 1.4911797487529839 0 1.4911797487529839 -43.74932299925058 0 0 0 0 613.77556297161209 32.002340173286484 0 32.002340173286484 -61.679182409709028 0 0 0 0 498.02444200697209 211.71096814190878 0 211.71096814190878 -19.543192719855142 0 0 0 0 851.49825260182843 -193.4270232985109 0 -193.4270232985109 27.888802700246742 0 0 0 0 24.083891355257947 -10.195861433443497 0 -10.195861433443497 72.201798153815616 0 0 0 0 -150.67490971940424 437.17150143707511 0 437.17150143707511 -47.187953340231616 0 0 0 0 1361.0762474131479 -113.62899305546671 0 -113.62899305546671 -143.36892944710689 0 0 0 0 5.2160707081874307 -5.2389385767338581 0 -5.2389385767338581 3.87785906306231 0 0 0 0 176.83052330021746 -273.39811398716847 0 -273.39811398716847 1309.9751763189779 0 0 0 0 851.95922298176447 -74.796573123345297 0 -74.796573123345297 54.924428898685619 0 0 0 0 1031.5684316422412 78.339227483440482 0 78.339227483440482 -51.517023709049681 0 0 0 0 1203.931913832057 -443.93500408507589 0 -443.93500408507589 270.32884008807014 0 0 0 0 2077.5599626521071 -863.24682448330714 0 -863.24682448330714 16.204606305778725 0 0 0 0 1900.5139087392599 -433.78568527737661 0 -433.78568527737661 -117.7084640873195 0 0 0 0 275.35796456222306 -297.37154409925279 0 -297.37154409925279 929.32737830196857 0 0 0 0 1032.9314489851531 -787.9018142613204 0 -787.9018142613204 1205.3967344078701 0 0 0 0 2638.6466844271054 -657.68478043033974 0 -657.68478043033974 773.57795305055333 0 0 0 0 1543.2872019934002 -802.71637858952454 0 -802.71637858952454 755.81064646525192 0 0 0 0 1388.4064843461965 -32.32100741720933 0 -32.32100741720933 -160.194256261173 0 0 0 0 2770.5846847292851 -440.03483486443292 0 -440.03483486443292 -76.05928701828816 0 0 0 0 1752.9313282392977 -398.62880075045541 0 -398.62880075045541 -82.648120732046664 0 0 0 0 1020.6628317926079 -372.70250241072063 0 -372.70250241072063 413.92198443387315 0 0 0 0 1114.2425251463428 -295.52077542392362 0 -295.52077542392362 -89.215711802793521 0 0 0 0 1157.8710666267725 266.76511084238882 0 266.76511084238882 -216.4138355365958 0 0 0 0 357.15770013799192 -452.06756064460933 0 -452.06756064460933 256.32059352237411 0 0 0 0 989.63499222134487 -615.24591843062035 0 -615.24591843062035 290.81622985149443 0 0 0 0 -68.798837067253544 21.153315877072316 0 21.153315877072316 957.59557453799061 0 0 0 0 -70.763591357446558 -136.47661953472542 0 -136.47661953472542 -69.82093720883131 0 0 0 0 313.81178943702253 -240.86139434905635 0 -240.86139434905635 151.53469343735287 0 0 0 0 379.05906814045738 -584.30642729035753 0 -584.30642729035753 86.975977770585814 0 0 0 0 -222.07454337732634 79.628910477509635 0 79.628910477509635 -98.72793529167393 0 0 0 0 -111.21022440315573 -87.447041758812702 0 -87.447041758812702 -258.65012775631476 0 0 0 0 -20.423398778274475 18.893086824923849 0 18.893086824923849 -12.448172206103514 0 0 0 0 48.3076470346994 52.317218588708414 0 52.317218588708414 -62.135133940297038 0 0 0 0 1739.8676327116555 -1311.8743543444434 0 -1311.8743543444434 589.34458206700947 0 0 0 0 3.7321386664698366 567.81263483473958 0 567.81263483473958 -54.135149168097996 0 0 0 0 8.5807262357164973 3.5404373561678142 0 3.5404373561678142 -0.030045891914511458 0 0 0 0 2633.3509656513738 -735.28416982423812 0 -735.28416982423812 899.41016295226291 0 0 0 0 -266.66006871999707 179.13508760096192 0 179.13508760096192 111.91977475285239 0 0 0 0 999.07077311965986 -735.34449002977271 0 -735.34449002977271 866.26010093586228 0 0 0 0 869.89074170048116 660.99001693582977 0 660.99001693582977 -68.753708586060384 0 0 0 0 738.95524457310239 380.74114370432926 0 380.74114370432926 -25.005579968492384 0 0 0 0 1900.8542801760486 536.63777681519059 0 536.63777681519059 -127.27868098964973 0 0 0 0 818.97200034544221 563.22863159140252 0 563.22863159140252 0.060750272969016805 0 0 0 0 1732.0717408878554 147.9875944750529 0 147.9875944750529 -196.26552751890267 0 0 0 0 161.81911617540754 377.19041833218216 0 377.19041833218216 163.19765365269996 0 0 0 0 220.44305519143381 284.17557813311214 0 284.17557813311214 -55.332771400266211 0 0 0 0 -66.430934804928256 190.91731759974937 0 190.91731759974937 29.324587453549611 0 0 0 0 -98.717761676156442 11.586053659436857 0 11.586053659436857 -77.08649547015375 0 0 0 0 63.556192885982455 125.57178048277274 0 125.57178048277274 -114.5371743540818 0 0 0 0 48.131438496269467 52.761619322075148 0 52.761619322075148 -59.991906113420775 0 0 0 0 107.29487280400281 12.691355234515413 0 12.691355234515413 83.88772499697734 0 0 0 0 44.469526841698098 298.60931494843499 0 298.60931494843499 36.979463394603954 0 0 0 0 403.50447100611086 70.583805316706759 0 70.583805316706759 -72.657082536650705 0 0 0 0 202.28928635840566 76.196793268347392 0 76.196793268347392 -101.91211591985484 0 0 0 0 604.85412064172851 42.644424194622843 0 42.644424194622843 -250.80179439012136 0 0 0 0 594.01593443914317 442.67038742808654 0 442.67038742808654 -9.323823118400469 0 0 0 0 884.81984384860698 74.049480423162095 0 74.049480423162095 -323.7912958793313 0 0 0 0 728.50792959144746 90.175693915520242 0 90.175693915520242 -322.36592987747099 0 0 0 0 43.97829758003364 54.174889098274477 0 54.174889098274477 -63.511618513835941 0 0 0 0 453.99480057719484 -38.891435930228909 0 -38.891435930228909 -87.668526895133255 0 0 0 0 656.55963835306466 -78.178587225047522 0 -78.178587225047522 -292.11478780273865 0 0 0 0 153.08729293166107 -16.411991219518313 0 -16.411991219518313 -37.447993514205336 0 0 0 0 279.95820019711482 -30.716558748800935 0 -30.716558748800935 -83.736608596573205 0 0 0 0 -166.93804608254868 -173.73382837414556 0 -173.73382837414556 -230.35811315174942 0 0 0 0 478.70336388499709 -265.36805615428239 0 -265.36805615428239 -374.39154018637782 0 0 0 0 128.25872335478198 -255.58492543899047 0 -255.58492543899047 -374.6643732286891 0 0 0 0 -18.335442145951674 -360.1003247464032 0 -360.1003247464032 -302.42774482874665 0 0 0 0 -106.78063760339137 -367.89335347094038 0 -367.89335347094038 60.083117415066226 0 0 0 0 949.36879197790404 -433.14952561458631 0 -433.14952561458631 -224.57762036702479 0 0 0 0 712.46520473860437 -122.60868118389044 0 -122.60868118389044 -280.30298580975068 0 0 0 0 622.17436840964365 -413.919114335622 0 -413.919114335622 -225.52308273535982 0 0 0 0 995.92710908432855 -145.90514160314069 0 -145.90514160314069 -278.38874169556948 0 0 0 0 740.99871029442875 -254.07987683712781 0 -254.07987683712781 -510.27576037275139 0 0 0 0 661.77615202573361 -145.70729045510961 0 -145.70729045510961 -645.5432418247874 0 0 0 0 341.16386692627566 -446.74347211970598 0 -446.74347211970598 405.30776989397418 0 0 0 0 788.4273297327818 -385.19317299940121 0 -385.19317299940121 37.819263159835828 0 0 0 0 6.2568511603176944 -11.318273670854825 0 -11.318273670854825 -0.50352959253014262 0 0 0 0 -287.17512682190863 -148.60640527209944 0 -148.60640527209944 -26.96548571792664 0 0 0 0 146.90042864749557 62.070721033051086 0 62.070721033051086 -609.72154046268406 0 0 0 0 9.3726359499232217 -8.100230530488318 0 -8.100230530488318 -1.4413630032742333 0 0 0 0 131.90040389639034 -260.66602586917179 0 -260.66602586917179 -387.35491968455608 0 0 0 0 -142.96416556539771 -319.82154510140026 0 -319.82154510140026 -304.69387962034671 0 0 0 0 -57.942668213217985 -212.35457820464217 0 -212.35457820464217 -396.30917312125894 0 0 0 0 -151.37891442485852 -1.2623115743190283 0 -1.2623115743190283 -77.351270636805566 0 0 0 0 17.076733183335477 -3.9890068362281568 0 -3.9890068362281568 -0.72012704474860811 0 0 0 0 13.877128521868514 -1.6898884975809096 0 -1.6898884975809096 -10.537622489310138 0 0 0 0 186.80386158904003 -7.1046140611360897 0 -7.1046140611360897 -19.266597382695181 0 0 0 0 169.53806585877828 -45.995718301483976 0 -45.995718301483976 9.4987403436316526 0 0 0 0 138.89157594318385 -27.204945068828238 0 -27.204945068828238 -1.784982720942935 0 0 0 0 84.782192914528423 59.39237690565642 0 59.39237690565642 -32.861915246390708 0 0 0 0 159.68386487774842 -36.230030538432402 0 -36.230030538432402 -10.485270505938388 0 0 0 0 317.88023246209195 -26.397114876876003 0 -26.397114876876003 12.083438266701705 0 0 0 0 495.46557930378185 -51.112528557830956 0 -51.112528557830956 -50.566073432830308 0 0 0 0 -812.93829682025535 -566.93186137074736 0 -566.93186137074736 358.34745664957882 0 0 0 0 -2.3100014273184826 2.2784043705707973 0 2.2784043705707973 -1.0054404665880128 0 0 0 0 126.82614403243497 -126.43354367565189 0 -126.43354367565189 72.646656127722963 0 0 0 0 174.68069064880547 -74.365045828810253 0 -74.365045828810253 7.8695013515462051 0 0 0 0 131.12259470136632 -81.339567300023191 0 -81.339567300023191 34.293929772797128 0 0 0 0 142.91578498385206 -90.079968028008807 0 -90.079968028008807 36.916085576591286 0 0 0 0 2.4950158617184677 -45.580231594673378 0 -45.580231594673378 51.371189323263479 0 0 0 0 790.692027648166 -479.66292162289528 0 -479.66292162289528 401.16150603770075 0 0 0 0 2065.0303730633968 -459.54930623396103 0 -459.54930623396103 -251.87975493145677 0 0 0 0 1906.426940343139 -242.68026010211179 0 -242.68026010211179 -350.30138184027601 0 0 0 0 -9.0569130301588032 -42.879001517272116 0 -42.879001517272116 19.595663809086162 0 0 0 0 110.68805002314912 -72.450395883841338 0 -72.450395883841338 38.349827580345391 0 0 0 0 61.757817337988854 -95.042894534992456 0 -95.042894534992456 47.894393261376536 0 0 0 0 39.68020825896383 -27.865477216235377 0 -27.865477216235377 -6.0978963481829851 0 0 0 0 2058.1307847494609 3.9451910182724532 0 3.9451910182724532 -128.92075031538661 0 0 0 0 1663.4654378265786 -136.79804575060825 0 -136.79804575060825 -168.69328330043936 0 0 0 0 2700.4771133536269 -827.63695962061138 0 -827.63695962061138 -238.17209275631467 0 0 0 0 2259.8626271244721 -668.98170528790433 0 -668.98170528790433 340.87717207644528 0 0 0 0 2.9466061236367835 -45.552902506003178 0 -45.552902506003178 -17.224905306206225 0 0 0 0 -13.838298788637985 -55.627494735893379 0 -55.627494735893379 15.074298537176219 0 0 0 0 1036.9161678302335 319.86264841013326 0 319.86264841013326 416.23209280157062 0 0 0 0 73.549710851351847 -79.463821531078793 0 -79.463821531078793 -13.364185435919353 0 0 0 0 -135.14837035395612 -20.880233874826445 0 -20.880233874826445 220.03774581091238 0 0 0 0 14.565617413823645 -10.099886148014107 0 -10.099886148014107 7.0795625551077137 0 0 0 0 -156.79515803242975 -303.44199364994711 0 -303.44199364994711 -140.77173802011748 0 0 0 0 8.1461294854707376 -166.48683588342556 0 -166.48683588342556 31.821856416074297 0 0 0 0 347.36451569414203 -178.58779675949154 0 -178.58779675949154 16.23587147599028 0 0 0 0 
</DataArray>
<DataArray type="Float64" Name="cross_section_updated" format="ascii">
1 1 1 1 1 1 1 1 1 1 1 1 1 1 1 1 1 1 0.010791223553371868 0.014386481765904201 0.009480084037210925 0.0099028428489122237 1 1 1 0.0099074518695921807 0.01198874871022438 1 1 1 1 1 1 1 1 1 1 1 1 1 1 1 0.01104123483951526 1 1 1 0.010556841162614752 1 1 1 0.010072248805764961 1 1 1 0.010056698018447593 1 0.010019484253010774 1 1 1 1 1 1 1 0.010713703424809297 1 0.0099954492263360541 1 1 1 1 1 1 1 1 1 1 0.011332009660202785 1 1 0.0098506226389803719 1 1 0.0095600927957590377 1 1 0.011148002342686737 1 1 1 1 0.010454897581398337 0.0099536397399380069 1 0.011351571557867542 0.010124264254392216 1 1 1 1 1 1 1 0.015766768161380104 1 1 1 0.012998588838622226 1 1 0.010595970761279903 1 0.012076339387303597 0.012152676092827004 1 1 0.016751472469472208 0.0083520015255291423 1 1 1 1 0.010197406678534783 1 0.01065810532466396 1 1 1 0.010730058090610905 0.013416479005597679 1 0.010004792223292133 1 0.011373483670117299 1 1 0.011028415943399074 0.01320896438950156 1 1 1 0.01011218575757479 1 0.013771016360811343 1 1 1 0.015388020588393378 1 0.011603199425553053 1 0.010054660987640403 0.016991786850799821 1 1 1 1 1 0.013698607073501366 1 1 1 1 1 0.014766892965143292 0.012157994087475785 1 0.010041087525002223 1 1 0.014332057130657066 1 1 1 1 0.010035468565561543 1 1 1 0.010160649274994573 1 1 1 1 1 0.014058213086362315 0.010219673134508014 1 0.015593966777234403 1 0.015884863559355027 1 1 1 1 1 1 1 1 1 0.016221845671991031 1 0.014193402879843303 1 1 1 1 1 1 1 1 1 1 1 1 1 1 1 1 1 1 0.012577694575317377 1 1 1 1 1 1 1 1 0.010883584789475438 1 1 1 1 1 1 1 0.010107006809020568 1 1 1 1 0.010165223254248498 0.010271417205723688 1 1 0.010449822103996986 1 1 0.011328536839819194 1 1 0.010002949916374196 0.0099994806036503674 1 1 1 0.0099998445572106898 0.011307385405421325 1 1 1 0.0098027148818876433 1 1 0.010003364159490956 1 1 0.0099809635437813991 1 1 1 0.010041840687068086 0.010047961420927409 1 1 0.014039467942902985 1 1 0.010041007101999171 1 1 1 1 0.0091750838152807167 0.013780566732802563 1 0.011698972789458674 0.0091384063626588231 0.01483387655828361 1 1 1 1 0.010132815488013796 0.011549468175128435 1 1 1 1 0.010448997023421724 0.012362119870237595 1 0.014149685881686573 1 0.010868184458692984 1 1 0.013122866402699142 0.012600704254587196 1 1 1 1 0.0128855712596199 1 1 0.012419974589119594 0.01009448267878282 0.010148101668005706 1 0.010975331226323872 1 1 0.012113135495178604 0.012942542283694576 0.0095153512306601368 0.010492770230733752 1 1 1 1 1 1 1 0.0097357321393176932 0.010059377052212062 1 1 1 0.009049978511404648 0.0095976625340826321 1 0.013137380975849468 0.0098725046871901909 1 1 0.010640834318579991 1 1 1 1 1 0.015444403967714591 1 1 0.015069129318331622 1 0.011931708776733281 1 0.015342778010439109 1 1 0.012143907565275051 1 1 1 0.015877909892499521 1 0.01004456888409163 1 1 1 1 1 0.011524386783401334 0.010192481519106863 1 1 1 1 0.013736594643935653 1 1 1 0.011205974370398886 1 1 1 0.012153791341260734 1 1 0.014184478050883954 0.0085710026668760486 1 1 1 1 1 1 1 1 1 1 1 1 1 0.0099824171532434686 0.010955804633522505 1 1 1 0.010347567344625754 1 1 1 1 1 1 1 1 1 1 1 0.02401710901994451 1 1 0.010059147784024499 1 0.016765746493313707 0.014524950927620905 1 1 1 1 1 1 1 1 1 1 1 1 1 0.017014718471888658 0.013656587268354198 1 1 1 0.010334490562196777 1 1 1 1 0.010133876845788082 1 1 1 1 1 1 1 1 0.0099639016376565082 1 1 1 1 1 1 1 1 0.0099558998644962652 0.010453882612937442 0.0099083976366949045 1 1 1 0.011452351408000695 0.0122703832425833 0.013696556345307101 1 1 1 1 1 1 0.010945884527734945 0.012037214123927661 0.010010937888222002 1 1 1 1 0.010724761166324759 1 1 1 1 1 0.0100684700731015 1 1 1 0.010271126177083803 1 0.012273952404260971 1 1 1 1 1 0.010020258315039278 1 1 1 1 1 1 1 0.0096043159928487394 1 1 1 0.010462407091667739 1 1 1 1 0.010129809031645213 1 1 0.015296700098815882 1 1 0.011337181841926947 1 1 0.01496978554406414 1 1 1 1 1 1 1 1 1 1 1 1 0.010263919471535588 1 1 1 1 1 1 1 1 1 1 1 1 0.010669018584429672 1 1 1 1 1 1 1 0.011779014147745671 1 0.01194800015206449 1 1 1 1 1 0.012208530789262775 1 1 1 1 1 1 1 1 0.015247655602047883 1 0.017086917045631051 1 1 1 1 0.010025271668014014 0.012791737496476437 1 0.013207597556924675 1 1 0.011329335692210115 1 1 1 1 1 0.01070482579050021 1 1 1 1 1 0.010855472872097751 1 0.011771373130914257 1 1 0.0087560872051392277 1 0.012341743752436806 1 1 1 1 1 1 1 1 1 1 1 1 0.01412504290140338 1 1 1 1 0.010786526251078754 1 1 1 1 1 1 1 0.013670978319843442 1 1 1 1 0.012890582334217068 0.010321236305412066 1 1 1 0.018510821046226263 0.016535082242000315 1 0.014840978746023095 1 0.012708067502397133 1 1 1 1 0.010003666648599138 0.010051276708040645 1 1 1 1 1 1 0.0099971375674252835 1 0.010644472642850275 0.010160029487382798 1 1 1 1 0.010778774915943187 1 1 1 1 1 1 0.011488053958139269 0.013755824328540198 1 1 1 1 0.012948822363492202 0.012182042793466095 1 1 0.011297224971898147 1 1 1 1 1 1 0.017742458321951909 0.0097215784006031078 1 0.010682561067367423 1 0.01265243999696984 1 1 1 1 0.011614384565193241 1 1 1 1 1 1 1 1 1 0.011491755925664246 1 1 1 0.010700227459769413 1 1 1 1 1 1 0.0090539828420075907 1 1 1 1 1 1 1 1 1 0.012433977602947538 1 1 0.011496932460701549 1 1 1 1 1 0.014125275710407732 1 1 1 1 1 1 1 1 1 0.015984763897948742 1 0.014392885299568317 1 1 1 1 1 1 0.014918923775665354 1 1 1 1 1 1 1 1 1 1 0.0099893799567029457 1 1 0.0099669527106751657 1 1 1 1 0.017276540670372174 1 1 1 1 1 0.018424429201590858 1 1 1 1 1 0.010204995358032628 1 1 0.014224089943500856 1 1 1 0.0064510716976945316 0.016918189142677838 1 1 1 1 0.0086764518156729753 1 1 0.0050038376090662268 1 1 1 0.012357956261066522 1 1 0.0099714697898710403 1 1 1 1 1 1 1 1 1 1 1 1 1 1 0.009972144108948559 1 0.019999352244395814 0.010183680530772262 1 1 0.0099513934420233027 1 1 1 1 1 0.0093684488244399379 1 1 0.0097882027438130556 1 0.010311751129660143 1 1 1 0.010391089856695176 1 0.015164207397567825 1 0.010869503273143909 1 1 0.010357006021251502 1 1 1 1 1 1 1 0.010760468532831791 1 1 1 1 1 1 1 1 1 0.015265961790691528 1 1 1 0.015614917526020167 1 0.014615401954595203 1 1 1 1 1 1 1 1 1 1 0.010016050754294337 1 1 1 1 1 1 0.014620512991907418 1 1 1 1 1 1 0.015928443415515733 1 1 1 1 1 1 1 0.01733322368188718 1 1 1 1 1 1 1 0.010147267399950826 1 1 1 0.015968401081572062 1 1 1 1 1 0.010571334181979412 0.016752768699765275 1 1 0.012161585014198317 1 0.015821216699785604 1 1 1 1 1 0.012883404308581307 1 0.010972290725706118 1 1 0.010258572887774577 1 1 0.013397087967088675 1 1 1 1 0.014156386700185094 1 1 1 1 1 0.0099793862910299898 1 1 1 1 0.011217910249236289 1 1 1 1 0.010540188702980775 1 1 1 1 1 1 1 1 1 1 0.010417733121641381 1 1 1 1 0.01108495645989045 1 1 1 1 1 1 1 1 1 1 1 1 1 1 1 1 1 1 1 1 1 1 1 1 1 1 0.0096811864319453784 1 1 1 1 0.0074173778716239043 1 1 1 1 1 0.010240937118662976 0.012941068185786563 0.010280399325911597 1 1 1 1 0.010303465590837176 1 0.010553890271033331 0.0099551247930346042 0.0090595464985674529 1 1 1 1 1 0.010885991028480918 1 1 1 1 1 1 1 1 1 1 1 0.010525260755940982 1 1 1 1 1 1 1 1 1 1 1 1 1 1 1 1 1 0.011155377679729264 1 1 1 1 1 1 1 1 1 1 1 1 1 1 0.011648654600378552 0.010592105723364774 1 1 0.0098598507297532629 1 1 1 1 0.013143461944173779 1 1 0.010244129510917084 1 1 1 1 1 0.0099953727016714143 1 1 1 1 1 1 1 0.011512218528078173 1 1 1 0.011323456873962585 0.010583144235315506 1 1 1 1 1 1 0.010252104312885936 1 1 1 1 1 1 1 1 1 1 1 1 1 1 1 1 1 0.011391222043563919 1 0.010230216602247768 1 1 1 1 1 1 1 0.011715713686329572 1 1 1 0.0099982699658487488 1 1 1 1 1 1 1 1 1 1 1 1 1 1 1 1 1 1 1 1 1 1 1 1 1 1 1 1 1 1 1 1 1 1 1 1 1 1 1 1 1 1 1 1 1 1 1 1 1 1 1 1 1 1 1 1 1 1 1 1 1 1 1 1 1 1 1 1 1 1 1 1 1 1 1 1 1 1 1 1 1 1 1 1 1 1 1 1 1 1 1 1 1 1 1 1 1 1 1 1 1 1 1 1 1 1 1 1 1 0.011006748781927462 1 0.012576790654382233 1 1 0.01832265354786497 1 0.013305751123260752 0.01157607737463979 1 1 1 1 1 1 1 1 1 1 1 1 1 0.011018137083461948 1 1 1 1 1 1 1 0.0097562632560850328 1 1 1 1 1 0.0090619910248677989 1 1 1 1 1 0.009916898024556791 0.010188280914082769 1 1 1 1 1 1 1 1 1 1 0.0098847621692863263 0.016629034440205016 1 1 1 1 1 1 1 1 1 1 1 0.019207733339843297 1 1 1 1 1 1 1 1 1 1 0.010236710452426063 1 1 0.010734350015091137 1 1 1 1 0.013785501984393284 1 1 1 1 0.0098119441303695133 1 1 1 1 1 1 1 1 1 1 0.013492184713964912 1 1 1 1 1 0.011789552334403926 1 1 1 1 1 0.010925114681531484 1 0.010217391765438299 1 1 0.010317105750354653 1 1 1 1 1 1 1 1 1 1 1 1 1 1 1 1 1 1 1 1 1 1 1 1 1 1 1 1 1 1 1 1 1 1 1 0.01060300045440913 1 1 1 1 1 1 1 1 1 1 1 1 1 1 1 1 1 0.017521842213593715 0.009923782271718834 1 1 0.010365584816612658 1 1 1 1 1 1 1 1 1 1 1 1 0.0099727945636706172 1 1 1 1 0.020185598959706681 1 1 1 1 1 1 1 1 1 1 1 1 1 1 0.0098877278671824203 1 1 1 1 1 1 1 1 1 1 1 1 0.01013029333095241 1 0.012146868622588018 1 1 1 1 0.013794093813665056 1 1 1 0.0083445203332082295 1 1 0.023284807617353596 1 1 1 1 1 1 1 0.0098364963021773423 0.022168408522193973 1 1 1 0.012055714343067184 1 1 1 1 1 1 1 1 1 1 1 1 1 1 1 1 1 1 1 1 1 1 1 1 0.0086649359054585678 0.010171584427000261 0.01000646093774474 0.0064380691687347894 1 1 1 1 0.01035720806919245 0.016827535166185511 1 1 1 1 1 1 1 1 1 1 1 1 1 1 1 1 0.015204119735096782 1 1 1 1 1 1 1 1 1 1 1 1 1 1 1 0.0099992847466805496 1 1 1 1 0.0087362617200154469 1 1 0.0089834071787096813 1 1 1 0.0060945373379366818 1 1 1 1 1 1 1 1 1 1 1 1 1 1 1 1 1 0.01077659287799349 1 0.008625592839515769 0.010051730653128138 1 1 0.010926003251898684 1 1 1 1 1 1 1 0.0080030623338619988 1 0.010199392969750665 1 1 0.010073482950901328 0.013922439599336501 1 1 1 1 1 0.010085322492842006 1 1 1 1 1 1 1 1 1 1 1 1 1 1 0.0087471159760024522 1 0.010222339433545273 1 1 1 1 0.014186848212720754 1 1 1 1 1 0.010078905064206847 1 1 1 1 1 1 1 1 1 1 1 1 0.0099754977529341333 1 0.011200902391700065 1 1 1 1 1 1 1 1 1 1 1 1 1 1 1 1 1 1 1 1 1 1 1 1 1 1 1 1 1 1 1 1 1 1 1 1 1 1 1 0.0083774889761068262 1 1 0.0086768655559314369 1 1 1 0.011046375594205769 1 1 1 0.011114167329644804 0.0095771646430983948 0.011630942847710404 1 0.010073893898652413 1 1 1 0.011975565113473792 1 1 1 0.012987900945832638 1 0.0072909861330455825 1 1 0.0091143291478727965 1 1 1 1 1 1 1 1 1 1 1 1 1 1 1 1 1 1 0.0097674165326556948 1 1 1 1 1 1 1 1 1 1 1 1 1 1 1 1 1 1 1 1 1 1 1 1 1 1 1 1 1 0.010407234913634938 1 1 1 1 1 1 1 1 1 1 1 1 1 1 1 1 1 0.014396416940793081 1 1 1 1 1 1 1 1 1 1 1 1 1 1 1 1 1 1 1 1 1 1 1 1 1 1 1 1 1 1 1 0.014063263346747417 1 1 1 1 1 1 1 0.013380547233047671 1 1 0.014490137729478606 1 1 1 0.013807201442574173 1 0.014250957237518336 1 1 1 1 1 1 0.010003301130130645 1 1 1 0.018941765763839491 1 1 1 1 1 1 1 1 1 1 1 1 1 1 1 1 1 1 1 1 1 1 1 1 1 0.013413000818845796 1 1 1 1 1 1 1 1 0.012526792088342906 1 1 1 1 1 1 1 1 1 1 1 1 1 1 1 1 1 0.010516026889439716 1 1 1 1 1 1 1 1 1 1 1 1 1 1 1 1 1 1 1 1 1 1 1 1 1 1 1 1 1 1 1 1 1 1 1 1 1 1 1 1 1 1 1 1 1 1 1 1 1 1 1 1 1 1 1 1 1 1 1 1 1 1 1 1 1 1 1 1 1 1 1 1 1 1 1 1 1 1 1 1 1 1 1 1 1 1 1 1 1 1 1 1 1 1 1 1 0.010378995278199717 1 0.011752874315018688 1 1 1 0.01117157174708926 1 1 1 0.010963247764257524 1 1 1 1 1 1 1 1 1 1 0.011745422252045548 1 1 1 1 1 1 1 1 1 1 1 1 1 1 1 1 1 1 1 1 1 1 1 1 1 1 1 1 1 1 1 1 1 1 1 1 1 1 1 0.010512484702916715 1 1 1 1 1 0.0098367171610146999 1 1 1 1 1 1 1 0.010975354059355147 1 1 1 0.015309600969221335 1 1 1 1 0.013451359018374262 0.011370836351344773 1 1 1 1 1 1 1 1 1 1 1 1 1 0.010160516476847899 1 1 1 1 1 1 1 1 0.01123938471292343 1 0.013463323584291201 1 1 1 1 1 1 1 1 0.012741905523856978 1 0.014209258094114432 1 1 1 1 1 1 1 1 0.010506446169356148 1 0.010046384091785984 0.011749557154512995 1 1 1 1 1 1 0.018498035292237165 1 1 1 1 0.010797249750463991 0.015298783734884303 1 0.01301901512773249 1 0.0099954922909088507 1 1 0.011245877184587779 1 1 0.018412922470447676 1 1 1 0.012262686095124539 1 1 1 1 0.010890408647214704 1 1 1 0.017711842920607061 1 0.0088935782831717804 1 1 1 1 1 1 1 1 0.0090919205131275334 1 0.0099964406909809969 0.013710261610517508 0.017022691295212701 1 1 1 0.010000206191200157 1 1 1 1 1 1 1 1 1 1 1 1 1 0.0089693872916428007 1 0.0050119634780932745 1 1 0.019776601971934198 1 1 1 1 1 1 0.0075690953252919666 1 1 1 1 1 1 1 1 0.012585238523839661 1 1 1 0.016897699562529792 1 1 1 1 1 1 1 1 1 1 0.010789626550761157 1 1 1 1 1 1 1 1 1 1 1 1 1 1 1 1 1 1 1 1 0.0054310040376489115 1 1 1 1 1 1 1 1 1 0.0092390476619701213 1 1 1 1 1 1 1 1 0.011250050707693613 1 1 1 1 1 1 1 1 1 0.0067752064392129592 0.021539482643273166 1 1 1 0.0025872316681958803 1 1 1 1 1 1 1 1 1 1 1 1 1 1 1 1 1 1 1 1 0.016028042466234321 1 0.011155135343921704 1 1 1 1 1 1 1 1 1 1 1 1 1 1 1 1 1 1 0.016624950884284798 1 1 1 1 0.015506837252590491 1 1 1 1 1 1 1 1 1 0.01398820401693549 1 1 1 1 1 1 1 1 1 1 1 1 1 1 1 1 1 1 1 1 1 1 1 0.0094012853010709656 1 1 1 1 1 1 1 1 1 1 1 1 1 1 0.01228199433811614 1 1 1 1 1 1 1 1 1 1 0.010901170452993434 1 1 1 1 0.011020161205399968 0.0093669854367340322 1 0.010764760533677583 1 1 1 1 1 1 0.0098072358466683874 1 1 1 1 1 1 1 0.010333753209851604 1 1 1 1 0.010259375789071098 1 0.010992704689611513 1 1 1 1 1 1 1 1 1 1 1 1 1 0.010020030757113239 0.016918144554099686 1 1 0.0084434661255975672 1 1 1 0.013071823194854417 1 1 1 0.010581594588527839 1 1 0.011561748337322573 1 1 1 1 1 1 1 1 1 0.012113018416975693 1 1 1 1 0.010718007220592816 1 1 1 0.022515037845039509 1 1 1 1 0.010517895611670332 1 1 1 1 0.011275924429005411 1 1 1 1 0.022564877752794768 1 1 1 1 1 1 0.010017539189134658 0.0098398267075494976 1 1 1 1 1 1 0.02274514047913517 1 1 0.011321173616985862 1 1 1 0.02347190682849027 1 0.010563144799650787 1 1 1 1 1 1 1 1 1 1 1 1 1 1 1 1 1 0.010779919378981954 1 1 1 1 1 0.010278201010950897 1 1 1 1 1 1 1 1 1 1 1 1 1 1 1 1 1 1 0.010103366848238369 1 1 0.010296128156988221 1 0.025913904539633166 1 0.027600353540217483 1 1 0.028981682112250957 1 1 1 1 1 1 0.010459073017218188 1 1 1 1 1 0.03121508360945683 0.01130655397133595 1 1 1 0.0098678332645758676 1 1 1 1 1 0.0099647597051443701 1 1 1 1 1 1 1 1 1 1 1 1 1 1 1 1 1 1 1 1 1 1 1 1 1 1 1 1 1 0.010065170580420189 1 1 0.01021428339675258 1 1 1 1 1 0.010083023035427845 1 1 1 1 1 1 1 1 1 1 1 0.0099662821937678524 1 1 1 1 1 1 1 1 1 1 1 1 0.0157908292395861 1 1 1 0.010006671580670952 1 1 0.0091271085954032962 0.012644099326825253 0.0098583464775126931 1 0.014305805037866402 1 0.019365250133832793 1 0.0087595505433226209 1 0.013301729215293495 1 0.01621242336397468 1 1 0.016195123540826431 0.010051603071266263 1 1 1 1 1 1 0.016654288201687795 1 1 0.010131993489325752 0.011207103945115426 1 1 1 1 1 1 1 1 1 1 1 0.01523339589686451 1 1 1 1 1 1 0.010129773925871806 1 1 1 0.021890877231040565 1 0.0078728456510915104 1 1 1 1 1 1 1 1 1 1 1 1 1 1 1 1 1 1 1 1 1 1 1 1 1 1 1 1 1 1 1 1 1 1 1 1 1 1 1 1 1 1 0.010502999387825812 1 0.018161514404351521 1 1 1 1 1 1 1 1 1 1 1 1 1 1 1 1 1 1 1 1 1 1 1 1 1 1 0.03115204294964918 1 1 1 1 1 1 1 1 1 1 1 1 1 1 1 1 1 1 1 1 1 1 1 0.0099915308078379755 0.028391444462205158 1 1 0.0094705425412247024 1 1 1 1 1 1 1 1 1 1 1 1 0.019767273898040196 -1.5612511283791264e-17 1 1 1 1 1 0.032593473387292002 1 0.0061907466926693182 1 1 1 0.014630581873585001 1 0.0034067291721590091 0.025277814615583032 1 0.031762938168067668 1 1 1 1 1 1 1 1 1 1 1 1 1 1 1 1 1 1 1 1 1 1 1 1 1 1 1 1 0.0078089151905944357 1 1 1 1 1 0.0091042722602416616 1 1 1 1 1 1 0.0098267335065880673 1 1 1 1 1 1 0.011073714589148055 1 1 1 1 1 1 0.010087126095666487 1 0.011020492169970929 1 0.013107317942203371 1 1 1 1 1 1 1 1 1 1 1 1 0.021436544808523542 1 1 1 0.016441126379293389 1 1 1 1 0.010035991270397351 1 0.0099838250300319734 1 1 1 1 1 1 1 1 1 1 1 1 1 1 0.010769232389404956 1 1 0.0099838549700554911 1 1 1 1 1 1 1 1 0.012120552019641601 1 1 1 1 1 1 1 1 0.027017508227216221 1 1 1 1 1 1 0.03069612830946624 1 1 1 1 1 1 1 1 1 1 1 1 1 1 1 1 1 1 1 1 1 1 1 1 1 1 1 1 1 1 1 1 1 1 1 1 1 1 1 1 1 1 1 1 1 1 1 0.016585803674587639 1 1 1 1 1 1 1 1 1 0.024486505396232226 1 1 0.01333952276965527 1 1 1 0.032183989479411847 1 0.010669988009470098 0.022801603483322615 1 1 0.020686242043048794 1 1 1 1 1 1 1 1 1 1 0.011996739485567627 1 1 0.0096893925685034438 1 1 1 0.011975439423217271 1 1 1 1 1 1 1 1 1 1 1 0.011614474068013053 1 1 1 1 1 1 0.0099979314151716018 1 1 1 1 1 0.0099703547039558284 1 1 1 1 1 1 0.010003325305217324 1 1 1 1 1 0.010069534895528188 1 1 1 1 1 1 1 1 0.010279153531512588 1 1 1 1 1 1 1 1 1 0.010429005631776827 1 1 0.010266387748584471 1 1 1 1 0.010063359019250694 1 1 0.010185011741838244 1 1 1 1 1 1 1 1 1 1 1 1 1 1 0.010220050973317171 1 1 1 1 1 1 1 1 0.010319972343940623 1 1 0.0099969009243588147 1 1 1 1 1 1 1 0.010185077910644699 1 1 1 1 1 1 0.010157453166547058 1 1 1 1 1 1 1 0.011466184764345307 1 1 1 0.014177286347501726 1 1 1 1 0.028903443539951106 1 1 1 1 1 1 1 1 1 1 1 0.01071289588877488 1 1 1 1 1 1 0.010331318080681266 1 1 0.015840532936769548 1 1 1 1 1 1 1 1 1 0.009899716136776095 1 1 1 1 0.022200326633688733 1 0.013985531831548008 1 1 1 1 1 0.010169186316758389 1 1 1 0.0042851192721548442 1 1 1 1 1 1 1 1 0.014950104544884255 1 1 1 1 1 0.013932657288759212 1 1 1 1 0.011690721393708671 1 1 1 0.011897052699559471 1 1 1 1 1 1 1 1 1 0.010189724430110972 1 1 1 1 1 1 1 1 1 0.017338594874381254 1 1 0.012955188664156014 1 1 1 1 1 1 1 1 1 1 1 1 1 1 1 1 0.019928261773325687 1 1 0.012304920192796703 1 1 1 0.010626485356014594 1 1 1 0.023086018337787839 1 1 1 1 1 1 0.010410111816427748 1 1 1 1 1 1 1 1 1 1 1 0.024882657241765922 1 1 0.020010070184596461 0.014714668694232901 1 1 1 1 1 1 0.013820407898140307 1 1 1 1 1 1 0.010797731740419952 1 1 1 1 1 1 1 1 1 1 1 1 1 0.013271123517481311 1 1 1 1 1 1 1 1 0.0099997689847361754 0.01164281248435544 1 1 1 1 0.012002997985222214 1 1 1 1 1 1 1 1 1 1 1 1 0.011589982962891552 1 1 1 1 0.012897506214616179 1 0.0093175568732288966 0.012783166342898252 1 1 1 1 0.01034596092867583 1 1 1 1 1 1 0.011018712193004621 1 1 1 1 1 1 1 1 1 1 1 1 1 1 1 1 0.019927302184712357 0.016494606725689562 1 1 1 0.012790618279694558 1 1 1 1 1 0.014913546469578227 1 1 1 1 1 1 0.010192348350163373 1 1 1 1 0.010281618815718171 1 1 1 1 1 1 1 0.016630765897669722 1 1 1 0.010007924610035046 0.010974427685206947 1 1 0.010276874098689489 1 1 1 1 1 1 1 1 0.011477399274687917 1 1 1 0.010536959590065918 1 1 1 0.0094274020000893605 1 1 0.0083083443488855945 1 1 1 1 0.0078690208336136599 1 0.0092299505270599519 0.01419187806678034 1 1 1 1 1 1 1 1 1 1 1 1 1 1 1 1 1 1 1 1 1 1 1 1 1 1 1 0.014457030539668989 1 1 1 0.0076352718540658596 1 1 1 1 1 0.0056763931779711518 0.012306523625665391 1 0.01145289709454219 1 1 1 0.0089427865315410936 1 1 1 0.0099593106383990132 1 1 1 1 1 1 1 1 1 1 1 1 1 1 1 1 1 0.010922980766087789 1 0.011665448158568036 1 1 1 1 1 1 1 1 0.010257603330304267 1 1 1 1 1 1 1 1 1 0.015187598948748209 0.027107016716869176 1 1 1 0.013633506666488274 1 1 1 1 0.01112748463186119 1 1 1 1 1 1 1 0.0079140722612876021 0.009871655646271911 1 1 1 0.010729753000626877 1 1 1 1 1 1 1 1 1 1 0.010342399728750793 1 1 1 0.010669864587525321 1 0.012697443108212397 1 1 1 1 1 1 1 0.010682820208533877 1 1 1 1 0.011932135314806344 1 1 1 1 1 1 0.0099399195154654951 1 1 1 1 1 1 1 1 1 1 1 0.0099828395944233945 1 1 1 1 0.0099708236454188609 1 1 0.0099879622007348848 1 1 1 1 1 1 1 1 1 1 0.0097765094942664534 1 1 1 0.013531286948571397 1 1 1 1 0.0094419351447537839 1 1 0.017057110886092068 1 0.0081934443150064352 0.010006827815736401 1 1 1 1 1 1 1 1 1 1 1 1 1 1 1 1 1 1 0.015231303654403783 1 0.0100351146833659 1 1 0.011662514988432661 1 0.0093091957783238075 1 1 1 1 1 1 1 1 1 1 1 1 1 1 1 1 1 1 1 1 1 1 1 1 1 1 1 1 1 1 1 1 1 1 1 1 1 1 0.0098087524892497072 1 1 1 0.016062642155365549 1 1 1 0.015862053338924736 1 0.010140868377441842 1 1 1 1 1 1 1 0.010411576896799059 1 1 1 1 1 1 0.010236819928719746 1 1 1 0.010330592807552823 1 1 1 1 0.0091435570780955475 1 1 1 0.020021389220194509 1 0.011300167652256049 1 1 1 0.014038985099985525 1 1 1 1 1 1 1 1 0.024986864717047301 1 1 0.025984700337476782 1 1 1 1 1 1 0.023027503766118292 1 1 1 1 1 1 1 1 1 1 1 1 1 1 1 1 1 1 1 1 1 1 1 1 1 1 1 1 1 1 1 1 1 1 1 1 1 1 1 1 1 1 1 1 0.015806407937780209 1 1 1 1 1 1 1 0.012087556336642626 1 1 1 1 1 1 0.010116016909712026 1 1 1 1 1 0.016862077430228724 1 1 0.0099973701500477782 1 1 1 1 1 1 0.011649284878593673 1 1 1 0.0095538777248327586 1 1 1 0.010669470156552927 1 1 1 1 1 1 0.013094945942299048 1 1 1 1 1 1 1 1 1 1 1 1 1 1 1 0.015226252340074818 1 0.015295936777972613 1 0.0098067102624770815 1 0.013038401442565226 0.0091576919099139176 1 0.010175903557583743 1 1 0.017933471904107393 1 1 1 1 0.014531302956257574 1 1 0.010022212423920054 0.0097142206744649448 1 1 1 1 1 1 1 0.0099892139275733517 1 0.010067349528843779 1 1 1 1 0.009909025628576023 0.015841867879423047 1 1 0.012169602396323075 1 1 1 1 1 1 1 1 0.012435591011443099 1 0.015622726320514251 1 1 1 1 0.011409583564083892 1 1 1 0.014824805255696469 0.0073695363291743608 1 1 1 1 1 1 1 1 1 1 1 1 0.011911346756679628 1 1 1 1 1 1 0.015464428387347897 1 1 1 1 0.011817977761180619 1 1 1 1 1 1 1 1 1 1 1 1 1 1 1 1 0.0099770348058296297 1 0.010257563772494736 1 1 1 1 0.0077567334084181708 0.015329314249735122 1 0.0085212510510467108 1 1 0.0069721251267236403 1 1 1 0.012291905771581704 1 1 1 0.010159423178311131 1 0.010000778796978993 1 1 1 1 1 0.011220310127851119 1 0.016390713625426413 1 0.01020861758617478 1 1 1 0.018482308142416408 1 1 0.010230170463701182 1 1 1 1 1 1 1 1 1 1 1 0.011388805975078381 1 1 1 1 0.011386323082612551 1 1 1 1 1 1 0.010386394127444326 0.017801028433444891 1 1 1 0.011388041519924733 1 0.010625924032855893 0.010503765092085119 1 1 1 0.01009478225007558 1 1 1 1 1 0.011710931562156798 1 1 1 1 1 1 1 1 1 0.0099099925889111692 1 1 0.0094226188157623195 1 1 1 1 1 1 1 0.010686007942207002 1 1 0.010745355641908878 0.010171358135920865 1 1 1 0.010420148179126041 1 0.010757523218149366 1 1 0.011873234108360059 1 1 0.010860861267524283 0.013997058530071939 1 1 1 0.015955038186909094 1 0.016006369054019056 1 0.024952152819401878 1 1 1 1 1 1 1 0.010340298113017404 0.016998200681748073 1 1 1 1 1 1 1 1 0.012981074978690886 1 1 1 1 1 1 1 1 1 1 1 1 1 1 1 0.0093496149620846646 1 1 1 1 1 1 1 1 0.0098480960101602396 1 1 1 1 1 1 1 0.01056744123215992 1 1 1 1 1 1 1 1 1 1 1 1 1 1 0.0098251308159898725 1 1 1 1 1 1 1 1 0.010577486339300382 1 1 1 1 0.010594912437321172 1 1 1 1 1 1 1 1 1 1 1 1 1 1 1 0.010478881530275905 1 1 1 1 0.0091231619296910961 1 0.018460740819364531 1 1 1 1 0.0089463361967569467 1 1 1 1 0.027821988133514032 1 0.010513873970888463 1 1 1 1 1 1 1 1 0.003184767494150571 1 1 0.0073182804256692879 0.0099689352729221987 1 1 1 0.016169852721331847 0.018732193137844914 1 0.019160584549564433 0.019872813813627821 1 1 1 1 0.010043285058550152 1 0.022719460322784969 1 1 1 0.025104464319323526 1 1 0.012403883708626006 1 1 0.019061710957287654 1 0.0082655092971782047 1 0.020505540136352134 1 1 1 1 1 1 0.008729524226457671 0.01542684521419522 1 1 0.0068038730898110572 0.015284365725427927 0.010754559237532459 0.010006630498247959 1 0.014875414711189267 0.011499657696976577 1 0.0099914863183754553 1 1 1 0.010044515632280867 0.014567261085306272 1 1 0.01395382229286956 1 1 1 0.019097427231168151 1 1 1 0.019313551776474057 1 0.025109971089459716 1 1 0.023013595562584442 1 1 1 1 1 0.010815224574991429 1 1 1 1 1 1 1 1 1 1 1 1 1 0.0090585107741733041 1 1 0.011853807075799685 1 1 1 1 1 1 1 1 1 1 1 1 1 1 1 1 1 1 1 1 1 1 1 1 0.015136309249447207 1 1 1 1 1 0.009934917325855443 1 1 1 1 1 1 1 1 1 1 1 1 1 1 1 1 0.017690203337612245 1 1 1 1 1 1 0.019002369172421422 1 1 1 1 1 0.019730744274102093 1 1 0.0098520456985627825 0.010077002455897262 1 1 1 1 1 1 1 1 1 1 1 1 1 1 1 1 1 1 1 1 0.009099364062470491 1 1 1 1 1 0.037159441155971779 1 1 0.0070363061751918358 1 0.0077492134690736476 1 1 0.0091686550486013915 0.013093533996326207 0.010155824371812791 1 1 0.011039290043728195 1 1 1 1 1 0.036786233090157126 1 1 1 1 1 1 1 1 1 1 1 1 1 0.0087498895921500099 1 1 1 1 1 1 1 0.015160907100909518 1 1 1 1 0.010002780290548317 1 1 0.0095768733697024107 1 1 1 1 1 1 1 1 1 1 1 1 0.010291972224756734 1 1 1 1 0.010585039044483789 1 1 1 1 1 1 1 1 0.010143133450086442 1 0.010206368979015062 1 0.01072083187459655 1 1 1 1 1 1 1 1 1 1 1 1 1 1 1 1 1 1 1 1 1 1 1 1 0.010090218408173684 1 1 1 0.010483487340381127 1 1 1 1 1 1 0.0096662673294164378 1 1 0.010794628042898127 1 0.010062920019324887 1 0.01115444158772837 1 1 1 1 1 1 1 1 1 1 1 1 1 1 1 0.01104425026164196 1 1 1 1 1 1 1 1 1 1 1 1 0.009252420220355273 1 1 1 1 1 1 1 1 0.0097182320645750938 1 1 1 1 0.0090974709535807611 1 1 1 1 0.014876534486775804 1 1 1 0.015898037534367623 1 1 1 1 0.0086582001105527905 1 1 0.0094778108906351001 1 1 1 1 0.0097767368653511461 1 1 1 1 1 1 1 1 1 1 0.0094762472603411706 1 1 1 1 0.010996305216927332 0.01025674515245229 1 1 1 1 1 1 1 1 1 1 1 1 1 1 1 1 1 1 1 1 1 1 1 1 1 1 1 1 1 1 1 0.0093255366639195571 1 1 1 1 1 1 1 1 1 1 1 1 1 1 1 1 1 1 1 0.010506163828785848 1 1 1 1 1 1 1 1 1 1 1 1 1 1 1 1 1 1 1 1 1 1 1 1 1 1 1 1 1 1 0.011310598660996967 1 1 1 0.013696451071356452 1 1 1 1 1 1 1 0.015565738685003282 1 1 1 1 1 1 1 1 0.016710699017440593 1 1 0.0099791645909930657 1 1 1 1 1 1 1 0.012913211539489959 1 1 1 1 0.010644738004628942 1 0.012179026871504066 0.014059325246560304 0.0090015048062412669 1 1 1 0.013960835936830477 1 1 1 1 1 0.0097427226581792061 0.013565607580083676 1 1 1 0.01148380867171774 1 1 1 1 0.010809617020473922 1 1 1 1 1 1 1 1 1 1 1 1 1 1 1 1 1 1 0.0099990951720850818 1 1 0.010246029597691744 0.011843374824535725 1 0.0049284871782055567 1 0.0091349677207179462 1 1 0.010073855060433588 1 0.014145835985613229 0.009885583437795227 1 1 1 0.012334620049384364 1 1 1 1 0.010346737965098015 1 1 1 1 1 0.012053273782461592 1 1 1 1 0.010045213663680979 1 0.0099596374779283812 1 1 1 1 1 1 1 1 1 0.018760492708481777 1 1 0.018877735836581158 1 1 1 1 1 1 1 1 1 0.010442743850062865 1 1 1 0.010118847041771005 1 1 1 1 1 1 1 1 1 1 1 1 1 0.011223057462415698 1 1 1 1 0.01013093861201186 1 1 1 1 1 1 1 1 1 1 1 1 1 1 1 1 1 1 0.015898427939348345 1 1 1 0.010951223175100172 0.01158584383869375 1 1 1 1 0.015964917571519948 1 1 0.010286257015386813 1 1 1 0.010086423745907057 1 0.0092314315128907264 1 1 0.012091498011938834 1 1 1 0.009580984727175253 0.011842761193178033 1 0.0095878943027333918 1 1 0.010830682059442164 1 1 1 0.017779642205130244 0.010022740444247639 1 1 1 1 1 0.015061408189841103 0.0093323255250947063 1 1 0.014916397175599897 0.01000315011656701 0.015781392580524606 1 1 0.01780695791222358 1 1 1 1 1 1 1 1 1 1 1 0.011064189356936281 1 1 1 1 1 0.016954997197268114 0.017308909857697587 1 0.0093799223766409517 1 1 1 1 1 1 1 0.014668293755827219 0.016997024085885049 1 1 0.015153232753850592 1 1 1 1 1 1 1 0.010094242406150736 1 1 1 1 1 1 1 1 1 0.010582403806711984 0.009037206071190353 1 1 0.021218548079479774 1 1 1 1 1 1 0.018831143795963207 1 0.011701828933352943 1 1 1 1 0.012000642980824943 0.01472306026890583 1 0.0089775058138307044 1 1 1 0.010015074139417542 1 1 1 1 1 1 1 1 1 0.010103031726436996 1 0.010281197178666931 1 1 1 1 1 1 1 1 0.010387619923992206 1 1 1 1 1 0.012916055259476349 1 1 1 1 1 1 1 1 1 1 1 1 1 1 0.0094785575369858901 1 1 1 1 0.012859018106318402 1 1 1 1 1 1 1 1 1 1 1 1 1 1 1 1 0.017679299748079292 1 1 1 1 1 1 1 0.0093722906698409641 1 1 1 0.021866575823060348 1 1 1 1 1 0.011164137711868439 0.0099775837924869701 1 1 1 1 1 1 0.011946575882340344 1 1 0.011689493086436619 1 0.0093602169616799312 1 0.011472154158144883 1 0.013212883327036025 0.010903521520072856 1 0.0074463667543268539 1 1 0.010053971587835931 1 0.0098686134803592507 1 1 1 1 0.010560273740629662 1 1 1 1 0.010611916602064102 1 1 0.011789906821503427 1 0.035313893682179957 1 1 0.031611746887578264 1 1 1 0.0036310080711991505 1 1 0.010010615949297506 0.0093180326521870305 1 1 1 0.0078643258641870259 1 1 1 1 1 1 1 1 0.034098172607586921 1 1 1 1 1 1 1 0.0099306517758968073 1 1 1 1 1 0.0096790198711357699 1 1 1 1 0.0087645529510282545 1 1 1 0.0099689517409035592 0.01364565344822765 1 1 1 1 1 1 1 1 0.015331671975479959 1 1 1 1 1 1 1 1 0.01192341991955252 1 1 1 0.011226379587838826 1 1 1 1 1 1 1 1 1 1 1 1 1 1 0.025227273541553651 1 1 1 1 1 1 1 1 1 1 0.010207788540326768 1 1 1 1 1 1 1 1 1 1 1 1 1 1 1 0.021572686630816462 1 1 0.0095051331867294798 0.027479094419924403 1 1 1 1 1 0.010463688849984935 0.023849552374212334 1 1 1 1 1 1 1 1 1 1 1 1 1 1 1 1 1 0.010202563936956866 1 1 1 1 0.012222664671981753 1 1 0.0099962660274045337 0.0086991247848383808 0.0097856373000287343 0.010617960509149277 1 0.015168623025651338 1 1 1 1 0.011310287555777515 1 1 0.010383285227900732 1 1 1 1 1 1 1 1 1 1 0.01047108607137542 1 1 1 1 1 1 1 0.01977424503644409 1 1 0.010891445675202309 1 1 1 1 1 1 1 1 1 1 1 0.010035245743794361 1 1 1 1 1 1 1 1 1 1 1 1 1 1 1 1 1 1 0.010620074416662517 1 1 1 1 1 1 1 0.010034898917178757 1 1 1 0.013399108821150484 1 1 0.0099900828149597273 1 1 1 0.010074513611569837 1 1 1 1 1 1 1 1 1 1 1 1 1 1 1 1 1 1 1 1 1 1 1 1 1 1 1 1 0.010552162406569776 1 1 1 1 1 1 1 1 1 1 1 1 1 1 1 1 1 1 1 1 0.011588404171930418 1 1 1 1 1 1 1 1 1 1 1 0.020826827219763647 0.0089632987889895262 1 1 1 1 1 0.010032009653248549 1 0.021714844203789316 1 1 1 1 1 1 1 1 1 1 0.0096904191713855989 1 1 0.010726410830695317 1 1 1 1 1 1 1 1 0.010549716838474138 1 0.010009726405146271 1 1 1 1 1 1 1 1 1 1 1 1 1 1 1 1 1 1 0.010445726854312592 1 1 1 1 1 0.0092258930587398574 1 1 1 1 0.0095720654017047973 1 1 1 0.010057346384777687 1 0.0099143744685228595 1 1 1 1 1 1 1 1 1 1 1 1 1 0.0099133087804925205 1 1 1 1 1 0.0097556448718219713 1 1 1 0.010157755689943392 0.0098728282275692605 1 1 1 1 1 0.011981916137460538 1 0.011228234512891299 1 0.008905536593808135 0.0088134096277992201 1 1 0.020184961688228129 1 0.011218331004888168 1 0.011811320927048678 1 1 0.0099803881138017837 1 1 0.010723221118842927 1 1 1 1 1 0.0089963964171109797 1 1 0.0099965305165663591 1 1 1 1 1 1 1 1 1 1 1 0.0099554332294204319 0.017469288174134883 1 1 1 0.017805684096087467 1 1 1 1 1 1 0.016252034457450479 1 1 1 0.017181252075941178 1 1 1 1 1 1 1 1 1 1 1 1 1 1 1 1 1 1 1 1 0.010111169796057891 1 1 1 1 1 1 1 1 1 1 0.010072122472764832 1 1 1 1 1 1 1 1 0.010310578385670802 1 1 1 1 1 1 1 0.014133966914912945 1 1 1 1 0.010165778538588589 1 1 1 0.011750898909195513 1 0.010941502758841551 1 0.013584398916457309 0.010508035246741676 1 0.014693575338098633 1 1 0.013120635073827524 1 0.012976529899634603 1 1 0.013076916393486911 1 1 1 1 0.010168839604240996 1 1 1 0.014500798353299992 1 1 1 1 1 1 1 1 1 0.012838083070628793 0.013182913529885982 1 0.012017559598808536 1 1 1 0.011854483026686895 1 0.01211402556266342 1 0.01354953523132538 1 1 0.013162314367086828 1 1 0.011255653777415699 1 0.0098787599959423711 1 1 1 0.010002685439517545 1 1 1 1 0.011949833721182778 0.014481439933224824 1 1 1 1 1 1 1 1 0.01305713012884648 1 0.0065556332482246821 0.0099964045007010522 1 1 0.010167242987295325 1 1 1 1 1 0.017559479389332409 1 1 0.017614109879785164 1 0.0131446318304563 1 1 1 1 1 1 1 1 1 0.011309459404638109 1 0.011780057216741344 1 1 1 0.0099950515229637309 1 1 1 1 0.011952928855940497 1 1 0.011509569177197147 1 1 1 1 1 1 1 1 1 1 1 1 1 1 1 1 1 1 1 1 1 1 1 1 1 1 1 1 1 1 1 1 1 1 1 1 1 1 1 1 1 1 1 1 1 1 1 1 1 1 0.0097102419701679179 1 0.013391573568744179 1 1 1 1 1 1 1 1 1 1 1 0.009880089456010533 1 1 1 1 1 1 0.0099021554831823632 1 0.015248847468988792 1 1 0.01299534389808705 1 1 1 0.012670244365466979 1 0.013064662829034684 1 1 1 1 0.012227265660226562 1 0.011969100047945961 1 1 0.010113457933851436 1 1 0.012985554023569774 1 1 0.020748700771234911 1 1 1 1 0.021453527372581323 1 1 1 1 1 1 1 1 0.021571647702139277 1 1 1 1 0.010011132661351198 1 1 0.0099924884127420652 1 1 1 1 0.010981147751255711 1 0.010083915259950366 1 1 1 1 1 1 1 1 1 1 1 1 1 1 1 1 1 1 1 1 1 1 1 1 1 1 1 1 1 1 1 1 1 1 0.020528772588367935 1 1 1 0.010071045166037344 1 1 1 0.010138032618188061 0.018570139941351468 1 1 1 1 0.018852562387967058 1 1 1 1 1 1 1 0.013196292195354682 1 1 0.011147326227246863 1 1 1 1 1 1 1 1 1 1 1 1 1 1 1 1 1 1 1 1 1 1 1 1 1 1 1 1 0.010041273599379228 1 1 0.015382122932435821 1 1 0.01011080450366068 1 1 1 1 1 0.012826004858204017 0.011697668409146123 1 1 0.01050732598660643 1 1 0.011775141539038199 0.011885941283702227 1 0.011285912417022554 1 1 1 1 1 1 1 0.015614931442507857 1 1 1 1 0.014046192942086052 1 1 1 1 1 1 1 1 1 1 0.010129268895729494 1 1 1 1 1 1 1 1 1 1 0.010408333636653333 1 0.014581464224221498 1 1 1 1 1 1 1 1 1 1 1 1 0.015667567660994017 1 1 0.011617401488532197 1 1 0.01594488313037153 1 1 1 1 1 1 1 1 1 1 1 1 1 1 0.017052674045905519 1 1 1 0.018130473297103308 1 1 1 0.012098924924429625 1 1 1 1 1 0.010033562026319429 1 1 0.011508251218679046 0.012653655684804484 1 1 0.010007942825311075 1 0.017633822459230918 1 1 1 1 0.011320361191926014 1 1 1 1 0.011182081736838767 1 1 1 0.0099047934157918283 1 1 1 1 1 0.01034778339582273 1 1 1 1 1 1 0.010182004857234141 1 1 1 1 0.011001671242672862 1 1 1 1 1 1 0.01019214106454568 1 1 1 1 1 1 1 0.010875906237166357 1 1 1 0.010007176285765671 0.010585235100897884 1 1 1 0.0092190463576752278 0.010100655018897745 1 1 1 1 1 0.010211559636373865 1 1 1 1 0.01038092132132635 1 1 0.013251298562087269 1 1 1 1 1 1 1 1 0.010544876678727749 1 1 1 1 0.0096799235645413789 1 0.0084991824437374089 1 1 1 1 0.012681336981011152 0.010025657297856776 1 1 1 1 1 0.010764153080733344 0.0098681178879381076 1 1 1 1 1 1 1 1 1 1 1 1 1 1 0.010988564037191097 1 0.01107068535624231 1 1 1 1 1 1 1 1 1 1 1 0.009585641612164358 1 1 1 0.01310884608874587 0.0083421556458555517 1 1 1 0.013323568737154356 1 1 0.013642860331810136 1 1 1 1 1 0.011418830973469572 1 1 0.0085386305296291255 1 1 1 0.0075083394649743491 1 1 1 0.010214896022224626 1 1 1 1 1 1 1 1 0.011401565817537504 1 1 1 1 1 0.011306474049810656 1 1 1 1 1 1 1 1 1 0.014641790978457647 1 0.014984259340292809 1 1 1 1 1 1 1 1 1 1 0.012204195688103277 1 1 1 1 1 1 1 1 1 1 1 1 1 1 1 1 1 1 1 1 1 1 1 1 1 1 1 1 1 1 1 1 1 1 1 1 1 1 1 0.01186172732626811 1 1 1 1 1 1 1 1 1 1 1 1 1 1 1 0.011385704795243751 1 1 1 0.011558568668197631 1 1 1 1 1 0.010098481272722979 1 1 1 1 1 1 1 1 1 1 1 1 0.010547968001642672 1 1 1 1 1 1 1 1 1 1 1 1 1 1 1 1 1 1 1 1 0.010402060122105136 1 1 1 1 1 1 1 1 1 1 1 1 1 1 1 1 1 1 1 1 0.016388732696925378 0.011212534500732863 1 1 1 1 1 0.013780894814927936 1 1 1 1 1 1 1 1 1 1 1 1 1 1 1 1 1 1 1 1 1 1 1 1 1 1 1 1 0.010297571922790152 1 0.010848008169401567 1 1 1 0.0099210824177511439 1 1 1 1 1 1 1 1 1 1 1 1 0.010353711325090597 1 1 1 1 1 1 1 1 0.01082714257941427 1 1 1 0.010875491376428811 1 1 1 1 1 1 1 0.01071166202909212 1 0.012336110696535837 1 1 1 1 1 1 1 1 1 1 1 1 1 1 1 1 1 1 0.019304274462312157 1 1 1 1 1 1 1 0.01349357613020024 1 1 1 0.012702533970202129 1 1 1 1 1 1 0.011078085302758405 1 1 1 1 1 1 1 1 1 0.01018744712915513 1 1 1 1 1 1 1 1 1 1 1 1 1 1 1 1 0.013405510550814084 1 0.017950040209580891 1 1 1 1 1 1 1 1 1 1 0.0090638652586002219 1 1 1 0.019850100205758336 1 1 1 1 1 1 1 1 1 1 1 1 1 1 1 1 1 1 1 1 1 0.013730234945792485 1 1 1 1 1 1 1 0.012169039043235449 1 1 1 1 1 1 1 1 1 1 0.014090846896030259 1 1 1 1 1 1 1 1 1 1 0.020079464940477326 1 1 0.010391217068901516 1 0.0083413836466682129 1 1 1 1 1 0.02192248708485392 1 1 1 1 1 1 1 1 1 1 1 1 1 1 0.0087754685605282868 1 1 1 1 1 1 1 1 1 1 1 1 1 1 1 1 1 1 1 1 1 1 1 1 1 1 1 1 1 0.011925060942212594 1 1 1 1 1 1 1 1 1 1 1 1 1 1 1 1 1 1 1 1 1 0.0091607489613890775 1 1 1 1 1 1 1 1 1 1 1 0.0080877502915896859 1 0.015977454413279808 0.010542564661555221 1 1 1 0.027066142630531344 1 1 0.026252036649827552 1 1 0.0099717058726216095 1 1 1 1 1 1 1 1 1 1 1 1 1 1 1 0.010775330309215821 1 1 1 0.0098260320032452549 1 1 1 1 1 1 1 1 1 1 1 1 1 1 1 1 1 1 1 1 1 0.011710296667810396 1 1 1 1 1 1 1 0.011538161027678944 1 1 1 1 1 1 1 1 1 1 1 0.01219436495902301 1 1 1 0.012660022940911769 1 1 1 0.012819642654919529 1 1 1 1 1 1 1 1 1 1 1 1 0.010071834213905343 1 1 0.010270601751906187 1 1 1 0.027184457363753384 1 1 1 0.0078125166392936755 1 1 1 1 1 1 0.010078611775755416 1 1 0.010378375397509155 1 1 1 1 0.010093036167221315 1 1 1 0.017576773641467119 1 0.010159991259319984 0.02200581673759508 1 1 1 1 1 0.015399935598872885 1 1 0.014124212183755465 1 1 0.011010808067930103 1 1 1 1 1 1 0.01003717326104582 1 1 1 0.011144591052074848 1 0.020522455997487699 1 1 0.020102709337687402 1 1 1 0.009314938886215908 1 1 1 1 1 1 0.019085533842644345 0.010051133677236625 1 1 1 0.010482750807703507 1 1 0.016241296891895012 1 1 0.015468449177624887 1 1 1 1 1 1 1 1 0.015242006254034934 0.011310178124273224 0.010812534951047423 1 1 1 0.012899028568633024 1 0.012339369873141603 1 1 0.016355419222566045 1 1 0.010111464506076017 1 1 0.010913786269313318 1 1 1 1 1 0.010116312806566094 1 1 1 0.018326395350743825 0.016951030681145854 1 0.010005711503703774 1 1 1 1 1 1 1 1 1 1 1 0.01003794231669719 1 1 1 1 0.013489870863845005 1 1 1 1 1 1 1 1 1 1 1 0.014060855829058217 1 1 1 1 0.018046228808390172 1 0.01900716405380954 1 1 1 1 1 1 1 1 1 1 1 1 1 1 1 1 1 1 1 1 0.010153344800563409 1 1 1 1 1 0.010089049056815345 0.010245501756355163 1 1 1 1 1 0.010293379134310464 1 1 1 1 1 1 1 1 1 1 1 0.010140034333747064 1 1 1 1 0.010072114223038612 1 0.017365011013847076 1 1 1 0.017113795282021338 1 1 1 0.010657985788172251 1 1 1 1 1 1 0.010839110748916659 0.016723899574419235 1 1 1 0.011686198023716569 0.013717027432017831 1 1 1 0.010008735939648385 0.015996777271615199 1 1 1 1 1 1 1 0.010355573451893963 1 1 1 0.010119018726853769 1 1 1 1 1 1 1 1 0.0099758799744324288 1 1 1 1 1 1 1 0.0099987822561527946 0.01561638025176389 1 1 1 0.0099868843142198408 1 1 1 1 1 1 0.011242211219612473 1 0.010189309795420719 1 1 1 1 0.010730041649121912 1 1 1 1 1 1 1 1 1 1 1 0.010226598188336841 1 1 1 1 1 1 1 1 1 1 1 0.010171410708529425 1 1 1 1 1 0.010416081812535158 1 1 0.013134081949950608 1 1 1 1 0.014350498344313484 1 1 1 0.012051444943705962 1 1 0.0085840742034859405 0.0093975945343412574 0.016694041469162139 1 1 1 0.009904317030213064 1 1 1 1 1 1 1 1 1 1 0.021732326988087143 1 1 0.0099918968851495354 1 1 0.010072626082798561 1 1 1 1 1 1 0.0098715001272073732 1 1 1 1 1 1 1 1 1 0.0094998170270085558 1 1 1 1 1 1 1 1 1 1 1 1 1 1 1 1 1 1 0.019427459608793607 1 1 1 1 1 0.012362785389961051 0.010263109076407994 1 0.011774694388972332 1 1 1 0.011164028669839982 1 0.0099131259136253699 1 1 1 1 1 1 1 1 1 1 1 1 1 0.0077456067833581556 0.019844595418460266 1 1 1 1 0.0099634721264150929 1 1 1 0.014092444413378272 1 1 1 1 1 1 1 1 1 1 1 1 1 1 1 1 1 1 1 1 1 1 1 1 1 1 1 1 1 1 1 1 1 0.022320185484341636 1 1 1 1 1 1 1 1 1 1 1 1 1 0.025790902659500067 1 1 1 0.024112175341624659 1 1 1 1 1 0.016285041615045681 1 1 1 1 1 1 0.010772116738048608 1 1 1 1 1 1 0.010748886911344416 1 1 1 1 1 0.017810738954360854 0.010058850830044729 1 1 1 1 1 0.013795042387730109 1 1 1 1 1 0.010309383365383484 1 1 1 1 1 1 1 1 1 1 1 1 1 1 1 1 1 1 1 1 1 1 1 1 1 1 0.0132335467867273 0.013569168850530168 1 1 1 1 1 1 1 0.013753887385745064 1 1 1 1 1 1 1 1 1 1 1 1 1 1 1 1 1 1 1 1 1 1 1 1 1 1 1 1 1 1 1 1 1 1 1 1 1 1 1 1 1 0.016902290662704322 1 1 1 0.010057016171397565 0.010126817600159155 1 1 1 1 1 1 1 1 1 1 0.01283494895315925 1 1 1 0.012185656106787811 1 1 1 1 1 1 1 1 0.01018313123543522 1 1 0.018537031873846178 1 1 1 1 1 1 0.019929108518290623 1 1 0.010580832509194459 1 1 1 1 0.014123971608816911 1 0.016159817929199263 1 0.011824189245624507 1 1 0.010097756311184097 1 1 1 1 1 1 1 1 1 1 1 1 0.011861852008176766 1 1 1 1 1 1 1 1 1 1 1 1 1 1 1 1 0.0079206942457702555 0.0100295238119019 1 0.011868750536216969 1 1 1 0.014966754894711803 1 1 1 1 1 0.018206521807575857 1 1 1 0.012947929144250969 1 1 0.027317875476580739 1 1 0.0094700417393074089 1 1 0.0098056959001944603 1 1 1 0.017690832528390661 1 1 1 1 1 1 0.010078303703236247 1 1 0.010216341104759684 1 1 1 1 1 0.019850849897164811 1 1 0.020543663096242969 1 1 0.010338614497223148 0.011862432359423929 1 0.017152169747516717 1 1 1 1 1 1 1 1 0.010186996282500759 1 1 1 1 1 0.010058124685314926 1 1 1 1 1 1 1 1 1 1 1 1 1 0.010402650671932159 0.010056199756470522 1 1 1 0.010322342330593596 1 1 1 1 1 1 1 1 1 1 1 1 0.010003769439863962 1 1 1 0.010140977233714439 1 1 1 0.010055697908752784 1 1 1 1 1 1 0.0099944887490503193 1 1 1 1 1 1 1 0.010071230624537032 1 1 1 1 1 1 1 1 0.010096682699496986 1 0.010052079029496971 1 1 1 1 1 1 1 1 1 1 0.010076739088101777 1 1 1 0.010670987824946646 0.0099461300823979609 1 1 1 1 1 1 1 1 1 1 1 1 1 1 1 1 1 1 1 1 1 1 1 1 1 1 1 0.014754776864651589 1 1 0.010332613192087701 1 1 1 1 1 1 1 1 1 1 1 1 1 1 1 1 1 0.010824466694896145 0.010529720259467093 1 1 0.012096140700182806 1 0.010097448179579686 1 1 0.012905853481121055 1 1 1 0.010089526822594853 0.013322994949864532 0.013269920847110234 1 1 1 1 1 1 1 1 1 1 1 1 1 1 1 1 1 1 1 1 1 1 1 0.01004488046563266 1 1 1 1 1 1 1 1 0.016610974507259818 1 1 0.017007197837173853 1 1 1 1 1 1 1 1 1 0.017020593351836637 0.010148713873710268 1 1 1 1 1 1 1 1 1 1 0.014017535067824471 1 1 1 1 1 1 1 0.010020612314922413 1 1 0.0099869300266776234 1 1 1 1 1 1 1 1 0.013457773028158985 1 1 1 1 1 1 1 1 1 1 1 0.010261739120903383 1 1 1 1 1 1 1 1 1 0.012284541770916889 0.013028775155743834 1 1 1 1 1 1 0.016751825791259431 1 1 1 1 0.010141143249278889 1 1 1 1 1 0.0097633119673084801 1 1 1 1 1 1 0.010161750995183551 1 1 1 0.010527216297790196 1 1 1 1 1 1 1 1 1 1 1 1 1 1 1 1 1 1 1 1 0.012135351585130072 1 1 1 0.010751214435457498 1 1 1 1 0.010204250862414829 1 1 0.0103241898360877 1 1 1 1 1 1 1 1 1 1 1 1 1 1 1 1 1 1 1 1 1 1 1 1 1 1 1 1 1 1 0.010606682433775515 1 1 1 1 1 1 1 1 0.010201474493018878 0.0099870146755547465 1 1 1 1 1 1 1 1 1 1 1 1 1 1 1 1 1 1 1 0.010843065330555263 1 1 1 0.0099718777902178327 1 1 1 1 0.010044569117963531 1 0.01040590705354888 0.0099206628679224321 1 1 1 1 1 0.0099840097768817207 1 1 1 1 1 1 1 1 0.010819878548930129 1 1 1 1 1 1 1 1 1 1 0.010538822099871038 1 1 1 1 0.010433805500418811 1 1 1 1 1 1 1 1 1 1 1 1 1 1 1 1 0.010757756568501045 1 1 0.010313667228294569 1 1 0.012698330315527001 1 1 1 1 0.011713091534711062 0.0099177381431982924 1 1 1 1 1 1 1 1 0.013685964588708983 1 0.011364213972521332 1 1 0.014318617403809918 0.014010807013935374 1 1 1 1 0.010016412054346183 1 1 1 1 1 1 0.015761924302449958 1 1 1 1 0.010147762615865618 1 1 1 1 1 1 1 1 1 0.016503836193151267 0.0096721199314477261 1 1 0.010453371065802719 1 1 1 1 1 1 1 1 1 1 1 1 1 1 1 1 1 1 1 1 1 1 1 1 1 0.010596389709699623 1 1 1 1 1 0.011858905780831311 1 1 1 1 0.011789999082098664 1 1 1 1 0.013744302081755741 1 1 0.012879004888226072 1 1 1 1 1 1 1 1 1 1 1 1 1 1 0.011228731060773508 1 1 1 0.013877856645891778 1 1 1 1 1 1 1 1 1 1 1 1 1 1 1 1 1 1 1 1 1 0.019152361841287963 1 1 1 1 1 1 1 0.0096484041567396917 1 1 1 1 1 1 1 1 1 1 1 1 1 0.012868164658928712 1 1 0.019292135367176607 1 1 1 1 1 0.0086444684602636178 1 1 1 1 0.014223200010469889 0.013924979423777642 0.0060587684448952864 1 1 1 1 0.0097718408476967084 1 1 1 1 1 0.0079705785527937924 1 1 1 1 1 0.012744820315729606 1 0.010199671020620613 1 1 1 1 0.01370299818905394 1 0.01312806591854492 1 1 1 1 0.010185075788667038 1 1 1 1 1 1 0.011129165028824779 1 1 1 1 1 1 0.010218514386547464 1 1 1 1 1 1 1 1 1 1 1 1 1 1 1 1 1 1 1 1 1 1 1 1 1 1 1 1 1 1 0.011755304335947681 1 1 1 0.0098704206880716929 0.0094163639747665354 1 1 1 1 0.012457623269164846 1 0.013329954099676182 0.017529438449930379 1 1 0.011057357150602548 1 1 0.012258969473384111 1 0.011205869085649214 1 1 1 1 1 1 0.01004605214369104 1 1 0.010914574920051111 1 1 1 1 1 1 1 0.013498534496308875 1 1 1 1 0.013541284204578872 1 1 1 1 0.012785281287058844 1 1 1 1 1 0.01268888951291916 1 1 1 0.01116221593393648 1 1 1 1 1 1 1 1 0.011259516901929938 1 1 1 1 1 1 1 1 1 1 1 1 1 1 1 1 1 1 1 1 0.011590894482818068 1 1 1 1 1 1 1 0.011927275012261214 0.012223202260564704 1 1 1 1 0.011146752414858851 1 1 1 1 1 1 1 1 1 0.009996899929701264 1 1 1 1 0.0099645800392593881 1 1 1 1 1 1 1 1 1 1 1 1 1 0.010346668361311775 1 1 1 1 1 0.011204455760386065 1 1 1 1 1 1 1 1 1 1 1 1 1 1 1 1 1 1 0.01003907732745065 1 1 1 1 1 1 1 1 1 1 1 1 1 1 1 1 1 1 1 1 1 1 1 1 1 1 0.020983486083251214 1 1 0.0095960717274317878 1 1 1 1 1 1 1 0.014936520015780278 1 1 1 0.0099943471842282444 1 1 1 1 1 1 0.010227828542357254 1 1 1 1 1 1 1 1 1 1 1 1 1 1 1 1 1 1 1 1 1 1 1 0.012429648709013669 0.017159462234509038 1 0.011600786071911381 1 1 1 1 1 1 1 0.0092206356507794698 1 1 0.018290129627239832 1 1 1 1 1 1 1 1 1 1 1 1 1 1 0.009940644414351843 1 1 1 1 1 0.0096432483924398793 1 1 1 0.021047288269249363 1 0.0056825976309079207 1 0.010561289955239299 1 1 0.0099235509639815957 1 1 1 1 1 1 1 1 1 1 1 1 0.016665426062537875 1 1 0.0092284006282185652 0.01604240513657914 1 1 1 1 0.018749246962643705 0.012416870893356913 1 1 1 0.01085148866793114 1 1 1 1 1 1 1 1 0.011956824897967865 1 1 1 0.011961845679267592 1 1 1 1 1 1 1 1 1 1 1 1 1 1 1 1 1 1 1 1 1 1 1 0.0098643016675126483 1 1 1 1 1 1 1 1 1 1 1 1 0.010472080348263453 1 1 0.011290678462316494 1 1 1 1 1 1 1 1 1 0.010035067382768607 1 1 1 1 1 1 1 0.010128191704249391 1 1 1 1 1 1 1 1 1 1 1 1 1 1 1 0.0092089473298935902 1 1 1 1 0.020227926472032334 1 1 1 0.0076846141491670244 1 0.016770512495360997 1 1 0.010026779611301785 1 0.010128317130969677 1 1 0.010080603165315354 1 0.012518493530246417 1 1 1 1 1 1 1 1 1 1 1 1 1 1 1 1 1 1 1 1 1 1 1 1 1 1 1 1 1 1 1 1 1 1 1 1 1 1 0.01001818965597122 1 1 1 1 1 1 1 0.013580400033992256 1 1 0.011927741863192929 1 1 0.008852448278279898 1 1 0.012303226486674129 1 1 1 1 0.010117885321860469 1 1 0.0096250095185480902 1 1 1 0.012456040276238738 0.00018144991982608008 1 0.017038993221233308 1 0.0083880331106775674 0.024739689778456746 1 1 1 1 1 1 1 1 1 1 1 1 1 0.0098841663696309749 1 1 0.013668293497400022 0.015311794318438056 1 1 0.015159107602603184 1 1 1 1 0.015729125030367944 1 1 0.0090192397994771842 1 1 0.010235591931139223 1 1 1 1 1 1 0.00999376040547717 1 1 0.022736450022812001 1 1 1 1 1 1 1 0.023104707660225415 1 1 1 1 1 1 1 1 1 1 1 1 1 1 1 1 1 1 1 1 1 1 1 1 1 1 1 1 1 1 1 1 1 0.014743230597599445 1 1 1 0.016110012118407388 1 0.011327113938094498 1 1 1 1 1 1 1 1 1 1 1 1 1 1 1 1 1 0.014778188092780916 0.011113853093915431 1 1 1 1 1 0.013561463499567264 0.0076256023323344052 1 1 1 1 1 0.0069543214693710848 1 0.011794827022832861 1 1 1 0.010276134000475107 1 1 0.010608227925488704 1 1 1 0.0099145893301268839 1 1 1 0.010265466311095867 1 1 1 1 1 1 1 1 1 1 0.015154925124156608 1 1 1 1 1 1 1 1 1 1 1 1 1 1 1 1 1 1 1 1 1 1 1 1 1 0.011278093329519595 1 1 1 1 1 1 0.012774066621386825 1 1 1 1 0.010008867654649482 1 1 1 1 1 1 1 1 0.010389077093287673 1 1 1 1 1 1 0.019768429459313241 1 0.011160925738761349 1 1 0.010111960135518181 1 1 1 1 1 1 1 1 1 0.019439739697447393 1 0.022239367264384212 1 1 1 1 1 1 1 0.011355891409459688 1 1 0.011329863232231509 1 1 1 1 1 1 1 0.00067368582112667559 1 1 1 1 0.021058333261752549 1 1 1 1 1 1 1 1 1 1 1 1 1 1 1 1 1 1 1 1 1 1 1 1 0.010343414916048788 1 1 1 1 1 1 1 0.01010973207755189 1 1 0.0084922187283829817 1 1 1 1 1 1 1 1 1 1 1 1 0.0099336095543333044 1 1 1 1 1 1 0.0098481988844601829 1 1 1 1 1 1 1 1 1 1 1 1 1 1 1 1 1 1 1 0.010010667689379233 0.0094844129590813606 1 1 1 1 1 1 1 1 1 0.01050500417795969 1 1 1 1 0.010927775422987271 1 1 0.010424585300184506 0.010049918397892623 1 1 1 1 1 1 1 1 1 1 1 1 1 1 1 1 0.010252151226280216 1 1 1 0.0103377191208965 0.022148562794742553 1 1 0.0096784161902225534 1 1 0.021359315480696486 1 1 1 1 1 0.011015475969925206 1 0.013108310607806067 1 1 1 1 0.014251829170001607 1 0.019300979004690626 1 1 1 0.010087486062615178 1 0.0074134837025345325 1 1 1 1 0.020944214562553187 1 1 1 1 1 1 0.02118621843636579 1 1 1 1 1 1 1 1 1 1 1 1 1 1 1 1 1 1 0.01089179335278976 1 1 0.011812282717749849 1 1 1 0.010084639253712616 1 1 1 1 1 1 1 1 1 1 1 1 1 1 0.010835354557549966 1 0.010077734950088882 1 1 1 1 1 0.013964856088572404 1 1 0.015418999720679083 1 0.011435701053262092 1 1 1 1 1 1 1 1 0.018291334407024396 1 1 1 0.020308412494075317 1 1 1 0.017890127316271133 1 1 0.010047763016872576 1 1 1 1 1 1 1 1 1 1 1 1 1 1 1 0.0094894445794442023 1 1 0.020853012067454331 1 1 1 1 1 1 1 1 1 1 1 1 1 1 1 0.010501826677457212 1 1 1 1 1 1 1 0.010992350676719812 1 1 1 1 0.0104905239992626 1 1 1 1 1 1 1 1 1 1 1 1 1 1 1 1 1 1 1 1 0.01037167596117378 1 1 1 1 1 1 1 0.0096396911522475086 1 1 1 1 1 1 1 1 1 1 0.010190965919744843 1 1 1 1 1 1 1 0.016133425675455459 1 1 0.022275154994680038 1 1 0.022410863247609474 1 1 0.010003235991949676 1 1 1 1 1 1 1 1 0.0089875049209453654 1 1 0.022294658520381566 1 0.02171658446758926 1 1 1 1 1 1 0.010453388369771017 1 1 1 1 1 1 1 1 1 1 1 1 1 1 1 1 1 1 1 1 1 1 1 1 1 1 1 1 1 1 1 1 1 1 0.010599704542005631 1 1 1 1 1 1 1 1 1 1 1 1 1 1 1 1 1 1 1 1 1 1 1 1 1 1 1 1 1 1 1 1 1 1 1 1 1 1 1 1 1 1 1 1 1 1 1 1 1 1 1 1 1 1 1 1 1 1 1 1 1 1 1 1 1 1 1 1 1 1 1 1 1 1 1 1 1 1 1 1 1 1 1 1 0.006380974646972664 1 1 1 1 1 1 1 0.0095535564959466669 1 1 0.0079075284792929357 1 1 1 1 1 1 1 1 0.0084213485703665929 1 1 1 1 1 1 1 1 1 1 1 1 1 1 1 1 1 0.010093464334686039 1 1 0.025982882848144623 1 1 1 1 1 1 1 1 1 0.0092936412474898915 1 1 1 1 1 1 1 0.0094295789369136344 1 1 1 1 1 1 1 1 1 0.006483039405654872 0.0081048315940125144 1 1 1 1 1 1 1 1 0.0098484527293412009 1 1 0.040189330519056134 1 1 1 0.0094968679584182866 0.015809823397929572 1 0.023802322067857838 1 1 1 1 1 1 0.020351121686895075 0.014171732223254054 1 1 1 1 1 1 1 1 1 0.015321058095661802 1 0.0080211264434193706 1 1 1 1 0.016120687227260594 1 1 0.012890180850611437 1 0.012755240285771376 1 1 1 0.010477078482510952 1 0.012873213986647468 1 0.011354465109778923 1 1 0.01891995573082559 1 1 1 0.017596801733305523 0.016211455513675255 1 1 1 0.014791649759984562 1 1 1 1 1 0.024964322898279583 0.01424312591572934 0.020609179833388346 1 1 1 0.011373559738803624 1 1 1 1 1 1 1 1 1 1 1 1 1 1 1 1 1 1 1 1 1 1 1 1 1 1 0.011401123856295265 1 1 1 1 0.0099872877919618495 1 1 1 1 1 0.014134271476664179 1 1 1 1 0.016710977943663698 1 1 1 1 1 1 1 1 1 1 1 1 1 1 1 1 1 1 1 1 1 1 1 1 1 1 1 0.019482899605709116 1 1 1 1 1 1 1 1 1 1 1 1 1 1 1 1 1 1 1 0.0097310931236905072 1 0.01171442356643761 1 1 1 0.020786652957563361 1 1 1 1 1 1 1 1 1 0.010062545544718466 1 0.017433642958986882 0.010560186986778155 1 1 0.0085071133908545815 1 1 0.0078251994645126572 1 1 0.009638173958408703 1 1 1 1 1 1 1 1 1 1 1 1 1 1 0.0091198042518867671 1 1 1 1 1 1 1 1 1 1 1 0.010199051639167784 1 1 1 1 1 1 0.011013003941400345 1 1 1 1 0.011838008925503594 1 1 1 0.020748298718106996 1 1 1 1 0.010332830197093554 1 1 1 1 1 1 1 1 0.010007624749419993 1 1 1 1 1 1 1 1 1 0.010575900304608693 1 0.010225808070081721 1 1 1 1 1 1 1 1 1 1 1 0.010357716983946956 1 1 1 1 1 1 1 1 1 1 1 1 1 1 1 0.0099688341289308011 0.010495780328009893 1 1 1 1 1 1 1 1 1 1 1 1 1 1 1 1 1 1 1 1 1 1 1 1 1 1 1 1 1 1 1 1 1 1 1 1 0.011266315582354771 1 1 1 1 1 1 1 1 1 1 1 1 1 1 1 0.012475018485104726 1 1 1 1 1 1 1 1 1 1 1 1 1 0.010893858647860908 0.011208702902749957 1 1 1 1 1 1 1 1 1 1 1 1 1 1 1 1 1 1 1 0.01163305476760069 1 1 0.010256701279957821 1 1 1 1 1 1 1 1 1 1 0.010824900935883928 1 1 1 1 1 1 1 1 1 1 0.011909690475403353 1 1 1 1 1 0.01552874833033065 0.0099855771955624385 1 1 0.014090633132675312 1 1 1 1 1 1 1 1 0.010266110418453751 1 1 1 1 1 1 1 1 0.014935241062323256 1 0.016454882690646721 1 1 1 1 0.017373347341011917 1 0.013100471643624982 1 1 1 1 0.012881583172800923 1 0.018338885131264651 1 0.010242836036226773 1 1 0.010341644024833334 1 1 1 0.015947906351712279 1 1 0.016767879513784424 1 1 0.011214339901465382 1 1 1 0.011785606669094352 1 1 1 1 1 1 0.0098489772090545984 1 0.011918718409710913 1 1 1 0.011203289006433626 1 1 1 1 1 1 1 1 0.017009891440188381 1 1 1 1 1 1 0.017784504484569533 1 1 0.010961612735762438 1 1 1 0.01745711352266615 1 1 0.010207631154956973 1 1 0.019512012027698138 1 1 1 0.0092210932677738704 1 0.0095718400440415203 1 0.016585816315519045 1 1 1 1 1 1 1 1 1 1 1 1 1 1 1 1 1 1 1 1 1 1 1 1 1 1 1 0.0050163567181499063 1 1 1 0.01354389503279483 1 1 1 1 1 1 1 0.012635248181705916 1 1 1 0.0055507418070647931 1 1 1 0.0079760731888982583 1 1 1 1 1 1 1 1 0.009518514537058112 1 1 1 1 0.010993608587301626 1 1 1 1 1 1 1 1 1 1 1 1 1 1 1 1 1 1 1 1 1 1 1 1 0.012141471380946768 1 1 1 1 1 1 1 1 1 1 1 0.010863147068870489 1 1 1 1 1 1 1 1 1 1 1 1 1 1 1 1 1 1 1 1 1 1 1 1 0.010127601601900132 0.0085518573582800371 1 1 0.01073172084257212 1 1 1 1 1 1 1 1 1 1 1 1 1 0.0087670088994737886 1 1 1 1 1 1 1 1 0.0084997436991745591 1 1 1 1 1 1 1 1 1 1 1 1 1 1 1 1 1 0.00993805017149689 1 1 0.0099645369066499925 1 1 1 1 0.010038518295541558 0.0091750511102582644 1 1 1 1 1 1 1 1 0.0097928186045874981 1 1 1 1 0.014270630954011085 1 1 1 0.011158774431378398 1 1 1 1 1 1 1 0.0074686818521182124 1 1 1 1 0.012047989144048747 1 1 1 
</DataArray>
</CellData>
</Piece>
</UnstructuredGrid>
</VTKFile>
