<?xml version="1.0"?>
<VTKFile type="UnstructuredGrid" version="0.1" byte_order="LittleEndian">
<UnstructuredGrid>
<Piece NumberOfPoints="29426" NumberOfCells="10360">
<Points>
<DataArray type="Float64" NumberOfComponents="3" format="ascii">
-0.5 -0.5 0 -0.48844779397140192 -0.47366123027711948 0 -0.50000000000000155 -0.46247496764540152 0 -0.5 -0.5 0 -0.47382683668517039 -0.47564534988414781 0 -0.45607271870562072 -0.49999999999999839 0 -0.5 -0.5 0 -0.48844779397140192 -0.47366123027711948 0 -0.47382683668517039 -0.47564534988414781 0 -0.48844779397140192 -0.47366123027711948 0 -0.47382683668517039 -0.47564534988414781 0 -0.48013650800985669 -0.45934970404010128 0 -0.47382683668517039 -0.47564534988414781 0 -0.45607271870562072 -0.49999999999999839 0 -0.45809880136126802 -0.47915999827553651 0 -0.45607271870562072 -0.49999999999999839 0 -0.45809880136126802 -0.47915999827553651 0 -0.4509613007386935 -0.48640473505746801 0 -0.47382683668517039 -0.47564534988414781 0 -0.45809880136126802 -0.47915999827553651 0 -0.46446330631975058 -0.46857003922130508 0 -0.4567195393145953 -0.47108996935110109 0 -0.45809880136126802 -0.47915999827553651 0 -0.44906287663230798 -0.47260029275850218 0 -0.4567195393145953 -0.47108996935110109 0 -0.45809880136126802 -0.47915999827553651 0 -0.46446330631975058 -0.46857003922130508 0 -0.4567195393145953 -0.47108996935110109 0 -0.44906287663230798 -0.47260029275850218 0 -0.45524118388891049 -0.46329942228200133 0 -0.45809880136126802 -0.47915999827553651 0 -0.450064024555207 -0.47988016699097741 0 -0.4509613007386935 -0.48640473505746801 0 -0.450064024555207 -0.47988016699097741 0 -0.44906287663230798 -0.47260029275850218 0 -0.44213311948855871 -0.48135564187240282 0 -0.45809880136126802 -0.47915999827553651 0 -0.450064024555207 -0.47988016699097741 0 -0.44906287663230798 -0.47260029275850218 0 -0.450064024555207 -0.47988016699097741 0 -0.44213311948855871 -0.48135564187240282 0 -0.4509613007386935 -0.48640473505746801 0 -0.44906287663230798 -0.47260029275850218 0 -0.43965395527957929 -0.48146152865944941 0 -0.44474168558519678 -0.46405619312909752 0 -0.44906287663230798 -0.47260029275850218 0 -0.44213311948855871 -0.48135564187240282 0 -0.43965395527957929 -0.48146152865944941 0 -0.44213311948855871 -0.48135564187240282 0 -0.43965395527957929 -0.48146152865944941 0 -0.44080119470646628 -0.48595487775725948 0 -0.43965395527957929 -0.48146152865944941 0 -0.44080119470646628 -0.48595487775725948 0 -0.43608140202719481 -0.48161411483509031 0 -0.44080119470646628 -0.48595487775725948 0 -0.43608140202719481 -0.48161411483509031 0 -0.43965395527957929 -0.48146152865944941 0 -0.44080119470646628 -0.48595487775725948 0 -0.43965395527957929 -0.48146152865944941 0 -0.43608140202719481 -0.48161411483509031 0 -0.44213311948855871 -0.48135564187240282 0 -0.43965395527957929 -0.48146152865944941 0 -0.45607271870562072 -0.49999999999999839 0 -0.44159960279081473 -0.48908197238229439 0 -0.4274681276564915 -0.5 0 -0.44080119470646628 -0.48595487775725948 0 -0.44159960279081473 -0.48908197238229439 0 -0.43608140202719481 -0.48161411483509031 0 -0.44213311948855871 -0.48135564187240282 0 -0.44080119470646628 -0.48595487775725948 0 -0.4509613007386935 -0.48640473505746801 0 -0.44080119470646628 -0.48595487775725948 0 -0.44159960279081473 -0.48908197238229439 0 -0.45607271870562072 -0.49999999999999839 0 -0.44080119470646628 -0.48595487775725948 0 -0.45607271870562072 -0.49999999999999839 0 -0.44080119470646628 -0.48595487775725948 0 -0.44159960279081473 -0.48908197238229439 0 -0.45607271870562072 -0.49999999999999839 0 -0.44080119470646628 -0.48595487775725948 0 -0.4509613007386935 -0.48640473505746801 0 -0.44983985647950581 -0.45160308804861499 0 -0.45966461093131178 -0.44273722091553369 0 -0.44448147895640161 -0.43499756902142322 0 -0.44983985647950581 -0.45160308804861499 0 -0.44448147895640161 -0.43499756902142322 0 -0.43300807702817251 -0.45543186968409682 0 -0.43965395527957929 -0.48146152865944941 0 -0.44474168558519678 -0.46405619312909752 0 -0.43300807702817251 -0.45543186968409682 0 -0.44983985647950581 -0.45160308804861499 0 -0.44474168558519678 -0.46405619312909752 0 -0.43300807702817251 -0.45543186968409682 0 -0.44906287663230798 -0.47260029275850218 0 -0.44474168558519678 -0.46405619312909752 0 -0.45524118388891049 -0.46329942228200133 0 -0.44983985647950581 -0.45160308804861499 0 -0.44474168558519678 -0.46405619312909752 0 -0.45524118388891049 -0.46329942228200133 0 -0.44983985647950581 -0.45160308804861499 0 -0.45524118388891049 -0.46329942228200133 0 -0.46382197426144212 -0.45499431324530482 0 -0.4567195393145953 -0.47108996935110109 0 -0.45524118388891049 -0.46329942228200133 0 -0.46446330631975058 -0.46857003922130508 0 -0.45524118388891049 -0.46329942228200133 0 -0.46446330631975058 -0.46857003922130508 0 -0.46382197426144212 -0.45499431324530482 0 -0.46382197426144212 -0.45499431324530482 0 -0.45966461093131178 -0.44273722091553369 0 -0.46983948991283231 -0.44156782445419968 0 -0.44983985647950581 -0.45160308804861499 0 -0.46382197426144212 -0.45499431324530482 0 -0.45966461093131178 -0.44273722091553369 0 -0.45966461093131178 -0.44273722091553369 0 -0.46983948991283231 -0.44156782445419968 0 -0.45985716457620551 -0.43105742298173683 0 -0.46983948991283231 -0.44156782445419968 0 -0.48013650800985669 -0.45934970404010128 0 -0.48644617933454881 -0.44305405819605709 0 -0.48013650800985669 -0.45934970404010128 0 -0.48644617933454881 -0.44305405819605709 0 -0.46382197426144212 -0.45499431324530482 0 -0.46983948991283231 -0.44156782445419968 0 -0.48013650800985669 -0.45934970404010128 0 -0.46446330631975058 -0.46857003922130508 0 -0.46382197426144212 -0.45499431324530482 0 -0.48013650800985669 -0.45934970404010128 0 -0.47382683668517039 -0.47564534988414781 0 -0.46446330631975058 -0.46857003922130508 0 -0.48013650800985669 -0.45934970404010128 0 -0.47382683668517039 -0.47564534988414781 0 -0.48013650800985669 -0.45934970404010128 0 -0.48844779397140192 -0.47366123027711948 0 -0.48013650800985669 -0.45934970404010128 0 -0.50000000000000155 -0.46247496764540152 0 -0.48013650800985669 -0.45934970404010128 0 -0.50000000000000155 -0.46247496764540152 0 -0.48644617933454881 -0.44305405819605709 0 -0.50000000000000155 -0.46247496764540152 0 -0.48644617933454881 -0.44305405819605709 0 -0.5 -0.43526215423733111 0 -0.50000000000000155 -0.46247496764540152 0 -0.48644617933454881 -0.44305405819605709 0 -0.48644617933454881 -0.44305405819605709 0 -0.5 -0.43526215423733111 0 -0.49322308966727169 -0.4255516995126577 0 -0.5 -0.43526215423733111 0 -0.49322308966727169 -0.4255516995126577 0 -0.50000000000000022 -0.40804934082926048 0 -0.48644617933454881 -0.44305405819605709 0 -0.48656776968788462 -0.43141975740227151 0 -0.49322308966727169 -0.4255516995126577 0 -0.48644617933454881 -0.44305405819605709 0 -0.49322308966727169 -0.4255516995126577 0 -0.48656776968788462 -0.43141975740227151 0 -0.49322308966727169 -0.4255516995126577 0 -0.48251009263801248 -0.41804762166735843 0 -0.49322308966727169 -0.4255516995126577 0 -0.50000000000000022 -0.40804934082926048 0 -0.49322308966727169 -0.4255516995126577 0 -0.48786992139865959 -0.40883626199836048 0 -0.48251009263801248 -0.41804762166735843 0 -0.49322308966727169 -0.4255516995126577 0 -0.50000000000000022 -0.40804934082926048 0 -0.48786992139865959 -0.40883626199836048 0 -0.46911050236362589 -0.41821422734646718 0 -0.47757641969057918 -0.40532423639974557 0 -0.46040120992690009 -0.40573491365651138 0 -0.48786992139865959 -0.40883626199836048 0 -0.48251009263801248 -0.41804762166735843 0 -0.47757641969057918 -0.40532423639974557 0 -0.48251009263801248 -0.41804762166735843 0 -0.46911050236362589 -0.41821422734646718 0 -0.47757641969057918 -0.40532423639974557 0 -0.48656776968788462 -0.43141975740227151 0 -0.48251009263801248 -0.41804762166735843 0 -0.46911050236362589 -0.41821422734646718 0 -0.48644617933454881 -0.44305405819605709 0 -0.48656776968788462 -0.43141975740227151 0 -0.46911050236362589 -0.41821422734646718 0 -0.48644617933454881 -0.44305405819605709 0 -0.46911050236362589 -0.41821422734646718 0 -0.46983948991283231 -0.44156782445419968 0 -0.48644617933454881 -0.44305405819605709 0 -0.46911050236362589 -0.41821422734646718 0 -0.48656776968788462 -0.43141975740227151 0 -0.46911050236362589 -0.41821422734646718 0 -0.5 -0.3847533113815268 0 -0.48922066936689818 -0.39738781464685369 0 -0.47521167947678228 -0.38471106762438162 0 -0.5 -0.3847533113815268 0 -0.47521167947678228 -0.38471106762438162 0 -0.49002214902665348 -0.36368722159224398 0 -0.50000000000000022 -0.40804934082926048 0 -0.5 -0.3847533113815268 0 -0.48922066936689818 -0.39738781464685369 0 -0.50000000000000022 -0.40804934082926048 0 -0.48786992139865959 -0.40883626199836048 0 -0.48922066936689818 -0.39738781464685369 0 -0.48786992139865959 -0.40883626199836048 0 -0.48922066936689818 -0.39738781464685369 0 -0.47757641969057918 -0.40532423639974557 0 -0.48922066936689818 -0.39738781464685369 0 -0.47757641969057918 -0.40532423639974557 0 -0.47521167947678228 -0.38471106762438162 0 -0.47757641969057918 -0.40532423639974557 0 -0.47521167947678228 -0.38471106762438162 0 -0.46040120992690009 -0.40573491365651138 0 -0.46048868583517699 -0.38346273104891382 0 -0.43910629694810849 -0.37522199874484979 0 -0.46462758010571459 -0.3693626276989439 0 -0.47521167947678228 -0.38471106762438162 0 -0.46048868583517699 -0.38346273104891382 0 -0.46462758010571459 -0.3693626276989439 0 -0.47521167947678228 -0.38471106762438162 0 -0.46048868583517699 -0.38346273104891382 0 -0.46040120992690009 -0.40573491365651138 0 -0.47521167947678228 -0.38471106762438162 0 -0.46040120992690009 -0.40573491365651138 0 -0.46048868583517699 -0.38346273104891382 0 -0.46040120992690009 -0.40573491365651138 0 -0.4497537534375024 -0.39047845620068189 0 -0.46040120992690009 -0.40573491365651138 0 -0.44380468417398461 -0.39907166989558501 0 -0.45769383517366491 -0.40957810240699011 0 -0.46040120992690009 -0.40573491365651138 0 -0.4497537534375024 -0.39047845620068189 0 -0.46040120992690009 -0.40573491365651138 0 -0.44380468417398461 -0.39907166989558501 0 -0.4497537534375024 -0.39047845620068189 0 -0.44380468417398461 -0.39907166989558501 0 -0.4497537534375024 -0.39047845620068189 0 -0.42991553317430481 -0.38856523738417909 0 -0.44380468417398461 -0.39907166989558501 0 -0.45769383517366491 -0.40957810240699011 0 -0.46048868583517699 -0.38346273104891382 0 -0.4497537534375024 -0.39047845620068189 0 -0.43910629694810849 -0.37522199874484979 0 -0.4497537534375024 -0.39047845620068189 0 -0.43910629694810849 -0.37522199874484979 0 -0.42991553317430481 -0.38856523738417909 0 -0.4497537534375024 -0.39047845620068189 0 -0.43910629694810849 -0.37522199874484979 0 -0.46911050236362589 -0.41821422734646718 0 -0.45985716457620551 -0.43105742298173683 0 -0.45062039628687839 -0.41961903254581728 0 -0.46983948991283231 -0.44156782445419968 0 -0.46911050236362589 -0.41821422734646718 0 -0.45985716457620551 -0.43105742298173683 0 -0.45966461093131178 -0.44273722091553369 0 -0.45985716457620551 -0.43105742298173683 0 -0.44448147895640161 -0.43499756902142322 0 -0.46911050236362589 -0.41821422734646718 0 -0.45769383517366491 -0.40957810240699011 0 -0.45062039628687839 -0.41961903254581728 0 -0.46911050236362589 -0.41821422734646718 0 -0.46040120992690009 -0.40573491365651138 0 -0.46911050236362589 -0.41821422734646718 0 -0.45769383517366491 -0.40957810240699011 0 -0.46911050236362589 -0.41821422734646718 0 -0.46040120992690009 -0.40573491365651138 0 -0.45769383517366491 -0.40957810240699011 0 -0.46040120992690009 -0.40573491365651138 0 -0.45769383517366491 -0.40957810240699011 0 -0.45769383517366491 -0.40957810240699011 0 -0.45062039628687839 -0.41961903254581728 0 -0.45769383517366491 -0.40957810240699011 0 -0.45062039628687839 -0.41961903254581728 0 -0.4468576513337052 -0.41030206358896121 0 -0.44380468417398461 -0.39907166989558501 0 -0.45769383517366491 -0.40957810240699011 0 -0.4468576513337052 -0.41030206358896121 0 -0.44380468417398461 -0.39907166989558501 0 -0.4468576513337052 -0.41030206358896121 0 -0.4353013631666226 -0.4142852638506398 0 -0.45062039628687839 -0.41961903254581728 0 -0.4468576513337052 -0.41030206358896121 0 -0.4353013631666226 -0.4142852638506398 0 -0.45062039628687839 -0.41961903254581728 0 -0.44448147895640161 -0.43499756902142322 0 -0.4353013631666226 -0.4142852638506398 0 -0.45985716457620551 -0.43105742298173683 0 -0.45062039628687839 -0.41961903254581728 0 -0.44448147895640161 -0.43499756902142322 0 -0.44448147895640161 -0.43499756902142322 0 -0.42636219877676629 -0.42940221070874413 0 -0.4353013631666226 -0.4142852638506398 0 -0.42636219877676629 -0.42940221070874413 0 -0.41971632052536267 -0.40337255173339059 0 -0.42636219877676629 -0.42940221070874413 0 -0.4353013631666226 -0.4142852638506398 0 -0.41971632052536267 -0.40337255173339059 0 -0.40639339828346649 -0.42271489750812957 0 -0.41971632052536267 -0.40337255173339059 0 -0.40176388368988608 -0.41044102021040157 0 -0.42636219877676629 -0.42940221070874413 0 -0.40639339828346649 -0.42271489750812957 0 -0.41971632052536267 -0.40337255173339059 0 -0.40639339828346649 -0.42271489750812957 0 -0.41971632052536267 -0.40337255173339059 0 -0.42636219877676629 -0.42940221070874413 0 -0.40639339828346649 -0.42271489750812957 0 -0.41354204325176069 -0.44247537017624278 0 -0.43910629694810849 -0.37522199874484979 0 -0.4182363739876887 -0.37973055067173611 0 -0.435309083809991 -0.37237163518283112 0 -0.43910629694810849 -0.37522199874484979 0 -0.4182363739876887 -0.37973055067173611 0 -0.43910629694810849 -0.37522199874484979 0 -0.42991553317430481 -0.38856523738417909 0 -0.4182363739876887 -0.37973055067173611 0 -0.43910629694810849 -0.37522199874484979 0 -0.42991553317430481 -0.38856523738417909 0 -0.42991553317430481 -0.38856523738417909 0 -0.4182363739876887 -0.37973055067173611 0 -0.44380468417398461 -0.39907166989558501 0 -0.4353013631666226 -0.4142852638506398 0 -0.41971632052536267 -0.40337255173339059 0 -0.44380468417398461 -0.39907166989558501 0 -0.42991553317430481 -0.38856523738417909 0 -0.41971632052536267 -0.40337255173339059 0 -0.42991553317430481 -0.38856523738417909 0 -0.41971632052536267 -0.40337255173339059 0 -0.44380468417398461 -0.39907166989558501 0 -0.42991553317430481 -0.38856523738417909 0 -0.41103539279334939 -0.40116095618927289 0 -0.4156674806820011 -0.38751461447037311 0 -0.39768699919678091 -0.38432310932238423 0 -0.42991553317430481 -0.38856523738417909 0 -0.41971632052536267 -0.40337255173339059 0 -0.4156674806820011 -0.38751461447037311 0 -0.41971632052536267 -0.40337255173339059 0 -0.41103539279334939 -0.40116095618927289 0 -0.4156674806820011 -0.38751461447037311 0 -0.41971632052536267 -0.40337255173339059 0 -0.41103539279334939 -0.40116095618927289 0 -0.40176388368988608 -0.41044102021040157 0 -0.41971632052536267 -0.40337255173339059 0 -0.4156674806820011 -0.38751461447037311 0 -0.4156674806820011 -0.38751461447037311 0 -0.4182363739876887 -0.37973055067173611 0 -0.39768699919678091 -0.38432310932238423 0 -0.4182363739876887 -0.37973055067173611 0 -0.39768699919678091 -0.38432310932238423 0 -0.42991553317430481 -0.38856523738417909 0 -0.4156674806820011 -0.38751461447037311 0 -0.4182363739876887 -0.37973055067173611 0 -0.4182363739876887 -0.37973055067173611 0 -0.39768699919678091 -0.38432310932238423 0 -0.40059713356567977 -0.3663873672726452 0 -0.39447321120395551 -0.38026919304441431 0 -0.39768699919678091 -0.38432310932238423 0 -0.40059713356567977 -0.3663873672726452 0 -0.39212298564631343 -0.37730458627312541 0 -0.39447321120395551 -0.38026919304441431 0 -0.39086562684671872 -0.37571853662818522 0 -0.39212298564631343 -0.37730458627312541 0 -0.39216050600871871 -0.38123128719347449 0 -0.39447321120395551 -0.38026919304441431 0 -0.3921377286601222 -0.38556331009089068 0 -0.39212298564631343 -0.37730458627312541 0 -0.39216050600871871 -0.38123128719347449 0 -0.39212298564631343 -0.37730458627312541 0 -0.39216050600871871 -0.38123128719347449 0 -0.39447321120395551 -0.38026919304441431 0 -0.39447321120395551 -0.38026919304441431 0 -0.39768699919678091 -0.38432310932238423 0 -0.39768699919678091 -0.38432310932238423 0 -0.3921377286601222 -0.38556331009089068 0 -0.3972063599099917 -0.39736817761298182 0 -0.39447321120395551 -0.38026919304441431 0 -0.39768699919678091 -0.38432310932238423 0 -0.3921377286601222 -0.38556331009089068 0 -0.39768699919678091 -0.38432310932238423 0 -0.3921377286601222 -0.38556331009089068 0 -0.39447321120395551 -0.38026919304441431 0 -0.3921377286601222 -0.38556331009089068 0 -0.3972063599099917 -0.39736817761298182 0 -0.38340779520981899 -0.40535249225195691 0 -0.40176388368988608 -0.41044102021040157 0 -0.3921377286601222 -0.38556331009089068 0 -0.3972063599099917 -0.39736817761298182 0 -0.38340779520981899 -0.40535249225195691 0 -0.41103539279334939 -0.40116095618927289 0 -0.39768699919678091 -0.38432310932238423 0 -0.3972063599099917 -0.39736817761298182 0 -0.41103539279334939 -0.40116095618927289 0 -0.39768699919678091 -0.38432310932238423 0 -0.41103539279334939 -0.40116095618927289 0 -0.3972063599099917 -0.39736817761298182 0 -0.40176388368988608 -0.41044102021040157 0 -0.37892870089931707 -0.4038789221349901 0 -0.38750885444934002 -0.38659781243053448 0 -0.37892870089931707 -0.4038789221349901 0 -0.38750885444934002 -0.38659781243053448 0 -0.36548942974071619 -0.3915189110263248 0 -0.3921377286601222 -0.38556331009089068 0 -0.38340779520981899 -0.40535249225195691 0 -0.38750885444934002 -0.38659781243053448 0 -0.38340779520981899 -0.40535249225195691 0 -0.37892870089931707 -0.4038789221349901 0 -0.38750885444934002 -0.38659781243053448 0 -0.3921377286601222 -0.38556331009089068 0 -0.38340779520981899 -0.40535249225195691 0 -0.38750885444934002 -0.38659781243053448 0 -0.38261724061142721 -0.3791310180187335 0 -0.36548942974071619 -0.3915189110263248 0 -0.38750885444934002 -0.38659781243053448 0 -0.36548942974071619 -0.3915189110263248 0 -0.39216050600871871 -0.38123128719347449 0 -0.3921377286601222 -0.38556331009089068 0 -0.38750885444934002 -0.38659781243053448 0 -0.3921377286601222 -0.38556331009089068 0 -0.38750885444934002 -0.38659781243053448 0 -0.39212298564631343 -0.37730458627312541 0 -0.38750885444934002 -0.38659781243053448 0 -0.39212298564631343 -0.37730458627312541 0 -0.38750885444934002 -0.38659781243053448 0 -0.38261724061142721 -0.3791310180187335 0 -0.39212298564631343 -0.37730458627312541 0 -0.39216050600871871 -0.38123128719347449 0 -0.38750885444934002 -0.38659781243053448 0 -0.39086562684671872 -0.37571853662818522 0 -0.39212298564631343 -0.37730458627312541 0 -0.38261724061142721 -0.3791310180187335 0 -0.40639339828346649 -0.42271489750812957 0 -0.39075773113791501 -0.42159090211590777 0 -0.39307047604156897 -0.44205724328286761 0 -0.40639339828346649 -0.42271489750812957 0 -0.39307047604156897 -0.44205724328286761 0 -0.41354204325176069 -0.44247537017624278 0 -0.40639339828346649 -0.42271489750812957 0 -0.39307047604156897 -0.44205724328286761 0 -0.40639339828346649 -0.42271489750812957 0 -0.39075773113791501 -0.42159090211590777 0 -0.40176388368988608 -0.41044102021040157 0 -0.38340779520981899 -0.40535249225195691 0 -0.39075773113791501 -0.42159090211590777 0 -0.40176388368988608 -0.41044102021040157 0 -0.38340779520981899 -0.40535249225195691 0 -0.39075773113791501 -0.42159090211590777 0 -0.37467786175951029 -0.42514167441302059 0 -0.38340779520981899 -0.40535249225195691 0 -0.37467786175951029 -0.42514167441302059 0 -0.37034854734929579 -0.4211600318394465 0 -0.38340779520981899 -0.40535249225195691 0 -0.37892870089931707 -0.4038789221349901 0 -0.37034854734929579 -0.4211600318394465 0 -0.38340779520981899 -0.40535249225195691 0 -0.37467786175951029 -0.42514167441302059 0 -0.39307047604156897 -0.44205724328286761 0 -0.37467786175951029 -0.42514167441302059 0 -0.39075773113791501 -0.42159090211590777 0 -0.39307047604156897 -0.44205724328286761 0 -0.37467786175951029 -0.42514167441302059 0 -0.39307047604156897 -0.44205724328286761 0 -0.37948549180955898 -0.46178005315813342 0 -0.37850361487224571 -0.44656369719318167 0 -0.39307047604156897 -0.44205724328286761 0 -0.37948549180955898 -0.46178005315813342 0 -0.37850361487224571 -0.44656369719318167 0 -0.39307047604156897 -0.44205724328286761 0 -0.37467786175951029 -0.42514167441302059 0 -0.39307047604156897 -0.44205724328286761 0 -0.41457593903438339 -0.46183567905897721 0 -0.39307047604156897 -0.44205724328286761 0 -0.39702205062854018 -0.46727387154837902 0 -0.41457593903438339 -0.46183567905897721 0 -0.39307047604156897 -0.44205724328286761 0 -0.39702205062854018 -0.46727387154837902 0 -0.37948549180955898 -0.46178005315813342 0 -0.39702205062854018 -0.46727387154837902 0 -0.37948549180955898 -0.46178005315813342 0 -0.38866249699820049 -0.48363940847260178 0 -0.37948549180955898 -0.46178005315813342 0 -0.38866249699820049 -0.48363940847260178 0 -0.36754531370280219 -0.4700663554132325 0 -0.38866249699820049 -0.48363940847260178 0 -0.36495304448370319 -0.48465205529135491 0 -0.38866249699820049 -0.48363940847260178 0 -0.3988635366073624 -0.5 0 -0.37025894555823341 -0.5 0 -0.38866249699820049 -0.48363940847260178 0 -0.3988635366073624 -0.5 0 -0.41237194951269779 -0.48262676165384871 0 -0.39702205062854018 -0.46727387154837902 0 -0.38866249699820049 -0.48363940847260178 0 -0.41237194951269779 -0.48262676165384871 0 -0.38866249699820049 -0.48363940847260178 0 -0.41237194951269779 -0.48262676165384871 0 -0.39702205062854018 -0.46727387154837902 0 -0.41237194951269779 -0.48262676165384871 0 -0.41457593903438339 -0.46183567905897721 0 -0.41237194951269779 -0.48262676165384871 0 -0.43608140202719481 -0.48161411483509031 0 -0.41457593903438339 -0.46183567905897721 0 -0.3988635366073624 -0.5 0 -0.41237194951269779 -0.48262676165384871 0 -0.4274681276564915 -0.5 0 -0.44159960279081473 -0.48908197238229439 0 -0.4274681276564915 -0.5 0 -0.43608140202719481 -0.48161411483509031 0 -0.41237194951269779 -0.48262676165384871 0 -0.4274681276564915 -0.5 0 -0.43608140202719481 -0.48161411483509031 0 -0.43608140202719481 -0.48161411483509031 0 -0.41457593903438339 -0.46183567905897721 0 -0.41237194951269779 -0.48262676165384871 0 -0.43608140202719481 -0.48161411483509031 0 -0.43965395527957929 -0.48146152865944941 0 -0.43608140202719481 -0.48161411483509031 0 -0.43300807702817251 -0.45543186968409682 0 -0.43965395527957929 -0.48146152865944941 0 -0.43300807702817251 -0.45543186968409682 0 -0.43608140202719481 -0.48161411483509031 0 -0.43300807702817251 -0.45543186968409682 0 -0.41457593903438339 -0.46183567905897721 0 -0.42636219877676629 -0.42940221070874413 0 -0.43300807702817251 -0.45543186968409682 0 -0.42636219877676629 -0.42940221070874413 0 -0.43300807702817251 -0.45543186968409682 0 -0.41354204325176069 -0.44247537017624278 0 -0.44448147895640161 -0.43499756902142322 0 -0.42636219877676629 -0.42940221070874413 0 -0.43300807702817251 -0.45543186968409682 0 -0.39307047604156897 -0.44205724328286761 0 -0.41354204325176069 -0.44247537017624278 0 -0.41457593903438339 -0.46183567905897721 0 -0.43300807702817251 -0.45543186968409682 0 -0.41354204325176069 -0.44247537017624278 0 -0.41457593903438339 -0.46183567905897721 0 -0.44700860420265759 -0.26118094708325068 0 -0.43889065781272357 -0.25976048621561382 0 -0.44447372108731381 -0.24780305591174071 0 -0.43889065781272357 -0.25976048621561382 0 -0.43515266417079101 -0.2502256321201316 0 -0.44447372108731381 -0.24780305591174071 0 -0.44700860420265759 -0.26118094708325068 0 -0.43889065781272357 -0.25976048621561382 0 -0.44091070517908981 -0.27237787910993838 0 -0.44700860420265759 -0.26118094708325068 0 -0.45644872850549312 -0.26150350036281661 0 -0.45485053385107438 -0.28684792876211279 0 -0.44700860420265759 -0.26118094708325068 0 -0.45485053385107438 -0.28684792876211279 0 -0.43597028524540149 -0.28620282220298099 0 -0.44700860420265759 -0.26118094708325068 0 -0.43597028524540149 -0.28620282220298099 0 -0.44700860420265759 -0.26118094708325068 0 -0.44091070517908981 -0.27237787910993838 0 -0.43597028524540149 -0.28620282220298099 0 -0.45644872850549312 -0.26150350036281661 0 -0.45485053385107438 -0.28684792876211279 0 -0.46632180134556739 -0.27429152379540978 0 -0.45644872850549312 -0.26150350036281661 0 -0.45485053385107438 -0.28684792876211279 0 -0.46632180134556739 -0.27429152379540978 0 -0.45644872850549312 -0.26150350036281661 0 -0.46985772484600219 -0.26302490633579417 0 -0.45644872850549312 -0.26150350036281661 0 -0.46589110977684922 -0.25460530120969299 0 -0.46985772484600219 -0.26302490633579417 0 -0.44700860420265759 -0.26118094708325068 0 -0.45644872850549312 -0.26150350036281661 0 -0.45804692315991269 -0.2361590719635204 0 -0.46589110977684922 -0.25460530120969299 0 -0.47363774134022202 -0.24915436340244099 0 -0.46421518581644988 -0.24697777112724201 0 -0.45644872850549312 -0.26150350036281661 0 -0.46589110977684922 -0.25460530120969299 0 -0.46421518581644988 -0.24697777112724201 0 -0.46589110977684922 -0.25460530120969299 0 -0.46985772484600219 -0.26302490633579417 0 -0.47363774134022202 -0.24915436340244099 0 -0.46985772484600219 -0.26302490633579417 0 -0.48219580908709669 -0.25908031094877398 0 -0.47363774134022202 -0.24915436340244099 0 -0.46985772484600219 -0.26302490633579417 0 -0.48219580908709669 -0.25908031094877398 0 -0.48048865374384908 -0.2728223901545333 0 -0.48219580908709669 -0.25908031094877398 0 -0.48868092713117528 -0.2485917731294561 0 -0.47363774134022202 -0.24915436340244099 0 -0.48219580908709669 -0.25908031094877398 0 -0.5 -0.263066819075782 0 -0.48868092713117528 -0.2485917731294561 0 -0.48219580908709669 -0.25908031094877398 0 -0.5 -0.263066819075782 0 -0.48048865374384908 -0.2728223901545333 0 -0.5 -0.263066819075782 0 -0.48048865374384908 -0.2728223901545333 0 -0.5 -0.29057185612146341 0 -0.46632180134556739 -0.27429152379540978 0 -0.46985772484600219 -0.26302490633579417 0 -0.48048865374384908 -0.2728223901545333 0 -0.46632180134556739 -0.27429152379540978 0 -0.48048865374384908 -0.2728223901545333 0 -0.47184660474866053 -0.28665266940982648 0 -0.48048865374384908 -0.2728223901545333 0 -0.47184660474866053 -0.28665266940982648 0 -0.5 -0.29057185612146341 0 -0.47184660474866053 -0.28665266940982648 0 -0.5 -0.29057185612146341 0 -0.47399387859716829 -0.30344337535447102 0 -0.5 -0.29057185612146341 0 -0.47399387859716829 -0.30344337535447102 0 -0.50000000000000078 -0.31807689316714488 0 -0.45325233919665558 -0.31219235716140908 0 -0.45485053385107438 -0.28684792876211279 0 -0.47399387859716829 -0.30344337535447102 0 -0.45325233919665558 -0.31219235716140908 0 -0.47190060612898271 -0.32164109816216452 0 -0.47399387859716829 -0.30344337535447102 0 -0.45325233919665558 -0.31219235716140908 0 -0.45485053385107438 -0.28684792876211279 0 -0.47184660474866053 -0.28665266940982648 0 -0.47399387859716829 -0.30344337535447102 0 -0.45485053385107438 -0.28684792876211279 0 -0.46632180134556739 -0.27429152379540978 0 -0.47184660474866053 -0.28665266940982648 0 -0.45485053385107438 -0.28684792876211279 0 -0.45485053385107438 -0.28684792876211279 0 -0.43427594803523739 -0.2924051770534587 0 -0.43597028524540149 -0.28620282220298099 0 -0.45485053385107438 -0.28684792876211279 0 -0.43926628138097551 -0.30661232733659899 0 -0.43427594803523739 -0.2924051770534587 0 -0.45325233919665558 -0.31219235716140908 0 -0.45485053385107438 -0.28684792876211279 0 -0.43926628138097551 -0.30661232733659899 0 -0.45325233919665558 -0.31219235716140908 0 -0.43926628138097551 -0.30661232733659899 0 -0.43504882708437409 -0.32661045604378569 0 -0.45325233919665558 -0.31219235716140908 0 -0.4516541445422369 -0.33753678556070538 0 -0.45325233919665558 -0.31219235716140908 0 -0.4516541445422369 -0.33753678556070538 0 -0.43504882708437409 -0.32661045604378569 0 -0.4516541445422369 -0.33753678556070538 0 -0.43394790683623657 -0.34303301418617521 0 -0.43504882708437409 -0.32661045604378569 0 -0.4516541445422369 -0.33753678556070538 0 -0.48060266830885162 -0.33695607956709173 0 -0.46120533661770258 -0.35583526596703879 0 -0.4516541445422369 -0.33753678556070538 0 -0.47190060612898271 -0.32164109816216452 0 -0.48060266830885162 -0.33695607956709173 0 -0.45325233919665558 -0.31219235716140908 0 -0.4516541445422369 -0.33753678556070538 0 -0.47190060612898271 -0.32164109816216452 0 -0.47399387859716829 -0.30344337535447102 0 -0.47190060612898271 -0.32164109816216452 0 -0.50000000000000078 -0.31807689316714488 0 -0.47190060612898271 -0.32164109816216452 0 -0.50000000000000078 -0.31807689316714488 0 -0.48060266830885162 -0.33695607956709173 0 -0.50000000000000078 -0.31807689316714488 0 -0.48060266830885162 -0.33695607956709173 0 -0.5 -0.33380014813000441 0 -0.48060266830885162 -0.33695607956709173 0 -0.49042579984026008 -0.34598261573826838 0 -0.50000000000000078 -0.31807689316714488 0 -0.5 -0.33380014813000441 0 -0.48060266830885162 -0.33695607956709173 0 -0.5 -0.33380014813000441 0 -0.49042579984026008 -0.34598261573826838 0 -0.50000000000000133 -0.34952340309286378 0 -0.47869753857263903 -0.35538371565106019 0 -0.47363815108067708 -0.36106720772732059 0 -0.46120533661770258 -0.35583526596703879 0 -0.48060266830885162 -0.33695607956709173 0 -0.46120533661770258 -0.35583526596703879 0 -0.47869753857263903 -0.35538371565106019 0 -0.46120533661770258 -0.35583526596703879 0 -0.48060266830885162 -0.33695607956709173 0 -0.47869753857263903 -0.35538371565106019 0 -0.46120533661770258 -0.35583526596703879 0 -0.48060266830885162 -0.33695607956709173 0 -0.47869753857263903 -0.35538371565106019 0 -0.49042579984026008 -0.34598261573826838 0 -0.47869753857263903 -0.35538371565106019 0 -0.4961897405275752 -0.3549321653350776 0 -0.47869753857263903 -0.35538371565106019 0 -0.4961897405275752 -0.3549321653350776 0 -0.49002214902665348 -0.36368722159224398 0 -0.47869753857263903 -0.35538371565106019 0 -0.49042579984026008 -0.34598261573826838 0 -0.4961897405275752 -0.3549321653350776 0 -0.4961897405275752 -0.3549321653350776 0 -0.49002214902665348 -0.36368722159224398 0 -0.4961897405275752 -0.3549321653350776 0 -0.49999999999999911 -0.35483380585620111 0 -0.49999999999999878 -0.36145728193379312 0 -0.4961897405275752 -0.3549321653350776 0 -0.49999999999999911 -0.35483380585620111 0 -0.50000000000000133 -0.34952340309286378 0 -0.4961897405275752 -0.3549321653350776 0 -0.50000000000000133 -0.34952340309286378 0 -0.4961897405275752 -0.3549321653350776 0 -0.49999999999999911 -0.35483380585620111 0 -0.49042579984026008 -0.34598261573826838 0 -0.4961897405275752 -0.3549321653350776 0 -0.50000000000000133 -0.34952340309286378 0 -0.5 -0.3847533113815268 0 -0.49999999999999878 -0.36145728193379312 0 -0.49002214902665348 -0.36368722159224398 0 -0.4961897405275752 -0.3549321653350776 0 -0.49999999999999878 -0.36145728193379312 0 -0.49002214902665348 -0.36368722159224398 0 -0.49999999999999878 -0.36145728193379312 0 -0.49002214902665348 -0.36368722159224398 0 -0.47521167947678228 -0.38471106762438162 0 -0.49002214902665348 -0.36368722159224398 0 -0.47869753857263903 -0.35538371565106019 0 -0.49002214902665348 -0.36368722159224398 0 -0.47363815108067708 -0.36106720772732059 0 -0.49002214902665348 -0.36368722159224398 0 -0.47363815108067708 -0.36106720772732059 0 -0.46462758010571459 -0.3693626276989439 0 -0.47521167947678228 -0.38471106762438162 0 -0.49002214902665348 -0.36368722159224398 0 -0.46462758010571459 -0.3693626276989439 0 -0.49002214902665348 -0.36368722159224398 0 -0.46462758010571459 -0.3693626276989439 0 -0.46462758010571459 -0.3693626276989439 0 -0.46120533661770258 -0.35583526596703879 0 -0.44875150735593639 -0.36795642612296092 0 -0.46120533661770258 -0.35583526596703879 0 -0.45149800061261919 -0.35723160499600132 0 -0.44875150735593639 -0.36795642612296092 0 -0.46120533661770258 -0.35583526596703879 0 -0.44875150735593639 -0.36795642612296092 0 -0.47363815108067708 -0.36106720772732059 0 -0.46462758010571459 -0.3693626276989439 0 -0.46120533661770258 -0.35583526596703879 0 -0.46120533661770258 -0.35583526596703879 0 -0.44370609540995959 -0.35628699799695401 0 -0.45149800061261919 -0.35723160499600132 0 -0.46120533661770258 -0.35583526596703879 0 -0.44370609540995959 -0.35628699799695401 0 -0.4516541445422369 -0.33753678556070538 0 -0.46120533661770258 -0.35583526596703879 0 -0.44370609540995959 -0.35628699799695401 0 -0.4516541445422369 -0.33753678556070538 0 -0.44370609540995959 -0.35628699799695401 0 -0.43394790683623657 -0.34303301418617521 0 -0.43910629694810849 -0.37522199874484979 0 -0.45149800061261919 -0.35723160499600132 0 -0.44875150735593639 -0.36795642612296092 0 -0.43910629694810849 -0.37522199874484979 0 -0.45149800061261919 -0.35723160499600132 0 -0.43910629694810849 -0.37522199874484979 0 -0.46462758010571459 -0.3693626276989439 0 -0.43910629694810849 -0.37522199874484979 0 -0.46462758010571459 -0.3693626276989439 0 -0.44875150735593639 -0.36795642612296092 0 -0.43910629694810849 -0.37522199874484979 0 -0.44370609540995959 -0.35628699799695401 0 -0.45149800061261919 -0.35723160499600132 0 -0.43910629694810849 -0.37522199874484979 0 -0.42620685420221649 -0.35673873002686579 0 -0.43910629694810849 -0.37522199874484979 0 -0.435309083809991 -0.37237163518283112 0 -0.42620685420221649 -0.35673873002686579 0 -0.435309083809991 -0.37237163518283112 0 -0.42620685420221649 -0.35673873002686579 0 -0.41946922560496519 -0.36594273804719307 0 -0.435309083809991 -0.37237163518283112 0 -0.41946922560496519 -0.36594273804719307 0 -0.43910629694810849 -0.37522199874484979 0 -0.44370609540995959 -0.35628699799695401 0 -0.42620685420221649 -0.35673873002686579 0 -0.4182363739876887 -0.37973055067173611 0 -0.435309083809991 -0.37237163518283112 0 -0.41946922560496519 -0.36594273804719307 0 -0.44370609540995959 -0.35628699799695401 0 -0.42620685420221649 -0.35673873002686579 0 -0.43394790683623657 -0.34303301418617521 0 -0.42620685420221649 -0.35673873002686579 0 -0.4122577919971086 -0.33675148947857408 0 -0.43394790683623657 -0.34303301418617521 0 -0.44370609540995959 -0.35628699799695401 0 -0.42620685420221649 -0.35673873002686579 0 -0.4014045176203338 -0.35861084479945488 0 -0.4122577919971086 -0.33675148947857408 0 -0.42620685420221649 -0.35673873002686579 0 -0.40460762809988848 -0.35729630061727907 0 -0.4122577919971086 -0.33675148947857408 0 -0.40460762809988848 -0.35729630061727907 0 -0.4122577919971086 -0.33675148947857408 0 -0.42620685420221649 -0.35673873002686579 0 -0.40460762809988848 -0.35729630061727907 0 -0.42620685420221649 -0.35673873002686579 0 -0.4122577919971086 -0.33675148947857408 0 -0.41946922560496519 -0.36594273804719307 0 -0.40362936739993788 -0.35951384091155852 0 -0.40460762809988848 -0.35729630061727907 0 -0.4100398314836633 -0.36644738956117812 0 -0.41946922560496519 -0.36594273804719307 0 -0.40362936739993788 -0.35951384091155852 0 -0.4182363739876887 -0.37973055067173611 0 -0.4100398314836633 -0.36644738956117812 0 -0.40059713356567977 -0.3663873672726452 0 -0.42620685420221649 -0.35673873002686579 0 -0.41946922560496519 -0.36594273804719307 0 -0.40460762809988848 -0.35729630061727907 0 -0.41946922560496519 -0.36594273804719307 0 -0.40362936739993788 -0.35951384091155852 0 -0.4182363739876887 -0.37973055067173611 0 -0.40059713356567977 -0.3663873672726452 0 -0.4182363739876887 -0.37973055067173611 0 -0.4100398314836633 -0.36644738956117812 0 -0.41946922560496519 -0.36594273804719307 0 -0.39086562684671872 -0.37571853662818522 0 -0.39837720055007902 -0.3647081014623173 0 -0.38910798549436038 -0.35769641425271581 0 -0.4100398314836633 -0.36644738956117812 0 -0.40362936739993788 -0.35951384091155852 0 -0.40059713356567977 -0.3663873672726452 0 -0.40362936739993788 -0.35951384091155852 0 -0.40059713356567977 -0.3663873672726452 0 -0.39837720055007902 -0.3647081014623173 0 -0.40059713356567977 -0.3663873672726452 0 -0.39837720055007902 -0.3647081014623173 0 -0.39837720055007902 -0.3647081014623173 0 -0.4014045176203338 -0.35861084479945488 0 -0.40362936739993788 -0.35951384091155852 0 -0.39837720055007902 -0.3647081014623173 0 -0.4014045176203338 -0.35861084479945488 0 -0.40362936739993788 -0.35951384091155852 0 -0.40059713356567977 -0.3663873672726452 0 -0.39837720055007902 -0.3647081014623173 0 -0.4014045176203338 -0.35861084479945488 0 -0.39855089899546758 -0.3574526513127369 0 -0.39837720055007902 -0.3647081014623173 0 -0.38910798549436038 -0.35769641425271581 0 -0.39837720055007902 -0.3647081014623173 0 -0.38910798549436038 -0.35769641425271581 0 -0.39855089899546758 -0.3574526513127369 0 -0.39086562684671872 -0.37571853662818522 0 -0.39212298564631343 -0.37730458627312541 0 -0.39837720055007902 -0.3647081014623173 0 -0.39447321120395551 -0.38026919304441431 0 -0.40059713356567977 -0.3663873672726452 0 -0.39212298564631343 -0.37730458627312541 0 -0.39837720055007902 -0.3647081014623173 0 -0.39212298564631343 -0.37730458627312541 0 -0.39447321120395551 -0.38026919304441431 0 -0.40059713356567977 -0.3663873672726452 0 -0.39212298564631343 -0.37730458627312541 0 -0.40059713356567977 -0.3663873672726452 0 -0.39837720055007902 -0.3647081014623173 0 -0.39086562684671872 -0.37571853662818522 0 -0.37682965701864968 -0.3580133716670596 0 -0.38664736582811782 -0.35775993361927078 0 -0.39086562684671872 -0.37571853662818522 0 -0.38261724061142721 -0.3791310180187335 0 -0.37682965701864968 -0.3580133716670596 0 -0.39086562684671872 -0.37571853662818522 0 -0.38664736582811782 -0.35775993361927078 0 -0.39086562684671872 -0.37571853662818522 0 -0.38664736582811782 -0.35775993361927078 0 -0.38910798549436038 -0.35769641425271581 0 -0.38261724061142721 -0.3791310180187335 0 -0.37682965701864968 -0.3580133716670596 0 -0.37158788119171299 -0.37582068762881671 0 -0.39086562684671872 -0.37571853662818522 0 -0.37682965701864968 -0.3580133716670596 0 -0.37748057748168218 -0.34890087465706138 0 -0.38531319018074389 -0.3520798842601604 0 -0.37682965701864968 -0.3580133716670596 0 -0.38664736582811782 -0.35775993361927078 0 -0.37748057748168218 -0.34890087465706138 0 -0.37682965701864968 -0.3580133716670596 0 -0.38609754918945433 -0.35541917312630611 0 -0.37748057748168218 -0.34890087465706138 0 -0.38609754918945433 -0.35541917312630611 0 -0.37748057748168218 -0.34890087465706138 0 -0.38609754918945433 -0.35541917312630611 0 -0.38531319018074389 -0.3520798842601604 0 -0.37682965701864968 -0.3580133716670596 0 -0.38609754918945433 -0.35541917312630611 0 -0.38664736582811782 -0.35775993361927078 0 -0.38609754918945433 -0.35541917312630611 0 -0.38531319018074389 -0.3520798842601604 0 -0.38609754918945433 -0.35541917312630611 0 -0.38664736582811782 -0.35775993361927078 0 -0.38664736582811782 -0.35775993361927078 0 -0.38910798549436038 -0.35769641425271581 0 -0.38609754918945433 -0.35541917312630611 0 -0.38910798549436038 -0.35769641425271581 0 -0.38609754918945433 -0.35541917312630611 0 -0.38664736582811782 -0.35775993361927078 0 -0.38910798549436038 -0.35769641425271581 0 -0.38609754918945433 -0.35541917312630611 0 -0.38531319018074389 -0.3520798842601604 0 -0.38910798549436038 -0.35769641425271581 0 -0.38531319018074389 -0.3520798842601604 0 -0.38756021640698979 -0.34829170930346909 0 -0.39447097758819788 -0.35117405464686108 0 -0.39811800595874469 -0.34560636847348708 0 -0.4014045176203338 -0.35861084479945488 0 -0.4122577919971086 -0.33675148947857408 0 -0.4014045176203338 -0.35861084479945488 0 -0.40460762809988848 -0.35729630061727907 0 -0.4122577919971086 -0.33675148947857408 0 -0.38756021640698979 -0.34829170930346909 0 -0.39811800595874469 -0.34560636847348708 0 -0.39447097758819788 -0.35117405464686108 0 -0.39811800595874469 -0.34560636847348708 0 -0.39447097758819788 -0.35117405464686108 0 -0.4014045176203338 -0.35861084479945488 0 -0.38531319018074389 -0.3520798842601604 0 -0.39855089899546758 -0.3574526513127369 0 -0.38910798549436038 -0.35769641425271581 0 -0.39855089899546758 -0.3574526513127369 0 -0.38531319018074389 -0.3520798842601604 0 -0.39447097758819788 -0.35117405464686108 0 -0.39855089899546758 -0.3574526513127369 0 -0.38531319018074389 -0.3520798842601604 0 -0.38910798549436038 -0.35769641425271581 0 -0.39855089899546758 -0.3574526513127369 0 -0.39447097758819788 -0.35117405464686108 0 -0.4014045176203338 -0.35861084479945488 0 -0.39855089899546758 -0.3574526513127369 0 -0.4014045176203338 -0.35861084479945488 0 -0.39855089899546758 -0.3574526513127369 0 -0.4014045176203338 -0.35861084479945488 0 -0.40460762809988848 -0.35729630061727907 0 -0.40362936739993788 -0.35951384091155852 0 -0.4014045176203338 -0.35861084479945488 0 -0.40460762809988848 -0.35729630061727907 0 -0.40362936739993788 -0.35951384091155852 0 -0.40460762809988848 -0.35729630061727907 0 -0.40362936739993788 -0.35951384091155852 0 -0.4014045176203338 -0.35861084479945488 0 -0.39427696192686867 -0.33445159568203281 0 -0.40099370744674689 -0.32061148206059609 0 -0.4122577919971086 -0.33675148947857408 0 -0.39811800595874469 -0.34560636847348708 0 -0.39427696192686867 -0.33445159568203281 0 -0.4122577919971086 -0.33675148947857408 0 -0.38756021640698979 -0.34829170930346909 0 -0.39427696192686867 -0.33445159568203281 0 -0.38756021640698979 -0.34829170930346909 0 -0.39811800595874469 -0.34560636847348708 0 -0.39427696192686867 -0.33445159568203281 0 -0.38756021640698979 -0.34829170930346909 0 -0.39427696192686867 -0.33445159568203281 0 -0.38007730354759078 -0.32978889538350431 0 -0.38531319018074389 -0.3520798842601604 0 -0.38756021640698979 -0.34829170930346909 0 -0.38007730354759078 -0.32978889538350431 0 -0.37748057748168218 -0.34890087465706138 0 -0.38531319018074389 -0.3520798842601604 0 -0.38007730354759078 -0.32978889538350431 0 -0.37748057748168218 -0.34890087465706138 0 -0.38007730354759078 -0.32978889538350431 0 -0.3677926426779346 -0.32585017640098363 0 -0.38531319018074389 -0.3520798842601604 0 -0.38007730354759078 -0.32978889538350431 0 -0.39427696192686867 -0.33445159568203281 0 -0.38007730354759078 -0.32978889538350431 0 -0.38712205538958622 -0.31564116661032049 0 -0.38007730354759078 -0.32978889538350431 0 -0.38712205538958622 -0.31564116661032049 0 -0.37484141691443529 -0.30749790650684888 0 -0.38007730354759078 -0.32978889538350431 0 -0.37484141691443529 -0.30749790650684888 0 -0.39427696192686867 -0.33445159568203281 0 -0.38712205538958622 -0.31564116661032049 0 -0.40099370744674689 -0.32061148206059609 0 -0.39427696192686867 -0.33445159568203281 0 -0.40099370744674689 -0.32061148206059609 0 -0.40099370744674689 -0.32061148206059609 0 -0.41200289544843688 -0.31774887767128063 0 -0.40982811606174452 -0.30240784182323982 0 -0.4122577919971086 -0.33675148947857408 0 -0.42493196628814561 -0.31122469732271141 0 -0.40099370744674689 -0.32061148206059609 0 -0.41200289544843688 -0.31774887767128063 0 -0.4122577919971086 -0.33675148947857408 0 -0.41200289544843688 -0.31774887767128063 0 -0.4122577919971086 -0.33675148947857408 0 -0.42493196628814561 -0.31122469732271141 0 -0.40099370744674689 -0.32061148206059609 0 -0.4122577919971086 -0.33675148947857408 0 -0.4122577919971086 -0.33675148947857408 0 -0.43394790683623657 -0.34303301418617521 0 -0.43504882708437409 -0.32661045604378569 0 -0.4122577919971086 -0.33675148947857408 0 -0.43504882708437409 -0.32661045604378569 0 -0.42493196628814561 -0.31122469732271141 0 -0.43926628138097551 -0.30661232733659899 0 -0.43504882708437409 -0.32661045604378569 0 -0.42493196628814561 -0.31122469732271141 0 -0.42493196628814561 -0.31122469732271141 0 -0.43597028524540149 -0.28620282220298099 0 -0.42493196628814561 -0.31122469732271141 0 -0.43597028524540149 -0.28620282220298099 0 -0.42234822306800818 -0.29600989073370382 0 -0.42493196628814561 -0.31122469732271141 0 -0.43427594803523739 -0.2924051770534587 0 -0.43926628138097551 -0.30661232733659899 0 -0.42493196628814561 -0.31122469732271141 0 -0.43427594803523739 -0.2924051770534587 0 -0.42493196628814561 -0.31122469732271141 0 -0.43427594803523739 -0.2924051770534587 0 -0.43597028524540149 -0.28620282220298099 0 -0.43597028524540149 -0.28620282220298099 0 -0.42234822306800818 -0.29600989073370382 0 -0.41866252467674098 -0.28420420158588289 0 -0.42234822306800818 -0.29600989073370382 0 -0.41866252467674098 -0.28420420158588289 0 -0.40982811606174452 -0.30240784182323982 0 -0.41866252467674098 -0.28420420158588289 0 -0.40295205420417851 -0.29255531551350011 0 -0.40669758581583448 -0.26743991008705842 0 -0.41866252467674098 -0.28420420158588289 0 -0.40982811606174452 -0.30240784182323982 0 -0.41866252467674098 -0.28420420158588289 0 -0.40295205420417851 -0.29255531551350011 0 -0.41866252467674098 -0.28420420158588289 0 -0.40982811606174452 -0.30240784182323982 0 -0.40295205420417851 -0.29255531551350011 0 -0.42493196628814561 -0.31122469732271141 0 -0.42234822306800818 -0.29600989073370382 0 -0.40982811606174452 -0.30240784182323982 0 -0.41200289544843688 -0.31774887767128063 0 -0.42493196628814561 -0.31122469732271141 0 -0.40982811606174452 -0.30240784182323982 0 -0.40099370744674689 -0.32061148206059609 0 -0.40982811606174452 -0.30240784182323982 0 -0.39973669524397382 -0.3038079905567036 0 -0.40099370744674689 -0.32061148206059609 0 -0.40982811606174452 -0.30240784182323982 0 -0.39973669524397382 -0.3038079905567036 0 -0.3872415837316141 -0.30090642944111362 0 -0.40295205420417851 -0.29255531551350011 0 -0.40099370744674689 -0.32061148206059609 0 -0.39973669524397382 -0.3038079905567036 0 -0.3872415837316141 -0.30090642944111362 0 -0.38712205538958622 -0.31564116661032049 0 -0.40099370744674689 -0.32061148206059609 0 -0.3872415837316141 -0.30090642944111362 0 -0.40099370744674689 -0.32061148206059609 0 -0.3872415837316141 -0.30090642944111362 0 -0.40982811606174452 -0.30240784182323982 0 -0.39973669524397382 -0.3038079905567036 0 -0.40295205420417851 -0.29255531551350011 0 -0.38712205538958622 -0.31564116661032049 0 -0.3872415837316141 -0.30090642944111362 0 -0.37484141691443529 -0.30749790650684888 0 -0.3872415837316141 -0.30090642944111362 0 -0.37733365865616503 -0.29722681863388462 0 -0.37484141691443529 -0.30749790650684888 0 -0.3872415837316141 -0.30090642944111362 0 -0.37484141691443529 -0.30749790650684888 0 -0.3872415837316141 -0.30090642944111362 0 -0.37672930875763372 -0.28584366998637822 0 -0.39220399970382108 -0.27952123861344169 0 -0.3872415837316141 -0.30090642944111362 0 -0.37733365865616503 -0.29722681863388462 0 -0.37672930875763372 -0.28584366998637822 0 -0.3872415837316141 -0.30090642944111362 0 -0.37672930875763372 -0.28584366998637822 0 -0.3872415837316141 -0.30090642944111362 0 -0.40295205420417851 -0.29255531551350011 0 -0.3872415837316141 -0.30090642944111362 0 -0.40295205420417851 -0.29255531551350011 0 -0.39220399970382108 -0.27952123861344169 0 -0.40295205420417851 -0.29255531551350011 0 -0.39220399970382108 -0.27952123861344169 0 -0.40669758581583448 -0.26743991008705842 0 -0.39220399970382108 -0.27952123861344169 0 -0.38265275165652918 -0.26654448607639247 0 -0.40669758581583448 -0.26743991008705842 0 -0.37672930875763372 -0.28584366998637822 0 -0.38265275165652918 -0.26654448607639247 0 -0.36621703378365422 -0.27078091053164222 0 -0.37672930875763372 -0.28584366998637822 0 -0.39220399970382108 -0.27952123861344169 0 -0.38265275165652918 -0.26654448607639247 0 -0.38265275165652918 -0.26654448607639247 0 -0.39208886696519007 -0.25326531818076359 0 -0.37497438621630619 -0.25056020184208438 0 -0.38265275165652918 -0.26654448607639247 0 -0.39208886696519007 -0.25326531818076359 0 -0.40669758581583448 -0.26743991008705842 0 -0.39208886696519007 -0.25326531818076359 0 -0.40669758581583448 -0.26743991008705842 0 -0.41589114755914408 -0.24313452901118929 0 -0.42116224799238389 -0.25700374701784662 0 -0.40669758581583448 -0.26743991008705842 0 -0.41589114755914408 -0.24313452901118929 0 -0.42116224799238389 -0.25700374701784662 0 -0.40669758581583448 -0.26743991008705842 0 -0.42690759442376608 -0.26721491685300741 0 -0.41866252467674098 -0.28420420158588289 0 -0.40669758581583448 -0.26743991008705842 0 -0.42690759442376608 -0.26721491685300741 0 -0.44091070517908981 -0.27237787910993838 0 -0.41866252467674098 -0.28420420158588289 0 -0.42690759442376608 -0.26721491685300741 0 -0.44091070517908981 -0.27237787910993838 0 -0.43597028524540149 -0.28620282220298099 0 -0.41866252467674098 -0.28420420158588289 0 -0.44091070517908981 -0.27237787910993838 0 -0.41866252467674098 -0.28420420158588289 0 -0.41866252467674098 -0.28420420158588289 0 -0.42690759442376608 -0.26721491685300741 0 -0.43889065781272357 -0.25976048621561382 0 -0.44091070517908981 -0.27237787910993838 0 -0.42690759442376608 -0.26721491685300741 0 -0.42116224799238389 -0.25700374701784662 0 -0.43515266417079101 -0.2502256321201316 0 -0.41589114755914408 -0.24313452901118929 0 -0.43889065781272357 -0.25976048621561382 0 -0.42690759442376608 -0.26721491685300741 0 -0.43515266417079101 -0.2502256321201316 0 -0.42690759442376608 -0.26721491685300741 0 -0.43515266417079101 -0.2502256321201316 0 -0.42116224799238389 -0.25700374701784662 0 -0.42690759442376608 -0.26721491685300741 0 -0.43515266417079101 -0.2502256321201316 0 -0.32476054388628972 -0.26512147044745199 0 -0.31224782762896908 -0.25694043905287578 0 -0.32902662723973952 -0.24995314561344231 0 -0.32476054388628972 -0.26512147044745199 0 -0.31034107885493167 -0.27414376672779323 0 -0.31224782762896908 -0.25694043905287578 0 -0.33103701534712721 -0.27893093571679262 0 -0.32291609774739299 -0.29000606812966062 0 -0.31034107885493167 -0.27414376672779323 0 -0.32476054388628972 -0.26512147044745199 0 -0.33103701534712721 -0.27893093571679262 0 -0.31034107885493167 -0.27414376672779323 0 -0.32476054388628972 -0.26512147044745199 0 -0.33103701534712721 -0.27893093571679262 0 -0.33962204729269319 -0.26674414087508269 0 -0.33103701534712721 -0.27893093571679262 0 -0.33962204729269319 -0.26674414087508269 0 -0.34743916862230001 -0.28370610772885929 0 -0.32476054388628972 -0.26512147044745199 0 -0.33962204729269319 -0.26674414087508269 0 -0.32902662723973952 -0.24995314561344231 0 -0.33962204729269319 -0.26674414087508269 0 -0.3445951553371811 -0.24845299757837119 0 -0.32902662723973952 -0.24995314561344231 0 -0.33962204729269319 -0.26674414087508269 0 -0.35712271818797692 -0.2577499073889204 0 -0.3445951553371811 -0.24845299757837119 0 -0.37497438621630619 -0.25056020184208438 0 -0.36621703378365422 -0.27078091053164222 0 -0.35939052077907929 -0.2417180724465379 0 -0.36621703378365422 -0.27078091053164222 0 -0.35939052077907929 -0.2417180724465379 0 -0.35712271818797692 -0.2577499073889204 0 -0.36621703378365422 -0.27078091053164222 0 -0.35939052077907929 -0.2417180724465379 0 -0.38265275165652918 -0.26654448607639247 0 -0.37497438621630619 -0.25056020184208438 0 -0.36621703378365422 -0.27078091053164222 0 -0.35712271818797692 -0.2577499073889204 0 -0.36621703378365422 -0.27078091053164222 0 -0.36621703378365422 -0.27078091053164222 0 -0.35918851098308963 -0.28258259452368251 0 -0.37052922534904559 -0.28913940851924541 0 -0.36621703378365422 -0.27078091053164222 0 -0.37052922534904559 -0.28913940851924541 0 -0.37672930875763372 -0.28584366998637822 0 -0.36621703378365422 -0.27078091053164222 0 -0.36621703378365422 -0.27078091053164222 0 -0.35399027208298262 -0.27233652835550393 0 -0.35918851098308963 -0.28258259452368251 0 -0.35399027208298262 -0.27233652835550393 0 -0.34743916862230001 -0.28370610772885929 0 -0.35918851098308963 -0.28258259452368251 0 -0.33962204729269319 -0.26674414087508269 0 -0.35712271818797692 -0.2577499073889204 0 -0.35399027208298262 -0.27233652835550393 0 -0.33962204729269319 -0.26674414087508269 0 -0.35399027208298262 -0.27233652835550393 0 -0.34743916862230001 -0.28370610772885929 0 -0.35712271818797692 -0.2577499073889204 0 -0.36621703378365422 -0.27078091053164222 0 -0.35399027208298262 -0.27233652835550393 0 -0.34743916862230001 -0.28370610772885929 0 -0.35776685507746397 -0.2969500174831623 0 -0.34114315567915549 -0.29386406039190799 0 -0.34743916862230001 -0.28370610772885929 0 -0.35918851098308963 -0.28258259452368251 0 -0.35776685507746397 -0.2969500174831623 0 -0.37672930875763372 -0.28584366998637822 0 -0.36621703378365422 -0.27078091053164222 0 -0.37052922534904559 -0.28913940851924541 0 -0.35918851098308963 -0.28258259452368251 0 -0.37052922534904559 -0.28913940851924541 0 -0.35776685507746397 -0.2969500174831623 0 -0.37733365865616503 -0.29722681863388462 0 -0.37672930875763372 -0.28584366998637822 0 -0.37052922534904559 -0.28913940851924541 0 -0.37052922534904559 -0.28913940851924541 0 -0.37484141691443529 -0.30749790650684888 0 -0.35776685507746397 -0.2969500174831623 0 -0.37484141691443529 -0.30749790650684888 0 -0.35776685507746397 -0.2969500174831623 0 -0.3614537762233746 -0.31461428872011982 0 -0.37733365865616503 -0.29722681863388462 0 -0.37052922534904559 -0.28913940851924541 0 -0.37484141691443529 -0.30749790650684888 0 -0.37052922534904559 -0.28913940851924541 0 -0.37484141691443529 -0.30749790650684888 0 -0.37484141691443529 -0.30749790650684888 0 -0.3614537762233746 -0.31461428872011982 0 -0.35776685507746397 -0.2969500174831623 0 -0.34941085022565033 -0.30712677526213961 0 -0.34114315567915549 -0.29386406039190799 0 -0.35776685507746397 -0.2969500174831623 0 -0.34941085022565033 -0.30712677526213961 0 -0.3614537762233746 -0.31461428872011982 0 -0.34941085022565033 -0.30712677526213961 0 -0.3354911166398542 -0.30586836953152802 0 -0.34806613553231619 -0.3217306709333948 0 -0.3354911166398542 -0.30586836953152802 0 -0.32291609774739299 -0.29000606812966062 0 -0.34941085022565033 -0.30712677526213961 0 -0.3354911166398542 -0.30586836953152802 0 -0.34114315567915549 -0.29386406039190799 0 -0.3354911166398542 -0.30586836953152802 0 -0.34114315567915549 -0.29386406039190799 0 -0.32291609774739299 -0.29000606812966062 0 -0.33103701534712721 -0.27893093571679262 0 -0.34114315567915549 -0.29386406039190799 0 -0.32291609774739299 -0.29000606812966062 0 -0.33103701534712721 -0.27893093571679262 0 -0.34743916862230001 -0.28370610772885929 0 -0.34114315567915549 -0.29386406039190799 0 -0.32291609774739299 -0.29000606812966062 0 -0.31034107885493167 -0.27414376672779323 0 -0.32291609774739299 -0.29000606812966062 0 -0.30991515307007661 -0.30168615568957668 0 -0.31034107885493167 -0.27414376672779323 0 -0.32291609774739299 -0.29000606812966062 0 -0.32548674818356538 -0.30957020149044517 0 -0.30991515307007661 -0.30168615568957668 0 -0.32548674818356538 -0.30957020149044517 0 -0.31701288711366149 -0.32240402384892353 0 -0.30991515307007661 -0.30168615568957668 0 -0.3354911166398542 -0.30586836953152802 0 -0.32291609774739299 -0.29000606812966062 0 -0.32548674818356538 -0.30957020149044517 0 -0.31701288711366149 -0.32240402384892353 0 -0.33004549371929848 -0.3313097878091143 0 -0.32919791804769277 -0.32176126006745132 0 -0.32548674818356538 -0.30957020149044517 0 -0.31701288711366149 -0.32240402384892353 0 -0.32919791804769277 -0.32176126006745132 0 -0.31701288711366149 -0.32240402384892353 0 -0.31584444426435099 -0.33885854849690661 0 -0.33004549371929848 -0.3313097878091143 0 -0.31584444426435099 -0.33885854849690661 0 -0.33004549371929848 -0.3313097878091143 0 -0.32802324768148322 -0.34584975608853868 0 -0.31584444426435099 -0.33885854849690661 0 -0.33004549371929848 -0.3313097878091143 0 -0.33004549371929848 -0.3313097878091143 0 -0.33696049143236573 -0.34023307930720581 0 -0.32802324768148322 -0.34584975608853868 0 -0.33696049143236573 -0.34023307930720581 0 -0.34251022353025112 -0.33458918081437372 0 -0.3485912057948054 -0.34162866955638238 0 -0.33696049143236573 -0.34023307930720581 0 -0.3485912057948054 -0.34162866955638238 0 -0.34229023774577882 -0.34932644104505362 0 -0.33004549371929848 -0.3313097878091143 0 -0.34251022353025112 -0.33458918081437372 0 -0.34424654317424591 -0.3237610271213221 0 -0.33004549371929848 -0.3313097878091143 0 -0.33696049143236573 -0.34023307930720581 0 -0.34251022353025112 -0.33458918081437372 0 -0.3354911166398542 -0.30586836953152802 0 -0.32548674818356538 -0.30957020149044517 0 -0.34424654317424591 -0.3237610271213221 0 -0.32548674818356538 -0.30957020149044517 0 -0.32919791804769277 -0.32176126006745132 0 -0.34424654317424591 -0.3237610271213221 0 -0.3354911166398542 -0.30586836953152802 0 -0.34424654317424591 -0.3237610271213221 0 -0.34806613553231619 -0.3217306709333948 0 -0.32548674818356538 -0.30957020149044517 0 -0.34424654317424591 -0.3237610271213221 0 -0.3354911166398542 -0.30586836953152802 0 -0.34806613553231619 -0.3217306709333948 0 -0.33004549371929848 -0.3313097878091143 0 -0.34424654317424591 -0.3237610271213221 0 -0.33004549371929848 -0.3313097878091143 0 -0.32919791804769277 -0.32176126006745132 0 -0.34424654317424591 -0.3237610271213221 0 -0.34806613553231619 -0.3217306709333948 0 -0.3614537762233746 -0.31461428872011982 0 -0.35780875902938009 -0.33402014991366208 0 -0.34424654317424591 -0.3237610271213221 0 -0.34806613553231619 -0.3217306709333948 0 -0.35780875902938009 -0.33402014991366208 0 -0.34424654317424591 -0.3237610271213221 0 -0.34806613553231619 -0.3217306709333948 0 -0.34806613553231619 -0.3217306709333948 0 -0.35780875902938009 -0.33402014991366208 0 -0.34806613553231619 -0.3217306709333948 0 -0.3614537762233746 -0.31461428872011982 0 -0.34941085022565033 -0.30712677526213961 0 -0.34806613553231619 -0.3217306709333948 0 -0.3614537762233746 -0.31461428872011982 0 -0.38007730354759078 -0.32978889538350431 0 -0.37484141691443529 -0.30749790650684888 0 -0.3677926426779346 -0.32585017640098363 0 -0.3677926426779346 -0.32585017640098363 0 -0.3614537762233746 -0.31461428872011982 0 -0.35780875902938009 -0.33402014991366208 0 -0.37484141691443529 -0.30749790650684888 0 -0.3677926426779346 -0.32585017640098363 0 -0.3614537762233746 -0.31461428872011982 0 -0.37748057748168218 -0.34890087465706138 0 -0.3677926426779346 -0.32585017640098363 0 -0.35780875902938009 -0.33402014991366208 0 -0.37748057748168218 -0.34890087465706138 0 -0.35780875902938009 -0.33402014991366208 0 -0.36586976484609429 -0.34418841327456878 0 -0.37748057748168218 -0.34890087465706138 0 -0.35780875902938009 -0.33402014991366208 0 -0.35780875902938009 -0.33402014991366208 0 -0.36586976484609429 -0.34418841327456878 0 -0.35624209612074648 -0.34028084724145752 0 -0.36586976484609429 -0.34418841327456878 0 -0.35624209612074648 -0.34028084724145752 0 -0.35780875902938009 -0.33402014991366208 0 -0.36586976484609429 -0.34418841327456878 0 -0.35624209612074648 -0.34028084724145752 0 -0.35780875902938009 -0.33402014991366208 0 -0.34987976552988592 -0.33485597492943953 0 -0.35624209612074648 -0.34028084724145752 0 -0.3485912057948054 -0.34162866955638238 0 -0.35748126336873848 -0.34902530349059341 0 -0.34424654317424591 -0.3237610271213221 0 -0.35780875902938009 -0.33402014991366208 0 -0.34987976552988592 -0.33485597492943953 0 -0.34424654317424591 -0.3237610271213221 0 -0.35780875902938009 -0.33402014991366208 0 -0.34251022353025112 -0.33458918081437372 0 -0.34424654317424591 -0.3237610271213221 0 -0.34987976552988592 -0.33485597492943953 0 -0.35624209612074648 -0.34028084724145752 0 -0.34987976552988592 -0.33485597492943953 0 -0.3485912057948054 -0.34162866955638238 0 -0.34251022353025112 -0.33458918081437372 0 -0.34987976552988592 -0.33485597492943953 0 -0.3485912057948054 -0.34162866955638238 0 -0.3485912057948054 -0.34162866955638238 0 -0.35748126336873848 -0.34902530349059341 0 -0.34229023774577882 -0.34932644104505362 0 -0.35358510873320598 -0.35861341522647988 0 -0.35748126336873848 -0.34902530349059341 0 -0.34229023774577882 -0.34932644104505362 0 -0.37682965701864968 -0.3580133716670596 0 -0.35358510873320598 -0.35861341522647988 0 -0.37682965701864968 -0.3580133716670596 0 -0.35358510873320598 -0.35861341522647988 0 -0.35748126336873848 -0.34902530349059341 0 -0.37682965701864968 -0.3580133716670596 0 -0.35748126336873848 -0.34902530349059341 0 -0.36586976484609429 -0.34418841327456878 0 -0.35624209612074648 -0.34028084724145752 0 -0.35748126336873848 -0.34902530349059341 0 -0.36586976484609429 -0.34418841327456878 0 -0.37748057748168218 -0.34890087465706138 0 -0.36586976484609429 -0.34418841327456878 0 -0.37748057748168218 -0.34890087465706138 0 -0.37682965701864968 -0.3580133716670596 0 -0.36586976484609429 -0.34418841327456878 0 -0.37682965701864968 -0.3580133716670596 0 -0.36586976484609429 -0.34418841327456878 0 -0.37682965701864968 -0.3580133716670596 0 -0.35358510873320598 -0.35861341522647988 0 -0.35809495027582222 -0.37374339601652612 0 -0.37682965701864968 -0.3580133716670596 0 -0.35809495027582222 -0.37374339601652612 0 -0.37158788119171299 -0.37582068762881671 0 -0.35358510873320598 -0.35861341522647988 0 -0.35809495027582222 -0.37374339601652612 0 -0.34156632930004283 -0.37300361994040698 0 -0.34156632930004283 -0.37300361994040698 0 -0.33034056044776239 -0.35921345878589822 0 -0.32234102201133169 -0.37700782005101752 0 -0.35358510873320598 -0.35861341522647988 0 -0.34156632930004283 -0.37300361994040698 0 -0.33034056044776239 -0.35921345878589822 0 -0.35358510873320598 -0.35861341522647988 0 -0.33034056044776239 -0.35921345878589822 0 -0.35358510873320598 -0.35861341522647988 0 -0.34229023774577882 -0.34932644104505362 0 -0.33034056044776239 -0.35921345878589822 0 -0.33696049143236573 -0.34023307930720581 0 -0.34229023774577882 -0.34932644104505362 0 -0.32802324768148322 -0.34584975608853868 0 -0.34229023774577882 -0.34932644104505362 0 -0.33034056044776239 -0.35921345878589822 0 -0.32802324768148322 -0.34584975608853868 0 -0.33034056044776239 -0.35921345878589822 0 -0.32802324768148322 -0.34584975608853868 0 -0.31761123230819888 -0.35495491541363489 0 -0.31584444426435099 -0.33885854849690661 0 -0.32802324768148322 -0.34584975608853868 0 -0.31761123230819888 -0.35495491541363489 0 -0.31761123230819888 -0.35495491541363489 0 -0.30121203899057297 -0.35757563047991892 0 -0.32234102201133169 -0.37700782005101752 0 -0.33034056044776239 -0.35921345878589822 0 -0.31761123230819888 -0.35495491541363489 0 -0.32234102201133169 -0.37700782005101752 0 -0.30121203899057297 -0.35757563047991892 0 -0.32234102201133169 -0.37700782005101752 0 -0.30121203899057297 -0.35757563047991892 0 -0.32234102201133169 -0.37700782005101752 0 -0.30556465915130049 -0.37878672010880632 0 -0.30121203899057297 -0.35757563047991892 0 -0.29484163223803678 -0.36978311311353662 0 -0.30556465915130049 -0.37878672010880632 0 -0.31584444426435099 -0.33885854849690661 0 -0.31761123230819888 -0.35495491541363489 0 -0.30121203899057297 -0.35757563047991892 0 -0.30121203899057297 -0.35757563047991892 0 -0.28008305596981448 -0.33814344090882043 0 -0.30121203899057297 -0.35757563047991892 0 -0.28081050546990233 -0.36348039131310539 0 -0.28008305596981448 -0.33814344090882043 0 -0.29484163223803678 -0.36978311311353662 0 -0.28081050546990233 -0.36348039131310539 0 -0.29037013545561169 -0.38055510458701541 0 -0.30121203899057297 -0.35757563047991892 0 -0.29484163223803678 -0.36978311311353662 0 -0.28081050546990233 -0.36348039131310539 0 -0.28081050546990233 -0.36348039131310539 0 -0.2588950241192306 -0.35306592533703213 0 -0.26942999121470212 -0.37995935712223378 0 -0.28081050546990233 -0.36348039131310539 0 -0.26942999121470212 -0.37995935712223378 0 -0.28081050546990233 -0.36348039131310539 0 -0.29037013545561169 -0.38055510458701541 0 -0.26942999121470212 -0.37995935712223378 0 -0.2503155090110683 -0.36625896225040039 0 -0.2588950241192306 -0.35306592533703213 0 -0.26942999121470212 -0.37995935712223378 0 -0.2588950241192306 -0.35306592533703213 0 -0.26942999121470212 -0.37995935712223378 0 -0.28081050546990233 -0.36348039131310539 0 -0.2588950241192306 -0.35306592533703213 0 -0.28008305596981448 -0.33814344090882043 0 -0.2588950241192306 -0.35306592533703213 0 -0.28008305596981448 -0.33814344090882043 0 -0.26292320095256932 -0.33559860816980658 0 -0.28008305596981448 -0.33814344090882043 0 -0.25895407294905581 -0.31871125133772182 0 -0.28008305596981448 -0.33814344090882043 0 -0.26292320095256932 -0.33559860816980658 0 -0.25895407294905581 -0.31871125133772182 0 -0.2588950241192306 -0.35306592533703213 0 -0.26292320095256932 -0.33559860816980658 0 -0.24836005702376021 -0.32617249355183009 0 -0.2588950241192306 -0.35306592533703213 0 -0.24836005702376021 -0.32617249355183009 0 -0.26292320095256932 -0.33559860816980658 0 -0.25895407294905581 -0.31871125133772182 0 -0.24836005702376021 -0.32617249355183009 0 -0.28008305596981448 -0.33814344090882043 0 -0.25895407294905581 -0.31871125133772182 0 -0.28273870017266278 -0.31717095039734278 0 -0.28273870017266278 -0.31717095039734278 0 -0.29911909825377941 -0.33283926758755888 0 -0.30046593584532438 -0.31581409644353942 0 -0.30121203899057297 -0.35757563047991892 0 -0.28008305596981448 -0.33814344090882043 0 -0.29911909825377941 -0.33283926758755888 0 -0.28008305596981448 -0.33814344090882043 0 -0.28273870017266278 -0.31717095039734278 0 -0.29911909825377941 -0.33283926758755888 0 -0.31701288711366149 -0.32240402384892353 0 -0.31584444426435099 -0.33885854849690661 0 -0.29911909825377941 -0.33283926758755888 0 -0.31584444426435099 -0.33885854849690661 0 -0.30121203899057297 -0.35757563047991892 0 -0.29911909825377941 -0.33283926758755888 0 -0.31701288711366149 -0.32240402384892353 0 -0.29911909825377941 -0.33283926758755888 0 -0.30046593584532438 -0.31581409644353942 0 -0.31701288711366149 -0.32240402384892353 0 -0.30046593584532438 -0.31581409644353942 0 -0.30991515307007661 -0.30168615568957668 0 -0.30046593584532438 -0.31581409644353942 0 -0.30991515307007661 -0.30168615568957668 0 -0.29102153294544147 -0.2972675529120824 0 -0.30991515307007661 -0.30168615568957668 0 -0.29102153294544147 -0.2972675529120824 0 -0.31034107885493167 -0.27414376672779323 0 -0.29102153294544147 -0.2972675529120824 0 -0.28256824031174949 -0.2742724088468087 0 -0.31034107885493167 -0.27414376672779323 0 -0.29102153294544147 -0.2972675529120824 0 -0.28256824031174949 -0.2742724088468087 0 -0.28273870017266278 -0.31717095039734278 0 -0.30046593584532438 -0.31581409644353942 0 -0.29102153294544147 -0.2972675529120824 0 -0.28273870017266278 -0.31717095039734278 0 -0.29102153294544147 -0.2972675529120824 0 -0.2678895354199412 -0.29730471196520819 0 -0.25895407294905581 -0.31871125133772182 0 -0.28273870017266278 -0.31717095039734278 0 -0.2678895354199412 -0.29730471196520819 0 -0.25895407294905581 -0.31871125133772182 0 -0.2678895354199412 -0.29730471196520819 0 -0.23782508992829429 -0.29927906176662639 0 -0.2678895354199412 -0.29730471196520819 0 -0.25556737118846129 -0.2777034208580284 0 -0.23782508992829429 -0.29927906176662639 0 -0.29102153294544147 -0.2972675529120824 0 -0.2678895354199412 -0.29730471196520819 0 -0.28256824031174949 -0.2742724088468087 0 -0.2678895354199412 -0.29730471196520819 0 -0.25556737118846129 -0.2777034208580284 0 -0.28256824031174949 -0.2742724088468087 0 -0.25556737118846129 -0.2777034208580284 0 -0.26062413518602789 -0.26090660968127988 0 -0.28256824031174949 -0.2742724088468087 0 -0.26062413518602789 -0.26090660968127988 0 -0.2393768668894786 -0.25582451898022163 0 -0.2581986285306509 -0.2447208203320011 0 -0.25556737118846129 -0.2777034208580284 0 -0.26062413518602789 -0.26090660968127988 0 -0.2393768668894786 -0.25582451898022163 0 -0.26062413518602789 -0.26090660968127988 0 -0.27411494767805761 -0.25127726478153489 0 -0.2581986285306509 -0.2447208203320011 0 -0.26062413518602789 -0.26090660968127988 0 -0.27411494767805761 -0.25127726478153489 0 -0.28256824031174949 -0.2742724088468087 0 -0.27411494767805761 -0.25127726478153489 0 -0.28256824031174949 -0.2742724088468087 0 -0.27411494767805761 -0.25127726478153489 0 -0.29338529096400301 -0.25771546205265577 0 -0.28256824031174949 -0.2742724088468087 0 -0.29338529096400301 -0.25771546205265577 0 -0.28256824031174949 -0.2742724088468087 0 -0.31034107885493167 -0.27414376672779323 0 -0.29338529096400301 -0.25771546205265577 0 -0.31224782762896908 -0.25694043905287578 0 -0.30066928905000129 -0.2428974283370558 0 -0.29338529096400301 -0.25771546205265577 0 -0.31034107885493167 -0.27414376672779323 0 -0.31224782762896908 -0.25694043905287578 0 -0.32429330855498523 -0.45430399770136121 0 -0.3309604670398717 -0.47646953553283511 0 -0.34397771396762461 -0.45646607793899241 0 -0.32429330855498523 -0.45430399770136121 0 -0.34397771396762461 -0.45646607793899241 0 -0.34276266808960082 -0.43574294500490612 0 -0.32429330855498523 -0.45430399770136121 0 -0.34276266808960082 -0.43574294500490612 0 -0.32017161180505449 -0.4296277099892265 0 -0.32429330855498523 -0.45430399770136121 0 -0.34276266808960082 -0.43574294500490612 0 -0.32429330855498523 -0.45430399770136121 0 -0.32017161180505449 -0.4296277099892265 0 -0.29672545956894841 -0.44963862707892099 0 -0.32429330855498523 -0.45430399770136121 0 -0.30597565035569507 -0.47325231022278541 0 -0.32429330855498523 -0.45430399770136121 0 -0.3309604670398717 -0.47646953553283511 0 -0.30597565035569507 -0.47325231022278541 0 -0.31645352591778048 -0.49999999999999872 0 -0.3309604670398717 -0.47646953553283511 0 -0.30597565035569507 -0.47325231022278541 0 -0.31645352591778048 -0.49999999999999872 0 -0.34165435450910431 -0.50000000000000377 0 -0.3309604670398717 -0.47646953553283511 0 -0.34165435450910431 -0.50000000000000377 0 -0.3309604670398717 -0.47646953553283511 0 -0.35266219025924178 -0.47504722480434369 0 -0.3309604670398717 -0.47646953553283511 0 -0.35266219025924178 -0.47504722480434369 0 -0.34397771396762461 -0.45646607793899241 0 -0.34165435450910431 -0.50000000000000377 0 -0.35266219025924178 -0.47504722480434369 0 -0.34165435450910431 -0.50000000000000377 0 -0.35266219025924178 -0.47504722480434369 0 -0.36495304448370319 -0.48465205529135491 0 -0.34165435450910431 -0.50000000000000377 0 -0.37025894555823341 -0.5 0 -0.36495304448370319 -0.48465205529135491 0 -0.38866249699820049 -0.48363940847260178 0 -0.37025894555823341 -0.5 0 -0.36495304448370319 -0.48465205529135491 0 -0.38866249699820049 -0.48363940847260178 0 -0.36495304448370319 -0.48465205529135491 0 -0.36754531370280219 -0.4700663554132325 0 -0.35266219025924178 -0.47504722480434369 0 -0.36495304448370319 -0.48465205529135491 0 -0.36754531370280219 -0.4700663554132325 0 -0.35266219025924178 -0.47504722480434369 0 -0.36754531370280219 -0.4700663554132325 0 -0.36367002600937809 -0.45009444960868289 0 -0.37948549180955898 -0.46178005315813342 0 -0.36754531370280219 -0.4700663554132325 0 -0.36367002600937809 -0.45009444960868289 0 -0.35266219025924178 -0.47504722480434369 0 -0.34397771396762461 -0.45646607793899241 0 -0.36367002600937809 -0.45009444960868289 0 -0.35266219025924178 -0.47504722480434369 0 -0.36367002600937809 -0.45009444960868289 0 -0.34397771396762461 -0.45646607793899241 0 -0.36367002600937809 -0.45009444960868289 0 -0.34276266808960082 -0.43574294500490612 0 -0.36367002600937809 -0.45009444960868289 0 -0.37467786175951029 -0.42514167441302059 0 -0.37850361487224571 -0.44656369719318167 0 -0.37948549180955898 -0.46178005315813342 0 -0.36367002600937809 -0.45009444960868289 0 -0.37850361487224571 -0.44656369719318167 0 -0.36367002600937809 -0.45009444960868289 0 -0.37467786175951029 -0.42514167441302059 0 -0.36367002600937809 -0.45009444960868289 0 -0.36795769594655742 -0.42597539617260222 0 -0.37467786175951029 -0.42514167441302059 0 -0.36795769594655742 -0.42597539617260222 0 -0.37467786175951029 -0.42514167441302059 0 -0.37034854734929579 -0.4211600318394465 0 -0.36795769594655742 -0.42597539617260222 0 -0.37034854734929579 -0.4211600318394465 0 -0.37467786175951029 -0.42514167441302059 0 -0.37034854734929579 -0.4211600318394465 0 -0.37892870089931707 -0.4038789221349901 0 -0.37034854734929579 -0.4211600318394465 0 -0.35690927619069329 -0.40880002073078098 0 -0.37892870089931707 -0.4038789221349901 0 -0.37034854734929579 -0.4211600318394465 0 -0.37034854734929579 -0.4211600318394465 0 -0.36123202762421641 -0.41718189230845099 0 -0.35690927619069329 -0.40880002073078098 0 -0.36795769594655742 -0.42597539617260222 0 -0.37034854734929579 -0.4211600318394465 0 -0.36123202762421641 -0.41718189230845099 0 -0.37034854734929579 -0.4211600318394465 0 -0.35690927619069329 -0.40880002073078098 0 -0.36123202762421641 -0.41718189230845099 0 -0.35690927619069329 -0.40880002073078098 0 -0.34865199484583342 -0.41679766830964782 0 -0.34639167748351402 -0.40923264828897232 0 -0.34865199484583342 -0.41679766830964782 0 -0.33653543386543888 -0.41489289449334449 0 -0.35690927619069329 -0.40880002073078098 0 -0.34639167748351402 -0.40923264828897232 0 -0.34865199484583342 -0.41679766830964782 0 -0.36123202762421641 -0.41718189230845099 0 -0.34865199484583342 -0.41679766830964782 0 -0.34276266808960082 -0.43574294500490612 0 -0.36367002600937809 -0.45009444960868289 0 -0.36795769594655742 -0.42597539617260222 0 -0.34276266808960082 -0.43574294500490612 0 -0.36123202762421641 -0.41718189230845099 0 -0.34276266808960082 -0.43574294500490612 0 -0.36795769594655742 -0.42597539617260222 0 -0.36123202762421641 -0.41718189230845099 0 -0.34276266808960082 -0.43574294500490612 0 -0.35809495027582222 -0.37374339601652612 0 -0.37158788119171299 -0.37582068762881671 0 -0.36548942974071619 -0.3915189110263248 0 -0.38261724061142721 -0.3791310180187335 0 -0.37158788119171299 -0.37582068762881671 0 -0.36548942974071619 -0.3915189110263248 0 -0.37892870089931707 -0.4038789221349901 0 -0.35690927619069329 -0.40880002073078098 0 -0.36548942974071619 -0.3915189110263248 0 -0.35690927619069329 -0.40880002073078098 0 -0.36548942974071619 -0.3915189110263248 0 -0.34347000503209207 -0.39644000962211418 0 -0.36548942974071619 -0.3915189110263248 0 -0.34347000503209207 -0.39644000962211418 0 -0.35690927619069329 -0.40880002073078098 0 -0.34639167748351402 -0.40923264828897232 0 -0.34347000503209207 -0.39644000962211418 0 -0.35690927619069329 -0.40880002073078098 0 -0.34347000503209207 -0.39644000962211418 0 -0.35809495027582222 -0.37374339601652612 0 -0.34156632930004283 -0.37300361994040698 0 -0.34347000503209207 -0.39644000962211418 0 -0.35809495027582222 -0.37374339601652612 0 -0.36548942974071619 -0.3915189110263248 0 -0.34347000503209207 -0.39644000962211418 0 -0.34347000503209207 -0.39644000962211418 0 -0.32234102201133169 -0.37700782005101752 0 -0.34156632930004283 -0.37300361994040698 0 -0.34347000503209207 -0.39644000962211418 0 -0.32234102201133169 -0.37700782005101752 0 -0.34347000503209207 -0.39644000962211418 0 -0.317496520034734 -0.402244797087707 0 -0.34347000503209207 -0.39644000962211418 0 -0.317496520034734 -0.402244797087707 0 -0.33653543386543888 -0.41489289449334449 0 -0.34347000503209207 -0.39644000962211418 0 -0.317496520034734 -0.402244797087707 0 -0.32234102201133169 -0.37700782005101752 0 -0.317496520034734 -0.402244797087707 0 -0.32234102201133169 -0.37700782005101752 0 -0.30556465915130049 -0.37878672010880632 0 -0.34865199484583342 -0.41679766830964782 0 -0.34276266808960082 -0.43574294500490612 0 -0.33653543386543888 -0.41489289449334449 0 -0.34276266808960082 -0.43574294500490612 0 -0.33653543386543888 -0.41489289449334449 0 -0.32017161180505449 -0.4296277099892265 0 -0.34639167748351402 -0.40923264828897232 0 -0.34347000503209207 -0.39644000962211418 0 -0.33653543386543888 -0.41489289449334449 0 -0.317496520034734 -0.402244797087707 0 -0.32017161180505449 -0.4296277099892265 0 -0.30270871931272908 -0.42319458449383618 0 -0.317496520034734 -0.402244797087707 0 -0.33653543386543888 -0.41489289449334449 0 -0.32017161180505449 -0.4296277099892265 0 -0.32017161180505449 -0.4296277099892265 0 -0.30270871931272908 -0.42319458449383618 0 -0.29672545956894841 -0.44963862707892099 0 -0.317496520034734 -0.402244797087707 0 -0.30270871931272908 -0.42319458449383618 0 -0.29152303503737631 -0.4080495845533012 0 -0.29152303503737631 -0.4080495845533012 0 -0.28762697011753258 -0.42641220376002542 0 -0.2785284806661168 -0.40318578044112968 0 -0.30270871931272908 -0.42319458449383618 0 -0.29152303503737631 -0.4080495845533012 0 -0.28762697011753258 -0.42641220376002542 0 -0.28762697011753258 -0.42641220376002542 0 -0.2785284806661168 -0.40318578044112968 0 -0.30270871931272908 -0.42319458449383618 0 -0.28762697011753258 -0.42641220376002542 0 -0.29672545956894841 -0.44963862707892099 0 -0.30556465915130049 -0.37878672010880632 0 -0.29900967244129978 -0.39284252497351368 0 -0.29037013545561169 -0.38055510458701541 0 -0.317496520034734 -0.402244797087707 0 -0.30556465915130049 -0.37878672010880632 0 -0.29900967244129978 -0.39284252497351368 0 -0.317496520034734 -0.402244797087707 0 -0.29152303503737631 -0.4080495845533012 0 -0.29900967244129978 -0.39284252497351368 0 -0.317496520034734 -0.402244797087707 0 -0.29152303503737631 -0.4080495845533012 0 -0.29152303503737631 -0.4080495845533012 0 -0.28577226296302111 -0.39291847033543892 0 -0.2785284806661168 -0.40318578044112968 0 -0.29152303503737631 -0.4080495845533012 0 -0.29900967244129978 -0.39284252497351368 0 -0.28577226296302111 -0.39291847033543892 0 -0.28577226296302111 -0.39291847033543892 0 -0.29037013545561169 -0.38055510458701541 0 -0.26942999121470212 -0.37995935712223378 0 -0.29900967244129978 -0.39284252497351368 0 -0.28577226296302111 -0.39291847033543892 0 -0.29037013545561169 -0.38055510458701541 0 -0.29484163223803678 -0.36978311311353662 0 -0.30556465915130049 -0.37878672010880632 0 -0.29037013545561169 -0.38055510458701541 0 -0.26942999121470212 -0.37995935712223378 0 -0.26883293235450528 -0.39799703745830911 0 -0.25997919002844572 -0.39364410160081209 0 -0.26942999121470212 -0.37995935712223378 0 -0.26883293235450528 -0.39799703745830911 0 -0.2785284806661168 -0.40318578044112968 0 -0.26942999121470212 -0.37995935712223378 0 -0.2785284806661168 -0.40318578044112968 0 -0.28577226296302111 -0.39291847033543892 0 -0.26942999121470212 -0.37995935712223378 0 -0.2785284806661168 -0.40318578044112968 0 -0.26883293235450528 -0.39799703745830911 0 -0.26400100313782332 -0.40504119886049339 0 -0.27222599672543751 -0.40815474926687589 0 -0.26883293235450528 -0.39799703745830911 0 -0.2785284806661168 -0.40318578044112968 0 -0.27222599672543751 -0.40815474926687589 0 -0.25457300195326749 -0.40147225298754369 0 -0.25997919002844572 -0.39364410160081209 0 -0.24583051340353329 -0.38574620816565952 0 -0.26400100313782332 -0.40504119886049339 0 -0.25997919002844572 -0.39364410160081209 0 -0.26400100313782332 -0.40504119886049339 0 -0.25457300195326749 -0.40147225298754369 0 -0.26883293235450528 -0.39799703745830911 0 -0.26400100313782332 -0.40504119886049339 0 -0.25997919002844572 -0.39364410160081209 0 -0.26400100313782332 -0.40504119886049339 0 -0.25457300195326749 -0.40147225298754369 0 -0.25997919002844572 -0.39364410160081209 0 -0.26400100313782332 -0.40504119886049339 0 -0.25457300195326749 -0.40147225298754369 0 -0.25639874903274879 -0.40908475451765908 0 -0.25457300195326749 -0.40147225298754369 0 -0.24936398468376089 -0.40901490137394142 0 -0.25457300195326749 -0.40147225298754369 0 -0.25997919002844572 -0.39364410160081209 0 -0.2503155090110683 -0.36625896225040039 0 -0.26942999121470212 -0.37995935712223378 0 -0.25997919002844572 -0.39364410160081209 0 -0.2503155090110683 -0.36625896225040039 0 -0.25997919002844572 -0.39364410160081209 0 -0.2503155090110683 -0.36625896225040039 0 -0.25997919002844572 -0.39364410160081209 0 -0.24583051340353329 -0.38574620816565952 0 -0.26942999121470212 -0.37995935712223378 0 -0.25997919002844572 -0.39364410160081209 0 -0.28762697011753258 -0.42641220376002542 0 -0.27098024041238422 -0.4335429247157655 0 -0.26947944797133222 -0.42056612925910619 0 -0.28762697011753258 -0.42641220376002542 0 -0.2785284806661168 -0.40318578044112968 0 -0.27222599672543751 -0.40815474926687589 0 -0.28762697011753258 -0.42641220376002542 0 -0.27222599672543751 -0.40815474926687589 0 -0.26947944797133222 -0.42056612925910619 0 -0.26400100313782332 -0.40504119886049339 0 -0.27222599672543751 -0.40815474926687589 0 -0.26947944797133222 -0.42056612925910619 0 -0.26400100313782332 -0.40504119886049339 0 -0.27222599672543751 -0.40815474926687589 0 -0.26400100313782332 -0.40504119886049339 0 -0.26947944797133222 -0.42056612925910619 0 -0.27098024041238422 -0.4335429247157655 0 -0.25360865652048759 -0.41383134188966619 0 -0.25554239660400968 -0.41413572411211408 0 -0.26947944797133222 -0.42056612925910619 0 -0.26132995532231501 -0.41162221186441422 0 -0.25554239660400968 -0.41413572411211408 0 -0.26400100313782332 -0.40504119886049339 0 -0.26947944797133222 -0.42056612925910619 0 -0.26132995532231501 -0.41162221186441422 0 -0.26400100313782332 -0.40504119886049339 0 -0.26132995532231501 -0.41162221186441422 0 -0.25639874903274879 -0.40908475451765908 0 -0.25639874903274879 -0.40908475451765908 0 -0.25360865652048759 -0.41383134188966619 0 -0.25554239660400968 -0.41413572411211408 0 -0.26132995532231501 -0.41162221186441422 0 -0.25639874903274879 -0.40908475451765908 0 -0.25554239660400968 -0.41413572411211408 0 -0.25360865652048759 -0.41383134188966619 0 -0.25554239660400968 -0.41413572411211408 0 -0.25639874903274879 -0.40908475451765908 0 -0.25360865652048759 -0.41383134188966619 0 -0.24936398468376089 -0.40901490137394142 0 -0.25360865652048759 -0.41383134188966619 0 -0.24936398468376089 -0.40901490137394142 0 -0.25360865652048759 -0.41383134188966619 0 -0.24678002260771009 -0.41275647418414141 0 -0.25457300195326749 -0.40147225298754369 0 -0.25639874903274879 -0.40908475451765908 0 -0.24936398468376089 -0.40901490137394142 0 -0.25360865652048759 -0.41383134188966619 0 -0.2513073026449652 -0.42602055735538502 0 -0.24678002260771009 -0.41275647418414141 0 -0.27098024041238422 -0.4335429247157655 0 -0.2513073026449652 -0.42602055735538502 0 -0.24803200348614721 -0.44325044963363558 0 -0.27098024041238422 -0.4335429247157655 0 -0.25360865652048759 -0.41383134188966619 0 -0.2513073026449652 -0.42602055735538502 0 -0.27098024041238422 -0.4335429247157655 0 -0.25360865652048759 -0.41383134188966619 0 -0.27098024041238422 -0.4335429247157655 0 -0.26947944797133222 -0.42056612925910619 0 -0.25554239660400968 -0.41413572411211408 0 -0.27098024041238422 -0.4335429247157655 0 -0.26603916174807168 -0.45355071126704632 0 -0.24803200348614721 -0.44325044963363558 0 -0.26603916174807168 -0.45355071126704632 0 -0.27315608891438581 -0.47326791987504341 0 -0.24967565162316011 -0.46443775456892189 0 -0.26603916174807168 -0.45355071126704632 0 -0.24803200348614721 -0.44325044963363558 0 -0.24967565162316011 -0.46443775456892189 0 -0.26603916174807168 -0.45355071126704632 0 -0.28835182430428091 -0.45325450754186458 0 -0.27315608891438581 -0.47326791987504341 0 -0.27098024041238422 -0.4335429247157655 0 -0.26603916174807168 -0.45355071126704632 0 -0.28835182430428091 -0.45325450754186458 0 -0.27098024041238422 -0.4335429247157655 0 -0.28835182430428091 -0.45325450754186458 0 -0.28762697011753258 -0.42641220376002542 0 -0.29672545956894841 -0.44963862707892099 0 -0.28762697011753258 -0.42641220376002542 0 -0.29672545956894841 -0.44963862707892099 0 -0.28835182430428091 -0.45325450754186458 0 -0.28762697011753258 -0.42641220376002542 0 -0.27098024041238422 -0.4335429247157655 0 -0.28835182430428091 -0.45325450754186458 0 -0.29672545956894841 -0.44963862707892099 0 -0.28835182430428091 -0.45325450754186458 0 -0.30597565035569507 -0.47325231022278541 0 -0.32429330855498523 -0.45430399770136121 0 -0.29672545956894841 -0.44963862707892099 0 -0.30597565035569507 -0.47325231022278541 0 -0.29672545956894841 -0.44963862707892099 0 -0.30597565035569507 -0.47325231022278541 0 -0.28835182430428091 -0.45325450754186458 0 -0.30597565035569507 -0.47325231022278541 0 -0.31645352591778048 -0.49999999999999872 0 -0.30546213926421439 -0.49149596378984511 0 -0.30597565035569507 -0.47325231022278541 0 -0.31645352591778048 -0.49999999999999872 0 -0.29763828713491719 -0.5 0 -0.30546213926421439 -0.49149596378984511 0 -0.31645352591778048 -0.49999999999999872 0 -0.30597565035569507 -0.47325231022278541 0 -0.29886604026976837 -0.49176185566115899 0 -0.30077510978466471 -0.48365446067294049 0 -0.29663652620561121 -0.48209808518116559 0 -0.29886604026976837 -0.49176185566115899 0 -0.30546213926421439 -0.49149596378984511 0 -0.30077510978466471 -0.48365446067294049 0 -0.29886604026976837 -0.49176185566115899 0 -0.29763828713491719 -0.5 0 -0.30546213926421439 -0.49149596378984511 0 -0.30546213926421439 -0.49149596378984511 0 -0.30597565035569507 -0.47325231022278541 0 -0.30077510978466471 -0.48365446067294049 0 -0.28835182430428091 -0.45325450754186458 0 -0.30597565035569507 -0.47325231022278541 0 -0.29663652620561121 -0.48209808518116559 0 -0.30597565035569507 -0.47325231022278541 0 -0.30077510978466471 -0.48365446067294049 0 -0.29663652620561121 -0.48209808518116559 0 -0.30597565035569507 -0.47325231022278541 0 -0.29663652620561121 -0.48209808518116559 0 -0.30077510978466471 -0.48365446067294049 0 -0.29663652620561121 -0.48209808518116559 0 -0.28835182430428091 -0.45325450754186458 0 -0.29663652620561121 -0.48209808518116559 0 -0.27315608891438581 -0.47326791987504341 0 -0.29663652620561121 -0.48209808518116559 0 -0.27315608891438581 -0.47326791987504341 0 -0.29663652620561121 -0.48209808518116559 0 -0.27882304835205379 -0.49999999999999861 0 -0.27315608891438581 -0.47326791987504341 0 -0.29663652620561121 -0.48209808518116559 0 -0.27882304835205379 -0.49999999999999861 0 -0.29886604026976837 -0.49176185566115899 0 -0.29763828713491719 -0.5 0 -0.27882304835205379 -0.49999999999999861 0 -0.29886604026976837 -0.49176185566115899 0 -0.29663652620561121 -0.48209808518116559 0 -0.27882304835205379 -0.49999999999999861 0 -0.27882304835205379 -0.49999999999999861 0 -0.27315608891438581 -0.47326791987504341 0 -0.25805537839550291 -0.48319963358769691 0 -0.27315608891438581 -0.47326791987504341 0 -0.25805537839550291 -0.48319963358769691 0 -0.24967565162316011 -0.46443775456892189 0 -0.27315608891438581 -0.47326791987504341 0 -0.24967565162316011 -0.46443775456892189 0 -0.27882304835205379 -0.49999999999999861 0 -0.25805537839550291 -0.48319963358769691 0 -0.25376710832155408 -0.5 0 -0.25805537839550291 -0.48319963358769691 0 -0.25376710832155408 -0.5 0 -0.23776480226711599 -0.48137669137235389 0 -0.25376710832155408 -0.5 0 -0.23776480226711599 -0.48137669137235389 0 -0.22871116829105451 -0.5 0 -0.25805537839550291 -0.48319963358769691 0 -0.23776480226711599 -0.48137669137235389 0 -0.24967565162316011 -0.46443775456892189 0 -0.23776480226711599 -0.48137669137235389 0 -0.22619521433193451 -0.45560758926280048 0 -0.21727530431572201 -0.47838062960515482 0 -0.23776480226711599 -0.48137669137235389 0 -0.22871116829105451 -0.5 0 -0.21727530431572201 -0.47838062960515482 0 -0.24803200348614721 -0.44325044963363558 0 -0.2363608392132957 -0.4489738040625153 0 -0.22749115778848469 -0.44068671852329078 0 -0.24803200348614721 -0.44325044963363558 0 -0.2363608392132957 -0.4489738040625153 0 -0.24967565162316011 -0.46443775456892189 0 -0.23776480226711599 -0.48137669137235389 0 -0.24967565162316011 -0.46443775456892189 0 -0.22619521433193451 -0.45560758926280048 0 -0.24967565162316011 -0.46443775456892189 0 -0.22619521433193451 -0.45560758926280048 0 -0.2363608392132957 -0.4489738040625153 0 -0.24967565162316011 -0.46443775456892189 0 -0.22619521433193451 -0.45560758926280048 0 -0.2363608392132957 -0.4489738040625153 0 -0.22619521433193451 -0.45560758926280048 0 -0.22749115778848469 -0.44068671852329078 0 -0.22619521433193451 -0.45560758926280048 0 -0.22749115778848469 -0.44068671852329078 0 -0.21668064952434399 -0.44183244646805209 0 -0.22619521433193451 -0.45560758926280048 0 -0.20271477704070881 -0.44677742395667908 0 -0.22619521433193451 -0.45560758926280048 0 -0.21668064952434399 -0.44183244646805209 0 -0.20271477704070881 -0.44677742395667908 0 -0.21668064952434399 -0.44183244646805209 0 -0.20271477704070881 -0.44677742395667908 0 -0.20157088559986211 -0.42664288526034599 0 -0.22619521433193451 -0.45560758926280048 0 -0.2077174257130435 -0.46362839105083442 0 -0.21727530431572201 -0.47838062960515482 0 -0.22619521433193451 -0.45560758926280048 0 -0.2077174257130435 -0.46362839105083442 0 -0.20271477704070881 -0.44677742395667908 0 -0.2077174257130435 -0.46362839105083442 0 -0.1903347107458154 -0.45949285307961357 0 -0.19644913975576631 -0.47655003398704732 0 -0.2077174257130435 -0.46362839105083442 0 -0.1903347107458154 -0.45949285307961357 0 -0.20271477704070881 -0.44677742395667908 0 -0.20271477704070881 -0.44677742395667908 0 -0.1792343397494833 -0.4379472586505575 0 -0.1903347107458154 -0.45949285307961357 0 -0.20271477704070881 -0.44677742395667908 0 -0.1792343397494833 -0.4379472586505575 0 -0.22871116829105451 -0.5 0 -0.2036552282605549 -0.5 0 -0.21727530431572201 -0.47838062960515482 0 -0.2036552282605549 -0.5 0 -0.21727530431572201 -0.47838062960515482 0 -0.19644913975576631 -0.47655003398704732 0 -0.2077174257130435 -0.46362839105083442 0 -0.21727530431572201 -0.47838062960515482 0 -0.19644913975576631 -0.47655003398704732 0 -0.1903347107458154 -0.45949285307961357 0 -0.19644913975576631 -0.47655003398704732 0 -0.18254986142167171 -0.47250762702819399 0 -0.19644913975576631 -0.47655003398704732 0 -0.1848194943864796 -0.48601995336435128 0 -0.18254986142167171 -0.47250762702819399 0 -0.2036552282605549 -0.5 0 -0.17859928823005539 -0.49999999999999811 0 -0.1848194943864796 -0.48601995336435128 0 -0.2036552282605549 -0.5 0 -0.19644913975576631 -0.47655003398704732 0 -0.1848194943864796 -0.48601995336435128 0 -0.17859928823005539 -0.49999999999999811 0 -0.1848194943864796 -0.48601995336435128 0 -0.16745110183895279 -0.48114550895818192 0 -0.17859928823005539 -0.49999999999999811 0 -0.15830312108087949 -0.48320388767478778 0 -0.17859928823005539 -0.49999999999999811 0 -0.15830312108087949 -0.48320388767478778 0 -0.1528247458873413 -0.5 0 -0.17859928823005539 -0.49999999999999811 0 -0.15830312108087949 -0.48320388767478778 0 -0.16745110183895279 -0.48114550895818192 0 -0.16745110183895279 -0.48114550895818192 0 -0.1733427207942187 -0.45954638380436991 0 -0.16745110183895279 -0.48114550895818192 0 -0.1733427207942187 -0.45954638380436991 0 -0.15834845913200249 -0.46798375572992229 0 -0.15830312108087949 -0.48320388767478778 0 -0.16745110183895279 -0.48114550895818192 0 -0.15834845913200249 -0.46798375572992229 0 -0.1848194943864796 -0.48601995336435128 0 -0.16745110183895279 -0.48114550895818192 0 -0.18254986142167171 -0.47250762702819399 0 -0.16745110183895279 -0.48114550895818192 0 -0.18254986142167171 -0.47250762702819399 0 -0.1733427207942187 -0.45954638380436991 0 -0.1903347107458154 -0.45949285307961357 0 -0.18254986142167171 -0.47250762702819399 0 -0.1733427207942187 -0.45954638380436991 0 -0.1733427207942187 -0.45954638380436991 0 -0.1792343397494833 -0.4379472586505575 0 -0.1903347107458154 -0.45949285307961357 0 -0.1733427207942187 -0.45954638380436991 0 -0.1792343397494833 -0.4379472586505575 0 -0.1733427207942187 -0.45954638380436991 0 -0.1792343397494833 -0.4379472586505575 0 -0.1546383980142591 -0.44961522286269312 0 -0.1792343397494833 -0.4379472586505575 0 -0.1546383980142591 -0.44961522286269312 0 -0.15378023633796861 -0.42837486704408723 0 -0.1733427207942187 -0.45954638380436991 0 -0.15834845913200249 -0.46798375572992229 0 -0.1546383980142591 -0.44961522286269312 0 -0.15834845913200249 -0.46798375572992229 0 -0.1546383980142591 -0.44961522286269312 0 -0.13800695393170259 -0.46640777534957861 0 -0.1546383980142591 -0.44961522286269312 0 -0.13550590447972019 -0.44799312598095431 0 -0.13800695393170259 -0.46640777534957861 0 -0.1546383980142591 -0.44961522286269312 0 -0.14546083638061891 -0.43920940938131692 0 -0.15378023633796861 -0.42837486704408723 0 -0.1546383980142591 -0.44961522286269312 0 -0.14546083638061891 -0.43920940938131692 0 -0.13550590447972019 -0.44799312598095431 0 -0.13550590447972019 -0.44799312598095431 0 -0.13329008540230969 -0.43300678542596049 0 -0.11771078678252581 -0.44961166302436911 0 -0.13329008540230969 -0.43300678542596049 0 -0.11771078678252581 -0.44961166302436911 0 -0.14546083638061891 -0.43920940938131692 0 -0.13550590447972019 -0.44799312598095431 0 -0.13329008540230969 -0.43300678542596049 0 -0.13800695393170259 -0.46640777534957861 0 -0.11771078678252581 -0.44961166302436911 0 -0.13550590447972019 -0.44799312598095431 0 -0.13800695393170259 -0.46640777534957861 0 -0.11771078678252581 -0.44961166302436911 0 -0.13800695393170259 -0.46640777534957861 0 -0.1395367645409015 -0.48633341742226599 0 -0.1195753894195599 -0.48123147416630702 0 -0.13800695393170259 -0.46640777534957861 0 -0.1195753894195599 -0.48123147416630702 0 -0.11909264355961 -0.46496431345098987 0 -0.1270502035446272 -0.5 0 -0.1395367645409015 -0.48633341742226599 0 -0.1195753894195599 -0.48123147416630702 0 -0.1270502035446272 -0.5 0 -0.1395367645409015 -0.48633341742226599 0 -0.1528247458873413 -0.5 0 -0.15830312108087949 -0.48320388767478778 0 -0.1395367645409015 -0.48633341742226599 0 -0.1528247458873413 -0.5 0 -0.15830312108087949 -0.48320388767478778 0 -0.13800695393170259 -0.46640777534957861 0 -0.15830312108087949 -0.48320388767478778 0 -0.13800695393170259 -0.46640777534957861 0 -0.1395367645409015 -0.48633341742226599 0 -0.15830312108087949 -0.48320388767478778 0 -0.15834845913200249 -0.46798375572992229 0 -0.13800695393170259 -0.46640777534957861 0 -0.15044242195091301 -0.40233974525522698 0 -0.14886938402209651 -0.4164019078275546 0 -0.15826524180157181 -0.39882371976132169 0 -0.14536695466331731 -0.39625503070621082 0 -0.13274886960764071 -0.39254721408582349 0 -0.1465654676861157 -0.40935188304167203 0 -0.14536695466331731 -0.39625503070621082 0 -0.15044242195091301 -0.40233974525522698 0 -0.1465654676861157 -0.40935188304167203 0 -0.14536695466331731 -0.39625503070621082 0 -0.15044242195091301 -0.40233974525522698 0 -0.15314506158146399 -0.39086618493937592 0 -0.15044242195091301 -0.40233974525522698 0 -0.15314506158146399 -0.39086618493937592 0 -0.15826524180157181 -0.39882371976132169 0 -0.15314506158146399 -0.39086618493937592 0 -0.14221707737603989 -0.38226235982788243 0 -0.15777065578206681 -0.38261133883419579 0 -0.14221707737603989 -0.38226235982788243 0 -0.15777065578206681 -0.38261133883419579 0 -0.13874128687995971 -0.36348147253534269 0 -0.14536695466331731 -0.39625503070621082 0 -0.15314506158146399 -0.39086618493937592 0 -0.14221707737603989 -0.38226235982788243 0 -0.13274886960764071 -0.39254721408582349 0 -0.1189322715291658 -0.37574254512997513 0 -0.14536695466331731 -0.39625503070621082 0 -0.14221707737603989 -0.38226235982788243 0 -0.13274886960764071 -0.39254721408582349 0 -0.14221707737603989 -0.38226235982788243 0 -0.13274886960764071 -0.39254721408582349 0 -0.1189322715291658 -0.37574254512997513 0 -0.13274886960764071 -0.39254721408582349 0 -0.1465654676861157 -0.40935188304167203 0 -0.13274886960764071 -0.39254721408582349 0 -0.13673604589525801 -0.416465560928309 0 -0.1465654676861157 -0.40935188304167203 0 -0.13274886960764071 -0.39254721408582349 0 -0.13673604589525801 -0.416465560928309 0 -0.12302216387698379 -0.41305217270374361 0 -0.13673604589525801 -0.416465560928309 0 -0.13329008540230969 -0.43300678542596049 0 -0.12302216387698379 -0.41305217270374361 0 -0.13673604589525801 -0.416465560928309 0 -0.13329008540230969 -0.43300678542596049 0 -0.14886938402209651 -0.4164019078275546 0 -0.13329008540230969 -0.43300678542596049 0 -0.14886938402209651 -0.4164019078275546 0 -0.13329008540230969 -0.43300678542596049 0 -0.15378023633796861 -0.42837486704408723 0 -0.14886938402209651 -0.4164019078275546 0 -0.14546083638061891 -0.43920940938131692 0 -0.13329008540230969 -0.43300678542596049 0 -0.15378023633796861 -0.42837486704408723 0 -0.13673604589525801 -0.416465560928309 0 -0.1465654676861157 -0.40935188304167203 0 -0.14886938402209651 -0.4164019078275546 0 -0.15378023633796861 -0.42837486704408723 0 -0.14886938402209651 -0.4164019078275546 0 -0.15943440018006341 -0.41855278798581919 0 -0.15044242195091301 -0.40233974525522698 0 -0.1465654676861157 -0.40935188304167203 0 -0.14886938402209651 -0.4164019078275546 0 -0.14886938402209651 -0.4164019078275546 0 -0.1644486826418835 -0.39979703022914892 0 -0.14886938402209651 -0.4164019078275546 0 -0.1661066209085495 -0.41114227856987012 0 -0.1644486826418835 -0.39979703022914892 0 -0.14886938402209651 -0.4164019078275546 0 -0.15943440018006341 -0.41855278798581919 0 -0.1661066209085495 -0.41114227856987012 0 -0.16713194432478409 -0.42118252081583091 0 -0.1661066209085495 -0.41114227856987012 0 -0.17551669329384451 -0.41611523298157671 0 -0.15943440018006341 -0.41855278798581919 0 -0.16713194432478409 -0.42118252081583091 0 -0.1661066209085495 -0.41114227856987012 0 -0.1792343397494833 -0.4379472586505575 0 -0.15378023633796861 -0.42837486704408723 0 -0.16713194432478409 -0.42118252081583091 0 -0.1792343397494833 -0.4379472586505575 0 -0.15378023633796861 -0.42837486704408723 0 -0.15378023633796861 -0.42837486704408723 0 -0.15943440018006341 -0.41855278798581919 0 -0.16713194432478409 -0.42118252081583091 0 -0.1792343397494833 -0.4379472586505575 0 -0.16713194432478409 -0.42118252081583091 0 -0.17551669329384451 -0.41611523298157671 0 -0.1792343397494833 -0.4379472586505575 0 -0.1864611216753784 -0.4114533240526419 0 -0.1792343397494833 -0.4379472586505575 0 -0.17551669329384451 -0.41611523298157671 0 -0.1864611216753784 -0.4114533240526419 0 -0.1661066209085495 -0.41114227856987012 0 -0.17551669329384451 -0.41611523298157671 0 -0.17680002468417369 -0.40174120513304912 0 -0.17551669329384451 -0.41611523298157671 0 -0.1864611216753784 -0.4114533240526419 0 -0.17680002468417369 -0.40174120513304912 0 -0.1864611216753784 -0.4114533240526419 0 -0.17680002468417369 -0.40174120513304912 0 -0.1864611216753784 -0.4114533240526419 0 -0.18860351540757489 -0.40359914497183608 0 -0.17680002468417369 -0.40174120513304912 0 -0.1760824314182563 -0.38343941247340663 0 -0.18142044585569961 -0.389153187701751 0 -0.1864611216753784 -0.4114533240526419 0 -0.17680002468417369 -0.40174120513304912 0 -0.18860351540757489 -0.40359914497183608 0 -0.18356164881925921 -0.39606881995878213 0 -0.17680002468417369 -0.40174120513304912 0 -0.18860351540757489 -0.40359914497183608 0 -0.18356164881925921 -0.39606881995878213 0 -0.18707024489676749 -0.38764829741496448 0 -0.18860351540757489 -0.40359914497183608 0 -0.17680002468417369 -0.40174120513304912 0 -0.18860351540757489 -0.40359914497183608 0 -0.18356164881925921 -0.39606881995878213 0 -0.17680002468417369 -0.40174120513304912 0 -0.18142044585569961 -0.389153187701751 0 -0.18356164881925921 -0.39606881995878213 0 -0.18707024489676749 -0.38764829741496448 0 -0.18142044585569961 -0.389153187701751 0 -0.17680002468417369 -0.40174120513304912 0 -0.15777065578206681 -0.38261133883419579 0 -0.17680002468417369 -0.40174120513304912 0 -0.1644486826418835 -0.39979703022914892 0 -0.15777065578206681 -0.38261133883419579 0 -0.14886938402209651 -0.4164019078275546 0 -0.1644486826418835 -0.39979703022914892 0 -0.15826524180157181 -0.39882371976132169 0 -0.1661066209085495 -0.41114227856987012 0 -0.17680002468417369 -0.40174120513304912 0 -0.1644486826418835 -0.39979703022914892 0 -0.17680002468417369 -0.40174120513304912 0 -0.1644486826418835 -0.39979703022914892 0 -0.15314506158146399 -0.39086618493937592 0 -0.1644486826418835 -0.39979703022914892 0 -0.15777065578206681 -0.38261133883419579 0 -0.15314506158146399 -0.39086618493937592 0 -0.1644486826418835 -0.39979703022914892 0 -0.15826524180157181 -0.39882371976132169 0 -0.1644486826418835 -0.39979703022914892 0 -0.15826524180157181 -0.39882371976132169 0 -0.17680002468417369 -0.40174120513304912 0 -0.15777065578206681 -0.38261133883419579 0 -0.16854958288626809 -0.38244049251401641 0 -0.15777065578206681 -0.38261133883419579 0 -0.16854958288626809 -0.38244049251401641 0 -0.1615252775151019 -0.36783926376064169 0 -0.16854958288626809 -0.38244049251401641 0 -0.1737708867924512 -0.37639033043819281 0 -0.1615252775151019 -0.36783926376064169 0 -0.17680002468417369 -0.40174120513304912 0 -0.16854958288626809 -0.38244049251401641 0 -0.1760824314182563 -0.38343941247340663 0 -0.1737708867924512 -0.37639033043819281 0 -0.1760824314182563 -0.38343941247340663 0 -0.18253063393902741 -0.38010434179123498 0 -0.16854958288626809 -0.38244049251401641 0 -0.1737708867924512 -0.37639033043819281 0 -0.1760824314182563 -0.38343941247340663 0 -0.1760824314182563 -0.38343941247340663 0 -0.18142044585569961 -0.389153187701751 0 -0.18253063393902741 -0.38010434179123498 0 -0.18707024489676749 -0.38764829741496448 0 -0.18142044585569961 -0.389153187701751 0 -0.18253063393902741 -0.38010434179123498 0 -0.18707024489676749 -0.38764829741496448 0 -0.18253063393902741 -0.38010434179123498 0 -0.1909098263475531 -0.37737271975784209 0 -0.18253063393902741 -0.38010434179123498 0 -0.1909098263475531 -0.37737271975784209 0 -0.18515441851144429 -0.37120018288987189 0 -0.1737708867924512 -0.37639033043819281 0 -0.18253063393902741 -0.38010434179123498 0 -0.18515441851144429 -0.37120018288987189 0 -0.18707024489676749 -0.38764829741496448 0 -0.19530363744044371 -0.37903598577356751 0 -0.18860351540757489 -0.40359914497183608 0 -0.18707024489676749 -0.38764829741496448 0 -0.1909098263475531 -0.37737271975784209 0 -0.19530363744044371 -0.37903598577356751 0 -0.19530363744044371 -0.37903598577356751 0 -0.18860351540757489 -0.40359914497183608 0 -0.21506009227805159 -0.38651474151155962 0 -0.1909098263475531 -0.37737271975784209 0 -0.19530363744044371 -0.37903598577356751 0 -0.1909098263475531 -0.37737271975784209 0 -0.19530363744044371 -0.37903598577356751 0 -0.19082292946682791 -0.37336622346805393 0 -0.19530363744044371 -0.37903598577356751 0 -0.18860351540757489 -0.40359914497183608 0 -0.18860351540757489 -0.40359914497183608 0 -0.2176917690076425 -0.40817780957798883 0 -0.18860351540757489 -0.40359914497183608 0 -0.21506009227805159 -0.38651474151155962 0 -0.2176917690076425 -0.40817780957798883 0 -0.19530363744044371 -0.37903598577356751 0 -0.21506009227805159 -0.38651474151155962 0 -0.20509729049418321 -0.37190518241196452 0 -0.19530363744044371 -0.37903598577356751 0 -0.21506009227805159 -0.38651474151155962 0 -0.21506009227805159 -0.38651474151155962 0 -0.20509729049418321 -0.37190518241196452 0 -0.21560586690307301 -0.37236644341257069 0 -0.1792343397494833 -0.4379472586505575 0 -0.1864611216753784 -0.4114533240526419 0 -0.20157088559986211 -0.42664288526034599 0 -0.20271477704070881 -0.44677742395667908 0 -0.1792343397494833 -0.4379472586505575 0 -0.20157088559986211 -0.42664288526034599 0 -0.1864611216753784 -0.4114533240526419 0 -0.18860351540757489 -0.40359914497183608 0 -0.20157088559986211 -0.42664288526034599 0 -0.18860351540757489 -0.40359914497183608 0 -0.20157088559986211 -0.42664288526034599 0 -0.2176917690076425 -0.40817780957798883 0 -0.1864611216753784 -0.4114533240526419 0 -0.20157088559986211 -0.42664288526034599 0 -0.20157088559986211 -0.42664288526034599 0 -0.2176917690076425 -0.40817780957798883 0 -0.22019978712324739 -0.42786206699448998 0 -0.21668064952434399 -0.44183244646805209 0 -0.20157088559986211 -0.42664288526034599 0 -0.22019978712324739 -0.42786206699448998 0 -0.21668064952434399 -0.44183244646805209 0 -0.20157088559986211 -0.42664288526034599 0 -0.22749115778848469 -0.44068671852329078 0 -0.22019978712324739 -0.42786206699448998 0 -0.23713559019809699 -0.42672159635371582 0 -0.22749115778848469 -0.44068671852329078 0 -0.23713559019809699 -0.42672159635371582 0 -0.22749115778848469 -0.44068671852329078 0 -0.21668064952434399 -0.44183244646805209 0 -0.22019978712324739 -0.42786206699448998 0 -0.2176917690076425 -0.40817780957798883 0 -0.24678002260771009 -0.41275647418414141 0 -0.23713559019809699 -0.42672159635371582 0 -0.2176917690076425 -0.40817780957798883 0 -0.22019978712324739 -0.42786206699448998 0 -0.23713559019809699 -0.42672159635371582 0 -0.2176917690076425 -0.40817780957798883 0 -0.24678002260771009 -0.41275647418414141 0 -0.25360865652048759 -0.41383134188966619 0 -0.24936398468376089 -0.40901490137394142 0 -0.24678002260771009 -0.41275647418414141 0 -0.24936398468376089 -0.40901490137394142 0 -0.24678002260771009 -0.41275647418414141 0 -0.2513073026449652 -0.42602055735538502 0 -0.24678002260771009 -0.41275647418414141 0 -0.23713559019809699 -0.42672159635371582 0 -0.24678002260771009 -0.41275647418414141 0 -0.23713559019809699 -0.42672159635371582 0 -0.24803200348614721 -0.44325044963363558 0 -0.22749115778848469 -0.44068671852329078 0 -0.23713559019809699 -0.42672159635371582 0 -0.2513073026449652 -0.42602055735538502 0 -0.24803200348614721 -0.44325044963363558 0 -0.23713559019809699 -0.42672159635371582 0 -0.21506009227805159 -0.38651474151155962 0 -0.23481654711565961 -0.39399349724955168 0 -0.21506009227805159 -0.38651474151155962 0 -0.23481654711565961 -0.39399349724955168 0 -0.22946831890922509 -0.37336222673998948 0 -0.21506009227805159 -0.38651474151155962 0 -0.22946831890922509 -0.37336222673998948 0 -0.21560586690307301 -0.37236644341257069 0 -0.21506009227805159 -0.38651474151155962 0 -0.2176917690076425 -0.40817780957798883 0 -0.23481654711565961 -0.39399349724955168 0 -0.2176917690076425 -0.40817780957798883 0 -0.24678002260771009 -0.41275647418414141 0 -0.23481654711565961 -0.39399349724955168 0 -0.24936398468376089 -0.40901490137394142 0 -0.24678002260771009 -0.41275647418414141 0 -0.23481654711565961 -0.39399349724955168 0 -0.25457300195326749 -0.40147225298754369 0 -0.23481654711565961 -0.39399349724955168 0 -0.24583051340353329 -0.38574620816565952 0 -0.25457300195326749 -0.40147225298754369 0 -0.24936398468376089 -0.40901490137394142 0 -0.23481654711565961 -0.39399349724955168 0 -0.25457300195326749 -0.40147225298754369 0 -0.23481654711565961 -0.39399349724955168 0 -0.23481654711565961 -0.39399349724955168 0 -0.24583051340353329 -0.38574620816565952 0 -0.22946831890922509 -0.37336222673998948 0 -0.2503155090110683 -0.36625896225040039 0 -0.24583051340353329 -0.38574620816565952 0 -0.22946831890922509 -0.37336222673998948 0 -0.2503155090110683 -0.36625896225040039 0 -0.22946831890922509 -0.37336222673998948 0 -0.22752915135517909 -0.35238293982625168 0 -0.22946831890922509 -0.37336222673998948 0 -0.21926747949479389 -0.36246456103869251 0 -0.22752915135517909 -0.35238293982625168 0 -0.22946831890922509 -0.37336222673998948 0 -0.21926747949479389 -0.36246456103869251 0 -0.21560586690307301 -0.37236644341257069 0 -0.22752915135517909 -0.35238293982625168 0 -0.22438206662611601 -0.33851106076919002 0 -0.2156725075445593 -0.34231279522275992 0 -0.22752915135517909 -0.35238293982625168 0 -0.2156725075445593 -0.34231279522275992 0 -0.2152017041510427 -0.35209251881275938 0 -0.21926747949479389 -0.36246456103869251 0 -0.22752915135517909 -0.35238293982625168 0 -0.2152017041510427 -0.35209251881275938 0 -0.2503155090110683 -0.36625896225040039 0 -0.22752915135517909 -0.35238293982625168 0 -0.24065182799369031 -0.33887382289998891 0 -0.2503155090110683 -0.36625896225040039 0 -0.24065182799369031 -0.33887382289998891 0 -0.2503155090110683 -0.36625896225040039 0 -0.2588950241192306 -0.35306592533703213 0 -0.24065182799369031 -0.33887382289998891 0 -0.2588950241192306 -0.35306592533703213 0 -0.24065182799369031 -0.33887382289998891 0 -0.24836005702376021 -0.32617249355183009 0 -0.25895407294905581 -0.31871125133772182 0 -0.24836005702376021 -0.32617249355183009 0 -0.23782508992829429 -0.29927906176662639 0 -0.24065182799369031 -0.33887382289998891 0 -0.2309881469763124 -0.31148868354957743 0 -0.24065182799369031 -0.33887382289998891 0 -0.24836005702376021 -0.32617249355183009 0 -0.2309881469763124 -0.31148868354957743 0 -0.24836005702376021 -0.32617249355183009 0 -0.23782508992829429 -0.29927906176662639 0 -0.24065182799369031 -0.33887382289998891 0 -0.2227772634257327 -0.32567088265657629 0 -0.2309881469763124 -0.31148868354957743 0 -0.2227772634257327 -0.32567088265657629 0 -0.2309881469763124 -0.31148868354957743 0 -0.21271355798758229 -0.30746549996793138 0 -0.24065182799369031 -0.33887382289998891 0 -0.2227772634257327 -0.32567088265657629 0 -0.22438206662611601 -0.33851106076919002 0 -0.22752915135517909 -0.35238293982625168 0 -0.24065182799369031 -0.33887382289998891 0 -0.22438206662611601 -0.33851106076919002 0 -0.2227772634257327 -0.32567088265657629 0 -0.22438206662611601 -0.33851106076919002 0 -0.21586576572823521 -0.333578795995361 0 -0.20698372735831111 -0.3362158838865853 0 -0.20507336380283861 -0.34321942261460442 0 -0.20098161386701729 -0.32086290586404331 0 -0.22438206662611601 -0.33851106076919002 0 -0.2156725075445593 -0.34231279522275992 0 -0.21586576572823521 -0.333578795995361 0 -0.2156725075445593 -0.34231279522275992 0 -0.21586576572823521 -0.333578795995361 0 -0.20698372735831111 -0.3362158838865853 0 -0.2227772634257327 -0.32567088265657629 0 -0.21586576572823521 -0.333578795995361 0 -0.21068562952009051 -0.32571122295166832 0 -0.21586576572823521 -0.333578795995361 0 -0.20698372735831111 -0.3362158838865853 0 -0.21068562952009051 -0.32571122295166832 0 -0.20698372735831111 -0.3362158838865853 0 -0.20507336380283861 -0.34321942261460442 0 -0.2156725075445593 -0.34231279522275992 0 -0.20698372735831111 -0.3362158838865853 0 -0.20507336380283861 -0.34321942261460442 0 -0.21068562952009051 -0.32571122295166832 0 -0.20098161386701729 -0.32086290586404331 0 -0.21271355798758229 -0.30746549996793138 0 -0.2227772634257327 -0.32567088265657629 0 -0.21068562952009051 -0.32571122295166832 0 -0.21271355798758229 -0.30746549996793138 0 -0.20698372735831111 -0.3362158838865853 0 -0.21068562952009051 -0.32571122295166832 0 -0.20098161386701729 -0.32086290586404331 0 -0.20098161386701729 -0.32086290586404331 0 -0.19481281666001521 -0.33221084432343878 0 -0.1854900263032408 -0.31710068680559522 0 -0.20507336380283861 -0.34321942261460442 0 -0.20098161386701729 -0.32086290586404331 0 -0.19481281666001521 -0.33221084432343878 0 -0.20507336380283861 -0.34321942261460442 0 -0.20098161386701729 -0.32086290586404331 0 -0.19481281666001521 -0.33221084432343878 0 -0.1832303771999915 -0.33566448495450951 0 -0.1854900263032408 -0.31710068680559522 0 -0.20507336380283861 -0.34321942261460442 0 -0.1957815520798343 -0.34223028783879161 0 -0.19481281666001521 -0.33221084432343878 0 -0.1957815520798343 -0.34223028783879161 0 -0.19023309513330111 -0.34873457553443987 0 -0.1832303771999915 -0.33566448495450951 0 -0.1957815520798343 -0.34223028783879161 0 -0.19481281666001521 -0.33221084432343878 0 -0.1832303771999915 -0.33566448495450951 0 -0.1957815520798343 -0.34223028783879161 0 -0.19023309513330111 -0.34873457553443987 0 -0.19645245671823791 -0.35061363297880987 0 -0.20507336380283861 -0.34321942261460442 0 -0.19645245671823791 -0.35061363297880987 0 -0.20018850062164181 -0.36112770419408607 0 -0.20507336380283861 -0.34321942261460442 0 -0.20018850062164181 -0.36112770419408607 0 -0.20507336380283861 -0.34321942261460442 0 -0.1957815520798343 -0.34223028783879161 0 -0.19645245671823791 -0.35061363297880987 0 -0.19645245671823791 -0.35061363297880987 0 -0.19098577195357361 -0.35775617471212762 0 -0.20018850062164181 -0.36112770419408607 0 -0.19023309513330111 -0.34873457553443987 0 -0.19645245671823791 -0.35061363297880987 0 -0.19098577195357361 -0.35775617471212762 0 -0.19098577195357361 -0.35775617471212762 0 -0.19283342004942289 -0.36769905933790842 0 -0.18426893553064599 -0.36280727811040969 0 -0.19530363744044371 -0.37903598577356751 0 -0.19283342004942289 -0.36769905933790842 0 -0.20018850062164181 -0.36112770419408607 0 -0.19530363744044371 -0.37903598577356751 0 -0.20018850062164181 -0.36112770419408607 0 -0.20509729049418321 -0.37190518241196452 0 -0.19098577195357361 -0.35775617471212762 0 -0.19283342004942289 -0.36769905933790842 0 -0.20018850062164181 -0.36112770419408607 0 -0.19530363744044371 -0.37903598577356751 0 -0.20018850062164181 -0.36112770419408607 0 -0.19530363744044371 -0.37903598577356751 0 -0.19082292946682791 -0.37336622346805393 0 -0.19283342004942289 -0.36769905933790842 0 -0.1909098263475531 -0.37737271975784209 0 -0.19082292946682791 -0.37336622346805393 0 -0.18515441851144429 -0.37120018288987189 0 -0.19082292946682791 -0.37336622346805393 0 -0.19283342004942289 -0.36769905933790842 0 -0.18515441851144429 -0.37120018288987189 0 -0.20018850062164181 -0.36112770419408607 0 -0.20853235615544979 -0.36211867640189122 0 -0.20509729049418321 -0.37190518241196452 0 -0.20853235615544979 -0.36211867640189122 0 -0.20509729049418321 -0.37190518241196452 0 -0.21560586690307301 -0.37236644341257069 0 -0.21926747949479389 -0.36246456103869251 0 -0.20853235615544979 -0.36211867640189122 0 -0.21560586690307301 -0.37236644341257069 0 -0.20507336380283861 -0.34321942261460442 0 -0.20018850062164181 -0.36112770419408607 0 -0.20853235615544979 -0.36211867640189122 0 -0.20507336380283861 -0.34321942261460442 0 -0.20853235615544979 -0.36211867640189122 0 -0.21926747949479389 -0.36246456103869251 0 -0.20853235615544979 -0.36211867640189122 0 -0.2152017041510427 -0.35209251881275938 0 -0.20507336380283861 -0.34321942261460442 0 -0.20853235615544979 -0.36211867640189122 0 -0.2152017041510427 -0.35209251881275938 0 -0.2156725075445593 -0.34231279522275992 0 -0.20507336380283861 -0.34321942261460442 0 -0.2152017041510427 -0.35209251881275938 0 -0.2190775644290763 -0.25142079191296962 0 -0.22845132717868311 -0.27534992683979892 0 -0.2190775644290763 -0.25142079191296962 0 -0.2393768668894786 -0.25582451898022163 0 -0.22301620101341341 -0.24302674165157989 0 -0.2190775644290763 -0.25142079191296962 0 -0.2393768668894786 -0.25582451898022163 0 -0.22845132717868311 -0.27534992683979892 0 -0.2190775644290763 -0.25142079191296962 0 -0.22845132717868311 -0.27534992683979892 0 -0.21518945271802531 -0.26671801665362821 0 -0.25556737118846129 -0.2777034208580284 0 -0.2393768668894786 -0.25582451898022163 0 -0.22845132717868311 -0.27534992683979892 0 -0.22845132717868311 -0.27534992683979892 0 -0.2213244659589351 -0.28410354419916578 0 -0.21518945271802531 -0.26671801665362821 0 -0.2213244659589351 -0.28410354419916578 0 -0.23782508992829429 -0.29927906176662639 0 -0.22845132717868311 -0.27534992683979892 0 -0.23782508992829429 -0.29927906176662639 0 -0.22845132717868311 -0.27534992683979892 0 -0.2213244659589351 -0.28410354419916578 0 -0.23782508992829429 -0.29927906176662639 0 -0.25556737118846129 -0.2777034208580284 0 -0.22845132717868311 -0.27534992683979892 0 -0.23782508992829429 -0.29927906176662639 0 -0.25895407294905581 -0.31871125133772182 0 -0.23782508992829429 -0.29927906176662639 0 -0.24836005702376021 -0.32617249355183009 0 -0.23782508992829429 -0.29927906176662639 0 -0.2309881469763124 -0.31148868354957743 0 -0.2213244659589351 -0.28410354419916578 0 -0.2309881469763124 -0.31148868354957743 0 -0.2213244659589351 -0.28410354419916578 0 -0.23782508992829429 -0.29927906176662639 0 -0.2309881469763124 -0.31148868354957743 0 -0.2213244659589351 -0.28410354419916578 0 -0.2309881469763124 -0.31148868354957743 0 -0.21271355798758229 -0.30746549996793138 0 -0.20098161386701729 -0.32086290586404331 0 -0.21271355798758229 -0.30746549996793138 0 -0.1968898639311957 -0.29850638911348237 0 -0.21271355798758229 -0.30746549996793138 0 -0.1968898639311957 -0.29850638911348237 0 -0.20591936321483151 -0.2872232451747036 0 -0.20098161386701729 -0.32086290586404331 0 -0.1968898639311957 -0.29850638911348237 0 -0.1854900263032408 -0.31710068680559522 0 -0.20098161386701729 -0.32086290586404331 0 -0.1968898639311957 -0.29850638911348237 0 -0.1968898639311957 -0.29850638911348237 0 -0.20591936321483151 -0.2872232451747036 0 -0.192798113995374 -0.27614987236292132 0 -0.1968898639311957 -0.29850638911348237 0 -0.192798113995374 -0.27614987236292132 0 -0.1968898639311957 -0.29850638911348237 0 -0.192798113995374 -0.27614987236292132 0 -0.17893882695756941 -0.29676981405937619 0 -0.2213244659589351 -0.28410354419916578 0 -0.21271355798758229 -0.30746549996793138 0 -0.20591936321483151 -0.2872232451747036 0 -0.2213244659589351 -0.28410354419916578 0 -0.21518945271802531 -0.26671801665362821 0 -0.2213244659589351 -0.28410354419916578 0 -0.20591936321483151 -0.2872232451747036 0 -0.2058708142010709 -0.2698909202300166 0 -0.2213244659589351 -0.28410354419916578 0 -0.21518945271802531 -0.26671801665362821 0 -0.2058708142010709 -0.2698909202300166 0 -0.2213244659589351 -0.28410354419916578 0 -0.2058708142010709 -0.2698909202300166 0 -0.2058708142010709 -0.2698909202300166 0 -0.192798113995374 -0.27614987236292132 0 -0.19041716244320731 -0.25567829626086669 0 -0.20591936321483151 -0.2872232451747036 0 -0.2058708142010709 -0.2698909202300166 0 -0.192798113995374 -0.27614987236292132 0 -0.2058708142010709 -0.2698909202300166 0 -0.19041716244320731 -0.25567829626086669 0 -0.20637389757624119 -0.25653967376115039 0 -0.19041716244320731 -0.25567829626086669 0 -0.20637389757624119 -0.25653967376115039 0 -0.20006048206133589 -0.2415849766235047 0 -0.2058708142010709 -0.2698909202300166 0 -0.19041716244320731 -0.25567829626086669 0 -0.21518945271802531 -0.26671801665362821 0 -0.2058708142010709 -0.2698909202300166 0 -0.20637389757624119 -0.25653967376115039 0 -0.2190775644290763 -0.25142079191296962 0 -0.21518945271802531 -0.26671801665362821 0 -0.20637389757624119 -0.25653967376115039 0 -0.16950490137503291 -0.25772797401075798 0 -0.1557014375071277 -0.27150310645242948 0 -0.1515656057754648 -0.24762527439959109 0 -0.19041716244320731 -0.25567829626086669 0 -0.16950490137503291 -0.25772797401075798 0 -0.17574556494438151 -0.27712023962997878 0 -0.19041716244320731 -0.25567829626086669 0 -0.16950490137503291 -0.25772797401075798 0 -0.16990885256148389 -0.23681693577735929 0 -0.19041716244320731 -0.25567829626086669 0 -0.17574556494438151 -0.27712023962997878 0 -0.192798113995374 -0.27614987236292132 0 -0.19041716244320731 -0.25567829626086669 0 -0.17574556494438151 -0.27712023962997878 0 -0.16950490137503291 -0.25772797401075798 0 -0.17574556494438151 -0.27712023962997878 0 -0.1557014375071277 -0.27150310645242948 0 -0.17574556494438151 -0.27712023962997878 0 -0.15983726923879071 -0.29538093850526792 0 -0.17893882695756941 -0.29676981405937619 0 -0.17574556494438151 -0.27712023962997878 0 -0.15983726923879071 -0.29538093850526792 0 -0.1557014375071277 -0.27150310645242948 0 -0.15983726923879071 -0.29538093850526792 0 -0.1557014375071277 -0.27150310645242948 0 -0.192798113995374 -0.27614987236292132 0 -0.17574556494438151 -0.27712023962997878 0 -0.17893882695756941 -0.29676981405937619 0 -0.17893882695756941 -0.29676981405937619 0 -0.1854900263032408 -0.31710068680559522 0 -0.16397310097045359 -0.31925877055810642 0 -0.1968898639311957 -0.29850638911348237 0 -0.17893882695756941 -0.29676981405937619 0 -0.1854900263032408 -0.31710068680559522 0 -0.15983726923879071 -0.29538093850526792 0 -0.16397310097045359 -0.31925877055810642 0 -0.14590202517066261 -0.31433596975105338 0 -0.15983726923879071 -0.29538093850526792 0 -0.16397310097045359 -0.31925877055810642 0 -0.15983726923879071 -0.29538093850526792 0 -0.17893882695756941 -0.29676981405937619 0 -0.16397310097045359 -0.31925877055810642 0 -0.15983726923879071 -0.29538093850526792 0 -0.14288074060626901 -0.29917908402640803 0 -0.14590202517066261 -0.31433596975105338 0 -0.14288074060626901 -0.29917908402640803 0 -0.13108674317545299 -0.31194040830201503 0 -0.14590202517066261 -0.31433596975105338 0 -0.13108674317545299 -0.31194040830201503 0 -0.12603097848941441 -0.29543721807643969 0 -0.11838082969964039 -0.30732429362681168 0 -0.14288074060626901 -0.29917908402640803 0 -0.13108674317545299 -0.31194040830201503 0 -0.12603097848941441 -0.29543721807643969 0 -0.14288074060626901 -0.29917908402640803 0 -0.12603097848941441 -0.29543721807643969 0 -0.14533322258468079 -0.28197631957383101 0 -0.12603097848941441 -0.29543721807643969 0 -0.14533322258468079 -0.28197631957383101 0 -0.1214156893529843 -0.27880546680457202 0 -0.15983726923879071 -0.29538093850526792 0 -0.14288074060626901 -0.29917908402640803 0 -0.14533322258468079 -0.28197631957383101 0 -0.15983726923879071 -0.29538093850526792 0 -0.14533322258468079 -0.28197631957383101 0 -0.1557014375071277 -0.27150310645242948 0 -0.14533322258468079 -0.28197631957383101 0 -0.1557014375071277 -0.27150310645242948 0 -0.13566616298821579 -0.26361782246925408 0 -0.14533322258468079 -0.28197631957383101 0 -0.1214156893529843 -0.27880546680457202 0 -0.14533322258468079 -0.28197631957383101 0 -0.13566616298821579 -0.26361782246925408 0 -0.1214156893529843 -0.27880546680457202 0 -0.13566616298821579 -0.26361782246925408 0 -0.1515656057754648 -0.24762527439959109 0 -0.12759395261113149 -0.24410238476601001 0 -0.13566616298821579 -0.26361782246925408 0 -0.1123870700979059 -0.25769438281909107 0 -0.12759395261113149 -0.24410238476601001 0 -0.1557014375071277 -0.27150310645242948 0 -0.13566616298821579 -0.26361782246925408 0 -0.1515656057754648 -0.24762527439959109 0 -0.1557014375071277 -0.27150310645242948 0 -0.1515656057754648 -0.24762527439959109 0 -0.1700654391339366 -0.35655407039570752 0 -0.1615252775151019 -0.36783926376064169 0 -0.15260021094287701 -0.35134082888455709 0 -0.1700654391339366 -0.35655407039570752 0 -0.16567347611435601 -0.34165688079537521 0 -0.15260021094287701 -0.35134082888455709 0 -0.1737708867924512 -0.37639033043819281 0 -0.1615252775151019 -0.36783926376064169 0 -0.17495699149671601 -0.3669582251189647 0 -0.1700654391339366 -0.35655407039570752 0 -0.1615252775151019 -0.36783926376064169 0 -0.17495699149671601 -0.3669582251189647 0 -0.1700654391339366 -0.35655407039570752 0 -0.17495699149671601 -0.3669582251189647 0 -0.18426893553064599 -0.36280727811040969 0 -0.1737708867924512 -0.37639033043819281 0 -0.17495699149671601 -0.3669582251189647 0 -0.18515441851144429 -0.37120018288987189 0 -0.19283342004942289 -0.36769905933790842 0 -0.18515441851144429 -0.37120018288987189 0 -0.18426893553064599 -0.36280727811040969 0 -0.17495699149671601 -0.3669582251189647 0 -0.18515441851144429 -0.37120018288987189 0 -0.18426893553064599 -0.36280727811040969 0 -0.19023309513330111 -0.34873457553443987 0 -0.19098577195357361 -0.35775617471212762 0 -0.18074284917763411 -0.35052891075042819 0 -0.19098577195357361 -0.35775617471212762 0 -0.18426893553064599 -0.36280727811040969 0 -0.18074284917763411 -0.35052891075042819 0 -0.1700654391339366 -0.35655407039570752 0 -0.18426893553064599 -0.36280727811040969 0 -0.18074284917763411 -0.35052891075042819 0 -0.1700654391339366 -0.35655407039570752 0 -0.18074284917763411 -0.35052891075042819 0 -0.16567347611435601 -0.34165688079537521 0 -0.19023309513330111 -0.34873457553443987 0 -0.18074284917763411 -0.35052891075042819 0 -0.1832303771999915 -0.33566448495450951 0 -0.18074284917763411 -0.35052891075042819 0 -0.1832303771999915 -0.33566448495450951 0 -0.16567347611435601 -0.34165688079537521 0 -0.1832303771999915 -0.33566448495450951 0 -0.1854900263032408 -0.31710068680559522 0 -0.16397310097045359 -0.31925877055810642 0 -0.16397310097045359 -0.31925877055810642 0 -0.16567347611435601 -0.34165688079537521 0 -0.1433369859020012 -0.33444129120763522 0 -0.1832303771999915 -0.33566448495450951 0 -0.16397310097045359 -0.31925877055810642 0 -0.16567347611435601 -0.34165688079537521 0 -0.16567347611435601 -0.34165688079537521 0 -0.1433369859020012 -0.33444129120763522 0 -0.15260021094287701 -0.35134082888455709 0 -0.16397310097045359 -0.31925877055810642 0 -0.1433369859020012 -0.33444129120763522 0 -0.14590202517066261 -0.31433596975105338 0 -0.1433369859020012 -0.33444129120763522 0 -0.14590202517066261 -0.31433596975105338 0 -0.13301652316105411 -0.32358666323793039 0 -0.13108674317545299 -0.31194040830201503 0 -0.14590202517066261 -0.31433596975105338 0 -0.13301652316105411 -0.32358666323793039 0 -0.13301652316105411 -0.32358666323793039 0 -0.130067443251565 -0.33468508821632759 0 -0.1202014024431768 -0.3229718023144737 0 -0.13108674317545299 -0.31194040830201503 0 -0.13301652316105411 -0.32358666323793039 0 -0.1202014024431768 -0.3229718023144737 0 -0.130067443251565 -0.33468508821632759 0 -0.13689156899085109 -0.34566005741607042 0 -0.1197119179778527 -0.34435160623648958 0 -0.1433369859020012 -0.33444129120763522 0 -0.130067443251565 -0.33468508821632759 0 -0.13689156899085109 -0.34566005741607042 0 -0.1433369859020012 -0.33444129120763522 0 -0.13301652316105411 -0.32358666323793039 0 -0.130067443251565 -0.33468508821632759 0 -0.13874128687995971 -0.36348147253534269 0 -0.1197119179778527 -0.34435160623648958 0 -0.13874128687995971 -0.36348147253534269 0 -0.12084826746315661 -0.36008498073402417 0 -0.1197119179778527 -0.34435160623648958 0 -0.13689156899085109 -0.34566005741607042 0 -0.13874128687995971 -0.36348147253534269 0 -0.1197119179778527 -0.34435160623648958 0 -0.13689156899085109 -0.34566005741607042 0 -0.15260021094287701 -0.35134082888455709 0 -0.13874128687995971 -0.36348147253534269 0 -0.1433369859020012 -0.33444129120763522 0 -0.13689156899085109 -0.34566005741607042 0 -0.15260021094287701 -0.35134082888455709 0 -0.15777065578206681 -0.38261133883419579 0 -0.13874128687995971 -0.36348147253534269 0 -0.15777065578206681 -0.38261133883419579 0 -0.1615252775151019 -0.36783926376064169 0 -0.13874128687995971 -0.36348147253534269 0 -0.1615252775151019 -0.36783926376064169 0 -0.15260021094287701 -0.35134082888455709 0 -0.13874128687995971 -0.36348147253534269 0 -0.14221707737603989 -0.38226235982788243 0 -0.13874128687995971 -0.36348147253534269 0 -0.1189322715291658 -0.37574254512997513 0 -0.13874128687995971 -0.36348147253534269 0 -0.12084826746315661 -0.36008498073402417 0 -0.1189322715291658 -0.37574254512997513 0 -0.12084826746315661 -0.36008498073402417 0 -0.1051156734506907 -0.35893787617412681 0 -0.1189322715291658 -0.37574254512997513 0 -0.1051156734506907 -0.35893787617412681 0 -0.1189322715291658 -0.37574254512997513 0 -0.1016738955800776 -0.35475175616059551 0 -0.096439340235901991 -0.38380140492847742 0 -0.1051156734506907 -0.35893787617412681 0 -0.10393747111780779 -0.38471308335127641 0 -0.1051156734506907 -0.35893787617412681 0 -0.1189322715291658 -0.37574254512997513 0 -0.10393747111780779 -0.38471308335127641 0 -0.1016738955800776 -0.35475175616059551 0 -0.1051156734506907 -0.35893787617412681 0 -0.096439340235901991 -0.38380140492847742 0 -0.1016738955800776 -0.35475175616059551 0 -0.1059381470286173 -0.34094484876522402 0 -0.1050643737955033 -0.33593598388628698 0 -0.1051156734506907 -0.35893787617412681 0 -0.1129035014800793 -0.35107982797746612 0 -0.1059381470286173 -0.34094484876522402 0 -0.1051156734506907 -0.35893787617412681 0 -0.1059381470286173 -0.34094484876522402 0 -0.1016738955800776 -0.35475175616059551 0 -0.1051156734506907 -0.35893787617412681 0 -0.1059381470286173 -0.34094484876522402 0 -0.1016738955800776 -0.35475175616059551 0 -0.1050643737955033 -0.33593598388628698 0 -0.1016738955800776 -0.35475175616059551 0 -0.089203904300488857 -0.33958492029075332 0 -0.1016738955800776 -0.35475175616059551 0 -0.1051156734506907 -0.35893787617412681 0 -0.12084826746315661 -0.36008498073402417 0 -0.1051156734506907 -0.35893787617412681 0 -0.1129035014800793 -0.35107982797746612 0 -0.12084826746315661 -0.36008498073402417 0 -0.1129035014800793 -0.35107982797746612 0 -0.1197119179778527 -0.34435160623648958 0 -0.1129035014800793 -0.35107982797746612 0 -0.1197119179778527 -0.34435160623648958 0 -0.1059381470286173 -0.34094484876522402 0 -0.1197119179778527 -0.34435160623648958 0 -0.1202014024431768 -0.3229718023144737 0 -0.1006825490757456 -0.32522173993763642 0 -0.130067443251565 -0.33468508821632759 0 -0.1197119179778527 -0.34435160623648958 0 -0.1202014024431768 -0.3229718023144737 0 -0.1197119179778527 -0.34435160623648958 0 -0.1006825490757456 -0.32522173993763642 0 -0.1197119179778527 -0.34435160623648958 0 -0.1059381470286173 -0.34094484876522402 0 -0.1050643737955033 -0.33593598388628698 0 -0.1202014024431768 -0.3229718023144737 0 -0.11838082969964039 -0.30732429362681168 0 -0.1056869944675273 -0.31147037635563868 0 -0.13108674317545299 -0.31194040830201503 0 -0.1202014024431768 -0.3229718023144737 0 -0.11838082969964039 -0.30732429362681168 0 -0.1202014024431768 -0.3229718023144737 0 -0.1006825490757456 -0.32522173993763642 0 -0.1056869944675273 -0.31147037635563868 0 -0.1006825490757456 -0.32522173993763642 0 -0.1056869944675273 -0.31147037635563868 0 -0.081653180173638526 -0.30609187363878321 0 -0.1197119179778527 -0.34435160623648958 0 -0.1006825490757456 -0.32522173993763642 0 -0.1050643737955033 -0.33593598388628698 0 -0.1006825490757456 -0.32522173993763642 0 -0.1050643737955033 -0.33593598388628698 0 -0.089203904300488857 -0.33958492029075332 0 -0.1016738955800776 -0.35475175616059551 0 -0.1050643737955033 -0.33593598388628698 0 -0.089203904300488857 -0.33958492029075332 0 -0.089203904300488857 -0.33958492029075332 0 -0.075323457481210637 -0.32807912484967972 0 -0.072567238669347126 -0.34701928557436418 0 -0.1006825490757456 -0.32522173993763642 0 -0.089203904300488857 -0.33958492029075332 0 -0.086715772757770898 -0.32474441467921311 0 -0.089203904300488857 -0.33958492029075332 0 -0.086715772757770898 -0.32474441467921311 0 -0.075323457481210637 -0.32807912484967972 0 -0.1006825490757456 -0.32522173993763642 0 -0.081653180173638526 -0.30609187363878321 0 -0.086715772757770898 -0.32474441467921311 0 -0.075323457481210637 -0.32807912484967972 0 -0.081653180173638526 -0.30609187363878321 0 -0.1006825490757456 -0.32522173993763642 0 -0.086715772757770898 -0.32474441467921311 0 -0.081653180173638526 -0.30609187363878321 0 -0.075323457481210637 -0.32807912484967972 0 -0.063031255160024932 -0.31510241460583688 0 -0.058200994957894797 -0.3324420697873568 0 -0.075323457481210637 -0.32807912484967972 0 -0.063031255160024932 -0.31510241460583688 0 -0.081653180173638526 -0.30609187363878321 0 -0.075323457481210637 -0.32807912484967972 0 -0.072567238669347126 -0.34701928557436418 0 -0.058200994957894797 -0.3324420697873568 0 -0.072567238669347126 -0.34701928557436418 0 -0.082761741444743214 -0.36295512927130358 0 -0.061714337629732149 -0.36679772600628691 0 -0.082761741444743214 -0.36295512927130358 0 -0.061714337629732149 -0.36679772600628691 0 -0.076602173866185466 -0.37899516807196509 0 -0.1016738955800776 -0.35475175616059551 0 -0.082761741444743214 -0.36295512927130358 0 -0.096439340235901991 -0.38380140492847742 0 -0.1016738955800776 -0.35475175616059551 0 -0.082761741444743214 -0.36295512927130358 0 -0.086551694998664178 -0.35107777282425412 0 -0.072567238669347126 -0.34701928557436418 0 -0.082761741444743214 -0.36295512927130358 0 -0.086551694998664178 -0.35107777282425412 0 -0.089203904300488857 -0.33958492029075332 0 -0.072567238669347126 -0.34701928557436418 0 -0.086551694998664178 -0.35107777282425412 0 -0.1016738955800776 -0.35475175616059551 0 -0.089203904300488857 -0.33958492029075332 0 -0.086551694998664178 -0.35107777282425412 0 -0.098055206064172618 -0.26091787411015521 0 -0.1123870700979059 -0.25769438281909107 0 -0.097498156121287829 -0.27563461403531297 0 -0.1022294825648509 -0.25202223524138101 0 -0.1123870700979059 -0.25769438281909107 0 -0.1078107689007117 -0.24129756560076071 0 -0.098055206064172618 -0.26091787411015521 0 -0.1022294825648509 -0.25202223524138101 0 -0.090664885196613448 -0.24817911843551721 0 -0.098055206064172618 -0.26091787411015521 0 -0.1022294825648509 -0.25202223524138101 0 -0.1123870700979059 -0.25769438281909107 0 -0.1123870700979059 -0.25769438281909107 0 -0.1214156893529843 -0.27880546680457202 0 -0.097498156121287829 -0.27563461403531297 0 -0.1214156893529843 -0.27880546680457202 0 -0.097498156121287829 -0.27563461403531297 0 -0.13566616298821579 -0.26361782246925408 0 -0.1123870700979059 -0.25769438281909107 0 -0.1214156893529843 -0.27880546680457202 0 -0.097498156121287829 -0.27563461403531297 0 -0.1061359919682392 -0.29668268143548659 0 -0.080880923369003474 -0.28849427649815229 0 -0.1214156893529843 -0.27880546680457202 0 -0.097498156121287829 -0.27563461403531297 0 -0.1061359919682392 -0.29668268143548659 0 -0.12603097848941441 -0.29543721807643969 0 -0.1214156893529843 -0.27880546680457202 0 -0.1061359919682392 -0.29668268143548659 0 -0.12603097848941441 -0.29543721807643969 0 -0.1061359919682392 -0.29668268143548659 0 -0.11838082969964039 -0.30732429362681168 0 -0.1061359919682392 -0.29668268143548659 0 -0.11838082969964039 -0.30732429362681168 0 -0.1056869944675273 -0.31147037635563868 0 -0.1061359919682392 -0.29668268143548659 0 -0.1056869944675273 -0.31147037635563868 0 -0.081653180173638526 -0.30609187363878321 0 -0.1061359919682392 -0.29668268143548659 0 -0.081653180173638526 -0.30609187363878321 0 -0.080880923369003474 -0.28849427649815229 0 -0.081653180173638526 -0.30609187363878321 0 -0.067797351698186459 -0.30107947319126488 0 -0.080880923369003474 -0.28849427649815229 0 -0.063031255160024932 -0.31510241460583688 0 -0.081653180173638526 -0.30609187363878321 0 -0.067797351698186459 -0.30107947319126488 0 -0.067797351698186459 -0.30107947319126488 0 -0.063326565011827041 -0.28703952278563649 0 -0.080880923369003474 -0.28849427649815229 0 -0.063326565011827041 -0.28703952278563649 0 -0.080880923369003474 -0.28849427649815229 0 -0.073580622889591357 -0.27246376126605382 0 -0.097498156121287829 -0.27563461403531297 0 -0.080880923369003474 -0.28849427649815229 0 -0.073580622889591357 -0.27246376126605382 0 -0.098055206064172618 -0.26091787411015521 0 -0.097498156121287829 -0.27563461403531297 0 -0.073580622889591357 -0.27246376126605382 0 -0.097498156121287829 -0.27563461403531297 0 -0.073580622889591357 -0.27246376126605382 0 -0.063326565011827041 -0.28703952278563649 0 -0.073580622889591357 -0.27246376126605382 0 -0.073580622889591357 -0.27246376126605382 0 -0.069428953678351821 -0.25498101630413639 0 -0.090664885196613448 -0.24817911843551721 0 -0.073580622889591357 -0.27246376126605382 0 -0.069428953678351821 -0.25498101630413639 0 -0.050130684875706349 -0.26935489965520321 0 -0.073580622889591357 -0.27246376126605382 0 -0.090664885196613448 -0.24817911843551721 0 -0.098055206064172618 -0.26091787411015521 0 -0.073580622889591357 -0.27246376126605382 0 -0.090664885196613448 -0.24817911843551721 0 -0.0336587369974755 -0.25917000313253019 0 -0.033029336451522 -0.26508579101292751 0 -0.041007153744286817 -0.24523372537231169 0 -0.044187472164344523 -0.25438469026580901 0 -0.032819309226195477 -0.2670598543055766 0 -0.041007153744286817 -0.24523372537231169 0 -0.033029336451522 -0.26508579101292751 0 -0.032819309226195477 -0.2670598543055766 0 -0.041007153744286817 -0.24523372537231169 0 -0.032819309226195477 -0.2670598543055766 0 -0.041007153744286817 -0.24523372537231169 0 -0.031880318210837193 -0.25089372004459443 0 -0.0336587369974755 -0.25917000313253019 0 -0.041007153744286817 -0.24523372537231169 0 -0.031880318210837193 -0.25089372004459443 0 -0.0336587369974755 -0.25917000313253019 0 -0.028806566436616821 -0.25712076118453608 0 -0.044187472164344523 -0.25438469026580901 0 -0.032819309226195477 -0.2670598543055766 0 -0.0336587369974755 -0.25917000313253019 0 -0.033029336451522 -0.26508579101292751 0 -0.031196565964253801 -0.26139142239888857 0 -0.033029336451522 -0.26508579101292751 0 -0.031072729037309978 -0.26323928510488459 0 -0.030215101531159309 -0.26477888704019442 0 -0.033029336451522 -0.26508579101292751 0 -0.031072729037309978 -0.26323928510488459 0 -0.031196565964253801 -0.26139142239888857 0 -0.04233293337828279 -0.26378578734292413 0 -0.044187472164344523 -0.25438469026580901 0 -0.032819309226195477 -0.2670598543055766 0 -0.04233293337828279 -0.26378578734292413 0 -0.044187472164344523 -0.25438469026580901 0 -0.048365612546033339 -0.26051875747466913 0 -0.069428953678351821 -0.25498101630413639 0 -0.050130684875706349 -0.26935489965520321 0 -0.044187472164344523 -0.25438469026580901 0 -0.056811359765799707 -0.25454965263474039 0 -0.048365612546033339 -0.26051875747466913 0 -0.044187472164344523 -0.25438469026580901 0 -0.056811359765799707 -0.25454965263474039 0 -0.055158796600855681 -0.24203331188581481 0 -0.069428953678351821 -0.25498101630413639 0 -0.056811359765799707 -0.25454965263474039 0 -0.050130684875706349 -0.26935489965520321 0 -0.069428953678351821 -0.25498101630413639 0 -0.056811359765799707 -0.25454965263474039 0 -0.055158796600855681 -0.24203331188581481 0 -0.056811359765799707 -0.25454965263474039 0 -0.048365612546033339 -0.26051875747466913 0 -0.050130684875706349 -0.26935489965520321 0 -0.04233293337828279 -0.26378578734292413 0 -0.048365612546033339 -0.26051875747466913 0 -0.050130684875706349 -0.26935489965520321 0 -0.063326565011827041 -0.28703952278563649 0 -0.073580622889591357 -0.27246376126605382 0 -0.050130684875706349 -0.26935489965520321 0 -0.073580622889591357 -0.27246376126605382 0 -0.050130684875706349 -0.26935489965520321 0 -0.050130684875706349 -0.26935489965520321 0 -0.026457101151964809 -0.28698763834418561 0 -0.029613486974729569 -0.27667902698104341 0 -0.04233293337828279 -0.26378578734292413 0 -0.050130684875706349 -0.26935489965520321 0 -0.032819309226195477 -0.2670598543055766 0 -0.050130684875706349 -0.26935489965520321 0 -0.032819309226195477 -0.2670598543055766 0 -0.029613486974729569 -0.27667902698104341 0 -0.050130684875706349 -0.26935489965520321 0 -0.032819309226195477 -0.2670598543055766 0 -0.050130684875706349 -0.26935489965520321 0 -0.026457101151964809 -0.28698763834418561 0 -0.033029336451522 -0.26508579101292751 0 -0.032819309226195477 -0.2670598543055766 0 -0.030215101531159309 -0.26477888704019442 0 -0.045788652830240688 -0.28891158505377051 0 -0.053072507134062787 -0.30161528430521939 0 -0.035956405977642471 -0.29956058017860782 0 -0.050130684875706349 -0.26935489965520321 0 -0.045788652830240688 -0.28891158505377051 0 -0.026457101151964809 -0.28698763834418561 0 -0.045788652830240688 -0.28891158505377051 0 -0.035956405977642471 -0.29956058017860782 0 -0.026457101151964809 -0.28698763834418561 0 -0.063326565011827041 -0.28703952278563649 0 -0.045788652830240688 -0.28891158505377051 0 -0.053072507134062787 -0.30161528430521939 0 -0.063326565011827041 -0.28703952278563649 0 -0.050130684875706349 -0.26935489965520321 0 -0.045788652830240688 -0.28891158505377051 0 -0.063326565011827041 -0.28703952278563649 0 -0.053072507134062787 -0.30161528430521939 0 -0.067797351698186459 -0.30107947319126488 0 -0.063326565011827041 -0.28703952278563649 0 -0.053072507134062787 -0.30161528430521939 0 -0.063031255160024932 -0.31510241460583688 0 -0.053072507134062787 -0.30161528430521939 0 -0.044992351563883523 -0.31890193927927812 0 -0.063031255160024932 -0.31510241460583688 0 -0.067797351698186459 -0.30107947319126488 0 -0.053072507134062787 -0.30161528430521939 0 -0.053072507134062787 -0.30161528430521939 0 -0.035956405977642471 -0.29956058017860782 0 -0.044992351563883523 -0.31890193927927812 0 -0.035956405977642471 -0.29956058017860782 0 -0.044992351563883523 -0.31890193927927812 0 -0.0276593991479826 -0.31331556602663702 0 -0.02335083457018176 -0.30283975435221538 0 -0.015289715341740159 -0.30306342080173843 0 -0.026457101151964809 -0.28698763834418561 0 -0.035956405977642471 -0.29956058017860782 0 -0.02335083457018176 -0.30283975435221538 0 -0.0276593991479826 -0.31331556602663702 0 -0.02335083457018176 -0.30283975435221538 0 -0.016782966440239241 -0.30994556998019918 0 -0.0276593991479826 -0.31331556602663702 0 -0.02335083457018176 -0.30283975435221538 0 -0.016782966440239241 -0.30994556998019918 0 -0.015289715341740159 -0.30306342080173843 0 -0.016782966440239241 -0.30994556998019918 0 -0.0070741571180920398 -0.31092376429892371 0 -0.015289715341740159 -0.30306342080173843 0 -0.0027835174282229841 -0.30462037703316791 0 -0.015289715341740159 -0.30306342080173843 0 -0.026457101151964809 -0.28698763834418561 0 -0.0027835174282229841 -0.30462037703316791 0 -0.015491884950750859 -0.28668981965672541 0 0.001896595321517253 -0.30626555096780689 0 -0.0070741571180920398 -0.31092376429892371 0 -0.0027835174282229841 -0.30462037703316791 0 -0.015289715341740159 -0.30306342080173843 0 -0.0070741571180920398 -0.31092376429892371 0 -0.0027835174282229841 -0.30462037703316791 0 0.001896595321517253 -0.30626555096780689 0 -0.0070741571180920398 -0.31092376429892371 0 -0.0054517495712185357 -0.31972239223645271 0 0.001896595321517253 -0.30626555096780689 0 -0.0027835174282229841 -0.30462037703316791 0 -0.015491884950750859 -0.28668981965672541 0 -0.026457101151964809 -0.28698763834418561 0 -0.015491884950750859 -0.28668981965672541 0 0.001896595321517253 -0.30626555096780689 0 0.001517707357284237 -0.29753028005066512 0 -0.015491884950750859 -0.28668981965672541 0 0.001896595321517253 -0.30626555096780689 0 -0.002143095001078794 -0.290631109880501 0 -0.015491884950750859 -0.28668981965672541 0 0.001517707357284237 -0.29753028005066512 0 -0.0027835174282229841 -0.30462037703316791 0 -0.026457101151964809 -0.28698763834418561 0 -0.0071142901357906779 -0.28464715109619382 0 -0.00061854659909016591 -0.28173529456410179 0 -0.01020363399224289 -0.2795323802834469 0 -0.002143095001078794 -0.290631109880501 0 -0.0071142901357906779 -0.28464715109619382 0 -0.00061854659909016591 -0.28173529456410179 0 -0.0071142901357906779 -0.28464715109619382 0 -0.015491884950750859 -0.28668981965672541 0 -0.01020363399224289 -0.2795323802834469 0 -0.015491884950750859 -0.28668981965672541 0 -0.017724407550019781 -0.2781084902489287 0 -0.01020363399224289 -0.2795323802834469 0 -0.002143095001078794 -0.290631109880501 0 -0.0071142901357906779 -0.28464715109619382 0 -0.015491884950750859 -0.28668981965672541 0 -0.035956405977642471 -0.29956058017860782 0 -0.02335083457018176 -0.30283975435221538 0 -0.026457101151964809 -0.28698763834418561 0 -0.015491884950750859 -0.28668981965672541 0 -0.026457101151964809 -0.28698763834418561 0 -0.029613486974729569 -0.27667902698104341 0 -0.032819309226195477 -0.2670598543055766 0 -0.015491884950750859 -0.28668981965672541 0 -0.032819309226195477 -0.2670598543055766 0 -0.015491884950750859 -0.28668981965672541 0 -0.029613486974729569 -0.27667902698104341 0 -0.032819309226195477 -0.2670598543055766 0 -0.015491884950750859 -0.28668981965672541 0 -0.027014911018030791 -0.27056039004226012 0 -0.015491884950750859 -0.28668981965672541 0 -0.027014911018030791 -0.27056039004226012 0 -0.017724407550019781 -0.2781084902489287 0 -0.032819309226195477 -0.2670598543055766 0 -0.029613486974729569 -0.27667902698104341 0 -0.02981240181846536 -0.26831256848788859 0 -0.02786718631659223 -0.26629816854433541 0 -0.027014911018030791 -0.27056039004226012 0 -0.032819309226195477 -0.2670598543055766 0 -0.02981240181846536 -0.26831256848788859 0 -0.027014911018030791 -0.27056039004226012 0 -0.032819309226195477 -0.2670598543055766 0 -0.030472923208994859 -0.26651934868798938 0 -0.030215101531159309 -0.26477888704019442 0 -0.030472923208994859 -0.26651934868798938 0 -0.02981240181846536 -0.26831256848788859 0 -0.02786718631659223 -0.26629816854433541 0 -0.032819309226195477 -0.2670598543055766 0 -0.030472923208994859 -0.26651934868798938 0 -0.02981240181846536 -0.26831256848788859 0 -0.030472923208994859 -0.26651934868798938 0 -0.02786718631659223 -0.26629816854433541 0 -0.030215101531159309 -0.26477888704019442 0 -0.02786718631659223 -0.26629816854433541 0 -0.024138618959720269 -0.26725153885115888 0 -0.027014911018030791 -0.27056039004226012 0 -0.024138618959720269 -0.26725153885115888 0 -0.027014911018030791 -0.27056039004226012 0 -0.02142620416236702 -0.26927170157164471 0 -0.02786718631659223 -0.26629816854433541 0 -0.024138618959720269 -0.26725153885115888 0 -0.024914559918480711 -0.2642194624392063 0 -0.027014911018030791 -0.27056039004226012 0 -0.020220507805992421 -0.27318944605021728 0 -0.02142620416236702 -0.26927170157164471 0 -0.024138618959720269 -0.26725153885115888 0 -0.02142620416236702 -0.26927170157164471 0 -0.020604371772491019 -0.26516623723233079 0 -0.02142620416236702 -0.26927170157164471 0 -0.015152611255600631 -0.27019089568225629 0 -0.020604371772491019 -0.26516623723233079 0 -0.020220507805992421 -0.27318944605021728 0 -0.02142620416236702 -0.26927170157164471 0 -0.015152611255600631 -0.27019089568225629 0 -0.020220507805992421 -0.27318944605021728 0 -0.017724407550019781 -0.2781084902489287 0 -0.015152611255600631 -0.27019089568225629 0 -0.027014911018030791 -0.27056039004226012 0 -0.020220507805992421 -0.27318944605021728 0 -0.017724407550019781 -0.2781084902489287 0 -0.01020363399224289 -0.2795323802834469 0 -0.0047259481970078534 -0.27211653938485081 0 -0.015152611255600631 -0.27019089568225629 0 -0.017724407550019781 -0.2781084902489287 0 -0.01020363399224289 -0.2795323802834469 0 -0.015152611255600631 -0.27019089568225629 0 -0.00061854659909016591 -0.28173529456410179 0 -0.01020363399224289 -0.2795323802834469 0 -0.0047259481970078534 -0.27211653938485081 0 -0.0047259481970078534 -0.27211653938485081 0 -0.0093239057790039433 -0.26167322197863441 0 -0.00033550809608256442 -0.26383920917593712 0 -0.0047259481970078534 -0.27211653938485081 0 -0.015152611255600631 -0.27019089568225629 0 -0.0093239057790039433 -0.26167322197863441 0 -0.015152611255600631 -0.27019089568225629 0 -0.0093239057790039433 -0.26167322197863441 0 -0.01690208250329147 -0.26028505579545891 0 -0.0093239057790039433 -0.26167322197863441 0 -0.00033550809608256442 -0.26383920917593712 0 -0.001510810221741861 -0.25277351325326169 0 -0.0093239057790039433 -0.26167322197863441 0 -0.001510810221741861 -0.25277351325326169 0 -0.014031519585774321 -0.25112226938177401 0 -0.0093239057790039433 -0.26167322197863441 0 -0.014031519585774321 -0.25112226938177401 0 -0.01690208250329147 -0.26028505579545891 0 -0.014031519585774321 -0.25112226938177401 0 -0.019283381092324411 -0.2547374178184304 0 -0.01690208250329147 -0.26028505579545891 0 -0.014031519585774321 -0.25112226938177401 0 -0.019283381092324411 -0.2547374178184304 0 -0.024155395764162899 -0.24937715339561889 0 -0.019283381092324411 -0.2547374178184304 0 -0.023359022090359321 -0.2590509616858272 0 -0.024155395764162899 -0.24937715339561889 0 -0.015152611255600631 -0.27019089568225629 0 -0.01690208250329147 -0.26028505579545891 0 -0.020604371772491019 -0.26516623723233079 0 -0.024138618959720269 -0.26725153885115888 0 -0.020604371772491019 -0.26516623723233079 0 -0.024914559918480711 -0.2642194624392063 0 -0.020604371772491019 -0.26516623723233079 0 -0.023359022090359321 -0.2590509616858272 0 -0.024914559918480711 -0.2642194624392063 0 -0.01690208250329147 -0.26028505579545891 0 -0.020604371772491019 -0.26516623723233079 0 -0.023359022090359321 -0.2590509616858272 0 -0.019283381092324411 -0.2547374178184304 0 -0.01690208250329147 -0.26028505579545891 0 -0.023359022090359321 -0.2590509616858272 0 -0.023359022090359321 -0.2590509616858272 0 -0.02831865090214199 -0.26259560510935032 0 -0.028806566436616821 -0.25712076118453608 0 -0.023359022090359321 -0.2590509616858272 0 -0.024914559918480711 -0.2642194624392063 0 -0.02831865090214199 -0.26259560510935032 0 -0.02786718631659223 -0.26629816854433541 0 -0.024914559918480711 -0.2642194624392063 0 -0.02831865090214199 -0.26259560510935032 0 -0.02786718631659223 -0.26629816854433541 0 -0.02831865090214199 -0.26259560510935032 0 -0.030215101531159309 -0.26477888704019442 0 -0.02831865090214199 -0.26259560510935032 0 -0.031072729037309978 -0.26323928510488459 0 -0.031196565964253801 -0.26139142239888857 0 -0.02831865090214199 -0.26259560510935032 0 -0.031072729037309978 -0.26323928510488459 0 -0.030215101531159309 -0.26477888704019442 0 -0.0336587369974755 -0.25917000313253019 0 -0.031196565964253801 -0.26139142239888857 0 -0.028806566436616821 -0.25712076118453608 0 -0.02831865090214199 -0.26259560510935032 0 -0.031196565964253801 -0.26139142239888857 0 -0.028806566436616821 -0.25712076118453608 0 -0.023359022090359321 -0.2590509616858272 0 -0.028806566436616821 -0.25712076118453608 0 -0.024155395764162899 -0.24937715339561889 0 -0.031880318210837193 -0.25089372004459443 0 -0.028806566436616821 -0.25712076118453608 0 -0.024155395764162899 -0.24937715339561889 0 -0.050893523408247557 -0.35131785884634392 0 -0.043274061841374327 -0.33682302904008737 0 -0.029557894315415351 -0.3505239399178201 0 -0.050893523408247557 -0.35131785884634392 0 -0.029557894315415351 -0.3505239399178201 0 -0.041338359800466302 -0.37564266004082197 0 -0.061714337629732149 -0.36679772600628691 0 -0.050893523408247557 -0.35131785884634392 0 -0.041338359800466302 -0.37564266004082197 0 -0.072567238669347126 -0.34701928557436418 0 -0.061714337629732149 -0.36679772600628691 0 -0.050893523408247557 -0.35131785884634392 0 -0.050893523408247557 -0.35131785884634392 0 -0.058200994957894797 -0.3324420697873568 0 -0.043274061841374327 -0.33682302904008737 0 -0.058200994957894797 -0.3324420697873568 0 -0.044992351563883523 -0.31890193927927812 0 -0.043274061841374327 -0.33682302904008737 0 -0.072567238669347126 -0.34701928557436418 0 -0.050893523408247557 -0.35131785884634392 0 -0.058200994957894797 -0.3324420697873568 0 -0.063031255160024932 -0.31510241460583688 0 -0.058200994957894797 -0.3324420697873568 0 -0.044992351563883523 -0.31890193927927812 0 -0.044992351563883523 -0.31890193927927812 0 -0.028886411757406551 -0.32926816124124803 0 -0.0276593991479826 -0.31331556602663702 0 -0.043274061841374327 -0.33682302904008737 0 -0.028886411757406551 -0.32926816124124803 0 -0.029557894315415351 -0.3505239399178201 0 -0.044992351563883523 -0.31890193927927812 0 -0.043274061841374327 -0.33682302904008737 0 -0.028886411757406551 -0.32926816124124803 0 -0.028886411757406551 -0.32926816124124803 0 -0.010618265006350439 -0.33417493371896828 0 -0.029557894315415351 -0.3505239399178201 0 -0.028886411757406551 -0.32926816124124803 0 -0.016244304552074419 -0.32052088764158299 0 -0.010618265006350439 -0.33417493371896828 0 -0.028886411757406551 -0.32926816124124803 0 -0.0276593991479826 -0.31331556602663702 0 -0.016244304552074419 -0.32052088764158299 0 -0.016782966440239241 -0.30994556998019918 0 -0.0276593991479826 -0.31331556602663702 0 -0.016244304552074419 -0.32052088764158299 0 -0.0070741571180920398 -0.31092376429892371 0 -0.016244304552074419 -0.32052088764158299 0 -0.0054517495712185357 -0.31972239223645271 0 -0.016782966440239241 -0.30994556998019918 0 -0.0070741571180920398 -0.31092376429892371 0 -0.016244304552074419 -0.32052088764158299 0 -0.016244304552074419 -0.32052088764158299 0 -0.0054517495712185357 -0.31972239223645271 0 -0.010618265006350439 -0.33417493371896828 0 -0.0054517495712185357 -0.31972239223645271 0 -0.010618265006350439 -0.33417493371896828 0 0.0039377926388811518 -0.32867857509459741 0 -0.010618265006350439 -0.33417493371896828 0 -0.0066744630276010571 -0.35903915010010617 0 0.0088522424624832632 -0.34392834343935302 0 -0.010618265006350439 -0.33417493371896828 0 -0.0066744630276010571 -0.35903915010010617 0 -0.029557894315415351 -0.3505239399178201 0 -0.029557894315415351 -0.3505239399178201 0 -0.020702940397802509 -0.37198277830837168 0 -0.041338359800466302 -0.37564266004082197 0 -0.0066744630276010571 -0.35903915010010617 0 -0.029557894315415351 -0.3505239399178201 0 -0.020702940397802509 -0.37198277830837168 0 -0.0066744630276010571 -0.35903915010010617 0 -0.020702940397802509 -0.37198277830837168 0 -0.0033031809835240762 -0.3827111190810556 0 -0.0033031809835240762 -0.3827111190810556 0 -0.0073203970132289953 -0.40291480216420089 0 0.0098767038162855415 -0.40124885723371501 0 -0.0033031809835240762 -0.3827111190810556 0 -0.0073203970132289953 -0.40291480216420089 0 -0.023292306195520279 -0.39161388088566468 0 -0.0073203970132289953 -0.40291480216420089 0 -0.023292306195520279 -0.39161388088566468 0 -0.025812214961824301 -0.4127616490708676 0 -0.023292306195520279 -0.39161388088566468 0 -0.041773390577333279 -0.39696712914696441 0 -0.025812214961824301 -0.4127616490708676 0 -0.020702940397802509 -0.37198277830837168 0 -0.023292306195520279 -0.39161388088566468 0 -0.041338359800466302 -0.37564266004082197 0 -0.020702940397802509 -0.37198277830837168 0 -0.0033031809835240762 -0.3827111190810556 0 -0.023292306195520279 -0.39161388088566468 0 -0.023292306195520279 -0.39161388088566468 0 -0.041338359800466302 -0.37564266004082197 0 -0.041773390577333279 -0.39696712914696441 0 -0.041773390577333279 -0.39696712914696441 0 -0.061092739442380452 -0.38727667316948511 0 -0.061183064168807873 -0.40695060698576002 0 -0.041773390577333279 -0.39696712914696441 0 -0.061183064168807873 -0.40695060698576002 0 -0.046441243442474578 -0.41237504916500223 0 -0.041338359800466302 -0.37564266004082197 0 -0.041773390577333279 -0.39696712914696441 0 -0.061092739442380452 -0.38727667316948511 0 -0.061714337629732149 -0.36679772600628691 0 -0.041338359800466302 -0.37564266004082197 0 -0.061092739442380452 -0.38727667316948511 0 -0.059019796007110208 -0.42441925283403131 0 -0.042353972094622098 -0.42794704526639782 0 -0.055153233941794708 -0.44329158975634342 0 -0.059019796007110208 -0.42441925283403131 0 -0.055153233941794708 -0.44329158975634342 0 -0.072324146230539996 -0.43581348918522822 0 -0.059019796007110208 -0.42441925283403131 0 -0.046441243442474578 -0.41237504916500223 0 -0.042353972094622098 -0.42794704526639782 0 -0.059019796007110208 -0.42441925283403131 0 -0.061183064168807873 -0.40695060698576002 0 -0.046441243442474578 -0.41237504916500223 0 -0.041773390577333279 -0.39696712914696441 0 -0.046441243442474578 -0.41237504916500223 0 -0.025812214961824301 -0.4127616490708676 0 -0.046441243442474578 -0.41237504916500223 0 -0.042353972094622098 -0.42794704526639782 0 -0.025812214961824301 -0.4127616490708676 0 -0.042353972094622098 -0.42794704526639782 0 -0.017569316592489261 -0.43541512649676228 0 -0.036577041785203372 -0.44776344434227611 0 -0.042353972094622098 -0.42794704526639782 0 -0.017569316592489261 -0.43541512649676228 0 -0.025812214961824301 -0.4127616490708676 0 -0.0073203970132289953 -0.40291480216420089 0 -0.025812214961824301 -0.4127616490708676 0 -0.0019565050565652298 -0.42196811447285137 0 -0.017569316592489261 -0.43541512649676228 0 -0.0019565050565652298 -0.42196811447285137 0 0.002655025436317683 -0.44533851880689329 0 -0.017569316592489261 -0.43541512649676228 0 -0.025812214961824301 -0.4127616490708676 0 -0.0019565050565652298 -0.42196811447285137 0 -0.017569316592489261 -0.43541512649676228 0 -0.018185795031759201 -0.45514663733827859 0 0.002655025436317683 -0.44533851880689329 0 -0.003129068968718052 -0.46659805368126961 0 -0.018185795031759201 -0.45514663733827859 0 -0.019247543457565859 -0.47856702898329528 0 -0.003129068968718052 -0.46659805368126961 0 -0.018185795031759201 -0.45514663733827859 0 0.002655025436317683 -0.44533851880689329 0 -0.018185795031759201 -0.45514663733827859 0 -0.019247543457565859 -0.47856702898329528 0 -0.035207103556577968 -0.46365462102263272 0 -0.018185795031759201 -0.45514663733827859 0 -0.036577041785203372 -0.44776344434227611 0 -0.035207103556577968 -0.46365462102263272 0 -0.017569316592489261 -0.43541512649676228 0 -0.018185795031759201 -0.45514663733827859 0 -0.036577041785203372 -0.44776344434227611 0 -0.0069237393158930183 -0.5 0 -0.019247543457565859 -0.47856702898329528 0 0.0082302100783460709 -0.48347212125408712 0 -0.003129068968718052 -0.46659805368126961 0 -0.019247543457565859 -0.47856702898329528 0 0.0082302100783460709 -0.48347212125408712 0 -0.0069237393158930183 -0.5 0 -0.019247543457565859 -0.47856702898329528 0 -0.034309360616609219 -0.5 0 -0.019247543457565859 -0.47856702898329528 0 -0.034309360616609219 -0.5 0 -0.045205617044053577 -0.48147648634868551 0 -0.019247543457565859 -0.47856702898329528 0 -0.045205617044053577 -0.48147648634868551 0 -0.035207103556577968 -0.46365462102263272 0 -0.045205617044053577 -0.48147648634868551 0 -0.035207103556577968 -0.46365462102263272 0 -0.050990499746280928 -0.46150436293512809 0 -0.045205617044053577 -0.48147648634868551 0 -0.050990499746280928 -0.46150436293512809 0 -0.06523803668839688 -0.47860449639507552 0 -0.034309360616609219 -0.5 0 -0.045205617044053577 -0.48147648634868551 0 -0.061694981917325482 -0.49999999999999911 0 -0.045205617044053577 -0.48147648634868551 0 -0.061694981917325482 -0.49999999999999911 0 -0.06523803668839688 -0.47860449639507552 0 -0.042353972094622098 -0.42794704526639782 0 -0.036577041785203372 -0.44776344434227611 0 -0.055153233941794708 -0.44329158975634342 0 -0.036577041785203372 -0.44776344434227611 0 -0.035207103556577968 -0.46365462102263272 0 -0.050990499746280928 -0.46150436293512809 0 -0.050990499746280928 -0.46150436293512809 0 -0.055153233941794708 -0.44329158975634342 0 -0.068781091459468438 -0.45720899279015192 0 -0.050990499746280928 -0.46150436293512809 0 -0.068781091459468438 -0.45720899279015192 0 -0.06523803668839688 -0.47860449639507552 0 -0.036577041785203372 -0.44776344434227611 0 -0.050990499746280928 -0.46150436293512809 0 -0.055153233941794708 -0.44329158975634342 0 -0.068781091459468438 -0.45720899279015192 0 -0.085970229547550875 -0.44190070246424101 0 -0.072324146230539996 -0.43581348918522822 0 -0.068781091459468438 -0.45720899279015192 0 -0.072324146230539996 -0.43581348918522822 0 -0.055153233941794708 -0.44329158975634342 0 -0.068781091459468438 -0.45720899279015192 0 -0.072324146230539996 -0.43581348918522822 0 -0.068781091459468438 -0.45720899279015192 0 -0.06523803668839688 -0.47860449639507552 0 -0.068781091459468438 -0.45720899279015192 0 -0.085970229547550875 -0.44190070246424101 0 -0.080735674203375352 -0.47095035123212259 0 -0.091681072478313849 -0.4665432477647351 0 -0.085970229547550875 -0.44190070246424101 0 -0.080735674203375352 -0.47095035123212259 0 -0.085970229547550875 -0.44190070246424101 0 -0.080735674203375352 -0.47095035123212259 0 -0.091681072478313849 -0.4665432477647351 0 -0.085970229547550875 -0.44190070246424101 0 -0.10042385651833891 -0.46157945996112432 0 -0.075501118859199079 -0.50000000000000422 0 -0.080735674203375352 -0.47095035123212259 0 -0.061694981917325482 -0.49999999999999911 0 -0.06523803668839688 -0.47860449639507552 0 -0.061694981917325482 -0.49999999999999911 0 -0.075501118859199079 -0.50000000000000422 0 -0.06523803668839688 -0.47860449639507552 0 -0.075501118859199079 -0.50000000000000422 0 -0.06523803668839688 -0.47860449639507552 0 -0.080735674203375352 -0.47095035123212259 0 -0.068781091459468438 -0.45720899279015192 0 -0.06523803668839688 -0.47860449639507552 0 -0.080735674203375352 -0.47095035123212259 0 -0.075501118859199079 -0.50000000000000422 0 -0.080735674203375352 -0.47095035123212259 0 -0.09925167835492521 -0.48082516031177791 0 -0.091681072478313849 -0.4665432477647351 0 -0.080735674203375352 -0.47095035123212259 0 -0.09925167835492521 -0.48082516031177791 0 -0.075501118859199079 -0.50000000000000422 0 -0.1012756612019132 -0.5 0 -0.09925167835492521 -0.48082516031177791 0 -0.1012756612019132 -0.5 0 -0.09925167835492521 -0.48082516031177791 0 -0.1195753894195599 -0.48123147416630702 0 -0.091681072478313849 -0.4665432477647351 0 -0.09925167835492521 -0.48082516031177791 0 -0.1016077754378425 -0.4686758341472585 0 -0.09925167835492521 -0.48082516031177791 0 -0.1108009343901038 -0.47137875416831893 0 -0.1016077754378425 -0.4686758341472585 0 -0.09925167835492521 -0.48082516031177791 0 -0.1195753894195599 -0.48123147416630702 0 -0.1108009343901038 -0.47137875416831893 0 -0.1195753894195599 -0.48123147416630702 0 -0.1108009343901038 -0.47137875416831893 0 -0.11909264355961 -0.46496431345098987 0 -0.1270502035446272 -0.5 0 -0.1012756612019132 -0.5 0 -0.1195753894195599 -0.48123147416630702 0 -0.085970229547550875 -0.44190070246424101 0 -0.10042385651833891 -0.46157945996112432 0 -0.1015810664520411 -0.43626349770557571 0 -0.10042385651833891 -0.46157945996112432 0 -0.1015810664520411 -0.43626349770557571 0 -0.1053381758215646 -0.45020898247329139 0 -0.11771078678252581 -0.44961166302436911 0 -0.1015810664520411 -0.43626349770557571 0 -0.1053381758215646 -0.45020898247329139 0 -0.10042385651833891 -0.46157945996112432 0 -0.1015810664520411 -0.43626349770557571 0 -0.091681072478313849 -0.4665432477647351 0 -0.10042385651833891 -0.46157945996112432 0 -0.1016077754378425 -0.4686758341472585 0 -0.1108009343901038 -0.47137875416831893 0 -0.1016077754378425 -0.4686758341472585 0 -0.10552979805186211 -0.46259452135685247 0 -0.10042385651833891 -0.46157945996112432 0 -0.1016077754378425 -0.4686758341472585 0 -0.10552979805186211 -0.46259452135685247 0 -0.1053381758215646 -0.45020898247329139 0 -0.10042385651833891 -0.46157945996112432 0 -0.1052500783497919 -0.45626793954501199 0 -0.10042385651833891 -0.46157945996112432 0 -0.10552979805186211 -0.46259452135685247 0 -0.1052500783497919 -0.45626793954501199 0 -0.10552979805186211 -0.46259452135685247 0 -0.11771078678252581 -0.44961166302436911 0 -0.10552979805186211 -0.46259452135685247 0 -0.1052500783497919 -0.45626793954501199 0 -0.11771078678252581 -0.44961166302436911 0 -0.13800695393170259 -0.46640777534957861 0 -0.11909264355961 -0.46496431345098987 0 -0.11771078678252581 -0.44961166302436911 0 -0.10552979805186211 -0.46259452135685247 0 -0.11909264355961 -0.46496431345098987 0 -0.11771078678252581 -0.44961166302436911 0 -0.1108009343901038 -0.47137875416831893 0 -0.10552979805186211 -0.46259452135685247 0 -0.11909264355961 -0.46496431345098987 0 -0.11771078678252581 -0.44961166302436911 0 -0.11675307199004981 -0.42798993363277749 0 -0.1015810664520411 -0.43626349770557571 0 -0.11771078678252581 -0.44961166302436911 0 -0.1015810664520411 -0.43626349770557571 0 -0.1053381758215646 -0.45020898247329139 0 -0.1052500783497919 -0.45626793954501199 0 -0.11771078678252581 -0.44961166302436911 0 -0.13329008540230969 -0.43300678542596049 0 -0.11771078678252581 -0.44961166302436911 0 -0.11675307199004981 -0.42798993363277749 0 -0.13329008540230969 -0.43300678542596049 0 -0.11675307199004981 -0.42798993363277749 0 -0.12302216387698379 -0.41305217270374361 0 -0.11675307199004981 -0.42798993363277749 0 -0.1015810664520411 -0.43626349770557571 0 -0.102759268784925 -0.410488290528426 0 -0.1015810664520411 -0.43626349770557571 0 -0.102759268784925 -0.410488290528426 0 -0.09301394768524078 -0.42917377046530858 0 -0.1015810664520411 -0.43626349770557571 0 -0.102759268784925 -0.410488290528426 0 -0.1015810664520411 -0.43626349770557571 0 -0.09301394768524078 -0.42917377046530858 0 -0.102759268784925 -0.410488290528426 0 -0.09301394768524078 -0.42917377046530858 0 -0.09120478489172644 -0.41285105369635922 0 -0.11675307199004981 -0.42798993363277749 0 -0.102759268784925 -0.410488290528426 0 -0.12302216387698379 -0.41305217270374361 0 -0.102759268784925 -0.410488290528426 0 -0.12302216387698379 -0.41305217270374361 0 -0.11584564158171951 -0.39781525162116538 0 -0.13274886960764071 -0.39254721408582349 0 -0.12302216387698379 -0.41305217270374361 0 -0.11584564158171951 -0.39781525162116538 0 -0.13274886960764071 -0.39254721408582349 0 -0.11584564158171951 -0.39781525162116538 0 -0.1189322715291658 -0.37574254512997513 0 -0.11584564158171951 -0.39781525162116538 0 -0.1189322715291658 -0.37574254512997513 0 -0.10393747111780779 -0.38471308335127641 0 -0.1051156734506907 -0.35893787617412681 0 -0.10393747111780779 -0.38471308335127641 0 -0.096439340235901991 -0.38380140492847742 0 -0.102759268784925 -0.410488290528426 0 -0.096439340235901991 -0.38380140492847742 0 -0.09120478489172644 -0.41285105369635922 0 -0.102759268784925 -0.410488290528426 0 -0.10393747111780779 -0.38471308335127641 0 -0.096439340235901991 -0.38380140492847742 0 -0.102759268784925 -0.410488290528426 0 -0.11584564158171951 -0.39781525162116538 0 -0.10393747111780779 -0.38471308335127641 0 -0.102759268784925 -0.410488290528426 0 -0.10393747111780779 -0.38471308335127641 0 -0.096439340235901991 -0.38380140492847742 0 -0.09120478489172644 -0.41285105369635922 0 -0.096439340235901991 -0.38380140492847742 0 -0.078284729066313216 -0.39713814526901858 0 -0.09120478489172644 -0.41285105369635922 0 -0.096439340235901991 -0.38380140492847742 0 -0.078284729066313216 -0.39713814526901858 0 -0.076602173866185466 -0.37899516807196509 0 -0.082761741444743214 -0.36295512927130358 0 -0.096439340235901991 -0.38380140492847742 0 -0.076602173866185466 -0.37899516807196509 0 -0.061714337629732149 -0.36679772600628691 0 -0.061092739442380452 -0.38727667316948511 0 -0.076602173866185466 -0.37899516807196509 0 -0.061092739442380452 -0.38727667316948511 0 -0.078284729066313216 -0.39713814526901858 0 -0.076602173866185466 -0.37899516807196509 0 -0.061092739442380452 -0.38727667316948511 0 -0.061183064168807873 -0.40695060698576002 0 -0.078284729066313216 -0.39713814526901858 0 -0.059019796007110208 -0.42441925283403131 0 -0.061183064168807873 -0.40695060698576002 0 -0.075235503417459687 -0.41992902599806331 0 -0.061183064168807873 -0.40695060698576002 0 -0.078284729066313216 -0.39713814526901858 0 -0.075235503417459687 -0.41992902599806331 0 -0.059019796007110208 -0.42441925283403131 0 -0.075235503417459687 -0.41992902599806331 0 -0.072324146230539996 -0.43581348918522822 0 -0.085970229547550875 -0.44190070246424101 0 -0.075235503417459687 -0.41992902599806331 0 -0.072324146230539996 -0.43581348918522822 0 -0.085970229547550875 -0.44190070246424101 0 -0.075235503417459687 -0.41992902599806331 0 -0.09120478489172644 -0.41285105369635922 0 -0.085970229547550875 -0.44190070246424101 0 -0.09120478489172644 -0.41285105369635922 0 -0.085970229547550875 -0.44190070246424101 0 -0.09301394768524078 -0.42917377046530858 0 -0.09120478489172644 -0.41285105369635922 0 -0.085970229547550875 -0.44190070246424101 0 -0.1015810664520411 -0.43626349770557571 0 -0.09301394768524078 -0.42917377046530858 0 -0.078284729066313216 -0.39713814526901858 0 -0.075235503417459687 -0.41992902599806331 0 -0.09120478489172644 -0.41285105369635922 0 -0.089699973839013097 -0.090525838666900435 0 -0.082789126910612756 -0.073088268147026236 0 -0.097347988380157263 -0.075348721121010931 0 -0.089699973839013097 -0.090525838666900435 0 -0.082789126910612756 -0.073088268147026236 0 -0.063078842085766154 -0.078121667866603989 0 -0.082789126910612756 -0.073088268147026236 0 -0.09162783130034631 -0.061641732814608538 0 -0.07255492468005105 -0.058283613527188131 0 -0.082789126910612756 -0.073088268147026236 0 -0.097347988380157263 -0.075348721121010931 0 -0.09162783130034631 -0.061641732814608538 0 -0.082789126910612756 -0.073088268147026236 0 -0.063078842085766154 -0.078121667866603989 0 -0.07255492468005105 -0.058283613527188131 0 -0.063078842085766154 -0.078121667866603989 0 -0.07255492468005105 -0.058283613527188131 0 -0.054997724621628101 -0.059636050903891152 0 -0.089699973839013097 -0.090525838666900435 0 -0.063078842085766154 -0.078121667866603989 0 -0.067893029618389 -0.098951794120944389 0 -0.089699973839013097 -0.090525838666900435 0 -0.063078842085766154 -0.078121667866603989 0 -0.067893029618389 -0.098951794120944389 0 -0.080510441040965289 -0.1038410274760492 0 -0.062304297730065301 -0.1123017685997421 0 -0.078522510062368378 -0.1172257876245003 0 -0.080510441040965289 -0.1038410274760492 0 -0.062304297730065301 -0.1123017685997421 0 -0.078522510062368378 -0.1172257876245003 0 -0.062304297730065301 -0.1123017685997421 0 -0.078522510062368378 -0.1172257876245003 0 -0.062304297730065301 -0.1123017685997421 0 -0.065115933006631557 -0.12765339529441139 0 -0.078522510062368378 -0.1172257876245003 0 -0.080510441040965289 -0.1038410274760492 0 -0.093059202635019433 -0.1089038583307016 0 -0.078522510062368378 -0.1172257876245003 0 -0.093089417101048594 -0.12127990532557301 0 -0.093059202635019433 -0.1089038583307016 0 -0.078522510062368378 -0.1172257876245003 0 -0.093089417101048594 -0.12127990532557301 0 -0.086459263162554353 -0.1317301929237728 0 -0.089699973839013097 -0.090525838666900435 0 -0.067893029618389 -0.098951794120944389 0 -0.089699973839013097 -0.090525838666900435 0 -0.080510441040965289 -0.1038410274760492 0 -0.093059202635019433 -0.1089038583307016 0 -0.089699973839013097 -0.090525838666900435 0 -0.067893029618389 -0.098951794120944389 0 -0.080510441040965289 -0.1038410274760492 0 -0.089699973839013097 -0.090525838666900435 0 -0.093059202635019433 -0.1089038583307016 0 -0.10579678918726521 -0.098026182708272028 0 -0.093059202635019433 -0.1089038583307016 0 -0.10579678918726521 -0.098026182708272028 0 -0.1065218459736005 -0.1192078747443145 0 -0.089699973839013097 -0.090525838666900435 0 -0.10579678918726521 -0.098026182708272028 0 -0.093089417101048594 -0.12127990532557301 0 -0.1065218459736005 -0.1192078747443145 0 -0.099905664812552336 -0.1339609383297696 0 -0.093089417101048594 -0.12127990532557301 0 -0.093059202635019433 -0.1089038583307016 0 -0.1065218459736005 -0.1192078747443145 0 -0.1065218459736005 -0.1192078747443145 0 -0.11664879964201159 -0.1082148970784014 0 -0.12575745834348909 -0.118558131368756 0 -0.1065218459736005 -0.1192078747443145 0 -0.11992185854996019 -0.13699828593854549 0 -0.12575745834348909 -0.118558131368756 0 -0.11664879964201159 -0.1082148970784014 0 -0.13047512980568579 -0.10480936610769979 0 -0.12575745834348909 -0.118558131368756 0 -0.10579678918726521 -0.098026182708272028 0 -0.1065218459736005 -0.1192078747443145 0 -0.11664879964201159 -0.1082148970784014 0 -0.10579678918726521 -0.098026182708272028 0 -0.11664879964201159 -0.1082148970784014 0 -0.1192851802161416 -0.096470376226369559 0 -0.11664879964201159 -0.1082148970784014 0 -0.1192851802161416 -0.096470376226369559 0 -0.13047512980568579 -0.10480936610769979 0 -0.10579678918726521 -0.098026182708272028 0 -0.1192851802161416 -0.096470376226369559 0 -0.11155880223120621 -0.082079835758539679 0 -0.1192851802161416 -0.096470376226369559 0 -0.11155880223120621 -0.082079835758539679 0 -0.13194638021453911 -0.08922159947893489 0 -0.089699973839013097 -0.090525838666900435 0 -0.11155880223120621 -0.082079835758539679 0 -0.089699973839013097 -0.090525838666900435 0 -0.11155880223120621 -0.082079835758539679 0 -0.097347988380157263 -0.075348721121010931 0 -0.089699973839013097 -0.090525838666900435 0 -0.10579678918726521 -0.098026182708272028 0 -0.11155880223120621 -0.082079835758539679 0 -0.097347988380157263 -0.075348721121010931 0 -0.11281105113450419 -0.06211304987164766 0 -0.09162783130034631 -0.061641732814608538 0 -0.11155880223120621 -0.082079835758539679 0 -0.097347988380157263 -0.075348721121010931 0 -0.11281105113450419 -0.06211304987164766 0 -0.11155880223120621 -0.082079835758539679 0 -0.11281105113450419 -0.06211304987164766 0 -0.13341763062339579 -0.073633832850170278 0 -0.11155880223120621 -0.082079835758539679 0 -0.13341763062339579 -0.073633832850170278 0 -0.11281105113450419 -0.06211304987164766 0 -0.1204163033987028 -0.038726747159081802 0 -0.1036023937606341 -0.043424200413489301 0 -0.11281105113450419 -0.06211304987164766 0 -0.1204163033987028 -0.038726747159081802 0 -0.13545750067410081 -0.052021591920880197 0 -0.1204163033987028 -0.038726747159081802 0 -0.1036023937606341 -0.043424200413489301 0 -0.1085008046593897 -0.01953507807394407 0 -0.1036023937606341 -0.043424200413489301 0 -0.1085008046593897 -0.01953507807394407 0 -0.084655978310227309 -0.035104394148164457 0 -0.11281105113450419 -0.06211304987164766 0 -0.1036023937606341 -0.043424200413489301 0 -0.09162783130034631 -0.061641732814608538 0 -0.1085008046593897 -0.01953507807394407 0 -0.13234563100855259 -0.0039657619997244039 0 -0.1085008046593897 -0.01953507807394407 0 -0.13234563100855259 -0.0039657619997244039 0 -0.12520886773000181 -0.019079771576411109 0 -0.13234563100855259 -0.0039657619997244039 0 -0.11384095251281599 0.001129535286935791 0 -0.1085008046593897 -0.01953507807394407 0 -0.13234563100855259 -0.0039657619997244039 0 -0.11384095251281599 0.001129535286935791 0 -0.1204163033987028 -0.038726747159081802 0 -0.1085008046593897 -0.01953507807394407 0 -0.12520886773000181 -0.019079771576411109 0 -0.1085008046593897 -0.01953507807394407 0 -0.084655978310227309 -0.035104394148164457 0 -0.095494694589637247 -0.0078496957378384399 0 -0.095336274017079642 0.0062248325735965336 0 -0.11384095251281599 0.001129535286935791 0 -0.1085008046593897 -0.01953507807394407 0 -0.095494694589637247 -0.0078496957378384399 0 -0.084801390816588607 -0.017957415335288562 0 -0.1085008046593897 -0.01953507807394407 0 -0.095494694589637247 -0.0078496957378384399 0 -0.11384095251281599 0.001129535286935791 0 -0.080795590375446924 -0.0082522206099432255 0 -0.074156603845683955 -0.003592961947274779 0 -0.083932528361024786 0.0016182416830315149 0 -0.095494694589637247 -0.0078496957378384399 0 -0.080795590375446924 -0.0082522206099432255 0 -0.083932528361024786 0.0016182416830315149 0 -0.095494694589637247 -0.0078496957378384399 0 -0.095336274017079642 0.0062248325735965336 0 -0.083932528361024786 0.0016182416830315149 0 -0.095494694589637247 -0.0078496957378384399 0 -0.080795590375446924 -0.0082522206099432255 0 -0.084801390816588607 -0.017957415335288562 0 -0.080795590375446924 -0.0082522206099432255 0 -0.084801390816588607 -0.017957415335288562 0 -0.072693733308721795 -0.012917396006912029 0 -0.1085008046593897 -0.01953507807394407 0 -0.084801390816588607 -0.017957415335288562 0 -0.084655978310227309 -0.035104394148164457 0 -0.084801390816588607 -0.017957415335288562 0 -0.066667543656108691 -0.024085707434929139 0 -0.084655978310227309 -0.035104394148164457 0 -0.084801390816588607 -0.017957415335288562 0 -0.066667543656108691 -0.024085707434929139 0 -0.072693733308721795 -0.012917396006912029 0 -0.066667543656108691 -0.024085707434929139 0 -0.072693733308721795 -0.012917396006912029 0 -0.061851634605631887 -0.008042828702606683 0 -0.074156603845683955 -0.003592961947274779 0 -0.061851634605631887 -0.008042828702606683 0 -0.072455239660695892 0.009592393793938947 0 -0.080795590375446924 -0.0082522206099432255 0 -0.072693733308721795 -0.012917396006912029 0 -0.074156603845683955 -0.003592961947274779 0 -0.072693733308721795 -0.012917396006912029 0 -0.074156603845683955 -0.003592961947274779 0 -0.061851634605631887 -0.008042828702606683 0 -0.09162783130034631 -0.061641732814608538 0 -0.084655978310227309 -0.035104394148164457 0 -0.07255492468005105 -0.058283613527188131 0 -0.1036023937606341 -0.043424200413489301 0 -0.09162783130034631 -0.061641732814608538 0 -0.084655978310227309 -0.035104394148164457 0 -0.066667543656108691 -0.024085707434929139 0 -0.084655978310227309 -0.035104394148164457 0 -0.059604556448812927 -0.044172806208960372 0 -0.084655978310227309 -0.035104394148164457 0 -0.07255492468005105 -0.058283613527188131 0 -0.059604556448812927 -0.044172806208960372 0 -0.07255492468005105 -0.058283613527188131 0 -0.054997724621628101 -0.059636050903891152 0 -0.059604556448812927 -0.044172806208960372 0 -0.054997724621628101 -0.059636050903891152 0 -0.059604556448812927 -0.044172806208960372 0 -0.043292589560995992 -0.051884669850385819 0 -0.066667543656108691 -0.024085707434929139 0 -0.059604556448812927 -0.044172806208960372 0 -0.052055795522800118 -0.02991021711645786 0 -0.059604556448812927 -0.044172806208960372 0 -0.041806808144938763 -0.039066615272661379 0 -0.052055795522800118 -0.02991021711645786 0 -0.059604556448812927 -0.044172806208960372 0 -0.041806808144938763 -0.039066615272661379 0 -0.043292589560995992 -0.051884669850385819 0 -0.041806808144938763 -0.039066615272661379 0 -0.052055795522800118 -0.02991021711645786 0 -0.039243918393278163 -0.029587598214849058 0 -0.041806808144938763 -0.039066615272661379 0 -0.039243918393278163 -0.029587598214849058 0 -0.027948051601136961 -0.031959773081665997 0 -0.041806808144938763 -0.039066615272661379 0 -0.028695937342608401 -0.046884627163649148 0 -0.027948051601136961 -0.031959773081665997 0 -0.041806808144938763 -0.039066615272661379 0 -0.043292589560995992 -0.051884669850385819 0 -0.028695937342608401 -0.046884627163649148 0 -0.054997724621628101 -0.059636050903891152 0 -0.043292589560995992 -0.051884669850385819 0 -0.036457710332514402 -0.065717497066317451 0 -0.034209011324831652 -0.05600141188231407 0 -0.043292589560995992 -0.051884669850385819 0 -0.028695937342608401 -0.046884627163649148 0 -0.034209011324831652 -0.05600141188231407 0 -0.043292589560995992 -0.051884669850385819 0 -0.036457710332514402 -0.065717497066317451 0 -0.034209011324831652 -0.05600141188231407 0 -0.028082186945539291 -0.06295528312484909 0 -0.036457710332514402 -0.065717497066317451 0 -0.061851634605631887 -0.008042828702606683 0 -0.053375995904104037 -0.016299771759516839 0 -0.064187599919179245 0.0075116766041989028 0 -0.053375995904104037 -0.016299771759516839 0 -0.064187599919179245 0.0075116766041989028 0 -0.058713159124563367 0.0055012229142995736 0 -0.04821375407982418 -0.0034821883700730779 0 -0.053375995904104037 -0.016299771759516839 0 -0.058713159124563367 0.0055012229142995736 0 -0.053375995904104037 -0.016299771759516839 0 -0.064187599919179245 0.0075116766041989028 0 -0.066667543656108691 -0.024085707434929139 0 -0.061851634605631887 -0.008042828702606683 0 -0.053375995904104037 -0.016299771759516839 0 -0.053375995904104037 -0.016299771759516839 0 -0.052055795522800118 -0.02991021711645786 0 -0.044960242381696748 -0.021824076386361729 0 -0.066667543656108691 -0.024085707434929139 0 -0.053375995904104037 -0.016299771759516839 0 -0.052055795522800118 -0.02991021711645786 0 -0.052055795522800118 -0.02991021711645786 0 -0.039243918393278163 -0.029587598214849058 0 -0.044960242381696748 -0.021824076386361729 0 -0.039243918393278163 -0.029587598214849058 0 -0.044960242381696748 -0.021824076386361729 0 -0.03098133830706094 -0.022100266408476149 0 -0.039243918393278163 -0.029587598214849058 0 -0.03098133830706094 -0.022100266408476149 0 -0.027948051601136961 -0.031959773081665997 0 -0.044960242381696748 -0.021824076386361729 0 -0.038243958519376023 -0.01432511778927502 0 -0.03098133830706094 -0.022100266408476149 0 -0.053375995904104037 -0.016299771759516839 0 -0.044960242381696748 -0.021824076386361729 0 -0.038243958519376023 -0.01432511778927502 0 -0.04821375407982418 -0.0034821883700730779 0 -0.038243958519376023 -0.01432511778927502 0 -0.024617756217701899 -0.0074545701729019538 0 -0.04821375407982418 -0.0034821883700730779 0 -0.024617756217701899 -0.0074545701729019538 0 -0.043253111612289168 0.0094147574275557817 0 -0.04821375407982418 -0.0034821883700730779 0 -0.053375995904104037 -0.016299771759516839 0 -0.038243958519376023 -0.01432511778927502 0 -0.016345274944772888 -5.9837842431312287e-05 0 -0.024617756217701899 -0.0074545701729019538 0 -0.02719131736308238 0.0067143628432696709 0 -0.038243958519376023 -0.01432511778927502 0 -0.024617756217701899 -0.0074545701729019538 0 -0.03098133830706094 -0.022100266408476149 0 -0.024617756217701899 -0.0074545701729019538 0 -0.020454052079801052 -0.021836317364412411 0 -0.005813074292167866 -0.02472036588119195 0 -0.024617756217701899 -0.0074545701729019538 0 -0.020454052079801052 -0.021836317364412411 0 -0.03098133830706094 -0.022100266408476149 0 -0.020454052079801052 -0.021836317364412411 0 -0.03098133830706094 -0.022100266408476149 0 -0.027948051601136961 -0.031959773081665997 0 -0.020454052079801052 -0.021836317364412411 0 -0.01410515775171906 -0.027621227178032871 0 -0.027948051601136961 -0.031959773081665997 0 -0.024617756217701899 -0.0074545701729019538 0 -0.005813074292167866 -0.02472036588119195 0 -0.005813074292167866 -0.02472036588119195 0 -0.01725450581738782 -0.035802496522420867 0 -0.01410515775171906 -0.027621227178032871 0 -0.005813074292167866 -0.02472036588119195 0 -0.01725450581738782 -0.035802496522420867 0 -0.020454052079801052 -0.021836317364412411 0 -0.01410515775171906 -0.027621227178032871 0 -0.005813074292167866 -0.02472036588119195 0 -0.016345274944772888 -5.9837842431312287e-05 0 -0.005813074292167866 -0.02472036588119195 0 -0.016345274944772888 -5.9837842431312287e-05 0 -0.024617756217701899 -0.0074545701729019538 0 -0.005813074292167866 -0.02472036588119195 0 -0.016345274944772888 -5.9837842431312287e-05 0 -0.005813074292167866 -0.02472036588119195 0 -0.003591099751689746 -0.01018299648410826 0 -0.016345274944772888 -5.9837842431312287e-05 0 -0.003591099751689746 -0.01018299648410826 0 -0.0052482603672307157 0.002057095947941197 0 -0.023625596958835399 -0.057102663248192999 0 -0.01228945531449979 -0.058337135294586943 0 -0.017260823639655028 -0.065622261911608526 0 -0.023625596958835399 -0.057102663248192999 0 -0.017260823639655028 -0.065622261911608526 0 -0.028082186945539291 -0.06295528312484909 0 -0.018310065601960211 -0.050525674930381313 0 -0.023625596958835399 -0.057102663248192999 0 -0.01228945531449979 -0.058337135294586943 0 -0.034209011324831652 -0.05600141188231407 0 -0.023625596958835399 -0.057102663248192999 0 -0.028082186945539291 -0.06295528312484909 0 -0.034209011324831652 -0.05600141188231407 0 -0.023625596958835399 -0.057102663248192999 0 -0.028695937342608401 -0.046884627163649148 0 -0.018310065601960211 -0.050525674930381313 0 -0.023625596958835399 -0.057102663248192999 0 -0.028695937342608401 -0.046884627163649148 0 -0.028695937342608401 -0.046884627163649148 0 -0.027948051601136961 -0.031959773081665997 0 -0.01725450581738782 -0.035802496522420867 0 -0.01410515775171906 -0.027621227178032871 0 -0.027948051601136961 -0.031959773081665997 0 -0.01725450581738782 -0.035802496522420867 0 -0.018310065601960211 -0.050525674930381313 0 -0.028695937342608401 -0.046884627163649148 0 -0.01725450581738782 -0.035802496522420867 0 -0.028695937342608401 -0.046884627163649148 0 -0.01725450581738782 -0.035802496522420867 0 -0.005813074292167866 -0.02472036588119195 0 0.00046642337409628362 -0.033380920149473532 0 0.002814483829744151 -0.044921285516998553 0 -0.018310065601960211 -0.050525674930381313 0 -0.01725450581738782 -0.035802496522420867 0 -0.0087426541341255378 -0.047415474862958308 0 -0.005813074292167866 -0.02472036588119195 0 -0.0071729667198494537 -0.038293937054934717 0 0.002814483829744151 -0.044921285516998553 0 -0.01725450581738782 -0.035802496522420867 0 -0.0071729667198494537 -0.038293937054934717 0 -0.0087426541341255378 -0.047415474862958308 0 -0.005813074292167866 -0.02472036588119195 0 0.002814483829744151 -0.044921285516998553 0 -0.005813074292167866 -0.02472036588119195 0 -0.01725450581738782 -0.035802496522420867 0 -0.0071729667198494537 -0.038293937054934717 0 -0.0071729667198494537 -0.038293937054934717 0 -0.0087426541341255378 -0.047415474862958308 0 0.002814483829744151 -0.044921285516998553 0 -0.0087426541341255378 -0.047415474862958308 0 -0.01228945531449979 -0.058337135294586943 0 -0.002270358342688527 -0.056514906294131563 0 -0.0087426541341255378 -0.047415474862958308 0 -0.002270358342688527 -0.056514906294131563 0 0.002814483829744151 -0.044921285516998553 0 -0.018310065601960211 -0.050525674930381313 0 -0.0087426541341255378 -0.047415474862958308 0 -0.01228945531449979 -0.058337135294586943 0 -0.01228945531449979 -0.058337135294586943 0 -0.002270358342688527 -0.056514906294131563 0 -0.0047140835063668339 -0.066015472085641277 0 -0.0047140835063668339 -0.066015472085641277 0 -0.0043940961991456237 -0.077827853152212106 0 -0.017260823639655028 -0.065622261911608526 0 -0.01228945531449979 -0.058337135294586943 0 -0.0047140835063668339 -0.066015472085641277 0 -0.017260823639655028 -0.065622261911608526 0 -0.0043940961991456237 -0.077827853152212106 0 -0.01759959773658868 -0.08756283611457169 0 -0.024225962492739971 -0.080326674931663747 0 -0.0043940961991456237 -0.077827853152212106 0 -0.01759959773658868 -0.08756283611457169 0 -0.001486005788280897 -0.093836698563745463 0 -0.01759959773658868 -0.08756283611457169 0 -0.024225962492739971 -0.080326674931663747 0 -0.031671258492691937 -0.088164464478998353 0 -0.01759959773658868 -0.08756283611457169 0 -0.031671258492691937 -0.088164464478998353 0 -0.023786045593021599 -0.1006072240693647 0 -0.0043940961991456237 -0.077827853152212106 0 -0.024225962492739971 -0.080326674931663747 0 -0.028857792471859999 -0.070332581515812453 0 -0.0043940961991456237 -0.077827853152212106 0 -0.017260823639655028 -0.065622261911608526 0 -0.028857792471859999 -0.070332581515812453 0 -0.0043940961991456237 -0.077827853152212106 0 -0.028857792471859999 -0.070332581515812453 0 -0.024225962492739971 -0.080326674931663747 0 -0.028857792471859999 -0.070332581515812453 0 -0.038607067563413637 -0.077745639396724159 0 -0.017260823639655028 -0.065622261911608526 0 -0.028857792471859999 -0.070332581515812453 0 -0.028082186945539291 -0.06295528312484909 0 -0.028857792471859999 -0.070332581515812453 0 -0.028082186945539291 -0.06295528312484909 0 -0.036457710332514402 -0.065717497066317451 0 -0.063078842085766154 -0.078121667866603989 0 -0.036457710332514402 -0.065717497066317451 0 -0.038607067563413637 -0.077745639396724159 0 -0.028857792471859999 -0.070332581515812453 0 -0.036457710332514402 -0.065717497066317451 0 -0.038607067563413637 -0.077745639396724159 0 -0.024225962492739971 -0.080326674931663747 0 -0.038607067563413637 -0.077745639396724159 0 -0.031671258492691937 -0.088164464478998353 0 -0.038607067563413637 -0.077745639396724159 0 -0.031671258492691937 -0.088164464478998353 0 -0.044916219387846033 -0.086759685144075047 0 -0.031671258492691937 -0.088164464478998353 0 -0.044916219387846033 -0.086759685144075047 0 -0.040086728155174861 -0.095653902064004093 0 -0.044916219387846033 -0.086759685144075047 0 -0.053974031904552119 -0.095360387052599527 0 -0.040086728155174861 -0.095653902064004093 0 -0.063078842085766154 -0.078121667866603989 0 -0.044916219387846033 -0.086759685144075047 0 -0.053974031904552119 -0.095360387052599527 0 -0.063078842085766154 -0.078121667866603989 0 -0.038607067563413637 -0.077745639396724159 0 -0.044916219387846033 -0.086759685144075047 0 -0.063078842085766154 -0.078121667866603989 0 -0.067893029618389 -0.098951794120944389 0 -0.053974031904552119 -0.095360387052599527 0 -0.063078842085766154 -0.078121667866603989 0 -0.036457710332514402 -0.065717497066317451 0 -0.063078842085766154 -0.078121667866603989 0 -0.054997724621628101 -0.059636050903891152 0 -0.036457710332514402 -0.065717497066317451 0 -0.062304297730065301 -0.1123017685997421 0 -0.046086085397762593 -0.10737774957498281 0 -0.0535350164673076 -0.1202261132703745 0 -0.062304297730065301 -0.1123017685997421 0 -0.046086085397762593 -0.10737774957498281 0 -0.0535350164673076 -0.1202261132703745 0 -0.046086085397762593 -0.10737774957498281 0 -0.042290176612850228 -0.1227765648411378 0 -0.0535350164673076 -0.1202261132703745 0 -0.042290176612850228 -0.1227765648411378 0 -0.051878589589228308 -0.13102108804159829 0 -0.0535350164673076 -0.1202261132703745 0 -0.062304297730065301 -0.1123017685997421 0 -0.065115933006631557 -0.12765339529441139 0 -0.067893029618389 -0.098951794120944389 0 -0.046086085397762593 -0.10737774957498281 0 -0.067893029618389 -0.098951794120944389 0 -0.053974031904552119 -0.095360387052599527 0 -0.046086085397762593 -0.10737774957498281 0 -0.067893029618389 -0.098951794120944389 0 -0.062304297730065301 -0.1123017685997421 0 -0.046086085397762593 -0.10737774957498281 0 -0.046086085397762593 -0.10737774957498281 0 -0.040086728155174861 -0.095653902064004093 0 -0.023786045593021599 -0.1006072240693647 0 -0.046086085397762593 -0.10737774957498281 0 -0.023786045593021599 -0.1006072240693647 0 -0.031671258492691937 -0.088164464478998353 0 -0.040086728155174861 -0.095653902064004093 0 -0.023786045593021599 -0.1006072240693647 0 -0.053974031904552119 -0.095360387052599527 0 -0.046086085397762593 -0.10737774957498281 0 -0.040086728155174861 -0.095653902064004093 0 -0.046086085397762593 -0.10737774957498281 0 -0.022556403231191211 -0.1164693513958196 0 -0.046086085397762593 -0.10737774957498281 0 -0.042290176612850228 -0.1227765648411378 0 -0.022556403231191211 -0.1164693513958196 0 -0.042290176612850228 -0.1227765648411378 0 -0.022556403231191211 -0.1164693513958196 0 -0.031526621196261352 -0.1305992904869156 0 -0.046086085397762593 -0.10737774957498281 0 -0.022556403231191211 -0.1164693513958196 0 -0.023786045593021599 -0.1006072240693647 0 -0.022556403231191211 -0.1164693513958196 0 -0.023786045593021599 -0.1006072240693647 0 -0.0046917501264864738 -0.109536999488592 0 -0.001486005788280897 -0.093836698563745463 0 -0.0046917501264864738 -0.109536999488592 0 0.0035020423419337321 -0.1027647645242631 0 -0.023786045593021599 -0.1006072240693647 0 -0.001486005788280897 -0.093836698563745463 0 -0.0046917501264864738 -0.109536999488592 0 -0.01759959773658868 -0.08756283611457169 0 -0.023786045593021599 -0.1006072240693647 0 -0.001486005788280897 -0.093836698563745463 0 -0.023786045593021599 -0.1006072240693647 0 -0.001486005788280897 -0.093836698563745463 0 -0.022556403231191211 -0.1164693513958196 0 0.00097327893537976773 -0.12556095321665789 0 -0.022556403231191211 -0.1164693513958196 0 -0.0046917501264864738 -0.109536999488592 0 0.00097327893537976773 -0.12556095321665789 0 -0.016431003217589491 -0.133983200914814 0 -0.001961638116720686 -0.14592762570770251 0 0.00097327893537976773 -0.12556095321665789 0 -0.022556403231191211 -0.1164693513958196 0 -0.016431003217589491 -0.133983200914814 0 0.00097327893537976773 -0.12556095321665789 0 -0.016431003217589491 -0.133983200914814 0 -0.03306256476601839 -0.14644235916348411 0 -0.016431003217589491 -0.133983200914814 0 -0.031526621196261352 -0.1305992904869156 0 -0.03306256476601839 -0.14644235916348411 0 -0.022556403231191211 -0.1164693513958196 0 -0.016431003217589491 -0.133983200914814 0 -0.031526621196261352 -0.1305992904869156 0 -0.016431003217589491 -0.133983200914814 0 -0.015468653670210121 -0.1478238894616955 0 -0.03306256476601839 -0.14644235916348411 0 -0.015468653670210121 -0.1478238894616955 0 -0.020449169499006121 -0.15882962947088891 0 -0.03306256476601839 -0.14644235916348411 0 -0.015468653670210121 -0.1478238894616955 0 -0.001961638116720686 -0.14592762570770251 0 -0.0071662117369407511 -0.1594573083500663 0 -0.015468653670210121 -0.1478238894616955 0 -0.0071662117369407511 -0.1594573083500663 0 -0.020449169499006121 -0.15882962947088891 0 -0.016431003217589491 -0.133983200914814 0 -0.015468653670210121 -0.1478238894616955 0 -0.001961638116720686 -0.14592762570770251 0 -0.0071662117369407511 -0.1594573083500663 0 -0.0027936417271558888 -0.17160499997831419 0 -0.01593091999987329 -0.17051719069976351 0 -0.0071662117369407511 -0.1594573083500663 0 -0.020449169499006121 -0.15882962947088891 0 -0.01593091999987329 -0.17051719069976351 0 -0.0089652317347231128 -0.18364248740401021 0 0.0016359862684524481 -0.18942911992672809 0 0.0065003541806678677 -0.17804971003118211 0 -0.0027936417271558888 -0.17160499997831419 0 -0.0089652317347231128 -0.18364248740401021 0 0.0065003541806678677 -0.17804971003118211 0 -0.0027936417271558888 -0.17160499997831419 0 -0.0089652317347231128 -0.18364248740401021 0 -0.01593091999987329 -0.17051719069976351 0 -0.0089652317347231128 -0.18364248740401021 0 -0.02600105781762295 -0.18208960776635619 0 -0.019022700969370889 -0.1953989790775317 0 -0.0089652317347231128 -0.18364248740401021 0 -0.02600105781762295 -0.18208960776635619 0 -0.01593091999987329 -0.17051719069976351 0 -0.02600105781762295 -0.18208960776635619 0 -0.01593091999987329 -0.17051719069976351 0 -0.029110422873197601 -0.1662649858012708 0 -0.020449169499006121 -0.15882962947088891 0 -0.029110422873197601 -0.1662649858012708 0 -0.03306256476601839 -0.14644235916348411 0 -0.020449169499006121 -0.15882962947088891 0 -0.01593091999987329 -0.17051719069976351 0 -0.029110422873197601 -0.1662649858012708 0 -0.039404676258886738 -0.1630246251009336 0 -0.039814148897778137 -0.17668650260619881 0 -0.058689842782311832 -0.17455121098072571 0 -0.029110422873197601 -0.1662649858012708 0 -0.039404676258886738 -0.1630246251009336 0 -0.03306256476601839 -0.14644235916348411 0 -0.029110422873197601 -0.1662649858012708 0 -0.039404676258886738 -0.1630246251009336 0 -0.039814148897778137 -0.17668650260619881 0 -0.039814148897778137 -0.17668650260619881 0 -0.058689842782311832 -0.17455121098072571 0 -0.038290277728863238 -0.194153359351806 0 -0.02600105781762295 -0.18208960776635619 0 -0.029110422873197601 -0.1662649858012708 0 -0.039814148897778137 -0.17668650260619881 0 -0.02600105781762295 -0.18208960776635619 0 -0.039814148897778137 -0.17668650260619881 0 -0.038290277728863238 -0.194153359351806 0 -0.058689842782311832 -0.17455121098072571 0 -0.038290277728863238 -0.194153359351806 0 -0.051706219193169679 -0.1882579885020533 0 -0.058689842782311832 -0.17455121098072571 0 -0.038290277728863238 -0.194153359351806 0 -0.053048675863500407 -0.19749485138515011 0 -0.063253706075729707 -0.17740749642523621 0 -0.05943863871920798 -0.19436479828715311 0 -0.065165146956122147 -0.1785602480649377 0 -0.058689842782311832 -0.17455121098072571 0 -0.063253706075729707 -0.17740749642523621 0 -0.058689842782311832 -0.17455121098072571 0 -0.051706219193169679 -0.1882579885020533 0 -0.063253706075729707 -0.17740749642523621 0 -0.039404676258886738 -0.1630246251009336 0 -0.058689842782311832 -0.17455121098072571 0 -0.049694126314447327 -0.15890151741215419 0 -0.058689842782311832 -0.17455121098072571 0 -0.049694126314447327 -0.15890151741215419 0 -0.067464639236210336 -0.17221389532733569 0 -0.049694126314447327 -0.15890151741215419 0 -0.060773156201230541 -0.16022214524237641 0 -0.067464639236210336 -0.17221389532733569 0 -0.039404676258886738 -0.1630246251009336 0 -0.058689842782311832 -0.17455121098072571 0 -0.049694126314447327 -0.15890151741215419 0 -0.067464639236210336 -0.17221389532733569 0 -0.049694126314447327 -0.15890151741215419 0 -0.060773156201230541 -0.16022214524237641 0 -0.057074100018110759 -0.154654805553089 0 -0.060773156201230541 -0.16022214524237641 0 -0.057074100018110759 -0.154654805553089 0 -0.063795224677962545 -0.1543454538188242 0 -0.060848875666006247 -0.14973185145954471 0 -0.057074100018110759 -0.154654805553089 0 -0.063795224677962545 -0.1543454538188242 0 -0.060848875666006247 -0.14973185145954471 0 -0.057074100018110759 -0.154654805553089 0 -0.055029531528022382 -0.1481041506930105 0 -0.049694126314447327 -0.15890151741215419 0 -0.047929274082635309 -0.14465699972187099 0 -0.055029531528022382 -0.1481041506930105 0 -0.049694126314447327 -0.15890151741215419 0 -0.057074100018110759 -0.154654805553089 0 -0.055029531528022382 -0.1481041506930105 0 -0.047929274082635309 -0.14465699972187099 0 -0.055029531528022382 -0.1481041506930105 0 -0.058867111230580103 -0.13874569073820489 0 -0.055029531528022382 -0.1481041506930105 0 -0.062324241385059258 -0.14490399278410851 0 -0.058867111230580103 -0.13874569073820489 0 -0.060848875666006247 -0.14973185145954471 0 -0.055029531528022382 -0.1481041506930105 0 -0.062324241385059258 -0.14490399278410851 0 -0.0535350164673076 -0.1202261132703745 0 -0.051878589589228308 -0.13102108804159829 0 -0.065115933006631557 -0.12765339529441139 0 -0.058867111230580103 -0.13874569073820489 0 -0.051878589589228308 -0.13102108804159829 0 -0.065115933006631557 -0.12765339529441139 0 -0.047929274082635309 -0.14465699972187099 0 -0.058867111230580103 -0.13874569073820489 0 -0.051878589589228308 -0.13102108804159829 0 -0.047929274082635309 -0.14465699972187099 0 -0.051878589589228308 -0.13102108804159829 0 -0.04184781125051544 -0.1356260364385683 0 -0.04184781125051544 -0.1356260364385683 0 -0.031526621196261352 -0.1305992904869156 0 -0.03306256476601839 -0.14644235916348411 0 -0.042290176612850228 -0.1227765648411378 0 -0.051878589589228308 -0.13102108804159829 0 -0.04184781125051544 -0.1356260364385683 0 -0.042290176612850228 -0.1227765648411378 0 -0.04184781125051544 -0.1356260364385683 0 -0.031526621196261352 -0.1305992904869156 0 -0.049694126314447327 -0.15890151741215419 0 -0.03306256476601839 -0.14644235916348411 0 -0.039404676258886738 -0.1630246251009336 0 -0.049694126314447327 -0.15890151741215419 0 -0.03306256476601839 -0.14644235916348411 0 -0.049694126314447327 -0.15890151741215419 0 -0.047929274082635309 -0.14465699972187099 0 -0.03306256476601839 -0.14644235916348411 0 -0.047929274082635309 -0.14465699972187099 0 -0.04184781125051544 -0.1356260364385683 0 -0.03306256476601839 -0.14644235916348411 0 -0.024155395764162899 -0.24937715339561889 0 -0.026342239913678941 -0.23617634637896789 0 -0.031944671902132203 -0.24344391780457539 0 -0.031880318210837193 -0.25089372004459443 0 -0.024155395764162899 -0.24937715339561889 0 -0.031944671902132203 -0.24344391780457539 0 -0.026342239913678941 -0.23617634637896789 0 -0.017746775597147151 -0.24136888965736761 0 -0.016668235387128371 -0.22707547365749231 0 -0.014031519585774321 -0.25112226938177401 0 -0.024155395764162899 -0.24937715339561889 0 -0.017746775597147151 -0.24136888965736761 0 -0.024155395764162899 -0.24937715339561889 0 -0.026342239913678941 -0.23617634637896789 0 -0.017746775597147151 -0.24136888965736761 0 -0.014031519585774321 -0.25112226938177401 0 -0.017746775597147151 -0.24136888965736761 0 -0.0063347782460697931 -0.24023461723013581 0 -0.001510810221741861 -0.25277351325326169 0 -0.014031519585774321 -0.25112226938177401 0 -0.0063347782460697931 -0.24023461723013581 0 -0.001510810221741861 -0.25277351325326169 0 -0.0063347782460697931 -0.24023461723013581 0 0.0052747466537700453 -0.24115656626209361 0 -0.0063347782460697931 -0.24023461723013581 0 -0.003310131863981752 -0.22776613528545361 0 0.0052747466537700453 -0.24115656626209361 0 -0.017746775597147151 -0.24136888965736761 0 -0.0063347782460697931 -0.24023461723013581 0 -0.016668235387128371 -0.22707547365749231 0 -0.0063347782460697931 -0.24023461723013581 0 -0.003310131863981752 -0.22776613528545361 0 -0.016668235387128371 -0.22707547365749231 0 -0.003310131863981752 -0.22776613528545361 0 -0.01789071267541497 -0.2137555077228866 0 -0.0008570401538518773 -0.2183905809676181 0 -0.003310131863981752 -0.22776613528545361 0 -0.01789071267541497 -0.2137555077228866 0 -0.003310131863981752 -0.22776613528545361 0 -0.016668235387128371 -0.22707547365749231 0 -0.01789071267541497 -0.2137555077228866 0 -0.026342239913678941 -0.23617634637896789 0 -0.016668235387128371 -0.22707547365749231 0 -0.033344436218078193 -0.2187434449108541 0 -0.016668235387128371 -0.22707547365749231 0 -0.01789071267541497 -0.2137555077228866 0 -0.033344436218078193 -0.2187434449108541 0 -0.01789071267541497 -0.2137555077228866 0 -0.035140322563044363 -0.20956772595212561 0 -0.033344436218078193 -0.2187434449108541 0 -0.01789071267541497 -0.2137555077228866 0 -0.038290277728863238 -0.194153359351806 0 -0.01789071267541497 -0.2137555077228866 0 -0.038290277728863238 -0.194153359351806 0 -0.035140322563044363 -0.20956772595212561 0 -0.01789071267541497 -0.2137555077228866 0 -0.01165305499411653 -0.2037985572479937 0 -0.019022700969370889 -0.1953989790775317 0 -0.01789071267541497 -0.2137555077228866 0 -0.033344436218078193 -0.2187434449108541 0 -0.01789071267541497 -0.2137555077228866 0 -0.0008570401538518773 -0.2183905809676181 0 -0.0036492627563278128 -0.2077160902999064 0 -0.0036492627563278128 -0.2077160902999064 0 -0.01165305499411653 -0.2037985572479937 0 -0.0030319487190633601 -0.20154657226741399 0 -0.0036492627563278128 -0.2077160902999064 0 -0.0030319487190633601 -0.20154657226741399 0 0.0010677199834254151 -0.20298869294895081 0 -0.01789071267541497 -0.2137555077228866 0 -0.0036492627563278128 -0.2077160902999064 0 -0.01789071267541497 -0.2137555077228866 0 -0.0036492627563278128 -0.2077160902999064 0 -0.01165305499411653 -0.2037985572479937 0 -0.01165305499411653 -0.2037985572479937 0 -0.0067373522399620089 -0.19597951589770601 0 -0.019022700969370889 -0.1953989790775317 0 -0.0067373522399620089 -0.19597951589770601 0 -0.0030319487190633601 -0.20154657226741399 0 0.0020611929109856921 -0.1983331527584985 0 -0.01165305499411653 -0.2037985572479937 0 -0.0067373522399620089 -0.19597951589770601 0 -0.0030319487190633601 -0.20154657226741399 0 -0.0089652317347231128 -0.18364248740401021 0 -0.0067373522399620089 -0.19597951589770601 0 0.0016359862684524481 -0.18942911992672809 0 -0.0067373522399620089 -0.19597951589770601 0 0.0016359862684524481 -0.18942911992672809 0 0.0020611929109856921 -0.1983331527584985 0 -0.0089652317347231128 -0.18364248740401021 0 -0.0067373522399620089 -0.19597951589770601 0 -0.019022700969370889 -0.1953989790775317 0 -0.02600105781762295 -0.18208960776635619 0 -0.019022700969370889 -0.1953989790775317 0 -0.038290277728863238 -0.194153359351806 0 -0.01789071267541497 -0.2137555077228866 0 -0.019022700969370889 -0.1953989790775317 0 -0.038290277728863238 -0.194153359351806 0 -0.038290277728863238 -0.194153359351806 0 -0.043332540541594522 -0.20360411143001761 0 -0.035140322563044363 -0.20956772595212561 0 -0.038290277728863238 -0.194153359351806 0 -0.046594428331781963 -0.19587757766725669 0 -0.043332540541594522 -0.20360411143001761 0 -0.038290277728863238 -0.194153359351806 0 -0.046594428331781963 -0.19587757766725669 0 -0.051706219193169679 -0.1882579885020533 0 -0.05943863871920798 -0.19436479828715311 0 -0.053048675863500407 -0.19749485138515011 0 -0.053712130482295409 -0.21016934850936911 0 -0.051706219193169679 -0.1882579885020533 0 -0.053048675863500407 -0.19749485138515011 0 -0.063253706075729707 -0.17740749642523621 0 -0.05943863871920798 -0.19436479828715311 0 -0.053048675863500407 -0.19749485138515011 0 -0.063253706075729707 -0.17740749642523621 0 -0.046594428331781963 -0.19587757766725669 0 -0.051706219193169679 -0.1882579885020533 0 -0.053048675863500407 -0.19749485138515011 0 -0.05943863871920798 -0.19436479828715311 0 -0.053712130482295409 -0.21016934850936911 0 -0.070448875932014848 -0.2010048514171125 0 -0.05943863871920798 -0.19436479828715311 0 -0.053712130482295409 -0.21016934850936911 0 -0.046594428331781963 -0.19587757766725669 0 -0.053048675863500407 -0.19749485138515011 0 -0.043332540541594522 -0.20360411143001761 0 -0.053712130482295409 -0.21016934850936911 0 -0.070448875932014848 -0.2010048514171125 0 -0.053048675863500407 -0.19749485138515011 0 -0.042843645651271203 -0.21758220634506409 0 -0.053712130482295409 -0.21016934850936911 0 -0.048798159760741637 -0.2237313820988206 0 -0.067862482225696713 -0.21614649128114491 0 -0.053048675863500407 -0.19749485138515011 0 -0.053712130482295409 -0.21016934850936911 0 -0.042843645651271203 -0.21758220634506409 0 -0.053712130482295409 -0.21016934850936911 0 -0.048798159760741637 -0.2237313820988206 0 -0.053712130482295409 -0.21016934850936911 0 -0.042843645651271203 -0.21758220634506409 0 -0.048798159760741637 -0.2237313820988206 0 -0.053048675863500407 -0.19749485138515011 0 -0.042843645651271203 -0.21758220634506409 0 -0.043332540541594522 -0.20360411143001761 0 -0.042843645651271203 -0.21758220634506409 0 -0.043332540541594522 -0.20360411143001761 0 -0.035140322563044363 -0.20956772595212561 0 -0.042843645651271203 -0.21758220634506409 0 -0.035140322563044363 -0.20956772595212561 0 -0.033344436218078193 -0.2187434449108541 0 -0.036288474002176177 -0.2335122404547714 0 -0.048798159760741637 -0.2237313820988206 0 -0.041007153744286817 -0.24523372537231169 0 -0.026342239913678941 -0.23617634637896789 0 -0.033344436218078193 -0.2187434449108541 0 -0.036288474002176177 -0.2335122404547714 0 -0.033344436218078193 -0.2187434449108541 0 -0.036288474002176177 -0.2335122404547714 0 -0.048798159760741637 -0.2237313820988206 0 -0.033344436218078193 -0.2187434449108541 0 -0.048798159760741637 -0.2237313820988206 0 -0.042843645651271203 -0.21758220634506409 0 -0.033344436218078193 -0.2187434449108541 0 -0.048798159760741637 -0.2237313820988206 0 -0.048798159760741637 -0.2237313820988206 0 -0.071520753609240206 -0.23106546378800641 0 -0.048798159760741637 -0.2237313820988206 0 -0.055158796600855681 -0.24203331188581481 0 -0.071520753609240206 -0.23106546378800641 0 -0.048798159760741637 -0.2237313820988206 0 -0.055158796600855681 -0.24203331188581481 0 -0.041007153744286817 -0.24523372537231169 0 -0.044187472164344523 -0.25438469026580901 0 -0.055158796600855681 -0.24203331188581481 0 -0.048798159760741637 -0.2237313820988206 0 -0.041007153744286817 -0.24523372537231169 0 -0.044187472164344523 -0.25438469026580901 0 -0.055158796600855681 -0.24203331188581481 0 -0.041007153744286817 -0.24523372537231169 0 -0.036288474002176177 -0.2335122404547714 0 -0.041007153744286817 -0.24523372537231169 0 -0.031944671902132203 -0.24344391780457539 0 -0.026342239913678941 -0.23617634637896789 0 -0.036288474002176177 -0.2335122404547714 0 -0.031944671902132203 -0.24344391780457539 0 -0.031880318210837193 -0.25089372004459443 0 -0.041007153744286817 -0.24523372537231169 0 -0.031944671902132203 -0.24344391780457539 0 -0.090664885196613448 -0.24817911843551721 0 -0.077503054585202541 -0.24363796932040399 0 -0.09424334745773881 -0.23839954547719219 0 -0.071520753609240206 -0.23106546378800641 0 -0.09424334745773881 -0.23839954547719219 0 -0.069428953678351821 -0.25498101630413639 0 -0.090664885196613448 -0.24817911843551721 0 -0.077503054585202541 -0.24363796932040399 0 -0.077503054585202541 -0.24363796932040399 0 -0.071520753609240206 -0.23106546378800641 0 -0.09424334745773881 -0.23839954547719219 0 -0.069428953678351821 -0.25498101630413639 0 -0.055158796600855681 -0.24203331188581481 0 -0.077503054585202541 -0.24363796932040399 0 -0.055158796600855681 -0.24203331188581481 0 -0.077503054585202541 -0.24363796932040399 0 -0.071520753609240206 -0.23106546378800641 0 -0.071520753609240206 -0.23106546378800641 0 -0.086550299941448486 -0.22176884648362941 0 -0.067862482225696713 -0.21614649128114491 0 -0.048798159760741637 -0.2237313820988206 0 -0.071520753609240206 -0.23106546378800641 0 -0.067862482225696713 -0.21614649128114491 0 -0.086550299941448486 -0.22176884648362941 0 -0.096773204479959102 -0.2245961403503198 0 -0.09424334745773881 -0.23839954547719219 0 -0.071520753609240206 -0.23106546378800641 0 -0.086550299941448486 -0.22176884648362941 0 -0.09424334745773881 -0.23839954547719219 0 -0.086550299941448486 -0.22176884648362941 0 -0.08704857269161731 -0.20605866347812771 0 -0.067862482225696713 -0.21614649128114491 0 -0.086550299941448486 -0.22176884648362941 0 -0.08704857269161731 -0.20605866347812771 0 -0.098550023017013516 -0.214321693835477 0 -0.08704857269161731 -0.20605866347812771 0 -0.067862482225696713 -0.21614649128114491 0 -0.070448875932014848 -0.2010048514171125 0 -0.053712130482295409 -0.21016934850936911 0 -0.067862482225696713 -0.21614649128114491 0 -0.070448875932014848 -0.2010048514171125 0 -0.070448875932014848 -0.2010048514171125 0 -0.087185621381733802 -0.19184035432485519 0 -0.065165146956122147 -0.1785602480649377 0 -0.05943863871920798 -0.19436479828715311 0 -0.070448875932014848 -0.2010048514171125 0 -0.065165146956122147 -0.1785602480649377 0 -0.070448875932014848 -0.2010048514171125 0 -0.087185621381733802 -0.19184035432485519 0 -0.08704857269161731 -0.20605866347812771 0 -0.070448875932014848 -0.2010048514171125 0 -0.087185621381733802 -0.19184035432485519 0 -0.087185621381733802 -0.19184035432485519 0 -0.1002145483162732 -0.1996978387186597 0 -0.08704857269161731 -0.20605866347812771 0 -0.087185621381733802 -0.19184035432485519 0 -0.1002145483162732 -0.1996978387186597 0 -0.1002145483162732 -0.1996978387186597 0 -0.11324347525081301 -0.20755532311246361 0 -0.1083839229163166 -0.1802328543268337 0 -0.087185621381733802 -0.19184035432485519 0 -0.1002145483162732 -0.1996978387186597 0 -0.1083839229163166 -0.1802328543268337 0 -0.1083839229163166 -0.1802328543268337 0 -0.132674420312549 -0.18531373827514941 0 -0.12889223279803921 -0.19909421481034201 0 -0.1083839229163166 -0.1802328543268337 0 -0.12889223279803921 -0.19909421481034201 0 -0.11324347525081301 -0.20755532311246361 0 -0.1083839229163166 -0.1802328543268337 0 -0.12889223279803921 -0.19909421481034201 0 -0.11324347525081301 -0.20755532311246361 0 -0.1208313235145545 -0.21551011269602871 0 -0.1077491475036356 -0.22389447560498069 0 -0.11324347525081301 -0.20755532311246361 0 -0.1208313235145545 -0.21551011269602871 0 -0.12889223279803921 -0.19909421481034201 0 -0.11324347525081301 -0.20755532311246361 0 -0.098550023017013516 -0.214321693835477 0 -0.1077491475036356 -0.22389447560498069 0 -0.1002145483162732 -0.1996978387186597 0 -0.11324347525081301 -0.20755532311246361 0 -0.098550023017013516 -0.214321693835477 0 -0.1002145483162732 -0.1996978387186597 0 -0.11324347525081301 -0.20755532311246361 0 -0.08704857269161731 -0.20605866347812771 0 -0.1002145483162732 -0.1996978387186597 0 -0.098550023017013516 -0.214321693835477 0 -0.098550023017013516 -0.214321693835477 0 -0.096773204479959102 -0.2245961403503198 0 -0.1077491475036356 -0.22389447560498069 0 -0.086550299941448486 -0.22176884648362941 0 -0.098550023017013516 -0.214321693835477 0 -0.096773204479959102 -0.2245961403503198 0 -0.096773204479959102 -0.2245961403503198 0 -0.1077491475036356 -0.22389447560498069 0 -0.09424334745773881 -0.23839954547719219 0 -0.1077491475036356 -0.22389447560498069 0 -0.1223913172316107 -0.22810580316319801 0 -0.1078107689007117 -0.24129756560076071 0 -0.1208313235145545 -0.21551011269602871 0 -0.1077491475036356 -0.22389447560498069 0 -0.1223913172316107 -0.22810580316319801 0 -0.1208313235145545 -0.21551011269602871 0 -0.1223913172316107 -0.22810580316319801 0 -0.13188044478867389 -0.218900746789159 0 -0.1123870700979059 -0.25769438281909107 0 -0.1078107689007117 -0.24129756560076071 0 -0.12759395261113149 -0.24410238476601001 0 -0.1223913172316107 -0.22810580316319801 0 -0.1078107689007117 -0.24129756560076071 0 -0.12759395261113149 -0.24410238476601001 0 -0.1022294825648509 -0.25202223524138101 0 -0.090664885196613448 -0.24817911843551721 0 -0.1078107689007117 -0.24129756560076071 0 -0.090664885196613448 -0.24817911843551721 0 -0.1077491475036356 -0.22389447560498069 0 -0.09424334745773881 -0.23839954547719219 0 -0.090664885196613448 -0.24817911843551721 0 -0.1077491475036356 -0.22389447560498069 0 -0.1078107689007117 -0.24129756560076071 0 -0.090664885196613448 -0.24817911843551721 0 -0.1077491475036356 -0.22389447560498069 0 -0.090063954293986781 -0.14544299724156931 0 -0.086459263162554353 -0.1317301929237728 0 -0.07664693877252865 -0.1510445544597214 0 -0.086459263162554353 -0.1317301929237728 0 -0.07664693877252865 -0.1510445544597214 0 -0.090063954293986781 -0.14544299724156931 0 -0.07664693877252865 -0.1510445544597214 0 -0.092515430844422999 -0.1656387043932771 0 -0.078522510062368378 -0.1172257876245003 0 -0.086459263162554353 -0.1317301929237728 0 -0.075198864836327636 -0.13384448496296539 0 -0.086459263162554353 -0.1317301929237728 0 -0.075198864836327636 -0.13384448496296539 0 -0.07664693877252865 -0.1510445544597214 0 -0.090063954293986781 -0.14544299724156931 0 -0.086459263162554353 -0.1317301929237728 0 -0.099905664812552336 -0.1339609383297696 0 -0.093089417101048594 -0.12127990532557301 0 -0.086459263162554353 -0.1317301929237728 0 -0.099905664812552336 -0.1339609383297696 0 -0.078522510062368378 -0.1172257876245003 0 -0.075198864836327636 -0.13384448496296539 0 -0.065115933006631557 -0.12765339529441139 0 -0.058867111230580103 -0.13874569073820489 0 -0.065115933006631557 -0.12765339529441139 0 -0.069548969567074986 -0.14184374995563209 0 -0.075198864836327636 -0.13384448496296539 0 -0.065115933006631557 -0.12765339529441139 0 -0.069548969567074986 -0.14184374995563209 0 -0.075198864836327636 -0.13384448496296539 0 -0.069548969567074986 -0.14184374995563209 0 -0.07664693877252865 -0.1510445544597214 0 -0.062324241385059258 -0.14490399278410851 0 -0.058867111230580103 -0.13874569073820489 0 -0.069548969567074986 -0.14184374995563209 0 -0.060848875666006247 -0.14973185145954471 0 -0.062324241385059258 -0.14490399278410851 0 -0.066604631536163278 -0.1487823633867866 0 -0.062324241385059258 -0.14490399278410851 0 -0.069548969567074986 -0.14184374995563209 0 -0.066604631536163278 -0.1487823633867866 0 -0.069548969567074986 -0.14184374995563209 0 -0.071410020141835506 -0.14858024320033311 0 -0.066604631536163278 -0.1487823633867866 0 -0.069548969567074986 -0.14184374995563209 0 -0.07664693877252865 -0.1510445544597214 0 -0.071410020141835506 -0.14858024320033311 0 -0.07664693877252865 -0.1510445544597214 0 -0.073002459351990415 -0.15361081426761861 0 -0.071374995136282093 -0.1614217312977711 0 -0.07664693877252865 -0.1510445544597214 0 -0.072945914391563532 -0.15120393102314211 0 -0.073002459351990415 -0.15361081426761861 0 -0.07664693877252865 -0.1510445544597214 0 -0.072945914391563532 -0.15120393102314211 0 -0.071410020141835506 -0.14858024320033311 0 -0.072945914391563532 -0.15120393102314211 0 -0.070787396814391265 -0.15173684251931849 0 -0.073002459351990415 -0.15361081426761861 0 -0.072945914391563532 -0.15120393102314211 0 -0.071410020141835506 -0.14858024320033311 0 -0.070787396814391265 -0.15173684251931849 0 -0.070787396814391265 -0.15173684251931849 0 -0.073002459351990415 -0.15361081426761861 0 -0.06971512173525303 -0.15412300003042079 0 -0.073002459351990415 -0.15361081426761861 0 -0.06971512173525303 -0.15412300003042079 0 -0.06962390911317326 -0.15675496254766541 0 -0.06971512173525303 -0.15412300003042079 0 -0.067331895568114475 -0.15562878049871151 0 -0.06962390911317326 -0.15675496254766541 0 -0.070787396814391265 -0.15173684251931849 0 -0.06971512173525303 -0.15412300003042079 0 -0.067829947828595721 -0.15288360031879 0 -0.06971512173525303 -0.15412300003042079 0 -0.067829947828595721 -0.15288360031879 0 -0.067331895568114475 -0.15562878049871151 0 -0.070787396814391265 -0.15173684251931849 0 -0.067829947828595721 -0.15288360031879 0 -0.066604631536163278 -0.1487823633867866 0 -0.071410020141835506 -0.14858024320033311 0 -0.070787396814391265 -0.15173684251931849 0 -0.066604631536163278 -0.1487823633867866 0 -0.067829947828595721 -0.15288360031879 0 -0.066604631536163278 -0.1487823633867866 0 -0.063795224677962545 -0.1543454538188242 0 -0.060848875666006247 -0.14973185145954471 0 -0.066604631536163278 -0.1487823633867866 0 -0.063795224677962545 -0.1543454538188242 0 -0.067331895568114475 -0.15562878049871151 0 -0.063795224677962545 -0.1543454538188242 0 -0.066103965927516828 -0.15851463027247151 0 -0.067829947828595721 -0.15288360031879 0 -0.067331895568114475 -0.15562878049871151 0 -0.063795224677962545 -0.1543454538188242 0 -0.060773156201230541 -0.16022214524237641 0 -0.063795224677962545 -0.1543454538188242 0 -0.066103965927516828 -0.15851463027247151 0 -0.07664693877252865 -0.1510445544597214 0 -0.071374995136282093 -0.1614217312977711 0 -0.080445041155774902 -0.16968177985320451 0 -0.069314407220094368 -0.15988307902673651 0 -0.06962390911317326 -0.15675496254766541 0 -0.071374995136282093 -0.1614217312977711 0 -0.067331895568114475 -0.15562878049871151 0 -0.066103965927516828 -0.15851463027247151 0 -0.06962390911317326 -0.15675496254766541 0 -0.066103965927516828 -0.15851463027247151 0 -0.069314407220094368 -0.15988307902673651 0 -0.06962390911317326 -0.15675496254766541 0 -0.066103965927516828 -0.15851463027247151 0 -0.069314407220094368 -0.15988307902673651 0 -0.066279122784482364 -0.1635077112524968 0 -0.069314407220094368 -0.15988307902673651 0 -0.066279122784482364 -0.1635077112524968 0 -0.071374995136282093 -0.1614217312977711 0 -0.060773156201230541 -0.16022214524237641 0 -0.066103965927516828 -0.15851463027247151 0 -0.066279122784482364 -0.1635077112524968 0 -0.066279122784482364 -0.1635077112524968 0 -0.071374995136282093 -0.1614217312977711 0 -0.067464639236210336 -0.17221389532733569 0 -0.071374995136282093 -0.1614217312977711 0 -0.067464639236210336 -0.17221389532733569 0 -0.060773156201230541 -0.16022214524237641 0 -0.066279122784482364 -0.1635077112524968 0 -0.067464639236210336 -0.17221389532733569 0 -0.071374995136282093 -0.1614217312977711 0 -0.067464639236210336 -0.17221389532733569 0 -0.080445041155774902 -0.16968177985320451 0 -0.07664693877252865 -0.1510445544597214 0 -0.071374995136282093 -0.1614217312977711 0 -0.073002459351990415 -0.15361081426761861 0 -0.06962390911317326 -0.15675496254766541 0 -0.071374995136282093 -0.1614217312977711 0 -0.087185621381733802 -0.19184035432485519 0 -0.065165146956122147 -0.1785602480649377 0 -0.082085724377560676 -0.18316695063804209 0 -0.05943863871920798 -0.19436479828715311 0 -0.065165146956122147 -0.1785602480649377 0 -0.063253706075729707 -0.17740749642523621 0 -0.087185621381733802 -0.19184035432485519 0 -0.065165146956122147 -0.1785602480649377 0 -0.065165146956122147 -0.1785602480649377 0 -0.067464639236210336 -0.17221389532733569 0 -0.082085724377560676 -0.18316695063804209 0 -0.058689842782311832 -0.17455121098072571 0 -0.063253706075729707 -0.17740749642523621 0 -0.067464639236210336 -0.17221389532733569 0 -0.065165146956122147 -0.1785602480649377 0 -0.063253706075729707 -0.17740749642523621 0 -0.067464639236210336 -0.17221389532733569 0 -0.065165146956122147 -0.1785602480649377 0 -0.063253706075729707 -0.17740749642523621 0 -0.063253706075729707 -0.17740749642523621 0 -0.067464639236210336 -0.17221389532733569 0 -0.065165146956122147 -0.1785602480649377 0 -0.067464639236210336 -0.17221389532733569 0 -0.067464639236210336 -0.17221389532733569 0 -0.082085724377560676 -0.18316695063804209 0 -0.080445041155774902 -0.16968177985320451 0 -0.067464639236210336 -0.17221389532733569 0 -0.082085724377560676 -0.18316695063804209 0 -0.082085724377560676 -0.18316695063804209 0 -0.090123148135161771 -0.17811212870724241 0 -0.080445041155774902 -0.16968177985320451 0 -0.087185621381733802 -0.19184035432485519 0 -0.082085724377560676 -0.18316695063804209 0 -0.090123148135161771 -0.17811212870724241 0 -0.07664693877252865 -0.1510445544597214 0 -0.080445041155774902 -0.16968177985320451 0 -0.092515430844422999 -0.1656387043932771 0 -0.07664693877252865 -0.1510445544597214 0 -0.092515430844422999 -0.1656387043932771 0 -0.090123148135161771 -0.17811212870724241 0 -0.080445041155774902 -0.16968177985320451 0 -0.092515430844422999 -0.1656387043932771 0 -0.092515430844422999 -0.1656387043932771 0 -0.1078627834236195 -0.16515642503499389 0 -0.10337764979416381 -0.1491063738048426 0 -0.092515430844422999 -0.1656387043932771 0 -0.1078627834236195 -0.16515642503499389 0 -0.1083839229163166 -0.1802328543268337 0 -0.092515430844422999 -0.1656387043932771 0 -0.1083839229163166 -0.1802328543268337 0 -0.087185621381733802 -0.19184035432485519 0 -0.090123148135161771 -0.17811212870724241 0 -0.1083839229163166 -0.1802328543268337 0 -0.087185621381733802 -0.19184035432485519 0 -0.1083839229163166 -0.1802328543268337 0 -0.090123148135161771 -0.17811212870724241 0 -0.092515430844422999 -0.1656387043932771 0 -0.1083839229163166 -0.1802328543268337 0 -0.1083839229163166 -0.1802328543268337 0 -0.12674553091097629 -0.17017863538792649 0 -0.132674420312549 -0.18531373827514941 0 -0.1083839229163166 -0.1802328543268337 0 -0.12674553091097629 -0.17017863538792649 0 -0.1078627834236195 -0.16515642503499389 0 -0.1083839229163166 -0.1802328543268337 0 -0.12674553091097629 -0.17017863538792649 0 -0.1078627834236195 -0.16515642503499389 0 -0.1172934607395259 -0.15483065908555649 0 -0.12674553091097629 -0.17017863538792649 0 -0.1078627834236195 -0.16515642503499389 0 -0.1172934607395259 -0.15483065908555649 0 -0.10337764979416381 -0.1491063738048426 0 -0.1172934607395259 -0.15483065908555649 0 -0.13020391862702169 -0.153095347453333 0 -0.12674553091097629 -0.17017863538792649 0 -0.1172934607395259 -0.15483065908555649 0 -0.10337764979416381 -0.1491063738048426 0 -0.11992185854996019 -0.13699828593854549 0 -0.1172934607395259 -0.15483065908555649 0 -0.11992185854996019 -0.13699828593854549 0 -0.13020391862702169 -0.153095347453333 0 -0.090063954293986781 -0.14544299724156931 0 -0.092515430844422999 -0.1656387043932771 0 -0.10337764979416381 -0.1491063738048426 0 -0.090063954293986781 -0.14544299724156931 0 -0.10337764979416381 -0.1491063738048426 0 -0.099905664812552336 -0.1339609383297696 0 -0.1065218459736005 -0.1192078747443145 0 -0.099905664812552336 -0.1339609383297696 0 -0.11992185854996019 -0.13699828593854549 0 -0.10337764979416381 -0.1491063738048426 0 -0.099905664812552336 -0.1339609383297696 0 -0.11992185854996019 -0.13699828593854549 0 -0.11992185854996019 -0.13699828593854549 0 -0.14104273216777999 -0.12609842535192839 0 -0.12575745834348909 -0.118558131368756 0 -0.11992185854996019 -0.13699828593854549 0 -0.14104273216777999 -0.12609842535192839 0 -0.14195160402901011 -0.14334474040561729 0 -0.15325263306181949 -0.13392621432458271 0 -0.14104273216777999 -0.12609842535192839 0 -0.15261349834235621 -0.1181140474543052 0 -0.15325263306181949 -0.13392621432458271 0 -0.14104273216777999 -0.12609842535192839 0 -0.14195160402901011 -0.14334474040561729 0 -0.14195160402901011 -0.14334474040561729 0 -0.1451071389056359 -0.1601244164490192 0 -0.1611260179864063 -0.14610676315753629 0 -0.15325263306181949 -0.13392621432458271 0 -0.14195160402901011 -0.14334474040561729 0 -0.1611260179864063 -0.14610676315753629 0 -0.14195160402901011 -0.14334474040561729 0 -0.13020391862702169 -0.153095347453333 0 -0.1451071389056359 -0.1601244164490192 0 -0.11992185854996019 -0.13699828593854549 0 -0.14195160402901011 -0.14334474040561729 0 -0.13020391862702169 -0.153095347453333 0 -0.12674553091097629 -0.17017863538792649 0 -0.1451071389056359 -0.1601244164490192 0 -0.12674553091097629 -0.17017863538792649 0 -0.1459624361743482 -0.1782099606540144 0 -0.1451071389056359 -0.1601244164490192 0 -0.13020391862702169 -0.153095347453333 0 -0.12674553091097629 -0.17017863538792649 0 -0.1451071389056359 -0.1601244164490192 0 -0.12674553091097629 -0.17017863538792649 0 -0.132674420312549 -0.18531373827514941 0 -0.1459624361743482 -0.1782099606540144 0 -0.132674420312549 -0.18531373827514941 0 -0.1459624361743482 -0.1782099606540144 0 -0.14138914254630619 -0.19663893550611911 0 -0.1459624361743482 -0.1782099606540144 0 -0.16190476017733249 -0.181397231571752 0 -0.1538179949631158 -0.1927229808734176 0 -0.1451071389056359 -0.1601244164490192 0 -0.16175065557537649 -0.16312568748654849 0 -0.1611260179864063 -0.14610676315753629 0 -0.1459624361743482 -0.1782099606540144 0 -0.1451071389056359 -0.1601244164490192 0 -0.16175065557537649 -0.16312568748654849 0 -0.16175065557537649 -0.16312568748654849 0 -0.17836942486919341 -0.15973694969014679 0 -0.17258591947152399 -0.17154754109633161 0 -0.16175065557537649 -0.16312568748654849 0 -0.17836942486919341 -0.15973694969014679 0 -0.17182614392158699 -0.15044627250816781 0 -0.16175065557537649 -0.16312568748654849 0 -0.16190476017733249 -0.181397231571752 0 -0.17258591947152399 -0.17154754109633161 0 -0.1459624361743482 -0.1782099606540144 0 -0.16175065557537649 -0.16312568748654849 0 -0.16190476017733249 -0.181397231571752 0 -0.16190476017733249 -0.181397231571752 0 -0.17603613156608619 -0.18494870870683741 0 -0.17258591947152399 -0.17154754109633161 0 -0.16190476017733249 -0.181397231571752 0 -0.17603613156608619 -0.18494870870683741 0 -0.1661535801816815 -0.19519617967192249 0 -0.17603613156608619 -0.18494870870683741 0 -0.1868030557880086 -0.17242734728717091 0 -0.17258591947152399 -0.17154754109633161 0 -0.17603613156608619 -0.18494870870683741 0 -0.18347542517882379 -0.19128017824889629 0 -0.18883502265712029 -0.18495997271983339 0 -0.17603613156608619 -0.18494870870683741 0 -0.1868030557880086 -0.17242734728717091 0 -0.18883502265712029 -0.18495997271983339 0 -0.1868030557880086 -0.17242734728717091 0 -0.17836942486919341 -0.15973694969014679 0 -0.19434849543140059 -0.15719127964756541 0 -0.1868030557880086 -0.17242734728717091 0 -0.17836942486919341 -0.15973694969014679 0 -0.17258591947152399 -0.17154754109633161 0 -0.17836942486919341 -0.15973694969014679 0 -0.18455486919811831 -0.1457154710869277 0 -0.19434849543140059 -0.15719127964756541 0 -0.17836942486919341 -0.15973694969014679 0 -0.18455486919811831 -0.1457154710869277 0 -0.17182614392158699 -0.15044627250816781 0 -0.18455486919811831 -0.1457154710869277 0 -0.17485421947159599 -0.13706550287934849 0 -0.17182614392158699 -0.15044627250816781 0 -0.18455486919811831 -0.1457154710869277 0 -0.17485421947159599 -0.13706550287934849 0 -0.1889412217266091 -0.13120540566079911 0 -0.1774759808757832 -0.12514075164181029 0 -0.17485421947159599 -0.13706550287934849 0 -0.1889412217266091 -0.13120540566079911 0 -0.1774759808757832 -0.12514075164181029 0 -0.17485421947159599 -0.13706550287934849 0 -0.16479092854468161 -0.12513851283939079 0 -0.17485421947159599 -0.13706550287934849 0 -0.16479092854468161 -0.12513851283939079 0 -0.1611260179864063 -0.14610676315753629 0 -0.15325263306181949 -0.13392621432458271 0 -0.16479092854468161 -0.12513851283939079 0 -0.15261349834235621 -0.1181140474543052 0 -0.15325263306181949 -0.13392621432458271 0 -0.16479092854468161 -0.12513851283939079 0 -0.1611260179864063 -0.14610676315753629 0 -0.16175065557537649 -0.16312568748654849 0 -0.1611260179864063 -0.14610676315753629 0 -0.17182614392158699 -0.15044627250816781 0 -0.17485421947159599 -0.13706550287934849 0 -0.1611260179864063 -0.14610676315753629 0 -0.17182614392158699 -0.15044627250816781 0 -0.1515656057754648 -0.24762527439959109 0 -0.14742977404380181 -0.22374744234675259 0 -0.1515656057754648 -0.24762527439959109 0 -0.12759395261113149 -0.24410238476601001 0 -0.13698907969853 -0.23088676529694849 0 -0.1223913172316107 -0.22810580316319801 0 -0.12759395261113149 -0.24410238476601001 0 -0.13698907969853 -0.23088676529694849 0 -0.1223913172316107 -0.22810580316319801 0 -0.13698907969853 -0.23088676529694849 0 -0.13188044478867389 -0.218900746789159 0 -0.13698907969853 -0.23088676529694849 0 -0.13188044478867389 -0.218900746789159 0 -0.13950567753075099 -0.22331270648914819 0 -0.13188044478867389 -0.218900746789159 0 -0.13950567753075099 -0.22331270648914819 0 -0.13967747628196031 -0.21694810763228189 0 -0.14742977404380181 -0.22374744234675259 0 -0.14940054267976161 -0.21795557529385071 0 -0.13967747628196031 -0.21694810763228189 0 -0.13950567753075099 -0.22331270648914819 0 -0.14742977404380181 -0.22374744234675259 0 -0.13967747628196031 -0.21694810763228189 0 -0.13698907969853 -0.23088676529694849 0 -0.13950567753075099 -0.22331270648914819 0 -0.14742977404380181 -0.22374744234675259 0 -0.1515656057754648 -0.24762527439959109 0 -0.13698907969853 -0.23088676529694849 0 -0.14742977404380181 -0.22374744234675259 0 -0.1515656057754648 -0.24762527439959109 0 -0.14742977404380181 -0.22374744234675259 0 -0.15457619376512799 -0.2315363069543884 0 -0.14742977404380181 -0.22374744234675259 0 -0.15457619376512799 -0.2315363069543884 0 -0.14940054267976161 -0.21795557529385071 0 -0.14940054267976161 -0.21795557529385071 0 -0.14550302921431871 -0.20573201466564489 0 -0.12889223279803921 -0.19909421481034201 0 -0.14940054267976161 -0.21795557529385071 0 -0.1560429697356088 -0.21225212707337701 0 -0.14550302921431871 -0.20573201466564489 0 -0.1560429697356088 -0.21225212707337701 0 -0.14550302921431871 -0.20573201466564489 0 -0.15179025831187781 -0.2027192206445359 0 -0.1560429697356088 -0.21225212707337701 0 -0.15179025831187781 -0.2027192206445359 0 -0.1582224875354058 -0.20205126958071301 0 -0.1208313235145545 -0.21551011269602871 0 -0.13188044478867389 -0.218900746789159 0 -0.12889223279803921 -0.19909421481034201 0 -0.13188044478867389 -0.218900746789159 0 -0.13967747628196031 -0.21694810763228189 0 -0.12889223279803921 -0.19909421481034201 0 -0.14940054267976161 -0.21795557529385071 0 -0.12889223279803921 -0.19909421481034201 0 -0.14940054267976161 -0.21795557529385071 0 -0.13967747628196031 -0.21694810763228189 0 -0.12889223279803921 -0.19909421481034201 0 -0.14550302921431871 -0.20573201466564489 0 -0.12889223279803921 -0.19909421481034201 0 -0.14138914254630619 -0.19663893550611911 0 -0.132674420312549 -0.18531373827514941 0 -0.12889223279803921 -0.19909421481034201 0 -0.14138914254630619 -0.19663893550611911 0 -0.1459624361743482 -0.1782099606540144 0 -0.14138914254630619 -0.19663893550611911 0 -0.1538179949631158 -0.1927229808734176 0 -0.14550302921431871 -0.20573201466564489 0 -0.14138914254630619 -0.19663893550611911 0 -0.15179025831187781 -0.2027192206445359 0 -0.15179025831187781 -0.2027192206445359 0 -0.1538179949631158 -0.1927229808734176 0 -0.1582224875354058 -0.20205126958071301 0 -0.14138914254630619 -0.19663893550611911 0 -0.15179025831187781 -0.2027192206445359 0 -0.1538179949631158 -0.1927229808734176 0 -0.16190476017733249 -0.181397231571752 0 -0.1538179949631158 -0.1927229808734176 0 -0.1661535801816815 -0.19519617967192249 0 -0.1538179949631158 -0.1927229808734176 0 -0.1582224875354058 -0.20205126958071301 0 -0.1661535801816815 -0.19519617967192249 0 -0.1582224875354058 -0.20205126958071301 0 -0.1661535801816815 -0.19519617967192249 0 -0.16330763448474531 -0.20736583964031211 0 -0.1661535801816815 -0.19519617967192249 0 -0.17271139971612401 -0.20610199311426111 0 -0.16330763448474531 -0.20736583964031211 0 -0.17603613156608619 -0.18494870870683741 0 -0.1661535801816815 -0.19519617967192249 0 -0.17835921983915079 -0.19847767436264549 0 -0.17603613156608619 -0.18494870870683741 0 -0.18347542517882379 -0.19128017824889629 0 -0.17835921983915079 -0.19847767436264549 0 -0.18347542517882379 -0.19128017824889629 0 -0.17835921983915079 -0.19847767436264549 0 -0.19067132665293779 -0.19673435720626881 0 -0.17835921983915079 -0.19847767436264549 0 -0.18318473746006569 -0.2066892893616453 0 -0.19067132665293779 -0.19673435720626881 0 -0.1661535801816815 -0.19519617967192249 0 -0.17835921983915079 -0.19847767436264549 0 -0.17271139971612401 -0.20610199311426111 0 -0.17835921983915079 -0.19847767436264549 0 -0.17271139971612401 -0.20610199311426111 0 -0.18318473746006569 -0.2066892893616453 0 -0.17271139971612401 -0.20610199311426111 0 -0.18318473746006569 -0.2066892893616453 0 -0.17826644286784091 -0.21370872957446219 0 -0.18318473746006569 -0.2066892893616453 0 -0.18694394664448191 -0.21698280996748609 0 -0.19239289246190869 -0.20884853948602211 0 -0.18318473746006569 -0.2066892893616453 0 -0.18694394664448191 -0.21698280996748609 0 -0.17826644286784091 -0.21370872957446219 0 -0.18694394664448191 -0.21698280996748609 0 -0.17826644286784091 -0.21370872957446219 0 -0.17746135951276551 -0.22365687024142561 0 -0.17271139971612401 -0.20610199311426111 0 -0.17826644286784091 -0.21370872957446219 0 -0.16975433032991741 -0.2141078011560438 0 -0.17826644286784091 -0.21370872957446219 0 -0.16975433032991741 -0.2141078011560438 0 -0.17746135951276551 -0.22365687024142561 0 -0.16975433032991741 -0.2141078011560438 0 -0.16337043113696131 -0.21341893132176931 0 -0.16437678999757371 -0.21994995741734441 0 -0.16975433032991741 -0.2141078011560438 0 -0.16330763448474531 -0.20736583964031211 0 -0.16337043113696131 -0.21341893132176931 0 -0.17271139971612401 -0.20610199311426111 0 -0.16975433032991741 -0.2141078011560438 0 -0.16330763448474531 -0.20736583964031211 0 -0.1560429697356088 -0.21225212707337701 0 -0.1582224875354058 -0.20205126958071301 0 -0.16330763448474531 -0.20736583964031211 0 -0.1560429697356088 -0.21225212707337701 0 -0.16337043113696131 -0.21341893132176931 0 -0.16437678999757371 -0.21994995741734441 0 -0.14940054267976161 -0.21795557529385071 0 -0.1560429697356088 -0.21225212707337701 0 -0.16437678999757371 -0.21994995741734441 0 -0.1560429697356088 -0.21225212707337701 0 -0.16330763448474531 -0.20736583964031211 0 -0.16337043113696131 -0.21341893132176931 0 -0.15457619376512799 -0.2315363069543884 0 -0.14940054267976161 -0.21795557529385071 0 -0.16990885256148389 -0.23681693577735929 0 -0.14940054267976161 -0.21795557529385071 0 -0.16990885256148389 -0.23681693577735929 0 -0.14940054267976161 -0.21795557529385071 0 -0.16437678999757371 -0.21994995741734441 0 -0.16990885256148389 -0.23681693577735929 0 -0.16437678999757371 -0.21994995741734441 0 -0.17746135951276551 -0.22365687024142561 0 -0.16990885256148389 -0.23681693577735929 0 -0.16975433032991741 -0.2141078011560438 0 -0.16437678999757371 -0.21994995741734441 0 -0.17746135951276551 -0.22365687024142561 0 -0.17746135951276551 -0.22365687024142561 0 -0.1856415271613307 -0.23681537698761829 0 -0.16990885256148389 -0.23681693577735929 0 -0.18694394664448191 -0.21698280996748609 0 -0.17746135951276551 -0.22365687024142561 0 -0.19035977922786229 -0.22633980603493409 0 -0.17746135951276551 -0.22365687024142561 0 -0.1856415271613307 -0.23681537698761829 0 -0.19035977922786229 -0.22633980603493409 0 -0.19041716244320731 -0.25567829626086669 0 -0.1856415271613307 -0.23681537698761829 0 -0.16990885256148389 -0.23681693577735929 0 -0.19041716244320731 -0.25567829626086669 0 -0.16990885256148389 -0.23681693577735929 0 -0.1515656057754648 -0.24762527439959109 0 -0.15457619376512799 -0.2315363069543884 0 -0.16990885256148389 -0.23681693577735929 0 -0.16950490137503291 -0.25772797401075798 0 -0.1515656057754648 -0.24762527439959109 0 -0.16990885256148389 -0.23681693577735929 0 -0.2190775644290763 -0.25142079191296962 0 -0.2097038016794639 -0.22749165698614229 0 -0.2190775644290763 -0.25142079191296962 0 -0.20006048206133589 -0.2415849766235047 0 -0.2097038016794639 -0.22749165698614229 0 -0.2190775644290763 -0.25142079191296962 0 -0.2097038016794639 -0.22749165698614229 0 -0.22301620101341341 -0.24302674165157989 0 -0.2190775644290763 -0.25142079191296962 0 -0.20637389757624119 -0.25653967376115039 0 -0.20006048206133589 -0.2415849766235047 0 -0.20006048206133589 -0.2415849766235047 0 -0.2097038016794639 -0.22749165698614229 0 -0.19041716244320731 -0.25567829626086669 0 -0.1856415271613307 -0.23681537698761829 0 -0.20006048206133589 -0.2415849766235047 0 -0.19041716244320731 -0.25567829626086669 0 -0.20006048206133589 -0.2415849766235047 0 -0.1856415271613307 -0.23681537698761829 0 -0.20006048206133589 -0.2415849766235047 0 -0.19035977922786229 -0.22633980603493409 0 -0.20006048206133589 -0.2415849766235047 0 -0.19035977922786229 -0.22633980603493409 0 -0.2003789686734892 -0.226354877796347 0 -0.18694394664448191 -0.21698280996748609 0 -0.19035977922786229 -0.22633980603493409 0 -0.19670772245122761 -0.21770810217237629 0 -0.2003789686734892 -0.226354877796347 0 -0.20645056075175919 -0.21918685525516729 0 -0.19670772245122761 -0.21770810217237629 0 -0.19035977922786229 -0.22633980603493409 0 -0.2003789686734892 -0.226354877796347 0 -0.19670772245122761 -0.21770810217237629 0 -0.2003789686734892 -0.226354877796347 0 -0.20645056075175919 -0.21918685525516729 0 -0.2097038016794639 -0.22749165698614229 0 -0.20645056075175919 -0.21918685525516729 0 -0.2097038016794639 -0.22749165698614229 0 -0.20645056075175919 -0.21918685525516729 0 -0.2097038016794639 -0.22749165698614229 0 -0.21069899822817509 -0.21281332413491871 0 -0.20006048206133589 -0.2415849766235047 0 -0.2003789686734892 -0.226354877796347 0 -0.2097038016794639 -0.22749165698614229 0 -0.2097038016794639 -0.22749165698614229 0 -0.21069899822817509 -0.21281332413491871 0 -0.22595521881646749 -0.2037408714328113 0 -0.2097038016794639 -0.22749165698614229 0 -0.22595521881646749 -0.2037408714328113 0 -0.2119577795935258 -0.20433143474044849 0 -0.21069899822817509 -0.21281332413491871 0 -0.22595521881646749 -0.2037408714328113 0 -0.2119577795935258 -0.20433143474044849 0 -0.21069899822817509 -0.21281332413491871 0 -0.2028739211204427 -0.20969903947263771 0 -0.2119577795935258 -0.20433143474044849 0 -0.2028739211204427 -0.20969903947263771 0 -0.20525029724468241 -0.20156773453126089 0 -0.20645056075175919 -0.21918685525516729 0 -0.21069899822817509 -0.21281332413491871 0 -0.2028739211204427 -0.20969903947263771 0 -0.19670772245122761 -0.21770810217237629 0 -0.19239289246190869 -0.20884853948602211 0 -0.2028739211204427 -0.20969903947263771 0 -0.20645056075175919 -0.21918685525516729 0 -0.19670772245122761 -0.21770810217237629 0 -0.2028739211204427 -0.20969903947263771 0 -0.18694394664448191 -0.21698280996748609 0 -0.19670772245122761 -0.21770810217237629 0 -0.19239289246190869 -0.20884853948602211 0 -0.18318473746006569 -0.2066892893616453 0 -0.19239289246190869 -0.20884853948602211 0 -0.19067132665293779 -0.19673435720626881 0 -0.19239289246190869 -0.20884853948602211 0 -0.2028739211204427 -0.20969903947263771 0 -0.19851727848040029 -0.2024783307205579 0 -0.2028739211204427 -0.20969903947263771 0 -0.19851727848040029 -0.2024783307205579 0 -0.20525029724468241 -0.20156773453126089 0 -0.19851727848040029 -0.2024783307205579 0 -0.19067132665293779 -0.19673435720626881 0 -0.20194069666820241 -0.19461758644099289 0 -0.19851727848040029 -0.2024783307205579 0 -0.20194069666820241 -0.19461758644099289 0 -0.20525029724468241 -0.20156773453126089 0 -0.19239289246190869 -0.20884853948602211 0 -0.19851727848040029 -0.2024783307205579 0 -0.19067132665293779 -0.19673435720626881 0 -0.19067132665293779 -0.19673435720626881 0 -0.1967093618614911 -0.18793097890057031 0 -0.18883502265712029 -0.18495997271983339 0 -0.18347542517882379 -0.19128017824889629 0 -0.19067132665293779 -0.19673435720626881 0 -0.18883502265712029 -0.18495997271983339 0 -0.19067132665293779 -0.19673435720626881 0 -0.20194069666820241 -0.19461758644099289 0 -0.1967093618614911 -0.18793097890057031 0 -0.20194069666820241 -0.19461758644099289 0 -0.1967093618614911 -0.18793097890057031 0 -0.20665692440613009 -0.1847329372060959 0 -0.20194069666820241 -0.19461758644099289 0 -0.210078779364648 -0.19589682132379951 0 -0.20665692440613009 -0.1847329372060959 0 -0.2119577795935258 -0.20433143474044849 0 -0.20525029724468241 -0.20156773453126089 0 -0.210078779364648 -0.19589682132379951 0 -0.20194069666820241 -0.19461758644099289 0 -0.20525029724468241 -0.20156773453126089 0 -0.210078779364648 -0.19589682132379951 0 -0.2119577795935258 -0.20433143474044849 0 -0.210078779364648 -0.19589682132379951 0 -0.21773724105379841 -0.19822494811710401 0 -0.2119577795935258 -0.20433143474044849 0 -0.21773724105379841 -0.19822494811710401 0 -0.22595521881646749 -0.2037408714328113 0 -0.210078779364648 -0.19589682132379951 0 -0.21773724105379841 -0.19822494811710401 0 -0.21692973722154929 -0.19190628690689471 0 -0.210078779364648 -0.19589682132379951 0 -0.21692973722154929 -0.19190628690689471 0 -0.20665692440613009 -0.1847329372060959 0 -0.24411240467052719 -0.189163691631557 0 -0.22900702856887781 -0.21451543163629161 0 -0.22595521881646749 -0.2037408714328113 0 -0.22595521881646749 -0.2037408714328113 0 -0.24220663595347991 -0.17999008587948631 0 -0.23065552714491741 -0.18952165688918479 0 -0.22595521881646749 -0.2037408714328113 0 -0.24220663595347991 -0.17999008587948631 0 -0.22288165927660869 -0.19443386622369799 0 -0.23065552714491741 -0.18952165688918479 0 -0.22308322984630499 -0.18680061340837409 0 -0.21692973722154929 -0.19190628690689471 0 -0.22288165927660869 -0.19443386622369799 0 -0.22308322984630499 -0.18680061340837409 0 -0.21773724105379841 -0.19822494811710401 0 -0.21692973722154929 -0.19190628690689471 0 -0.22288165927660869 -0.19443386622369799 0 -0.21773724105379841 -0.19822494811710401 0 -0.22288165927660869 -0.19443386622369799 0 -0.22595521881646749 -0.2037408714328113 0 -0.22288165927660869 -0.19443386622369799 0 -0.23065552714491741 -0.18952165688918479 0 -0.22595521881646749 -0.2037408714328113 0 -0.24411240467052719 -0.189163691631557 0 -0.22595521881646749 -0.2037408714328113 0 -0.24220663595347991 -0.17999008587948631 0 -0.24411240467052719 -0.189163691631557 0 -0.24862493598769481 -0.19852958057999959 0 -0.2420911206124477 -0.20555766733483391 0 -0.24411240467052719 -0.189163691631557 0 -0.22900702856887781 -0.21451543163629161 0 -0.24411240467052719 -0.189163691631557 0 -0.2420911206124477 -0.20555766733483391 0 -0.22900702856887781 -0.21451543163629161 0 -0.24411240467052719 -0.189163691631557 0 -0.24862493598769481 -0.19852958057999959 0 -0.25553144154411628 -0.1898259975185905 0 -0.24862493598769481 -0.19852958057999959 0 -0.2420911206124477 -0.20555766733483391 0 -0.25051797872981219 -0.21011174819722969 0 -0.2420911206124477 -0.20555766733483391 0 -0.24414880553829979 -0.21966279062445071 0 -0.25051797872981219 -0.21011174819722969 0 -0.24414880553829979 -0.21966279062445071 0 -0.25353522381878291 -0.22227814381025701 0 -0.25051797872981219 -0.21011174819722969 0 -0.2420911206124477 -0.20555766733483391 0 -0.22900702856887781 -0.21451543163629161 0 -0.24414880553829979 -0.21966279062445071 0 -0.2097038016794639 -0.22749165698614229 0 -0.22900702856887781 -0.21451543163629161 0 -0.22595521881646749 -0.2037408714328113 0 -0.2097038016794639 -0.22749165698614229 0 -0.22900702856887781 -0.21451543163629161 0 -0.22434102661051461 -0.22842006083344191 0 -0.2097038016794639 -0.22749165698614229 0 -0.22434102661051461 -0.22842006083344191 0 -0.22301620101341341 -0.24302674165157989 0 -0.22900702856887781 -0.21451543163629161 0 -0.22434102661051461 -0.22842006083344191 0 -0.2354589471866454 -0.22456317856952621 0 -0.22434102661051461 -0.22842006083344191 0 -0.2354589471866454 -0.22456317856952621 0 -0.24433892802888951 -0.2356544311839206 0 -0.2354589471866454 -0.22456317856952621 0 -0.24414880553829979 -0.21966279062445071 0 -0.24433892802888951 -0.2356544311839206 0 -0.24414880553829979 -0.21966279062445071 0 -0.24433892802888951 -0.2356544311839206 0 -0.25353522381878291 -0.22227814381025701 0 -0.22900702856887781 -0.21451543163629161 0 -0.2354589471866454 -0.22456317856952621 0 -0.24414880553829979 -0.21966279062445071 0 -0.2393768668894786 -0.25582451898022163 0 -0.24433892802888951 -0.2356544311839206 0 -0.2581986285306509 -0.2447208203320011 0 -0.2393768668894786 -0.25582451898022163 0 -0.24433892802888951 -0.2356544311839206 0 -0.22301620101341341 -0.24302674165157989 0 -0.22434102661051461 -0.22842006083344191 0 -0.24433892802888951 -0.2356544311839206 0 -0.22301620101341341 -0.24302674165157989 0 -0.24433892802888951 -0.2356544311839206 0 -0.22301620101341341 -0.24302674165157989 0 -0.2074223795182851 -0.151128387214605 0 -0.20932219269730579 -0.1395203473545904 0 -0.19814680916927349 -0.1422439088177376 0 -0.2074223795182851 -0.151128387214605 0 -0.21345864434356179 -0.1644559886749033 0 -0.2191800206062568 -0.15296143636476339 0 -0.2074223795182851 -0.151128387214605 0 -0.2191800206062568 -0.15296143636476339 0 -0.22104184242881911 -0.14059420947700529 0 -0.2074223795182851 -0.151128387214605 0 -0.20932219269730579 -0.1395203473545904 0 -0.22104184242881911 -0.14059420947700529 0 -0.21466316611427011 -0.1324749324172462 0 -0.20932219269730579 -0.1395203473545904 0 -0.22104184242881911 -0.14059420947700529 0 -0.21466316611427011 -0.1324749324172462 0 -0.2228640423866417 -0.12684013191474561 0 -0.21333118572893789 -0.1235463782347794 0 -0.21466316611427011 -0.1324749324172462 0 -0.20391696518211661 -0.13044700258760619 0 -0.21333118572893789 -0.1235463782347794 0 -0.21466316611427011 -0.1324749324172462 0 -0.20391696518211661 -0.13044700258760619 0 -0.20932219269730579 -0.1395203473545904 0 -0.20391696518211661 -0.13044700258760619 0 -0.20932219269730579 -0.1395203473545904 0 -0.19814680916927349 -0.1422439088177376 0 -0.20391696518211661 -0.13044700258760619 0 -0.1889412217266091 -0.13120540566079911 0 -0.19814680916927349 -0.1422439088177376 0 -0.20391696518211661 -0.13044700258760619 0 -0.1889412217266091 -0.13120540566079911 0 -0.19627823335375791 -0.1226835761769634 0 -0.18455486919811831 -0.1457154710869277 0 -0.1889412217266091 -0.13120540566079911 0 -0.19814680916927349 -0.1422439088177376 0 -0.18455486919811831 -0.1457154710869277 0 -0.19814680916927349 -0.1422439088177376 0 -0.19434849543140059 -0.15719127964756541 0 -0.2074223795182851 -0.151128387214605 0 -0.19814680916927349 -0.1422439088177376 0 -0.19434849543140059 -0.15719127964756541 0 -0.1868030557880086 -0.17242734728717091 0 -0.19434849543140059 -0.15719127964756541 0 -0.20092733650370331 -0.1706119468355512 0 -0.19434849543140059 -0.15719127964756541 0 -0.20092733650370331 -0.1706119468355512 0 -0.2040392139492378 -0.16084690059315621 0 -0.2074223795182851 -0.151128387214605 0 -0.19434849543140059 -0.15719127964756541 0 -0.2040392139492378 -0.16084690059315621 0 -0.1967093618614911 -0.18793097890057031 0 -0.18883502265712029 -0.18495997271983339 0 -0.19583105415179769 -0.17969760925836331 0 -0.1868030557880086 -0.17242734728717091 0 -0.20092733650370331 -0.1706119468355512 0 -0.19583105415179769 -0.17969760925836331 0 -0.1868030557880086 -0.17242734728717091 0 -0.18883502265712029 -0.18495997271983339 0 -0.19583105415179769 -0.17969760925836331 0 -0.20092733650370331 -0.1706119468355512 0 -0.19583105415179769 -0.17969760925836331 0 -0.20665692440613009 -0.1847329372060959 0 -0.1967093618614911 -0.18793097890057031 0 -0.19583105415179769 -0.17969760925836331 0 -0.20665692440613009 -0.1847329372060959 0 -0.20092733650370331 -0.1706119468355512 0 -0.20665692440613009 -0.1847329372060959 0 -0.21368330336717689 -0.17547864458011031 0 -0.21368330336717689 -0.17547864458011031 0 -0.2165495866507956 -0.18360242934640869 0 -0.2223947384128164 -0.17909366463056831 0 -0.20665692440613009 -0.1847329372060959 0 -0.21368330336717689 -0.17547864458011031 0 -0.2165495866507956 -0.18360242934640869 0 -0.21692973722154929 -0.19190628690689471 0 -0.20665692440613009 -0.1847329372060959 0 -0.2165495866507956 -0.18360242934640869 0 -0.2074223795182851 -0.151128387214605 0 -0.2040392139492378 -0.16084690059315621 0 -0.21345864434356179 -0.1644559886749033 0 -0.20092733650370331 -0.1706119468355512 0 -0.21368330336717689 -0.17547864458011031 0 -0.21345864434356179 -0.1644559886749033 0 -0.20092733650370331 -0.1706119468355512 0 -0.2040392139492378 -0.16084690059315621 0 -0.21345864434356179 -0.1644559886749033 0 -0.21368330336717689 -0.17547864458011031 0 -0.21345864434356179 -0.1644559886749033 0 -0.2230477378739297 -0.16964182425690311 0 -0.21345864434356179 -0.1644559886749033 0 -0.22573601412725461 -0.16004800141025299 0 -0.2191800206062568 -0.15296143636476339 0 -0.21345864434356179 -0.1644559886749033 0 -0.22573601412725461 -0.16004800141025299 0 -0.2230477378739297 -0.16964182425690311 0 -0.2230477378739297 -0.16964182425690311 0 -0.23345972956525521 -0.16851885827492311 0 -0.22992873237045369 -0.17653330907366199 0 -0.22573601412725461 -0.16004800141025299 0 -0.2230477378739297 -0.16964182425690311 0 -0.23345972956525521 -0.16851885827492311 0 -0.22573601412725461 -0.16004800141025299 0 -0.23345972956525521 -0.16851885827492311 0 -0.23497267870965269 -0.15812838631607151 0 -0.21692973722154929 -0.19190628690689471 0 -0.2165495866507956 -0.18360242934640869 0 -0.22308322984630499 -0.18680061340837409 0 -0.2165495866507956 -0.18360242934640869 0 -0.22308322984630499 -0.18680061340837409 0 -0.2223947384128164 -0.17909366463056831 0 -0.22308322984630499 -0.18680061340837409 0 -0.2223947384128164 -0.17909366463056831 0 -0.22792491024502751 -0.18261596032501329 0 -0.21368330336717689 -0.17547864458011031 0 -0.2230477378739297 -0.16964182425690311 0 -0.2223947384128164 -0.17909366463056831 0 -0.2230477378739297 -0.16964182425690311 0 -0.2223947384128164 -0.17909366463056831 0 -0.22992873237045369 -0.17653330907366199 0 -0.23345972956525521 -0.16851885827492311 0 -0.22992873237045369 -0.17653330907366199 0 -0.23643288866912959 -0.17641523714343671 0 -0.22992873237045369 -0.17653330907366199 0 -0.23356232345064479 -0.18113055762327709 0 -0.23643288866912959 -0.17641523714343671 0 -0.2223947384128164 -0.17909366463056831 0 -0.22992873237045369 -0.17653330907366199 0 -0.22792491024502751 -0.18261596032501329 0 -0.23065552714491741 -0.18952165688918479 0 -0.22792491024502751 -0.18261596032501329 0 -0.23356232345064479 -0.18113055762327709 0 -0.22992873237045369 -0.17653330907366199 0 -0.22792491024502751 -0.18261596032501329 0 -0.23356232345064479 -0.18113055762327709 0 -0.23065552714491741 -0.18952165688918479 0 -0.22308322984630499 -0.18680061340837409 0 -0.22792491024502751 -0.18261596032501329 0 -0.24220663595347991 -0.17999008587948631 0 -0.24162495277933749 -0.1732425798384282 0 -0.25921778077217728 -0.1638119516268228 0 -0.24411240467052719 -0.189163691631557 0 -0.24220663595347991 -0.17999008587948631 0 -0.25921778077217728 -0.1638119516268228 0 -0.23065552714491741 -0.18952165688918479 0 -0.23356232345064479 -0.18113055762327709 0 -0.24220663595347991 -0.17999008587948631 0 -0.23345972956525521 -0.16851885827492311 0 -0.23643288866912959 -0.17641523714343671 0 -0.24162495277933749 -0.1732425798384282 0 -0.23356232345064479 -0.18113055762327709 0 -0.24220663595347991 -0.17999008587948631 0 -0.23643288866912959 -0.17641523714343671 0 -0.24220663595347991 -0.17999008587948631 0 -0.23643288866912959 -0.17641523714343671 0 -0.24162495277933749 -0.1732425798384282 0 -0.24162495277933749 -0.1732425798384282 0 -0.248782105131127 -0.16161515126540901 0 -0.25921778077217728 -0.1638119516268228 0 -0.24084925389485951 -0.16403368226899431 0 -0.23497267870965269 -0.15812838631607151 0 -0.2438449058079161 -0.15625888402858651 0 -0.23345972956525521 -0.16851885827492311 0 -0.24084925389485951 -0.16403368226899431 0 -0.23497267870965269 -0.15812838631607151 0 -0.23345972956525521 -0.16851885827492311 0 -0.24162495277933749 -0.1732425798384282 0 -0.24084925389485951 -0.16403368226899431 0 -0.24162495277933749 -0.1732425798384282 0 -0.24084925389485951 -0.16403368226899431 0 -0.248782105131127 -0.16161515126540901 0 -0.24084925389485951 -0.16403368226899431 0 -0.248782105131127 -0.16161515126540901 0 -0.2438449058079161 -0.15625888402858651 0 -0.2438449058079161 -0.15625888402858651 0 -0.24379637703047641 -0.14069965914005991 0 -0.25545790984005162 -0.1486314068883241 0 -0.248782105131127 -0.16161515126540901 0 -0.2438449058079161 -0.15625888402858651 0 -0.25545790984005162 -0.1486314068883241 0 -0.24379637703047641 -0.14069965914005991 0 -0.23707657056689441 -0.14935266637796091 0 -0.23416037335436221 -0.14155441377206929 0 -0.2438449058079161 -0.15625888402858651 0 -0.24379637703047641 -0.14069965914005991 0 -0.23707657056689441 -0.14935266637796091 0 -0.23497267870965269 -0.15812838631607151 0 -0.2438449058079161 -0.15625888402858651 0 -0.23707657056689441 -0.14935266637796091 0 -0.23497267870965269 -0.15812838631607151 0 -0.23707657056689441 -0.14935266637796091 0 -0.22860851793206491 -0.15012198863301751 0 -0.22573601412725461 -0.16004800141025299 0 -0.23497267870965269 -0.15812838631607151 0 -0.22860851793206491 -0.15012198863301751 0 -0.23707657056689441 -0.14935266637796091 0 -0.22860851793206491 -0.15012198863301751 0 -0.23416037335436221 -0.14155441377206929 0 -0.22860851793206491 -0.15012198863301751 0 -0.23416037335436221 -0.14155441377206929 0 -0.22104184242881911 -0.14059420947700529 0 -0.22860851793206491 -0.15012198863301751 0 -0.2191800206062568 -0.15296143636476339 0 -0.22104184242881911 -0.14059420947700529 0 -0.22573601412725461 -0.16004800141025299 0 -0.22860851793206491 -0.15012198863301751 0 -0.2191800206062568 -0.15296143636476339 0 -0.21466316611427011 -0.1324749324172462 0 -0.2228640423866417 -0.12684013191474561 0 -0.22104184242881911 -0.14059420947700529 0 -0.2228640423866417 -0.12684013191474561 0 -0.22104184242881911 -0.14059420947700529 0 -0.23240775294905511 -0.13190156784492041 0 -0.23416037335436221 -0.14155441377206929 0 -0.22104184242881911 -0.14059420947700529 0 -0.23240775294905511 -0.13190156784492041 0 -0.2228640423866417 -0.12684013191474561 0 -0.23240775294905511 -0.13190156784492041 0 -0.23190762254846439 -0.1212547634537285 0 -0.23240775294905511 -0.13190156784492041 0 -0.24237050106513761 -0.12657614542635451 0 -0.23190762254846439 -0.1212547634537285 0 -0.24379637703047641 -0.14069965914005991 0 -0.23416037335436221 -0.14155441377206929 0 -0.23240775294905511 -0.13190156784492041 0 -0.24379637703047641 -0.14069965914005991 0 -0.23240775294905511 -0.13190156784492041 0 -0.24237050106513761 -0.12657614542635451 0 -0.24379637703047641 -0.14069965914005991 0 -0.24237050106513761 -0.12657614542635451 0 -0.25403199653450548 -0.13253089301491691 0 -0.24237050106513761 -0.12657614542635451 0 -0.25118326724822809 -0.12205150868743141 0 -0.25403199653450548 -0.13253089301491691 0 -0.24237050106513761 -0.12657614542635451 0 -0.24224001887755781 -0.115546481050691 0 -0.25118326724822809 -0.12205150868743141 0 -0.24237050106513761 -0.12657614542635451 0 -0.24224001887755781 -0.115546481050691 0 -0.23190762254846439 -0.1212547634537285 0 -0.24224001887755781 -0.115546481050691 0 -0.23190762254846439 -0.1212547634537285 0 -0.23037457764526889 -0.10974363271517459 0 -0.24224001887755781 -0.115546481050691 0 -0.2431237657023104 -0.10251237741398581 0 -0.25554336938408723 -0.1122676618860588 0 -0.24224001887755781 -0.115546481050691 0 -0.25118326724822809 -0.12205150868743141 0 -0.25554336938408723 -0.1122676618860588 0 -0.2431237657023104 -0.10251237741398581 0 -0.226941628864961 -0.09892912321362643 0 -0.2356226422062648 -0.089606882961114104 0 -0.2431237657023104 -0.10251237741398581 0 -0.24747250104950519 -0.092854501526460187 0 -0.25819269595518829 -0.097816648605460771 0 -0.2431237657023104 -0.10251237741398581 0 -0.24747250104950519 -0.092854501526460187 0 -0.2356226422062648 -0.089606882961114104 0 -0.24224001887755781 -0.115546481050691 0 -0.2431237657023104 -0.10251237741398581 0 -0.23037457764526889 -0.10974363271517459 0 -0.2431237657023104 -0.10251237741398581 0 -0.226941628864961 -0.09892912321362643 0 -0.23037457764526889 -0.10974363271517459 0 -0.226941628864961 -0.09892912321362643 0 -0.21925306640283071 -0.1070475964493345 0 -0.2166870905728624 -0.098045274197586046 0 -0.226941628864961 -0.09892912321362643 0 -0.21977874434366229 -0.08909749290709347 0 -0.2166870905728624 -0.098045274197586046 0 -0.226941628864961 -0.09892912321362643 0 -0.21925306640283071 -0.1070475964493345 0 -0.23037457764526889 -0.10974363271517459 0 -0.21925306640283071 -0.1070475964493345 0 -0.22118884236712541 -0.1169206217704848 0 -0.23037457764526889 -0.10974363271517459 0 -0.2228640423866417 -0.12684013191474561 0 -0.22118884236712541 -0.1169206217704848 0 -0.23190762254846439 -0.1212547634537285 0 -0.2228640423866417 -0.12684013191474561 0 -0.22118884236712541 -0.1169206217704848 0 -0.21333118572893789 -0.1235463782347794 0 -0.22118884236712541 -0.1169206217704848 0 -0.23190762254846439 -0.1212547634537285 0 -0.23037457764526889 -0.10974363271517459 0 -0.2347585841931345 -0.064789979965574326 0 -0.22433193750601671 -0.076273037731325447 0 -0.25295090033425732 -0.081482097125280067 0 -0.2347585841931345 -0.064789979965574326 0 -0.26384823674953622 -0.06105654635743811 0 -0.2356226422062648 -0.089606882961114104 0 -0.22433193750601671 -0.076273037731325447 0 -0.25295090033425732 -0.081482097125280067 0 -0.22433193750601671 -0.076273037731325447 0 -0.25295090033425732 -0.081482097125280067 0 -0.24747250104950519 -0.092854501526460187 0 -0.2356226422062648 -0.089606882961114104 0 -0.25295090033425732 -0.081482097125280067 0 -0.2356226422062648 -0.089606882961114104 0 -0.21977874434366229 -0.08909749290709347 0 -0.22433193750601671 -0.076273037731325447 0 -0.226941628864961 -0.09892912321362643 0 -0.2356226422062648 -0.089606882961114104 0 -0.21977874434366229 -0.08909749290709347 0 -0.2347585841931345 -0.064789979965574326 0 -0.20566893163673269 -0.068523413573710557 0 -0.2347585841931345 -0.064789979965574326 0 -0.22433193750601671 -0.076273037731325447 0 -0.20566893163673269 -0.068523413573710557 0 -0.2347585841931345 -0.064789979965574326 0 -0.20566893163673269 -0.068523413573710557 0 -0.2165657103293433 -0.057585604375704008 0 -0.22433193750601671 -0.076273037731325447 0 -0.20814351545991219 -0.08399154872872619 0 -0.1957129746777761 -0.071063978337370826 0 -0.22433193750601671 -0.076273037731325447 0 -0.1957129746777761 -0.071063978337370826 0 -0.22433193750601671 -0.076273037731325447 0 -0.20566893163673269 -0.068523413573710557 0 -0.1957129746777761 -0.071063978337370826 0 -0.21977874434366229 -0.08909749290709347 0 -0.22433193750601671 -0.076273037731325447 0 -0.20814351545991219 -0.08399154872872619 0 -0.21977874434366229 -0.08909749290709347 0 -0.20814351545991219 -0.08399154872872619 0 -0.20825255854391711 -0.094538876164920072 0 -0.20814351545991219 -0.08399154872872619 0 -0.1978959035131827 -0.091821362572602289 0 -0.20825255854391711 -0.094538876164920072 0 -0.20814351545991219 -0.08399154872872619 0 -0.1978959035131827 -0.091821362572602289 0 -0.19499687832739471 -0.082447787826683216 0 -0.1978959035131827 -0.091821362572602289 0 -0.19499687832739471 -0.082447787826683216 0 -0.18714201719631049 -0.087634559680344878 0 -0.1978959035131827 -0.091821362572602289 0 -0.18874068045991921 -0.10076976842742801 0 -0.18714201719631049 -0.087634559680344878 0 -0.19499687832739471 -0.082447787826683216 0 -0.18714201719631049 -0.087634559680344878 0 -0.18674276976344009 -0.079048281394804229 0 -0.20814351545991219 -0.08399154872872619 0 -0.19499687832739471 -0.082447787826683216 0 -0.1957129746777761 -0.071063978337370826 0 -0.20566893163673269 -0.068523413573710557 0 -0.19348315190670801 -0.062565311742150312 0 -0.176579279080331 -0.072256847181847383 0 -0.20566893163673269 -0.068523413573710557 0 -0.176579279080331 -0.072256847181847383 0 -0.20566893163673269 -0.068523413573710557 0 -0.1957129746777761 -0.071063978337370826 0 -0.176579279080331 -0.072256847181847383 0 -0.19499687832739471 -0.082447787826683216 0 -0.1957129746777761 -0.071063978337370826 0 -0.18674276976344009 -0.079048281394804229 0 -0.20566893163673269 -0.068523413573710557 0 -0.19348315190670801 -0.062565311742150312 0 -0.20264485336403479 -0.057338828482974918 0 -0.21097523465834031 -0.1142191900677087 0 -0.20935102430842609 -0.10442773673142659 0 -0.19934656578649609 -0.1122800137521484 0 -0.21097523465834031 -0.1142191900677087 0 -0.204590909002275 -0.12061084131571841 0 -0.19934656578649609 -0.1122800137521484 0 -0.21097523465834031 -0.1142191900677087 0 -0.204590909002275 -0.12061084131571841 0 -0.21333118572893789 -0.1235463782347794 0 -0.20391696518211661 -0.13044700258760619 0 -0.204590909002275 -0.12061084131571841 0 -0.21333118572893789 -0.1235463782347794 0 -0.22118884236712541 -0.1169206217704848 0 -0.21097523465834031 -0.1142191900677087 0 -0.21333118572893789 -0.1235463782347794 0 -0.21925306640283071 -0.1070475964493345 0 -0.22118884236712541 -0.1169206217704848 0 -0.21097523465834031 -0.1142191900677087 0 -0.21925306640283071 -0.1070475964493345 0 -0.2166870905728624 -0.098045274197586046 0 -0.20935102430842609 -0.10442773673142659 0 -0.21925306640283071 -0.1070475964493345 0 -0.21097523465834031 -0.1142191900677087 0 -0.20935102430842609 -0.10442773673142659 0 -0.2166870905728624 -0.098045274197586046 0 -0.20825255854391711 -0.094538876164920072 0 -0.20935102430842609 -0.10442773673142659 0 -0.21977874434366229 -0.08909749290709347 0 -0.2166870905728624 -0.098045274197586046 0 -0.20825255854391711 -0.094538876164920072 0 -0.20825255854391711 -0.094538876164920072 0 -0.20935102430842609 -0.10442773673142659 0 -0.20009977109164251 -0.1015456346075115 0 -0.20935102430842609 -0.10442773673142659 0 -0.20009977109164251 -0.1015456346075115 0 -0.19934656578649609 -0.1122800137521484 0 -0.20009977109164251 -0.1015456346075115 0 -0.18874068045991921 -0.10076976842742801 0 -0.19934656578649609 -0.1122800137521484 0 -0.1978959035131827 -0.091821362572602289 0 -0.20009977109164251 -0.1015456346075115 0 -0.18874068045991921 -0.10076976842742801 0 -0.1978959035131827 -0.091821362572602289 0 -0.20825255854391711 -0.094538876164920072 0 -0.20009977109164251 -0.1015456346075115 0 -0.18874068045991921 -0.10076976842742801 0 -0.19934656578649609 -0.1122800137521484 0 -0.1858257880709947 -0.11715068750397289 0 -0.204590909002275 -0.12061084131571841 0 -0.19934656578649609 -0.1122800137521484 0 -0.19627823335375791 -0.1226835761769634 0 -0.20391696518211661 -0.13044700258760619 0 -0.204590909002275 -0.12061084131571841 0 -0.19627823335375791 -0.1226835761769634 0 -0.19934656578649609 -0.1122800137521484 0 -0.19627823335375791 -0.1226835761769634 0 -0.1858257880709947 -0.11715068750397289 0 -0.1889412217266091 -0.13120540566079911 0 -0.19627823335375791 -0.1226835761769634 0 -0.1858257880709947 -0.11715068750397289 0 -0.1774759808757832 -0.12514075164181029 0 -0.1889412217266091 -0.13120540566079911 0 -0.1858257880709947 -0.11715068750397289 0 -0.1858257880709947 -0.11715068750397289 0 -0.17296774656503469 -0.1151436493255406 0 -0.17566766888307289 -0.10347161409397269 0 -0.1774759808757832 -0.12514075164181029 0 -0.1858257880709947 -0.11715068750397289 0 -0.17296774656503469 -0.1151436493255406 0 -0.1774759808757832 -0.12514075164181029 0 -0.16479092854468161 -0.12513851283939079 0 -0.17296774656503469 -0.1151436493255406 0 -0.17296774656503469 -0.1151436493255406 0 -0.16275883012803399 -0.11114913687698399 0 -0.17566766888307289 -0.10347161409397269 0 -0.16479092854468161 -0.12513851283939079 0 -0.17296774656503469 -0.1151436493255406 0 -0.16275883012803399 -0.11114913687698399 0 -0.16479092854468161 -0.12513851283939079 0 -0.16275883012803399 -0.11114913687698399 0 -0.15261349834235621 -0.1181140474543052 0 -0.16275883012803399 -0.11114913687698399 0 -0.16310187233754911 -0.096027681446269095 0 -0.1517354615842309 -0.10399820050064169 0 -0.16275883012803399 -0.11114913687698399 0 -0.16310187233754911 -0.096027681446269095 0 -0.17566766888307289 -0.10347161409397269 0 -0.16310187233754911 -0.096027681446269095 0 -0.17566766888307289 -0.10347161409397269 0 -0.17710274205501311 -0.092199483598396248 0 -0.18874068045991921 -0.10076976842742801 0 -0.1858257880709947 -0.11715068750397289 0 -0.17566766888307289 -0.10347161409397269 0 -0.18874068045991921 -0.10076976842742801 0 -0.17566766888307289 -0.10347161409397269 0 -0.17710274205501311 -0.092199483598396248 0 -0.18874068045991921 -0.10076976842742801 0 -0.18714201719631049 -0.087634559680344878 0 -0.17710274205501311 -0.092199483598396248 0 -0.18714201719631049 -0.087634559680344878 0 -0.17919852357483221 -0.083311643968011551 0 -0.17710274205501311 -0.092199483598396248 0 -0.18714201719631049 -0.087634559680344878 0 -0.18674276976344009 -0.079048281394804229 0 -0.17919852357483221 -0.083311643968011551 0 -0.18674276976344009 -0.079048281394804229 0 -0.17919852357483221 -0.083311643968011551 0 -0.176579279080331 -0.072256847181847383 0 -0.176579279080331 -0.072256847181847383 0 -0.16842580977906599 -0.085419047984665014 0 -0.17919852357483221 -0.083311643968011551 0 -0.176579279080331 -0.072256847181847383 0 -0.16842580977906599 -0.085419047984665014 0 -0.17919852357483221 -0.083311643968011551 0 -0.17710274205501311 -0.092199483598396248 0 -0.16842580977906599 -0.085419047984665014 0 -0.1957129746777761 -0.071063978337370826 0 -0.18674276976344009 -0.079048281394804229 0 -0.176579279080331 -0.072256847181847383 0 -0.176579279080331 -0.072256847181847383 0 -0.15717554328636929 -0.074747167724387234 0 -0.161228587084565 -0.062887995290120124 0 -0.176579279080331 -0.072256847181847383 0 -0.15717554328636929 -0.074747167724387234 0 -0.16842580977906599 -0.085419047984665014 0 -0.176579279080331 -0.072256847181847383 0 -0.15717554328636929 -0.074747167724387234 0 -0.16310187233754911 -0.096027681446269095 0 -0.17710274205501311 -0.092199483598396248 0 -0.16842580977906599 -0.085419047984665014 0 -0.15717554328636929 -0.074747167724387234 0 -0.16842580977906599 -0.085419047984665014 0 -0.1571826414846865 -0.085047268486171557 0 -0.16310187233754911 -0.096027681446269095 0 -0.16842580977906599 -0.085419047984665014 0 -0.1571826414846865 -0.085047268486171557 0 -0.14857884123583509 -0.090855108791807207 0 -0.1468205483741967 -0.078179345382349746 0 -0.13194638021453911 -0.08922159947893489 0 -0.16310187233754911 -0.096027681446269095 0 -0.1571826414846865 -0.085047268486171557 0 -0.14857884123583509 -0.090855108791807207 0 -0.15717554328636929 -0.074747167724387234 0 -0.1571826414846865 -0.085047268486171557 0 -0.1468205483741967 -0.078179345382349746 0 -0.1571826414846865 -0.085047268486171557 0 -0.14857884123583509 -0.090855108791807207 0 -0.1468205483741967 -0.078179345382349746 0 -0.161228587084565 -0.062887995290120124 0 -0.13341763062339579 -0.073633832850170278 0 -0.161228587084565 -0.062887995290120124 0 -0.13341763062339579 -0.073633832850170278 0 -0.14563137517464639 -0.058832338449906478 0 -0.161228587084565 -0.062887995290120124 0 -0.1468205483741967 -0.078179345382349746 0 -0.13341763062339579 -0.073633832850170278 0 -0.15717554328636929 -0.074747167724387234 0 -0.161228587084565 -0.062887995290120124 0 -0.1468205483741967 -0.078179345382349746 0 -0.13341763062339579 -0.073633832850170278 0 -0.13545750067410081 -0.052021591920880197 0 -0.11281105113450419 -0.06211304987164766 0 -0.13341763062339579 -0.073633832850170278 0 -0.13545750067410081 -0.052021591920880197 0 -0.14857884123583509 -0.090855108791807207 0 -0.13194638021453911 -0.08922159947893489 0 -0.14059781583638589 -0.099488160078095966 0 -0.11155880223120621 -0.082079835758539679 0 -0.13341763062339579 -0.073633832850170278 0 -0.13194638021453911 -0.08922159947893489 0 -0.1468205483741967 -0.078179345382349746 0 -0.13341763062339579 -0.073633832850170278 0 -0.13194638021453911 -0.08922159947893489 0 -0.13341763062339579 -0.073633832850170278 0 -0.13194638021453911 -0.08922159947893489 0 -0.13194638021453911 -0.08922159947893489 0 -0.13047512980568579 -0.10480936610769979 0 -0.1192851802161416 -0.096470376226369559 0 -0.13194638021453911 -0.08922159947893489 0 -0.13047512980568579 -0.10480936610769979 0 -0.13194638021453911 -0.08922159947893489 0 -0.14059781583638589 -0.099488160078095966 0 -0.13047512980568579 -0.10480936610769979 0 -0.14059781583638589 -0.099488160078095966 0 -0.13047512980568579 -0.10480936610769979 0 -0.1403613429616534 -0.1115914759410962 0 -0.13047512980568579 -0.10480936610769979 0 -0.12575745834348909 -0.118558131368756 0 -0.1403613429616534 -0.1115914759410962 0 -0.14104273216777999 -0.12609842535192839 0 -0.12575745834348909 -0.118558131368756 0 -0.1403613429616534 -0.1115914759410962 0 -0.1403613429616534 -0.1115914759410962 0 -0.15261349834235621 -0.1181140474543052 0 -0.1517354615842309 -0.10399820050064169 0 -0.14104273216777999 -0.12609842535192839 0 -0.1403613429616534 -0.1115914759410962 0 -0.15261349834235621 -0.1181140474543052 0 -0.16275883012803399 -0.11114913687698399 0 -0.15261349834235621 -0.1181140474543052 0 -0.1517354615842309 -0.10399820050064169 0 -0.16310187233754911 -0.096027681446269095 0 -0.14857884123583509 -0.090855108791807207 0 -0.1517354615842309 -0.10399820050064169 0 -0.14857884123583509 -0.090855108791807207 0 -0.14059781583638589 -0.099488160078095966 0 -0.1517354615842309 -0.10399820050064169 0 -0.14059781583638589 -0.099488160078095966 0 -0.1403613429616534 -0.1115914759410962 0 -0.1517354615842309 -0.10399820050064169 0 -0.1500369048858278 -0.020331351256751139 0 -0.1395372407755178 -0.0087971100623008003 0 -0.1374973707248093 -0.030409350991590509 0 -0.1500369048858278 -0.020331351256751139 0 -0.1374973707248093 -0.030409350991590509 0 -0.16309090654955169 -0.030532414879356349 0 -0.13234563100855259 -0.0039657619997244039 0 -0.16002210149343241 -0.011586529093756881 0 -0.13234563100855259 -0.0039657619997244039 0 -0.16002210149343241 -0.011586529093756881 0 -0.1497751813872662 0.0074147435616967981 0 -0.1395372407755178 -0.0087971100623008003 0 -0.13234563100855259 -0.0039657619997244039 0 -0.16002210149343241 -0.011586529093756881 0 -0.1500369048858278 -0.020331351256751139 0 -0.1395372407755178 -0.0087971100623008003 0 -0.16002210149343241 -0.011586529093756881 0 -0.1395372407755178 -0.0087971100623008003 0 -0.13234563100855259 -0.0039657619997244039 0 -0.13212844903641191 -0.0135582869875003 0 -0.13234563100855259 -0.0039657619997244039 0 -0.13204674266974001 0.0023344024861769448 0 -0.11384095251281599 0.001129535286935791 0 -0.13234563100855259 -0.0039657619997244039 0 -0.13212844903641191 -0.0135582869875003 0 -0.12520886773000181 -0.019079771576411109 0 -0.13212844903641191 -0.0135582869875003 0 -0.12520886773000181 -0.019079771576411109 0 -0.1374973707248093 -0.030409350991590509 0 -0.1395372407755178 -0.0087971100623008003 0 -0.13212844903641191 -0.0135582869875003 0 -0.1374973707248093 -0.030409350991590509 0 -0.1395372407755178 -0.0087971100623008003 0 -0.1374973707248093 -0.030409350991590509 0 -0.1204163033987028 -0.038726747159081802 0 -0.12520886773000181 -0.019079771576411109 0 -0.1374973707248093 -0.030409350991590509 0 -0.1374973707248093 -0.030409350991590509 0 -0.13545750067410081 -0.052021591920880197 0 -0.1204163033987028 -0.038726747159081802 0 -0.1374973707248093 -0.030409350991590509 0 -0.13545750067410081 -0.052021591920880197 0 -0.13341763062339579 -0.073633832850170278 0 -0.13545750067410081 -0.052021591920880197 0 -0.14563137517464639 -0.058832338449906478 0 -0.161228587084565 -0.062887995290120124 0 -0.14563137517464639 -0.058832338449906478 0 -0.15242178231652409 -0.046785933738455299 0 -0.13545750067410081 -0.052021591920880197 0 -0.14563137517464639 -0.058832338449906478 0 -0.15242178231652409 -0.046785933738455299 0 -0.1374973707248093 -0.030409350991590509 0 -0.13545750067410081 -0.052021591920880197 0 -0.15242178231652409 -0.046785933738455299 0 -0.1374973707248093 -0.030409350991590509 0 -0.15242178231652409 -0.046785933738455299 0 -0.16309090654955169 -0.030532414879356349 0 -0.15242178231652409 -0.046785933738455299 0 -0.16986583821487439 -0.045150352089803197 0 -0.16309090654955169 -0.030532414879356349 0 -0.161228587084565 -0.062887995290120124 0 -0.15242178231652409 -0.046785933738455299 0 -0.16986583821487439 -0.045150352089803197 0 -0.161228587084565 -0.062887995290120124 0 -0.1890395435457308 -0.052142157730061291 0 -0.19348315190670801 -0.062565311742150312 0 -0.176579279080331 -0.072256847181847383 0 -0.1890395435457308 -0.052142157730061291 0 -0.176579279080331 -0.072256847181847383 0 -0.1890395435457308 -0.052142157730061291 0 -0.176579279080331 -0.072256847181847383 0 -0.161228587084565 -0.062887995290120124 0 -0.1890395435457308 -0.052142157730061291 0 -0.161228587084565 -0.062887995290120124 0 -0.16986583821487439 -0.045150352089803197 0 -0.1890395435457308 -0.052142157730061291 0 -0.16986583821487439 -0.045150352089803197 0 -0.18306359234107791 -0.033557373604392073 0 -0.1890395435457308 -0.052142157730061291 0 -0.16986583821487439 -0.045150352089803197 0 -0.18306359234107791 -0.033557373604392073 0 -0.16309090654955169 -0.030532414879356349 0 -0.18306359234107791 -0.033557373604392073 0 -0.17734366765231629 -0.01635605422062782 0 -0.19538841992843631 -0.01545000486389159 0 -0.18306359234107791 -0.033557373604392073 0 -0.17734366765231629 -0.01635605422062782 0 -0.16309090654955169 -0.030532414879356349 0 -0.17734366765231629 -0.01635605422062782 0 -0.16309090654955169 -0.030532414879356349 0 -0.16002210149343241 -0.011586529093756881 0 -0.1500369048858278 -0.020331351256751139 0 -0.16309090654955169 -0.030532414879356349 0 -0.16002210149343241 -0.011586529093756881 0 -0.16309090654955169 -0.030532414879356349 0 -0.16002210149343241 -0.011586529093756881 0 -0.17734366765231629 -0.01635605422062782 0 -0.16002210149343241 -0.011586529093756881 0 -0.17391542676335689 0.001812315109509761 0 -0.17734366765231629 -0.01635605422062782 0 -0.16002210149343241 -0.011586529093756881 0 -0.16002210149343241 -0.011586529093756881 0 -0.15642954840536669 0.01059282060117113 0 -0.16002210149343241 -0.011586529093756881 0 -0.1646578652215766 0.003337892693202899 0 -0.17391542676335689 0.001812315109509761 0 -0.17734366765231629 -0.01635605422062782 0 -0.1861272887773644 -0.0062487556756454041 0 -0.19538841992843631 -0.01545000486389159 0 -0.17734366765231629 -0.01635605422062782 0 -0.1861272887773644 -0.0062487556756454041 0 -0.17391542676335689 0.001812315109509761 0 -0.1861272887773644 -0.0062487556756454041 0 -0.19538841992843631 -0.01545000486389159 0 -0.19786164076534829 0.0049987212724280326 0 -0.19538841992843631 -0.01545000486389159 0 -0.21328857854407349 -0.01299677603673356 0 -0.19786164076534829 0.0049987212724280326 0 -0.18306359234107791 -0.033557373604392073 0 -0.19538841992843631 -0.01545000486389159 0 -0.2011640610448982 -0.032569466883395008 0 -0.21328857854407349 -0.01299677603673356 0 -0.2011640610448982 -0.032569466883395008 0 -0.19538841992843631 -0.01545000486389159 0 -0.21328857854407349 -0.01299677603673356 0 -0.2011640610448982 -0.032569466883395008 0 -0.2144257544921411 -0.03061259922294798 0 -0.21328857854407349 -0.01299677603673356 0 -0.2234866806652244 -0.02489284523154724 0 -0.2144257544921411 -0.03061259922294798 0 -0.21328857854407349 -0.01299677603673356 0 -0.2011640610448982 -0.032569466883395008 0 -0.21328857854407349 -0.01299677603673356 0 -0.21774412000384391 -0.0092794317788205093 0 -0.2234866806652244 -0.02489284523154724 0 -0.21328857854407349 -0.01299677603673356 0 -0.2234866806652244 -0.02489284523154724 0 -0.21328857854407349 -0.01299677603673356 0 -0.19786164076534829 0.0049987212724280326 0 -0.21328857854407349 -0.01299677603673356 0 -0.21774412000384391 -0.0092794317788205093 0 -0.21871044913480961 -0.0042442135623651043 0 -0.21328857854407349 -0.01299677603673356 0 -0.21871044913480961 -0.0042442135623651043 0 -0.21328857854407349 -0.01299677603673356 0 -0.21871044913480961 -0.0042442135623651043 0 -0.19786164076534829 0.0049987212724280326 0 -0.21774412000384391 -0.0092794317788205093 0 -0.21968397392266259 -0.0084529615338980665 0 -0.21774412000384391 -0.0092794317788205093 0 -0.21871044913480961 -0.0042442135623651043 0 -0.21968397392266259 -0.0084529615338980665 0 -0.20264485336403479 -0.057338828482974918 0 -0.1890395435457308 -0.052142157730061291 0 -0.20774299858408141 -0.044915355231044597 0 -0.1890395435457308 -0.052142157730061291 0 -0.20774299858408141 -0.044915355231044597 0 -0.19348315190670801 -0.062565311742150312 0 -0.20264485336403479 -0.057338828482974918 0 -0.1890395435457308 -0.052142157730061291 0 -0.1890395435457308 -0.052142157730061291 0 -0.2011640610448982 -0.032569466883395008 0 -0.20774299858408141 -0.044915355231044597 0 -0.1890395435457308 -0.052142157730061291 0 -0.2011640610448982 -0.032569466883395008 0 -0.18306359234107791 -0.033557373604392073 0 -0.1890395435457308 -0.052142157730061291 0 -0.2011640610448982 -0.032569466883395008 0 -0.2144257544921411 -0.03061259922294798 0 -0.20774299858408141 -0.044915355231044597 0 -0.22644645362242849 -0.037688552732019071 0 -0.20774299858408141 -0.044915355231044597 0 -0.2165657103293433 -0.057585604375704008 0 -0.22644645362242849 -0.037688552732019071 0 -0.20774299858408141 -0.044915355231044597 0 -0.22644645362242849 -0.037688552732019071 0 -0.2144257544921411 -0.03061259922294798 0 -0.2011640610448982 -0.032569466883395008 0 -0.20774299858408141 -0.044915355231044597 0 -0.20264485336403479 -0.057338828482974918 0 -0.20774299858408141 -0.044915355231044597 0 -0.2165657103293433 -0.057585604375704008 0 -0.20566893163673269 -0.068523413573710557 0 -0.20264485336403479 -0.057338828482974918 0 -0.2165657103293433 -0.057585604375704008 0 -0.2165657103293433 -0.057585604375704008 0 -0.23172547389701689 -0.060510843596685113 0 -0.22644645362242849 -0.037688552732019071 0 -0.23172547389701689 -0.060510843596685113 0 -0.22644645362242849 -0.037688552732019071 0 -0.2347585841931345 -0.064789979965574326 0 -0.2165657103293433 -0.057585604375704008 0 -0.23172547389701689 -0.060510843596685113 0 -0.23172547389701689 -0.060510843596685113 0 -0.22644645362242849 -0.037688552732019071 0 -0.2386917082099011 -0.045477414246343453 0 -0.22644645362242849 -0.037688552732019071 0 -0.2260280607756672 -0.027857360911521401 0 -0.24866627629982749 -0.029103065733834959 0 -0.22644645362242849 -0.037688552732019071 0 -0.2234866806652244 -0.02489284523154724 0 -0.2386917082099011 -0.045477414246343453 0 -0.24866627629982749 -0.029103065733834959 0 -0.25037152152354353 -0.046761918456208737 0 -0.22644645362242849 -0.037688552732019071 0 -0.24866627629982749 -0.029103065733834959 0 -0.22644645362242849 -0.037688552732019071 0 -0.2386917082099011 -0.045477414246343453 0 -0.24866627629982749 -0.029103065733834959 0 -0.2347585841931345 -0.064789979965574326 0 -0.24357389334630891 -0.055623474531990659 0 -0.26384823674953622 -0.06105654635743811 0 -0.23172547389701689 -0.060510843596685113 0 -0.2386917082099011 -0.045477414246343453 0 -0.24357389334630891 -0.055623474531990659 0 -0.2386917082099011 -0.045477414246343453 0 -0.24357389334630891 -0.055623474531990659 0 -0.25037152152354353 -0.046761918456208737 0 -0.2347585841931345 -0.064789979965574326 0 -0.23172547389701689 -0.060510843596685113 0 -0.24357389334630891 -0.055623474531990659 0 -0.21774412000384391 -0.0092794317788205093 0 -0.21968397392266259 -0.0084529615338980665 0 -0.2234866806652244 -0.02489284523154724 0 -0.2294338318420692 -0.01460146094671848 0 -0.21968397392266259 -0.0084529615338980665 0 -0.2395998062585549 3.2132456287619487e-05 0 -0.21968397392266259 -0.0084529615338980665 0 -0.2218097566737828 0.00075901962222443137 0 -0.2395998062585549 3.2132456287619487e-05 0 -0.21968397392266259 -0.0084529615338980665 0 -0.2395998062585549 3.2132456287619487e-05 0 -0.21871044913480961 -0.0042442135623651043 0 -0.21968397392266259 -0.0084529615338980665 0 -0.2218097566737828 0.00075901962222443137 0 -0.21871044913480961 -0.0042442135623651043 0 -0.2218097566737828 0.00075901962222443137 0 -0.21871044913480961 -0.0042442135623651043 0 -0.21968397392266259 -0.0084529615338980665 0 -0.21968397392266259 -0.0084529615338980665 0 -0.2234866806652244 -0.02489284523154724 0 -0.2294338318420692 -0.01460146094671848 0 -0.21968397392266259 -0.0084529615338980665 0 -0.2234866806652244 -0.02489284523154724 0 -0.2144257544921411 -0.03061259922294798 0 -0.22644645362242849 -0.037688552732019071 0 -0.2234866806652244 -0.02489284523154724 0 -0.22644645362242849 -0.037688552732019071 0 -0.2234866806652244 -0.02489284523154724 0 -0.2260280607756672 -0.027857360911521401 0 -0.2234866806652244 -0.02489284523154724 0 -0.2260280607756672 -0.027857360911521401 0 -0.2234866806652244 -0.02489284523154724 0 -0.2260280607756672 -0.027857360911521401 0 -0.23341706906160889 -0.0225139055571415 0 -0.2294338318420692 -0.01460146094671848 0 -0.23341706906160889 -0.0225139055571415 0 -0.23947049572525689 -0.016114794962085299 0 -0.2294338318420692 -0.01460146094671848 0 -0.2234866806652244 -0.02489284523154724 0 -0.23341706906160889 -0.0225139055571415 0 -0.23341706906160889 -0.0225139055571415 0 -0.23947049572525689 -0.016114794962085299 0 -0.24866627629982749 -0.029103065733834959 0 -0.2260280607756672 -0.027857360911521401 0 -0.23341706906160889 -0.0225139055571415 0 -0.24866627629982749 -0.029103065733834959 0 -0.23947049572525689 -0.016114794962085299 0 -0.24866627629982749 -0.029103065733834959 0 -0.25219876245754069 -0.014162947199655929 0 -0.2294338318420692 -0.01460146094671848 0 -0.23947049572525689 -0.016114794962085299 0 -0.2395998062585549 3.2132456287619487e-05 0 -0.23947049572525689 -0.016114794962085299 0 -0.25219876245754069 -0.014162947199655929 0 -0.2395998062585549 3.2132456287619487e-05 0 -0.25412876902409431 -0.0029034411103695409 0 -0.25219876245754069 -0.014162947199655929 0 -0.2395998062585549 3.2132456287619487e-05 0 -0.25219876245754069 -0.014162947199655929 0 -0.26520086878583649 -0.0060001761445883928 0 -0.27088609897722821 -0.020517578735655271 0 -0.25412876902409431 -0.0029034411103695409 0 -0.25219876245754069 -0.014162947199655929 0 -0.26520086878583649 -0.0060001761445883928 0 -0.25412876902409431 -0.0029034411103695409 0 -0.26520086878583649 -0.0060001761445883928 0 -0.25951563859444499 0.0085172264464785548 0 -0.24866627629982749 -0.029103065733834959 0 -0.25219876245754069 -0.014162947199655929 0 -0.27088609897722821 -0.020517578735655271 0 -0.24866627629982749 -0.029103065733834959 0 -0.27088609897722821 -0.020517578735655271 0 -0.24866627629982749 -0.029103065733834959 0 -0.27088609897722821 -0.020517578735655271 0 -0.26264377125621591 -0.039963298536898069 0 -0.27088609897722821 -0.020517578735655271 0 -0.28965882518237612 -0.013264010644902719 0 -0.27088609897722821 -0.020517578735655271 0 -0.28866895203700732 -0.029214526240426 0 -0.27944672273094417 -0.042377383401353233 0 -0.27088609897722821 -0.020517578735655271 0 -0.27736251579832139 -0.0096094063122444864 0 -0.28965882518237612 -0.013264010644902719 0 -0.26520086878583649 -0.0060001761445883928 0 -0.27088609897722821 -0.020517578735655271 0 -0.26520086878583649 -0.0060001761445883928 0 -0.27088609897722821 -0.020517578735655271 0 -0.27736251579832139 -0.0096094063122444864 0 -0.26520086878583649 -0.0060001761445883928 0 -0.27736251579832139 -0.0096094063122444864 0 -0.28013978120368888 0.001827391234728012 0 -0.28965882518237612 -0.013264010644902719 0 -0.28013978120368888 0.001827391234728012 0 -0.29779626154072752 0.0042823716210633614 0 -0.27736251579832139 -0.0096094063122444864 0 -0.28965882518237612 -0.013264010644902719 0 -0.28013978120368888 0.001827391234728012 0 -0.27088609897722821 -0.020517578735655271 0 -0.28965882518237612 -0.013264010644902719 0 -0.28866895203700732 -0.029214526240426 0 -0.28965882518237612 -0.013264010644902719 0 -0.28866895203700732 -0.029214526240426 0 -0.30629819486797261 -0.02546662992436436 0 -0.28965882518237612 -0.013264010644902719 0 -0.3084315513875262 -0.0060104425541563401 0 -0.30629819486797261 -0.02546662992436436 0 -0.3084315513875262 -0.0060104425541563401 0 -0.32031178730631737 -0.01324262704667321 0 -0.28965882518237612 -0.013264010644902719 0 -0.3084315513875262 -0.0060104425541563401 0 -0.29779626154072752 0.0042823716210633614 0 -0.28965882518237612 -0.013264010644902719 0 -0.30629819486797261 -0.02546662992436436 0 -0.3084315513875262 -0.0060104425541563401 0 -0.30846455523296701 -0.060827690483718402 0 -0.29705491842651538 -0.044447028495854378 0 -0.28800734648466042 -0.064237188067051268 0 -0.30846455523296701 -0.060827690483718402 0 -0.29705491842651538 -0.044447028495854378 0 -0.31636332636671011 -0.045841675905552118 0 -0.28866895203700732 -0.029214526240426 0 -0.30629819486797261 -0.02546662992436436 0 -0.29705491842651538 -0.044447028495854378 0 -0.30629819486797261 -0.02546662992436436 0 -0.29705491842651538 -0.044447028495854378 0 -0.31636332636671011 -0.045841675905552118 0 -0.28866895203700732 -0.029214526240426 0 -0.29705491842651538 -0.044447028495854378 0 -0.27944672273094417 -0.042377383401353233 0 -0.27944672273094417 -0.042377383401353233 0 -0.28800734648466042 -0.064237188067051268 0 -0.29705491842651538 -0.044447028495854378 0 -0.27944672273094417 -0.042377383401353233 0 -0.28800734648466042 -0.064237188067051268 0 -0.27944672273094417 -0.042377383401353233 0 -0.26384823674953622 -0.06105654635743811 0 -0.28800734648466042 -0.064237188067051268 0 -0.27944672273094417 -0.042377383401353233 0 -0.26264377125621591 -0.039963298536898069 0 -0.26384823674953622 -0.06105654635743811 0 -0.27088609897722821 -0.020517578735655271 0 -0.27944672273094417 -0.042377383401353233 0 -0.27088609897722821 -0.020517578735655271 0 -0.27944672273094417 -0.042377383401353233 0 -0.26264377125621591 -0.039963298536898069 0 -0.24866627629982749 -0.029103065733834959 0 -0.26264377125621591 -0.039963298536898069 0 -0.25037152152354353 -0.046761918456208737 0 -0.26264377125621591 -0.039963298536898069 0 -0.25037152152354353 -0.046761918456208737 0 -0.26384823674953622 -0.06105654635743811 0 -0.24357389334630891 -0.055623474531990659 0 -0.25037152152354353 -0.046761918456208737 0 -0.26384823674953622 -0.06105654635743811 0 -0.26384823674953622 -0.06105654635743811 0 -0.25295090033425732 -0.081482097125280067 0 -0.27159408668273788 -0.07336674701725103 0 -0.2347585841931345 -0.064789979965574326 0 -0.26384823674953622 -0.06105654635743811 0 -0.25295090033425732 -0.081482097125280067 0 -0.25295090033425732 -0.081482097125280067 0 -0.26901642932085879 -0.087025763282053484 0 -0.25819269595518829 -0.097816648605460771 0 -0.24747250104950519 -0.092854501526460187 0 -0.25295090033425732 -0.081482097125280067 0 -0.25819269595518829 -0.097816648605460771 0 -0.25295090033425732 -0.081482097125280067 0 -0.26901642932085879 -0.087025763282053484 0 -0.28156986316249788 -0.086691156519234702 0 -0.25295090033425732 -0.081482097125280067 0 -0.27159408668273788 -0.07336674701725103 0 -0.28156986316249788 -0.086691156519234702 0 -0.25295090033425732 -0.081482097125280067 0 -0.28156986316249788 -0.086691156519234702 0 -0.26384823674953622 -0.06105654635743811 0 -0.27159408668273788 -0.07336674701725103 0 -0.28800734648466042 -0.064237188067051268 0 -0.27159408668273788 -0.07336674701725103 0 -0.28800734648466042 -0.064237188067051268 0 -0.28156986316249788 -0.086691156519234702 0 -0.26431004993305302 -0.1238560188504203 0 -0.25118326724822809 -0.12205150868743141 0 -0.25554336938408723 -0.1122676618860588 0 -0.26431004993305302 -0.1238560188504203 0 -0.25554336938408723 -0.1122676618860588 0 -0.26785092170188862 -0.11024342086993991 0 -0.25554336938408723 -0.1122676618860588 0 -0.25819269595518829 -0.097816648605460771 0 -0.26785092170188862 -0.11024342086993991 0 -0.2431237657023104 -0.10251237741398581 0 -0.25554336938408723 -0.1122676618860588 0 -0.25819269595518829 -0.097816648605460771 0 -0.26901642932085879 -0.087025763282053484 0 -0.25819269595518829 -0.097816648605460771 0 -0.27168886919307922 -0.099629805625809642 0 -0.26901642932085879 -0.087025763282053484 0 -0.27168886919307922 -0.099629805625809642 0 -0.28247819805172247 -0.098451154190253062 0 -0.27168886919307922 -0.099629805625809642 0 -0.28056508306300709 -0.10837303068280781 0 -0.28247819805172247 -0.098451154190253062 0 -0.25819269595518829 -0.097816648605460771 0 -0.27168886919307922 -0.099629805625809642 0 -0.26785092170188862 -0.11024342086993991 0 -0.27168886919307922 -0.099629805625809642 0 -0.28056508306300709 -0.10837303068280781 0 -0.26785092170188862 -0.11024342086993991 0 -0.28056508306300709 -0.10837303068280781 0 -0.26785092170188862 -0.11024342086993991 0 -0.27610988139935522 -0.1193385055535808 0 -0.27610988139935522 -0.1193385055535808 0 -0.28883705529540132 -0.1208935815464123 0 -0.27759513443630268 -0.1329687677873215 0 -0.26431004993305302 -0.1238560188504203 0 -0.26785092170188862 -0.11024342086993991 0 -0.27610988139935522 -0.1193385055535808 0 -0.28056508306300709 -0.10837303068280781 0 -0.27610988139935522 -0.1193385055535808 0 -0.28883705529540132 -0.1208935815464123 0 -0.28056508306300709 -0.10837303068280781 0 -0.28883705529540132 -0.1208935815464123 0 -0.29398341614314122 -0.10551234870905821 0 -0.28883705529540132 -0.1208935815464123 0 -0.29398341614314122 -0.10551234870905821 0 -0.30371359671840292 -0.1156106415510313 0 -0.28056508306300709 -0.10837303068280781 0 -0.29398341614314122 -0.10551234870905821 0 -0.28247819805172247 -0.098451154190253062 0 -0.29398341614314122 -0.10551234870905821 0 -0.28247819805172247 -0.098451154190253062 0 -0.2971371925385265 -0.091714822651536215 0 -0.30774174638534219 -0.1047198715214947 0 -0.2971371925385265 -0.091714822651536215 0 -0.32525795575619432 -0.096403882021018322 0 -0.2971371925385265 -0.091714822651536215 0 -0.32525795575619432 -0.096403882021018322 0 -0.29398341614314122 -0.10551234870905821 0 -0.30774174638534219 -0.1047198715214947 0 -0.2971371925385265 -0.091714822651536215 0 -0.29398341614314122 -0.10551234870905821 0 -0.30774174638534219 -0.1047198715214947 0 -0.30371359671840292 -0.1156106415510313 0 -0.30774174638534219 -0.1047198715214947 0 -0.30371359671840292 -0.1156106415510313 0 -0.31861657077044631 -0.1143576626748288 0 -0.30371359671840292 -0.1156106415510313 0 -0.31369066971281012 -0.12303602612692829 0 -0.31861657077044631 -0.1143576626748288 0 -0.28800734648466042 -0.064237188067051268 0 -0.28156986316249788 -0.086691156519234702 0 -0.29193214368204562 -0.079231866445657412 0 -0.28800734648466042 -0.064237188067051268 0 -0.29193214368204562 -0.079231866445657412 0 -0.30101417254249763 -0.074284298544807517 0 -0.26901642932085879 -0.087025763282053484 0 -0.28247819805172247 -0.098451154190253062 0 -0.2971371925385265 -0.091714822651536215 0 -0.26901642932085879 -0.087025763282053484 0 -0.28156986316249788 -0.086691156519234702 0 -0.2971371925385265 -0.091714822651536215 0 -0.29193214368204562 -0.079231866445657412 0 -0.2971371925385265 -0.091714822651536215 0 -0.30101417254249763 -0.074284298544807517 0 -0.26901642932085879 -0.087025763282053484 0 -0.2971371925385265 -0.091714822651536215 0 -0.28156986316249788 -0.086691156519234702 0 -0.29193214368204562 -0.079231866445657412 0 -0.2971371925385265 -0.091714822651536215 0 -0.2971371925385265 -0.091714822651536215 0 -0.30101417254249763 -0.074284298544807517 0 -0.32010419680591318 -0.074462539229858515 0 -0.30846455523296701 -0.060827690483718402 0 -0.30101417254249763 -0.074284298544807517 0 -0.32010419680591318 -0.074462539229858515 0 -0.30846455523296701 -0.060827690483718402 0 -0.28800734648466042 -0.064237188067051268 0 -0.30101417254249763 -0.074284298544807517 0 -0.30846455523296701 -0.060827690483718402 0 -0.32010419680591318 -0.074462539229858515 0 -0.32824337077150539 -0.06169341265918668 0 -0.32010419680591318 -0.074462539229858515 0 -0.33320564722951201 -0.07567355069394105 0 -0.32824337077150539 -0.06169341265918668 0 -0.2971371925385265 -0.091714822651536215 0 -0.32010419680591318 -0.074462539229858515 0 -0.32525795575619432 -0.096403882021018322 0 -0.32010419680591318 -0.074462539229858515 0 -0.33320564722951201 -0.07567355069394105 0 -0.32525795575619432 -0.096403882021018322 0 -0.32010419680591318 -0.074462539229858515 0 -0.32525795575619432 -0.096403882021018322 0 -0.32525795575619432 -0.096403882021018322 0 -0.35236576910441758 -0.10092403480573479 0 -0.34907040726772942 -0.079344530004637981 0 -0.33320564722951201 -0.07567355069394105 0 -0.32525795575619432 -0.096403882021018322 0 -0.34907040726772942 -0.079344530004637981 0 -0.34335230554621782 -0.066463389555003111 0 -0.33320564722951201 -0.07567355069394105 0 -0.34907040726772942 -0.079344530004637981 0 -0.34335230554621782 -0.066463389555003111 0 -0.33320564722951201 -0.07567355069394105 0 -0.32824337077150539 -0.06169341265918668 0 -0.31861657077044631 -0.1143576626748288 0 -0.32525795575619432 -0.096403882021018322 0 -0.33208446876077258 -0.125466720106122 0 -0.31861657077044631 -0.1143576626748288 0 -0.32477958217333602 -0.12866757494394951 0 -0.33208446876077258 -0.125466720106122 0 -0.31369066971281012 -0.12303602612692829 0 -0.31861657077044631 -0.1143576626748288 0 -0.32477958217333602 -0.12866757494394951 0 -0.30774174638534219 -0.1047198715214947 0 -0.31861657077044631 -0.1143576626748288 0 -0.32525795575619432 -0.096403882021018322 0 -0.32525795575619432 -0.096403882021018322 0 -0.35236576910441758 -0.10092403480573479 0 -0.33208446876077258 -0.125466720106122 0 -0.32525795575619432 -0.096403882021018322 0 -0.35236576910441758 -0.10092403480573479 0 -0.32525795575619432 -0.096403882021018322 0 -0.33208446876077258 -0.125466720106122 0 -0.35236576910441758 -0.10092403480573479 0 -0.35206853499347468 -0.1268249885118754 0 -0.37238458741650737 -0.12508344370428551 0 -0.35236576910441758 -0.10092403480573479 0 -0.33208446876077258 -0.125466720106122 0 -0.35206853499347468 -0.1268249885118754 0 -0.35236576910441758 -0.10092403480573479 0 -0.36808111633498442 -0.092797506306118119 0 -0.37947358245264118 -0.1054441875904507 0 -0.35236576910441758 -0.10092403480573479 0 -0.37947358245264118 -0.1054441875904507 0 -0.36808111633498442 -0.092797506306118119 0 -0.37546006537226578 -0.093188574994236162 0 -0.37947358245264118 -0.1054441875904507 0 -0.35236576910441758 -0.10092403480573479 0 -0.37238458741650737 -0.12508344370428551 0 -0.37947358245264118 -0.1054441875904507 0 -0.35840571676151739 -0.070798670416172424 0 -0.34907040726772942 -0.079344530004637981 0 -0.36154683165336782 -0.078199466463904119 0 -0.35840571676151739 -0.070798670416172424 0 -0.35182244344686753 -0.066308047598061665 0 -0.34907040726772942 -0.079344530004637981 0 -0.35840571676151739 -0.070798670416172424 0 -0.35182244344686753 -0.066308047598061665 0 -0.35553502946189602 -0.058159897611499957 0 -0.34335230554621782 -0.066463389555003111 0 -0.35182244344686753 -0.066308047598061665 0 -0.34885837310589191 -0.060303194700265399 0 -0.34335230554621782 -0.066463389555003111 0 -0.35182244344686753 -0.066308047598061665 0 -0.34907040726772942 -0.079344530004637981 0 -0.35236576910441758 -0.10092403480573479 0 -0.34907040726772942 -0.079344530004637981 0 -0.35992394947211109 -0.086326236366481415 0 -0.34907040726772942 -0.079344530004637981 0 -0.36154683165336782 -0.078199466463904119 0 -0.35992394947211109 -0.086326236366481415 0 -0.36154683165336782 -0.078199466463904119 0 -0.36708434578410798 -0.082125726625348991 0 -0.35992394947211109 -0.086326236366481415 0 -0.36154683165336782 -0.078199466463904119 0 -0.36708434578410798 -0.082125726625348991 0 -0.37030718454947609 -0.075922333653553678 0 -0.35236576910441758 -0.10092403480573479 0 -0.35992394947211109 -0.086326236366481415 0 -0.36808111633498442 -0.092797506306118119 0 -0.36708434578410798 -0.082125726625348991 0 -0.35992394947211109 -0.086326236366481415 0 -0.36808111633498442 -0.092797506306118119 0 -0.36708434578410798 -0.082125726625348991 0 -0.36808111633498442 -0.092797506306118119 0 -0.37114003226436182 -0.088740180770153526 0 -0.37114003226436182 -0.088740180770153526 0 -0.37393460156608921 -0.086848915154910805 0 -0.37546006537226578 -0.093188574994236162 0 -0.36808111633498442 -0.092797506306118119 0 -0.37114003226436182 -0.088740180770153526 0 -0.37546006537226578 -0.093188574994236162 0 -0.36708434578410798 -0.082125726625348991 0 -0.37393460156608921 -0.086848915154910805 0 -0.37030718454947609 -0.075922333653553678 0 -0.36708434578410798 -0.082125726625348991 0 -0.37114003226436182 -0.088740180770153526 0 -0.37393460156608921 -0.086848915154910805 0 -0.35840571676151739 -0.070798670416172424 0 -0.37030718454947609 -0.075922333653553678 0 -0.35553502946189602 -0.058159897611499957 0 -0.37030718454947609 -0.075922333653553678 0 -0.37255048490822029 -0.075428045199386021 0 -0.35553502946189602 -0.058159897611499957 0 -0.37255048490822029 -0.075428045199386021 0 -0.35553502946189602 -0.058159897611499957 0 -0.37255048490822029 -0.075428045199386021 0 -0.36906180064444261 -0.065195139053692674 0 -0.35553502946189602 -0.058159897611499957 0 -0.37030718454947609 -0.075922333653553678 0 -0.35553502946189602 -0.058159897611499957 0 -0.37255048490822029 -0.075428045199386021 0 -0.37436277614400831 -0.07246088148001828 0 -0.37306841403986379 -0.069004353838333338 0 -0.37436277614400831 -0.07246088148001828 0 -0.37306841403986379 -0.069004353838333338 0 -0.37626372651338369 -0.069557783495216352 0 -0.37255048490822029 -0.075428045199386021 0 -0.37436277614400831 -0.07246088148001828 0 -0.37642728437476541 -0.073981708035062155 0 -0.35840571676151739 -0.070798670416172424 0 -0.36154683165336782 -0.078199466463904119 0 -0.37030718454947609 -0.075922333653553678 0 -0.37255048490822029 -0.075428045199386021 0 -0.36906180064444261 -0.065195139053692674 0 -0.37306841403986379 -0.069004353838333338 0 -0.37306841403986379 -0.069004353838333338 0 -0.37520111668623779 -0.063784606980190284 0 -0.37626372651338369 -0.069557783495216352 0 -0.36906180064444261 -0.065195139053692674 0 -0.37306841403986379 -0.069004353838333338 0 -0.37520111668623779 -0.063784606980190284 0 -0.36906180064444261 -0.065195139053692674 0 -0.37300425533070292 -0.057314083113719487 0 -0.37520111668623779 -0.063784606980190284 0 -0.36906180064444261 -0.065195139053692674 0 -0.37300425533070292 -0.057314083113719487 0 -0.36520313015991551 -0.056380736504740993 0 -0.37300425533070292 -0.057314083113719487 0 -0.3681235944997302 -0.051077927328716077 0 -0.36520313015991551 -0.056380736504740993 0 -0.3681235944997302 -0.051077927328716077 0 -0.36461474168549313 -0.042455091302086509 0 -0.37664525257667181 -0.048475202003900868 0 -0.37300425533070292 -0.057314083113719487 0 -0.3681235944997302 -0.051077927328716077 0 -0.37664525257667181 -0.048475202003900868 0 -0.3681235944997302 -0.051077927328716077 0 -0.36115059274586792 -0.050764523719132572 0 -0.36461474168549313 -0.042455091302086509 0 -0.3681235944997302 -0.051077927328716077 0 -0.36115059274586792 -0.050764523719132572 0 -0.36520313015991551 -0.056380736504740993 0 -0.36115059274586792 -0.050764523719132572 0 -0.36520313015991551 -0.056380736504740993 0 -0.35553502946189602 -0.058159897611499957 0 -0.36906180064444261 -0.065195139053692674 0 -0.36520313015991551 -0.056380736504740993 0 -0.35553502946189602 -0.058159897611499957 0 -0.35182244344686753 -0.066308047598061665 0 -0.35553502946189602 -0.058159897611499957 0 -0.34885837310589191 -0.060303194700265399 0 -0.35263261788630218 -0.054669959977244539 0 -0.35553502946189602 -0.058159897611499957 0 -0.34885837310589191 -0.060303194700265399 0 -0.35263261788630218 -0.054669959977244539 0 -0.35553502946189602 -0.058159897611499957 0 -0.35263261788630218 -0.054669959977244539 0 -0.35553502946189602 -0.058159897611499957 0 -0.35466210691538058 -0.046093550673093092 0 -0.36115059274586792 -0.050764523719132572 0 -0.35553502946189602 -0.058159897611499957 0 -0.35466210691538058 -0.046093550673093092 0 -0.35263261788630218 -0.054669959977244539 0 -0.34124430940283779 -0.055669474477474022 0 -0.34183076509832522 -0.041681522058430703 0 -0.35263261788630218 -0.054669959977244539 0 -0.35466210691538058 -0.046093550673093092 0 -0.34183076509832522 -0.041681522058430703 0 -0.35263261788630218 -0.054669959977244539 0 -0.34183076509832522 -0.041681522058430703 0 -0.34335230554621782 -0.066463389555003111 0 -0.34885837310589191 -0.060303194700265399 0 -0.34124430940283779 -0.055669474477474022 0 -0.35263261788630218 -0.054669959977244539 0 -0.34885837310589191 -0.060303194700265399 0 -0.34124430940283779 -0.055669474477474022 0 -0.35264374205909921 -0.034996064985740143 0 -0.34313214116202673 -0.028443444453432141 0 -0.34183076509832522 -0.041681522058430703 0 -0.35466210691538058 -0.046093550673093092 0 -0.35264374205909921 -0.034996064985740143 0 -0.34183076509832522 -0.041681522058430703 0 -0.35466210691538058 -0.046093550673093092 0 -0.35264374205909921 -0.034996064985740143 0 -0.36461474168549313 -0.042455091302086509 0 -0.36461474168549313 -0.042455091302086509 0 -0.36212138457183191 -0.026818708034394619 0 -0.37855239685131797 -0.03292539036703826 0 -0.35264374205909921 -0.034996064985740143 0 -0.36461474168549313 -0.042455091302086509 0 -0.36212138457183191 -0.026818708034394619 0 -0.36115059274586792 -0.050764523719132572 0 -0.35466210691538058 -0.046093550673093092 0 -0.36461474168549313 -0.042455091302086509 0 -0.36461474168549313 -0.042455091302086509 0 -0.37855239685131797 -0.03292539036703826 0 -0.37664525257667181 -0.048475202003900868 0 -0.36649095993019898 -0.010129922198049399 0 -0.37855239685131797 -0.03292539036703826 0 -0.36212138457183191 -0.026818708034394619 0 -0.36649095993019898 -0.010129922198049399 0 -0.35576065041658211 -0.0147768722359832 0 -0.36212138457183191 -0.026818708034394619 0 -0.36649095993019898 -0.010129922198049399 0 -0.37855239685131797 -0.03292539036703826 0 -0.36649095993019898 -0.010129922198049399 0 -0.37719377158883272 -0.01462918824783605 0 -0.37855239685131797 -0.03292539036703826 0 -0.37152077532860728 -0.0049830524157421976 0 -0.37719377158883272 -0.01462918824783605 0 -0.37576616927869799 0.0025212232452482409 0 -0.37152077532860728 -0.0049830524157421976 0 -0.36649095993019898 -0.010129922198049399 0 -0.36663220051669981 0.0023056775376684231 0 -0.37152077532860728 -0.0049830524157421976 0 -0.37576616927869799 0.0025212232452482409 0 -0.36663220051669981 0.0023056775376684231 0 -0.37152077532860728 -0.0049830524157421976 0 -0.36649095993019898 -0.010129922198049399 0 -0.37719377158883272 -0.01462918824783605 0 -0.36649095993019898 -0.010129922198049399 0 -0.35559565760404982 -0.002626203216087876 0 -0.36663220051669981 0.0023056775376684231 0 -0.35559565760404982 -0.002626203216087876 0 -0.35576065041658211 -0.0147768722359832 0 -0.34467989708479402 -0.0062913495234007376 0 -0.36649095993019898 -0.010129922198049399 0 -0.35559565760404982 -0.002626203216087876 0 -0.35576065041658211 -0.0147768722359832 0 -0.35576065041658211 -0.0147768722359832 0 -0.34467989708479402 -0.0062913495234007376 0 -0.34133512990299658 -0.015919401721400831 0 -0.35559565760404982 -0.002626203216087876 0 -0.34467989708479402 -0.0062913495234007376 0 -0.34598467737131322 0.0035373190053896442 0 -0.35264374205909921 -0.034996064985740143 0 -0.36212138457183191 -0.026818708034394619 0 -0.35172456801495811 -0.024417086996227431 0 -0.36212138457183191 -0.026818708034394619 0 -0.35576065041658211 -0.0147768722359832 0 -0.35172456801495811 -0.024417086996227431 0 -0.35172456801495811 -0.024417086996227431 0 -0.34313214116202673 -0.028443444453432141 0 -0.34133512990299658 -0.015919401721400831 0 -0.35576065041658211 -0.0147768722359832 0 -0.35172456801495811 -0.024417086996227431 0 -0.34133512990299658 -0.015919401721400831 0 -0.35264374205909921 -0.034996064985740143 0 -0.35172456801495811 -0.024417086996227431 0 -0.34313214116202673 -0.028443444453432141 0 -0.34133512990299658 -0.015919401721400831 0 -0.33272944947984529 -0.0084378917650725915 0 -0.32812650073475441 -0.025203146505361589 0 -0.34313214116202673 -0.028443444453432141 0 -0.34133512990299658 -0.015919401721400831 0 -0.32812650073475441 -0.025203146505361589 0 -0.34467989708479402 -0.0062913495234007376 0 -0.33272944947984529 -0.0084378917650725915 0 -0.3366738177339772 0.00047495279275041642 0 -0.34467989708479402 -0.0062913495234007376 0 -0.3366738177339772 0.00047495279275041642 0 -0.34598467737131322 0.0035373190053896442 0 -0.34467989708479402 -0.0062913495234007376 0 -0.34133512990299658 -0.015919401721400831 0 -0.33272944947984529 -0.0084378917650725915 0 -0.33272944947984529 -0.0084378917650725915 0 -0.3254397606762941 -0.002874705706715192 0 -0.3366738177339772 0.00047495279275041642 0 -0.3084315513875262 -0.0060104425541563401 0 -0.32720427759267651 0.001243125536590062 0 -0.3084315513875262 -0.0060104425541563401 0 -0.3254397606762941 -0.002874705706715192 0 -0.32720427759267651 0.001243125536590062 0 -0.3084315513875262 -0.0060104425541563401 0 -0.3254397606762941 -0.002874705706715192 0 -0.32031178730631737 -0.01324262704667321 0 -0.33272944947984529 -0.0084378917650725915 0 -0.3254397606762941 -0.002874705706715192 0 -0.32031178730631737 -0.01324262704667321 0 -0.33272944947984529 -0.0084378917650725915 0 -0.32031178730631737 -0.01324262704667321 0 -0.32812650073475441 -0.025203146505361589 0 -0.30629819486797261 -0.02546662992436436 0 -0.32031178730631737 -0.01324262704667321 0 -0.32812650073475441 -0.025203146505361589 0 -0.32812650073475441 -0.025203146505361589 0 -0.31636332636671011 -0.045841675905552118 0 -0.32993531110279012 -0.045991885010502977 0 -0.30629819486797261 -0.02546662992436436 0 -0.32812650073475441 -0.025203146505361589 0 -0.31636332636671011 -0.045841675905552118 0 -0.30846455523296701 -0.060827690483718402 0 -0.31636332636671011 -0.045841675905552118 0 -0.32824337077150539 -0.06169341265918668 0 -0.31636332636671011 -0.045841675905552118 0 -0.32824337077150539 -0.06169341265918668 0 -0.32993531110279012 -0.045991885010502977 0 -0.32824337077150539 -0.06169341265918668 0 -0.34124430940283779 -0.055669474477474022 0 -0.32993531110279012 -0.045991885010502977 0 -0.34335230554621782 -0.066463389555003111 0 -0.32824337077150539 -0.06169341265918668 0 -0.34124430940283779 -0.055669474477474022 0 -0.34124430940283779 -0.055669474477474022 0 -0.34183076509832522 -0.041681522058430703 0 -0.32993531110279012 -0.045991885010502977 0 -0.34313214116202673 -0.028443444453432141 0 -0.32812650073475441 -0.025203146505361589 0 -0.34183076509832522 -0.041681522058430703 0 -0.32812650073475441 -0.025203146505361589 0 -0.34183076509832522 -0.041681522058430703 0 -0.32993531110279012 -0.045991885010502977 0 -0.32812650073475441 -0.025203146505361589 0 -0.34183076509832522 -0.041681522058430703 0 -0.30066928905000129 -0.2428974283370558 0 -0.30701143818891868 -0.22826222482624919 0 -0.29419180113005722 -0.232182094035674 0 -0.31224782762896908 -0.25694043905287578 0 -0.30066928905000129 -0.2428974283370558 0 -0.31478008505819399 -0.2423777004445242 0 -0.30066928905000129 -0.2428974283370558 0 -0.30701143818891868 -0.22826222482624919 0 -0.31478008505819399 -0.2423777004445242 0 -0.30701143818891868 -0.22826222482624919 0 -0.28688087816851437 -0.22094559661030519 0 -0.30810010129266302 -0.21360907250434841 0 -0.30701143818891868 -0.22826222482624919 0 -0.30810010129266302 -0.21360907250434841 0 -0.32034024065370659 -0.22207812544340161 0 -0.29419180113005722 -0.232182094035674 0 -0.28688087816851437 -0.22094559661030519 0 -0.28421343061544602 -0.23805598157921989 0 -0.30701143818891868 -0.22826222482624919 0 -0.29419180113005722 -0.232182094035674 0 -0.28688087816851437 -0.22094559661030519 0 -0.30066928905000129 -0.2428974283370558 0 -0.29419180113005722 -0.232182094035674 0 -0.28421343061544602 -0.23805598157921989 0 -0.27411494767805761 -0.25127726478153489 0 -0.29338529096400301 -0.25771546205265577 0 -0.28421343061544602 -0.23805598157921989 0 -0.29338529096400301 -0.25771546205265577 0 -0.30066928905000129 -0.2428974283370558 0 -0.28421343061544602 -0.23805598157921989 0 -0.27411494767805761 -0.25127726478153489 0 -0.26566165504436562 -0.22828212071626119 0 -0.27411494767805761 -0.25127726478153489 0 -0.2581986285306509 -0.2447208203320011 0 -0.26566165504436562 -0.22828212071626119 0 -0.27411494767805761 -0.25127726478153489 0 -0.28421343061544602 -0.23805598157921989 0 -0.26566165504436562 -0.22828212071626119 0 -0.24433892802888951 -0.2356544311839206 0 -0.2581986285306509 -0.2447208203320011 0 -0.26566165504436562 -0.22828212071626119 0 -0.24433892802888951 -0.2356544311839206 0 -0.25353522381878291 -0.22227814381025701 0 -0.26566165504436562 -0.22828212071626119 0 -0.24433892802888951 -0.2356544311839206 0 -0.26566165504436562 -0.22828212071626119 0 -0.26566165504436562 -0.22828212071626119 0 -0.26039891391784842 -0.21396610261224211 0 -0.25353522381878291 -0.22227814381025701 0 -0.26566165504436562 -0.22828212071626119 0 -0.26039891391784842 -0.21396610261224211 0 -0.28688087816851437 -0.22094559661030519 0 -0.26566165504436562 -0.22828212071626119 0 -0.28688087816851437 -0.22094559661030519 0 -0.28421343061544602 -0.23805598157921989 0 -0.26566165504436562 -0.22828212071626119 0 -0.28688087816851437 -0.22094559661030519 0 -0.26566165504436562 -0.22828212071626119 0 -0.27596319541496223 -0.2086406645958308 0 -0.26566165504436562 -0.22828212071626119 0 -0.27596319541496223 -0.2086406645958308 0 -0.26039891391784842 -0.21396610261224211 0 -0.27596319541496223 -0.2086406645958308 0 -0.26039891391784842 -0.21396610261224211 0 -0.26487761351738298 -0.20210402521500301 0 -0.26039891391784842 -0.21396610261224211 0 -0.25513617279133111 -0.19965008450822291 0 -0.26487761351738298 -0.20210402521500301 0 -0.26039891391784842 -0.21396610261224211 0 -0.25051797872981219 -0.21011174819722969 0 -0.25513617279133111 -0.19965008450822291 0 -0.26039891391784842 -0.21396610261224211 0 -0.25513617279133111 -0.19965008450822291 0 -0.25353522381878291 -0.22227814381025701 0 -0.26039891391784842 -0.21396610261224211 0 -0.25051797872981219 -0.21011174819722969 0 -0.25553144154411628 -0.1898259975185905 0 -0.26487761351738298 -0.20210402521500301 0 -0.27364453052738119 -0.18976898014517041 0 -0.24862493598769481 -0.19852958057999959 0 -0.25051797872981219 -0.21011174819722969 0 -0.25513617279133111 -0.19965008450822291 0 -0.24862493598769481 -0.19852958057999959 0 -0.25553144154411628 -0.1898259975185905 0 -0.25513617279133111 -0.19965008450822291 0 -0.25553144154411628 -0.1898259975185905 0 -0.25513617279133111 -0.19965008450822291 0 -0.26487761351738298 -0.20210402521500301 0 -0.27596319541496223 -0.2086406645958308 0 -0.26487761351738298 -0.20210402521500301 0 -0.27364453052738119 -0.18976898014517041 0 -0.27596319541496223 -0.2086406645958308 0 -0.27364453052738119 -0.18976898014517041 0 -0.29087231591002222 -0.20168902632475921 0 -0.27364453052738119 -0.18976898014517041 0 -0.29087231591002222 -0.20168902632475921 0 -0.29087231591002222 -0.20168902632475921 0 -0.30419493161771161 -0.19865521486002061 0 -0.29085584252558039 -0.18480214573645459 0 -0.27364453052738119 -0.18976898014517041 0 -0.29087231591002222 -0.20168902632475921 0 -0.29085584252558039 -0.18480214573645459 0 -0.28688087816851437 -0.22094559661030519 0 -0.29087231591002222 -0.20168902632475921 0 -0.30810010129266302 -0.21360907250434841 0 -0.28688087816851437 -0.22094559661030519 0 -0.27596319541496223 -0.2086406645958308 0 -0.29087231591002222 -0.20168902632475921 0 -0.28688087816851437 -0.22094559661030519 0 -0.30810010129266302 -0.21360907250434841 0 -0.29087231591002222 -0.20168902632475921 0 -0.30810010129266302 -0.21360907250434841 0 -0.30419493161771161 -0.19865521486002061 0 -0.29087231591002222 -0.20168902632475921 0 -0.30810010129266302 -0.21360907250434841 0 -0.30810010129266302 -0.21360907250434841 0 -0.30419493161771161 -0.19865521486002061 0 -0.31816357393737688 -0.19327167341000001 0 -0.30419493161771161 -0.19865521486002061 0 -0.30630766625781031 -0.17845856337811741 0 -0.31816357393737688 -0.19327167341000001 0 -0.30419493161771161 -0.19865521486002061 0 -0.30630766625781031 -0.17845856337811741 0 -0.29085584252558039 -0.18480214573645459 0 -0.30630766625781031 -0.17845856337811741 0 -0.30596173682113242 -0.15768022779755739 0 -0.29244350831459393 -0.16797084394758471 0 -0.30630766625781031 -0.17845856337811741 0 -0.30596173682113242 -0.15768022779755739 0 -0.32482292759904879 -0.17277491330566391 0 -0.29244350831459393 -0.16797084394758471 0 -0.27720228565060412 -0.17076084310637341 0 -0.28107171457256391 -0.15209715939919879 0 -0.30596173682113242 -0.15768022779755739 0 -0.29244350831459393 -0.16797084394758471 0 -0.28107171457256391 -0.15209715939919879 0 -0.29244350831459393 -0.16797084394758471 0 -0.29085584252558039 -0.18480214573645459 0 -0.27720228565060412 -0.17076084310637341 0 -0.30630766625781031 -0.17845856337811741 0 -0.29244350831459393 -0.16797084394758471 0 -0.29085584252558039 -0.18480214573645459 0 -0.27364453052738119 -0.18976898014517041 0 -0.26624314794868958 -0.17328247243033809 0 -0.27720228565060412 -0.17076084310637341 0 -0.27364453052738119 -0.18976898014517041 0 -0.29085584252558039 -0.18480214573645459 0 -0.27720228565060412 -0.17076084310637341 0 -0.24411240467052719 -0.189163691631557 0 -0.25641674514474028 -0.1778489339655816 0 -0.25921778077217728 -0.1638119516268228 0 -0.27364453052738119 -0.18976898014517041 0 -0.26624314794868958 -0.17328247243033809 0 -0.25641674514474028 -0.1778489339655816 0 -0.27364453052738119 -0.18976898014517041 0 -0.25641674514474028 -0.1778489339655816 0 -0.24411240467052719 -0.189163691631557 0 -0.25921778077217728 -0.1638119516268228 0 -0.25553144154411628 -0.1898259975185905 0 -0.27364453052738119 -0.18976898014517041 0 -0.25641674514474028 -0.1778489339655816 0 -0.24411240467052719 -0.189163691631557 0 -0.25553144154411628 -0.1898259975185905 0 -0.25641674514474028 -0.1778489339655816 0 -0.24162495277933749 -0.1732425798384282 0 -0.25921778077217728 -0.1638119516268228 0 -0.248782105131127 -0.16161515126540901 0 -0.25921778077217728 -0.1638119516268228 0 -0.25545790984005162 -0.1486314068883241 0 -0.26624314794868958 -0.17328247243033809 0 -0.25641674514474028 -0.1778489339655816 0 -0.25921778077217728 -0.1638119516268228 0 -0.26624314794868958 -0.17328247243033809 0 -0.25921778077217728 -0.1638119516268228 0 -0.27720228565060412 -0.17076084310637341 0 -0.25921778077217728 -0.1638119516268228 0 -0.28107171457256391 -0.15209715939919879 0 -0.25921778077217728 -0.1638119516268228 0 -0.27720228565060412 -0.17076084310637341 0 -0.28107171457256391 -0.15209715939919879 0 -0.25921778077217728 -0.1638119516268228 0 -0.28107171457256391 -0.15209715939919879 0 -0.2684064576042397 -0.1483903597070719 0 -0.28107171457256391 -0.15209715939919879 0 -0.2684064576042397 -0.1483903597070719 0 -0.27759513443630268 -0.1329687677873215 0 -0.2684064576042397 -0.1483903597070719 0 -0.27759513443630268 -0.1329687677873215 0 -0.24379637703047641 -0.14069965914005991 0 -0.25545790984005162 -0.1486314068883241 0 -0.25403199653450548 -0.13253089301491691 0 -0.25921778077217728 -0.1638119516268228 0 -0.2684064576042397 -0.1483903597070719 0 -0.25545790984005162 -0.1486314068883241 0 -0.25921778077217728 -0.1638119516268228 0 -0.2684064576042397 -0.1483903597070719 0 -0.2684064576042397 -0.1483903597070719 0 -0.25545790984005162 -0.1486314068883241 0 -0.26396030966963052 -0.13727548924961089 0 -0.25545790984005162 -0.1486314068883241 0 -0.25403199653450548 -0.13253089301491691 0 -0.26396030966963052 -0.13727548924961089 0 -0.26431004993305302 -0.1238560188504203 0 -0.25118326724822809 -0.12205150868743141 0 -0.25403199653450548 -0.13253089301491691 0 -0.26431004993305302 -0.1238560188504203 0 -0.25403199653450548 -0.13253089301491691 0 -0.26396030966963052 -0.13727548924961089 0 -0.26431004993305302 -0.1238560188504203 0 -0.27610988139935522 -0.1193385055535808 0 -0.27759513443630268 -0.1329687677873215 0 -0.26431004993305302 -0.1238560188504203 0 -0.26396030966963052 -0.13727548924961089 0 -0.27759513443630268 -0.1329687677873215 0 -0.2684064576042397 -0.1483903597070719 0 -0.26396030966963052 -0.13727548924961089 0 -0.27759513443630268 -0.1329687677873215 0 -0.28883705529540132 -0.1208935815464123 0 -0.27759513443630268 -0.1329687677873215 0 -0.30292564837294989 -0.1403823671715741 0 -0.30596173682113242 -0.15768022779755739 0 -0.28107171457256391 -0.15209715939919879 0 -0.30292564837294989 -0.1403823671715741 0 -0.28107171457256391 -0.15209715939919879 0 -0.30292564837294989 -0.1403823671715741 0 -0.28107171457256391 -0.15209715939919879 0 -0.27759513443630268 -0.1329687677873215 0 -0.30292564837294989 -0.1403823671715741 0 -0.30596173682113242 -0.15768022779755739 0 -0.30292564837294989 -0.1403823671715741 0 -0.32086159996936869 -0.1476002253672693 0 -0.30371359671840292 -0.1156106415510313 0 -0.31369066971281012 -0.12303602612692829 0 -0.30292564837294989 -0.1403823671715741 0 -0.28883705529540132 -0.1208935815464123 0 -0.30371359671840292 -0.1156106415510313 0 -0.30292564837294989 -0.1403823671715741 0 -0.30292564837294989 -0.1403823671715741 0 -0.32477958217333602 -0.12866757494394951 0 -0.30292564837294989 -0.1403823671715741 0 -0.32477958217333602 -0.12866757494394951 0 -0.32086159996936869 -0.1476002253672693 0 -0.31369066971281012 -0.12303602612692829 0 -0.30292564837294989 -0.1403823671715741 0 -0.32477958217333602 -0.12866757494394951 0 -0.32477958217333602 -0.12866757494394951 0 -0.32086159996936869 -0.1476002253672693 0 -0.33891098176534928 -0.15452955819122599 0 -0.33891098176534928 -0.15452955819122599 0 -0.33208446876077258 -0.125466720106122 0 -0.32477958217333602 -0.12866757494394951 0 -0.33891098176534928 -0.15452955819122599 0 -0.33208446876077258 -0.125466720106122 0 -0.33891098176534928 -0.15452955819122599 0 -0.33208446876077258 -0.125466720106122 0 -0.35206853499347468 -0.1268249885118754 0 -0.37238458741650737 -0.12508344370428551 0 -0.36217332295144722 -0.1432956459146642 0 -0.38424705244385698 -0.1491313890189801 0 -0.35206853499347468 -0.1268249885118754 0 -0.37238458741650737 -0.12508344370428551 0 -0.36217332295144722 -0.1432956459146642 0 -0.36217332295144722 -0.1432956459146642 0 -0.36357967017998488 -0.16604203525980921 0 -0.36217332295144722 -0.1432956459146642 0 -0.36357967017998488 -0.16604203525980921 0 -0.38424705244385698 -0.1491313890189801 0 -0.33891098176534928 -0.15452955819122599 0 -0.36217332295144722 -0.1432956459146642 0 -0.36357967017998488 -0.16604203525980921 0 -0.33891098176534928 -0.15452955819122599 0 -0.35206853499347468 -0.1268249885118754 0 -0.36217332295144722 -0.1432956459146642 0 -0.33891098176534928 -0.15452955819122599 0 -0.36357967017998488 -0.16604203525980921 0 -0.34573749476992599 -0.18359239627633001 0 -0.36357967017998488 -0.16604203525980921 0 -0.36498601740852282 -0.1887884246049541 0 -0.36357967017998488 -0.16604203525980921 0 -0.36498601740852282 -0.1887884246049541 0 -0.38452416178539439 -0.17879989754992009 0 -0.36357967017998488 -0.16604203525980921 0 -0.34573749476992599 -0.18359239627633001 0 -0.36498601740852282 -0.1887884246049541 0 -0.34573749476992599 -0.18359239627633001 0 -0.32482292759904879 -0.17277491330566391 0 -0.33114133911417681 -0.18841413609660709 0 -0.33891098176534928 -0.15452955819122599 0 -0.34573749476992599 -0.18359239627633001 0 -0.32482292759904879 -0.17277491330566391 0 -0.33891098176534928 -0.15452955819122599 0 -0.34573749476992599 -0.18359239627633001 0 -0.32086159996936869 -0.1476002253672693 0 -0.33891098176534928 -0.15452955819122599 0 -0.32482292759904879 -0.17277491330566391 0 -0.30596173682113242 -0.15768022779755739 0 -0.32086159996936869 -0.1476002253672693 0 -0.32482292759904879 -0.17277491330566391 0 -0.32482292759904879 -0.17277491330566391 0 -0.31816357393737688 -0.19327167341000001 0 -0.33114133911417681 -0.18841413609660709 0 -0.30630766625781031 -0.17845856337811741 0 -0.32482292759904879 -0.17277491330566391 0 -0.31816357393737688 -0.19327167341000001 0 -0.30810010129266302 -0.21360907250434841 0 -0.33584136015035548 -0.20401756139443461 0 -0.32034024065370659 -0.22207812544340161 0 -0.30810010129266302 -0.21360907250434841 0 -0.31816357393737688 -0.19327167341000001 0 -0.33584136015035548 -0.20401756139443461 0 -0.30810010129266302 -0.21360907250434841 0 -0.33584136015035548 -0.20401756139443461 0 -0.30810010129266302 -0.21360907250434841 0 -0.32034024065370659 -0.22207812544340161 0 -0.33584136015035548 -0.20401756139443461 0 -0.33473147682907861 -0.22046899118991239 0 -0.32034024065370659 -0.22207812544340161 0 -0.33584136015035548 -0.20401756139443461 0 -0.35256400777450259 -0.21265523436143399 0 -0.33473147682907861 -0.22046899118991239 0 -0.34573749476992599 -0.18359239627633001 0 -0.33584136015035548 -0.20401756139443461 0 -0.33114133911417681 -0.18841413609660709 0 -0.31816357393737688 -0.19327167341000001 0 -0.33584136015035548 -0.20401756139443461 0 -0.33114133911417681 -0.18841413609660709 0 -0.34573749476992599 -0.18359239627633001 0 -0.35854707932734592 -0.20060319656860351 0 -0.35256400777450259 -0.21265523436143399 0 -0.34573749476992599 -0.18359239627633001 0 -0.33584136015035548 -0.20401756139443461 0 -0.35256400777450259 -0.21265523436143399 0 -0.34573749476992599 -0.18359239627633001 0 -0.35256400777450259 -0.21265523436143399 0 -0.34573749476992599 -0.18359239627633001 0 -0.35854707932734592 -0.20060319656860351 0 -0.36498601740852282 -0.1887884246049541 0 -0.35854707932734592 -0.20060319656860351 0 -0.36498601740852282 -0.1887884246049541 0 -0.36639236463706049 -0.21153481395009899 0 -0.36498601740852282 -0.1887884246049541 0 -0.36639236463706049 -0.21153481395009899 0 -0.36498601740852282 -0.1887884246049541 0 -0.36639236463706049 -0.21153481395009899 0 -0.38178252314225641 -0.1991666124357499 0 -0.36639236463706049 -0.21153481395009899 0 -0.37667331396643711 -0.2229284968133613 0 -0.37831513212800533 -0.2120789743948297 0 -0.35854707932734592 -0.20060319656860351 0 -0.36639236463706049 -0.21153481395009899 0 -0.35256400777450259 -0.21265523436143399 0 -0.35256400777450259 -0.21265523436143399 0 -0.35939052077907929 -0.2417180724465379 0 -0.35256400777450259 -0.21265523436143399 0 -0.35939052077907929 -0.2417180724465379 0 -0.34056548484983618 -0.23371594606682461 0 -0.36639236463706049 -0.21153481395009899 0 -0.36779871186559843 -0.23428120329524391 0 -0.35256400777450259 -0.21265523436143399 0 -0.36779871186559843 -0.23428120329524391 0 -0.35939052077907929 -0.2417180724465379 0 -0.36639236463706049 -0.21153481395009899 0 -0.36779871186559843 -0.23428120329524391 0 -0.37667331396643711 -0.2229284968133613 0 -0.36639236463706049 -0.21153481395009899 0 -0.35256400777450259 -0.21265523436143399 0 -0.36779871186559843 -0.23428120329524391 0 -0.37497438621630619 -0.25056020184208438 0 -0.36779871186559843 -0.23428120329524391 0 -0.35939052077907929 -0.2417180724465379 0 -0.35712271818797692 -0.2577499073889204 0 -0.3445951553371811 -0.24845299757837119 0 -0.35939052077907929 -0.2417180724465379 0 -0.3445951553371811 -0.24845299757837119 0 -0.35939052077907929 -0.2417180724465379 0 -0.34056548484983618 -0.23371594606682461 0 -0.3445951553371811 -0.24845299757837119 0 -0.32902662723973952 -0.24995314561344231 0 -0.34056548484983618 -0.23371594606682461 0 -0.32902662723973952 -0.24995314561344231 0 -0.34056548484983618 -0.23371594606682461 0 -0.32494524318334123 -0.23383526439299801 0 -0.35256400777450259 -0.21265523436143399 0 -0.34056548484983618 -0.23371594606682461 0 -0.33473147682907861 -0.22046899118991239 0 -0.34056548484983618 -0.23371594606682461 0 -0.33473147682907861 -0.22046899118991239 0 -0.32494524318334123 -0.23383526439299801 0 -0.30701143818891868 -0.22826222482624919 0 -0.32494524318334123 -0.23383526439299801 0 -0.32034024065370659 -0.22207812544340161 0 -0.33473147682907861 -0.22046899118991239 0 -0.32494524318334123 -0.23383526439299801 0 -0.32034024065370659 -0.22207812544340161 0 -0.32902662723973952 -0.24995314561344231 0 -0.32494524318334123 -0.23383526439299801 0 -0.31478008505819399 -0.2423777004445242 0 -0.31224782762896908 -0.25694043905287578 0 -0.32902662723973952 -0.24995314561344231 0 -0.31478008505819399 -0.2423777004445242 0 -0.30701143818891868 -0.22826222482624919 0 -0.32494524318334123 -0.23383526439299801 0 -0.31478008505819399 -0.2423777004445242 0 -0.42256252663919142 -0.22701442603687899 0 -0.41589114755914408 -0.24313452901118929 0 -0.4396934281530982 -0.23300373984161521 0 -0.43515266417079101 -0.2502256321201316 0 -0.41589114755914408 -0.24313452901118929 0 -0.4396934281530982 -0.23300373984161521 0 -0.41589114755914408 -0.24313452901118929 0 -0.4396934281530982 -0.23300373984161521 0 -0.42256252663919142 -0.22701442603687899 0 -0.41812991428901369 -0.21213579258324131 0 -0.43608206592309823 -0.21793248705378579 0 -0.42256252663919142 -0.22701442603687899 0 -0.43608206592309823 -0.21793248705378579 0 -0.4396934281530982 -0.23300373984161521 0 -0.42256252663919142 -0.22701442603687899 0 -0.40301607727160499 -0.228865581694563 0 -0.41812991428901369 -0.21213579258324131 0 -0.42256252663919142 -0.22701442603687899 0 -0.41589114755914408 -0.24313452901118929 0 -0.40301607727160499 -0.228865581694563 0 -0.39208886696519007 -0.25326531818076359 0 -0.41589114755914408 -0.24313452901118929 0 -0.40301607727160499 -0.228865581694563 0 -0.39208886696519007 -0.25326531818076359 0 -0.41589114755914408 -0.24313452901118929 0 -0.39208886696519007 -0.25326531818076359 0 -0.38308682757796542 -0.23573485454211379 0 -0.40301607727160499 -0.228865581694563 0 -0.37497438621630619 -0.25056020184208438 0 -0.36779871186559843 -0.23428120329524391 0 -0.38308682757796542 -0.23573485454211379 0 -0.39208886696519007 -0.25326531818076359 0 -0.37497438621630619 -0.25056020184208438 0 -0.38308682757796542 -0.23573485454211379 0 -0.36779871186559843 -0.23428120329524391 0 -0.38308682757796542 -0.23573485454211379 0 -0.37667331396643711 -0.2229284968133613 0 -0.38308682757796542 -0.23573485454211379 0 -0.37667331396643711 -0.2229284968133613 0 -0.38777353362355582 -0.2210126378845203 0 -0.38777353362355582 -0.2210126378845203 0 -0.40301607727160499 -0.228865581694563 0 -0.40017776265492883 -0.20633909811269791 0 -0.38308682757796542 -0.23573485454211379 0 -0.38777353362355582 -0.2210126378845203 0 -0.40301607727160499 -0.228865581694563 0 -0.40017776265492883 -0.20633909811269791 0 -0.37831513212800533 -0.2120789743948297 0 -0.38178252314225641 -0.1991666124357499 0 -0.38777353362355582 -0.2210126378845203 0 -0.40017776265492883 -0.20633909811269791 0 -0.37831513212800533 -0.2120789743948297 0 -0.36639236463706049 -0.21153481395009899 0 -0.37831513212800533 -0.2120789743948297 0 -0.38178252314225641 -0.1991666124357499 0 -0.37667331396643711 -0.2229284968133613 0 -0.38777353362355582 -0.2210126378845203 0 -0.37831513212800533 -0.2120789743948297 0 -0.38178252314225641 -0.1991666124357499 0 -0.40545293221187789 -0.1851221861932166 0 -0.38452416178539439 -0.17879989754992009 0 -0.36498601740852282 -0.1887884246049541 0 -0.38178252314225641 -0.1991666124357499 0 -0.38452416178539439 -0.17879989754992009 0 -0.40017776265492883 -0.20633909811269791 0 -0.38178252314225641 -0.1991666124357499 0 -0.40545293221187789 -0.1851221861932166 0 -0.4135698488658236 -0.19957809969090021 0 -0.41812991428901369 -0.21213579258324131 0 -0.43051878630747381 -0.19471532187444501 0 -0.40017776265492883 -0.20633909811269791 0 -0.4135698488658236 -0.19957809969090021 0 -0.40545293221187789 -0.1851221861932166 0 -0.4135698488658236 -0.19957809969090021 0 -0.43051878630747381 -0.19471532187444501 0 -0.40545293221187789 -0.1851221861932166 0 -0.40301607727160499 -0.228865581694563 0 -0.40017776265492883 -0.20633909811269791 0 -0.41812991428901369 -0.21213579258324131 0 -0.40017776265492883 -0.20633909811269791 0 -0.41812991428901369 -0.21213579258324131 0 -0.40017776265492883 -0.20633909811269791 0 -0.4135698488658236 -0.19957809969090021 0 -0.41812991428901369 -0.21213579258324131 0 -0.43608206592309823 -0.21793248705378579 0 -0.43051878630747381 -0.19471532187444501 0 -0.44592798589615551 -0.20455350187932581 0 -0.41812991428901369 -0.21213579258324131 0 -0.43608206592309823 -0.21793248705378579 0 -0.41812991428901369 -0.21213579258324131 0 -0.43608206592309823 -0.21793248705378579 0 -0.43051878630747381 -0.19471532187444501 0 -0.43608206592309823 -0.21793248705378579 0 -0.43051878630747381 -0.19471532187444501 0 -0.43051878630747381 -0.19471532187444501 0 -0.42495550669185161 -0.17149815669510371 0 -0.44120938228744261 -0.1772931651258764 0 -0.43051878630747381 -0.19471532187444501 0 -0.42495550669185161 -0.17149815669510371 0 -0.42495550669185161 -0.17149815669510371 0 -0.43963058362879293 -0.15622829198913779 0 -0.44120938228744261 -0.1772931651258764 0 -0.42495550669185161 -0.17149815669510371 0 -0.41939222707623008 -0.1482809915157621 0 -0.43963058362879293 -0.15622829198913779 0 -0.42495550669185161 -0.17149815669510371 0 -0.41939222707623008 -0.1482809915157621 0 -0.42495550669185161 -0.17149815669510371 0 -0.40195819443081249 -0.16354044453284119 0 -0.41939222707623008 -0.1482809915157621 0 -0.43051878630747381 -0.19471532187444501 0 -0.42495550669185161 -0.17149815669510371 0 -0.40545293221187789 -0.1851221861932166 0 -0.42495550669185161 -0.17149815669510371 0 -0.40545293221187789 -0.1851221861932166 0 -0.40195819443081249 -0.16354044453284119 0 -0.40545293221187789 -0.1851221861932166 0 -0.38452416178539439 -0.17879989754992009 0 -0.40195819443081249 -0.16354044453284119 0 -0.38452416178539439 -0.17879989754992009 0 -0.40195819443081249 -0.16354044453284119 0 -0.38424705244385698 -0.1491313890189801 0 -0.36357967017998488 -0.16604203525980921 0 -0.38452416178539439 -0.17879989754992009 0 -0.38424705244385698 -0.1491313890189801 0 -0.38452416178539439 -0.17879989754992009 0 -0.40195819443081249 -0.16354044453284119 0 -0.40195819443081249 -0.16354044453284119 0 -0.40207171208248882 -0.143579593029381 0 -0.38424705244385698 -0.1491313890189801 0 -0.40207171208248882 -0.143579593029381 0 -0.38424705244385698 -0.1491313890189801 0 -0.39245810532181818 -0.1291366883341927 0 -0.37238458741650737 -0.12508344370428551 0 -0.38424705244385698 -0.1491313890189801 0 -0.39245810532181818 -0.1291366883341927 0 -0.40207171208248882 -0.143579593029381 0 -0.39245810532181818 -0.1291366883341927 0 -0.41538048253884657 -0.1315388282564888 0 -0.39245810532181818 -0.1291366883341927 0 -0.41538048253884657 -0.1315388282564888 0 -0.40119121499656851 -0.12004268840557029 0 -0.41538048253884657 -0.1315388282564888 0 -0.41939222707623008 -0.1482809915157621 0 -0.40195819443081249 -0.16354044453284119 0 -0.41939222707623008 -0.1482809915157621 0 -0.40195819443081249 -0.16354044453284119 0 -0.40207171208248882 -0.143579593029381 0 -0.41939222707623008 -0.1482809915157621 0 -0.40207171208248882 -0.143579593029381 0 -0.41538048253884657 -0.1315388282564888 0 -0.41939222707623008 -0.1482809915157621 0 -0.41939222707623008 -0.1482809915157621 0 -0.43286187133286741 -0.13649144127966489 0 -0.43963058362879293 -0.15622829198913779 0 -0.41939222707623008 -0.1482809915157621 0 -0.43286187133286741 -0.13649144127966489 0 -0.41538048253884657 -0.1315388282564888 0 -0.41939222707623008 -0.1482809915157621 0 -0.43286187133286741 -0.13649144127966489 0 -0.41538048253884657 -0.1315388282564888 0 -0.43286187133286741 -0.13649144127966489 0 -0.4222110588796591 -0.12105036347331009 0 -0.43286187133286741 -0.13649144127966489 0 -0.43450131439846562 -0.1249436758912086 0 -0.4222110588796591 -0.12105036347331009 0 -0.43286187133286741 -0.13649144127966489 0 -0.44988018199569529 -0.13958397899157721 0 -0.44633151558950429 -0.12470189104356751 0 -0.44988018199569529 -0.13958397899157721 0 -0.45867225585720478 -0.1284486531364101 0 -0.44633151558950429 -0.12470189104356751 0 -0.43286187133286741 -0.13649144127966489 0 -0.44633151558950429 -0.12470189104356751 0 -0.43286187133286741 -0.13649144127966489 0 -0.43450131439846562 -0.1249436758912086 0 -0.44633151558950429 -0.12470189104356751 0 -0.44988018199569529 -0.13958397899157721 0 -0.45987406958295329 -0.1533443674603418 0 -0.43963058362879293 -0.15622829198913779 0 -0.43286187133286741 -0.13649144127966489 0 -0.44988018199569529 -0.13958397899157721 0 -0.43963058362879293 -0.15622829198913779 0 -0.44988018199569529 -0.13958397899157721 0 -0.45987406958295329 -0.1533443674603418 0 -0.46437817758998562 -0.13808431008737829 0 -0.45987406958295329 -0.1533443674603418 0 -0.46437817758998562 -0.13808431008737829 0 -0.47951265476626809 -0.14409709658744221 0 -0.46437817758998562 -0.13808431008737829 0 -0.45867225585720478 -0.1284486531364101 0 -0.47759046803694999 -0.1218049064689664 0 -0.44988018199569529 -0.13958397899157721 0 -0.46437817758998562 -0.13808431008737829 0 -0.45867225585720478 -0.1284486531364101 0 -0.46437817758998562 -0.13808431008737829 0 -0.47951265476626809 -0.14409709658744221 0 -0.47759046803694999 -0.1218049064689664 0 -0.50000000000001099 -0.1255416338473736 0 -0.47951265476626809 -0.14409709658744221 0 -0.47759046803694999 -0.1218049064689664 0 -0.50000000000001099 -0.1255416338473736 0 -0.5 -0.15304667089305529 0 -0.47951265476626809 -0.14409709658744221 0 -0.45987406958295329 -0.1533443674603418 0 -0.47951265476626809 -0.14409709658744221 0 -0.47523321338770891 -0.1727606907675393 0 -0.5 -0.15304667089305529 0 -0.47951265476626809 -0.14409709658744221 0 -0.47523321338770891 -0.1727606907675393 0 -0.5 -0.15304667089305529 0 -0.5 -0.18055170793873701 0 -0.47523321338770891 -0.1727606907675393 0 -0.5 -0.18055170793873701 0 -0.47523321338770891 -0.1727606907675393 0 -0.477565700674424 -0.19191352920025129 0 -0.47523321338770891 -0.1727606907675393 0 -0.46456336402992032 -0.1910914430555648 0 -0.477565700674424 -0.19191352920025129 0 -0.47523321338770891 -0.1727606907675393 0 -0.45742714011144647 -0.18019140213675711 0 -0.45191256739270119 -0.1667319127241961 0 -0.47523321338770891 -0.1727606907675393 0 -0.45742714011144647 -0.18019140213675711 0 -0.46456336402992032 -0.1910914430555648 0 -0.45987406958295329 -0.1533443674603418 0 -0.47523321338770891 -0.1727606907675393 0 -0.45191256739270119 -0.1667319127241961 0 -0.45191256739270119 -0.1667319127241961 0 -0.43963058362879293 -0.15622829198913779 0 -0.44120938228744261 -0.1772931651258764 0 -0.45987406958295329 -0.1533443674603418 0 -0.45191256739270119 -0.1667319127241961 0 -0.43963058362879293 -0.15622829198913779 0 -0.45742714011144647 -0.18019140213675711 0 -0.44120938228744261 -0.1772931651258764 0 -0.45043399340817541 -0.1917670796539423 0 -0.45742714011144647 -0.18019140213675711 0 -0.45191256739270119 -0.1667319127241961 0 -0.44120938228744261 -0.1772931651258764 0 -0.43051878630747381 -0.19471532187444501 0 -0.44120938228744261 -0.1772931651258764 0 -0.45043399340817541 -0.1917670796539423 0 -0.43051878630747381 -0.19471532187444501 0 -0.45043399340817541 -0.1917670796539423 0 -0.44592798589615551 -0.20455350187932581 0 -0.45043399340817541 -0.1917670796539423 0 -0.44592798589615551 -0.20455350187932581 0 -0.46011662632871347 -0.2033373855535088 0 -0.43608206592309823 -0.21793248705378579 0 -0.45248845751331629 -0.21501523526094829 0 -0.44592798589615551 -0.20455350187932581 0 -0.45248845751331629 -0.21501523526094829 0 -0.44592798589615551 -0.20455350187932581 0 -0.46011662632871347 -0.2033373855535088 0 -0.46011662632871347 -0.2033373855535088 0 -0.46341552485454551 -0.2145422696681582 0 -0.45873502403082361 -0.2252470574563197 0 -0.45248845751331629 -0.21501523526094829 0 -0.46011662632871347 -0.2033373855535088 0 -0.45873502403082361 -0.2252470574563197 0 -0.46011662632871347 -0.2033373855535088 0 -0.45873502403082361 -0.2252470574563197 0 -0.47078453652940411 -0.20728520337094039 0 -0.47001511916944511 -0.22009814208853201 0 -0.46400337238438411 -0.2226568775416293 0 -0.46341552485454551 -0.2145422696681582 0 -0.47078453652940411 -0.20728520337094039 0 -0.46400337238438411 -0.2226568775416293 0 -0.47078453652940411 -0.20728520337094039 0 -0.46400337238438411 -0.2226568775416293 0 -0.46011662632871347 -0.2033373855535088 0 -0.46341552485454551 -0.2145422696681582 0 -0.47078453652940411 -0.20728520337094039 0 -0.46011662632871347 -0.2033373855535088 0 -0.46456336402992032 -0.1910914430555648 0 -0.47078453652940411 -0.20728520337094039 0 -0.45043399340817541 -0.1917670796539423 0 -0.46011662632871347 -0.2033373855535088 0 -0.46456336402992032 -0.1910914430555648 0 -0.45742714011144647 -0.18019140213675711 0 -0.45043399340817541 -0.1917670796539423 0 -0.46456336402992032 -0.1910914430555648 0 -0.46456336402992032 -0.1910914430555648 0 -0.477565700674424 -0.19191352920025129 0 -0.47078453652940411 -0.20728520337094039 0 -0.477565700674424 -0.19191352920025129 0 -0.47078453652940411 -0.20728520337094039 0 -0.477565700674424 -0.19191352920025129 0 -0.48499652925015069 -0.2027402216679654 0 -0.47078453652940411 -0.20728520337094039 0 -0.5 -0.18055170793873701 0 -0.48499652925015069 -0.2027402216679654 0 -0.5 -0.2080567449844187 0 -0.5 -0.18055170793873701 0 -0.477565700674424 -0.19191352920025129 0 -0.48499652925015069 -0.2027402216679654 0 -0.48499652925015069 -0.2027402216679654 0 -0.5 -0.2080567449844187 0 -0.4852097833634621 -0.2145810110091021 0 -0.5 -0.2080567449844187 0 -0.4852097833634621 -0.2145810110091021 0 -0.49024429476122677 -0.22339671491419641 0 -0.4852097833634621 -0.2145810110091021 0 -0.4770270345151269 -0.2138786514182231 0 -0.47942991421396469 -0.2231671951636118 0 -0.48499652925015069 -0.2027402216679654 0 -0.4852097833634621 -0.2145810110091021 0 -0.4770270345151269 -0.2138786514182231 0 -0.48499652925015069 -0.2027402216679654 0 -0.4770270345151269 -0.2138786514182231 0 -0.47078453652940411 -0.20728520337094039 0 -0.4770270345151269 -0.2138786514182231 0 -0.47078453652940411 -0.20728520337094039 0 -0.47001511916944511 -0.22009814208853201 0 -0.48355532347727748 -0.2332614557017828 0 -0.46824130910131251 -0.2379452914767814 0 -0.46234631311346841 -0.22641313157844131 0 -0.47001511916944511 -0.22009814208853201 0 -0.47942991421396469 -0.2231671951636118 0 -0.46234631311346841 -0.22641313157844131 0 -0.48355532347727748 -0.2332614557017828 0 -0.46234631311346841 -0.22641313157844131 0 -0.4770270345151269 -0.2138786514182231 0 -0.47001511916944511 -0.22009814208853201 0 -0.47942991421396469 -0.2231671951636118 0 -0.48355532347727748 -0.2332614557017828 0 -0.47942991421396469 -0.2231671951636118 0 -0.46234631311346841 -0.22641313157844131 0 -0.48355532347727748 -0.2332614557017828 0 -0.47942991421396469 -0.2231671951636118 0 -0.49024429476122677 -0.22339671491419641 0 -0.48355532347727748 -0.2332614557017828 0 -0.49024429476122677 -0.22339671491419641 0 -0.5 -0.2355617820301005 0 -0.4852097833634621 -0.2145810110091021 0 -0.47942991421396469 -0.2231671951636118 0 -0.49024429476122677 -0.22339671491419641 0 -0.5 -0.2080567449844187 0 -0.49024429476122677 -0.22339671491419641 0 -0.5 -0.2355617820301005 0 -0.5 -0.263066819075782 0 -0.5 -0.2355617820301005 0 -0.48868092713117528 -0.2485917731294561 0 -0.48355532347727748 -0.2332614557017828 0 -0.5 -0.2355617820301005 0 -0.48868092713117528 -0.2485917731294561 0 -0.48355532347727748 -0.2332614557017828 0 -0.47363774134022202 -0.24915436340244099 0 -0.46824130910131251 -0.2379452914767814 0 -0.48355532347727748 -0.2332614557017828 0 -0.48868092713117528 -0.2485917731294561 0 -0.47363774134022202 -0.24915436340244099 0 -0.45644872850549312 -0.26150350036281661 0 -0.46421518581644988 -0.24697777112724201 0 -0.45804692315991269 -0.2361590719635204 0 -0.47363774134022202 -0.24915436340244099 0 -0.46421518581644988 -0.24697777112724201 0 -0.46824130910131251 -0.2379452914767814 0 -0.45644872850549312 -0.26150350036281661 0 -0.45804692315991269 -0.2361590719635204 0 -0.46421518581644988 -0.24697777112724201 0 -0.45804692315991269 -0.2361590719635204 0 -0.46824130910131251 -0.2379452914767814 0 -0.45804692315991269 -0.2361590719635204 0 -0.46824130910131251 -0.2379452914767814 0 -0.46234631311346841 -0.22641313157844131 0 -0.46341552485454551 -0.2145422696681582 0 -0.46400337238438411 -0.2226568775416293 0 -0.45873502403082361 -0.2252470574563197 0 -0.47001511916944511 -0.22009814208853201 0 -0.46400337238438411 -0.2226568775416293 0 -0.47001511916944511 -0.22009814208853201 0 -0.46234631311346841 -0.22641313157844131 0 -0.46400337238438411 -0.2226568775416293 0 -0.46234631311346841 -0.22641313157844131 0 -0.46400337238438411 -0.2226568775416293 0 -0.45873502403082361 -0.2252470574563197 0 -0.46400337238438411 -0.2226568775416293 0 -0.45873502403082361 -0.2252470574563197 0 -0.46234631311346841 -0.22641313157844131 0 -0.46400337238438411 -0.2226568775416293 0 -0.46234631311346841 -0.22641313157844131 0 -0.45873502403082361 -0.2252470574563197 0 -0.45804692315991269 -0.2361590719635204 0 -0.45873502403082361 -0.2252470574563197 0 -0.44848200820034112 -0.2368764741719103 0 -0.45804692315991269 -0.2361590719635204 0 -0.46234631311346841 -0.22641313157844131 0 -0.45804692315991269 -0.2361590719635204 0 -0.46234631311346841 -0.22641313157844131 0 -0.45873502403082361 -0.2252470574563197 0 -0.45804692315991269 -0.2361590719635204 0 -0.45873502403082361 -0.2252470574563197 0 -0.45873502403082361 -0.2252470574563197 0 -0.4396934281530982 -0.23300373984161521 0 -0.44848200820034112 -0.2368764741719103 0 -0.45873502403082361 -0.2252470574563197 0 -0.4396934281530982 -0.23300373984161521 0 -0.43608206592309823 -0.21793248705378579 0 -0.45248845751331629 -0.21501523526094829 0 -0.45873502403082361 -0.2252470574563197 0 -0.43608206592309823 -0.21793248705378579 0 -0.45873502403082361 -0.2252470574563197 0 -0.43608206592309823 -0.21793248705378579 0 -0.45873502403082361 -0.2252470574563197 0 -0.4396934281530982 -0.23300373984161521 0 -0.43608206592309823 -0.21793248705378579 0 -0.4396934281530982 -0.23300373984161521 0 -0.4396934281530982 -0.23300373984161521 0 -0.44192566410393769 -0.24231950219236079 0 -0.44848200820034112 -0.2368764741719103 0 -0.44700860420265759 -0.26118094708325068 0 -0.45804692315991269 -0.2361590719635204 0 -0.44447372108731381 -0.24780305591174071 0 -0.44700860420265759 -0.26118094708325068 0 -0.45804692315991269 -0.2361590719635204 0 -0.4396934281530982 -0.23300373984161521 0 -0.44192566410393769 -0.24231950219236079 0 -0.43515266417079101 -0.2502256321201316 0 -0.4396934281530982 -0.23300373984161521 0 -0.44192566410393769 -0.24231950219236079 0 -0.43515266417079101 -0.2502256321201316 0 -0.44447372108731381 -0.24780305591174071 0 -0.44192566410393769 -0.24231950219236079 0 -0.44447372108731381 -0.24780305591174071 0 -0.44192566410393769 -0.24231950219236079 0 -0.44848200820034112 -0.2368764741719103 0 -0.45804692315991269 -0.2361590719635204 0 -0.44447372108731381 -0.24780305591174071 0 -0.44848200820034112 -0.2368764741719103 0 -0.40858780957114049 -0.043834023541926719 0 -0.42385009412084651 -0.033882967294521699 0 -0.41446840276444641 -0.02304466173358646 0 -0.40858780957114049 -0.043834023541926719 0 -0.42457895046477462 -0.046804044285627823 0 -0.42385009412084651 -0.033882967294521699 0 -0.40858780957114049 -0.043834023541926719 0 -0.41446840276444641 -0.02304466173358646 0 -0.40858780957114049 -0.043834023541926719 0 -0.42457895046477462 -0.046804044285627823 0 -0.42246456164244689 -0.063432686531906549 0 -0.40542813345304701 -0.055004265702366863 0 -0.4093535025285574 -0.066519602116818274 0 -0.42246456164244689 -0.063432686531906549 0 -0.40858780957114049 -0.043834023541926719 0 -0.42246456164244689 -0.063432686531906549 0 -0.40858780957114049 -0.043834023541926719 0 -0.40542813345304701 -0.055004265702366863 0 -0.40858780957114049 -0.043834023541926719 0 -0.40542813345304701 -0.055004265702366863 0 -0.42246456164244689 -0.063432686531906549 0 -0.43630702628640861 -0.052446291435572882 0 -0.42457895046477462 -0.046804044285627823 0 -0.42246456164244689 -0.063432686531906549 0 -0.43630702628640861 -0.052446291435572882 0 -0.42457895046477462 -0.046804044285627823 0 -0.43674233206255769 -0.03881288302652601 0 -0.42457895046477462 -0.046804044285627823 0 -0.42385009412084651 -0.033882967294521699 0 -0.43674233206255769 -0.03881288302652601 0 -0.42385009412084651 -0.033882967294521699 0 -0.43674233206255769 -0.03881288302652601 0 -0.43487297574131328 -0.016919223884941478 0 -0.42385009412084651 -0.033882967294521699 0 -0.43487297574131328 -0.016919223884941478 0 -0.41446840276444641 -0.02304466173358646 0 -0.43487297574131328 -0.016919223884941478 0 -0.42034899595775099 -0.0022552999252458648 0 -0.41446840276444641 -0.02304466173358646 0 -0.43487297574131328 -0.016919223884941478 0 -0.44387098877468478 0.0070544525497037436 0 -0.4313306374062012 0.0016034976556527831 0 -0.43487297574131328 -0.016919223884941478 0 -0.42034899595775099 -0.0022552999252458648 0 -0.4313306374062012 0.0016034976556527831 0 -0.42034899595775099 -0.0022552999252458648 0 -0.40706012716313889 -0.01135766859048476 0 -0.41446840276444641 -0.02304466173358646 0 -0.42034899595775099 -0.0022552999252458648 0 -0.40706012716313889 -0.01135766859048476 0 -0.4012461205054394 0.00052568744523271641 0 -0.42034899595775099 -0.0022552999252458648 0 -0.41446840276444641 -0.02304466173358646 0 -0.40858780957114049 -0.043834023541926719 0 -0.41446840276444641 -0.02304466173358646 0 -0.39217698942491891 -0.020656400148339461 0 -0.40706012716313889 -0.01135766859048476 0 -0.41446840276444641 -0.02304466173358646 0 -0.39217698942491891 -0.020656400148339461 0 -0.39217698942491891 -0.020656400148339461 0 -0.38734634054343681 0.00324979067050595 0 -0.4012461205054394 0.00052568744523271641 0 -0.40706012716313889 -0.01135766859048476 0 -0.39217698942491891 -0.020656400148339461 0 -0.4012461205054394 0.00052568744523271641 0 -0.39217698942491891 -0.020656400148339461 0 -0.37719377158883272 -0.01462918824783605 0 -0.37576616927869799 0.0025212232452482409 0 -0.39217698942491891 -0.020656400148339461 0 -0.37576616927869799 0.0025212232452482409 0 -0.38734634054343681 0.00324979067050595 0 -0.39217698942491891 -0.020656400148339461 0 -0.37576616927869799 0.0025212232452482409 0 -0.39217698942491891 -0.020656400148339461 0 -0.37719377158883272 -0.01462918824783605 0 -0.37855239685131797 -0.03292539036703826 0 -0.39217698942491891 -0.020656400148339461 0 -0.37855239685131797 -0.03292539036703826 0 -0.39303587170780802 -0.039850639511837843 0 -0.37855239685131797 -0.03292539036703826 0 -0.39061383377243702 -0.055720858536027117 0 -0.37664525257667181 -0.048475202003900868 0 -0.37855239685131797 -0.03292539036703826 0 -0.39061383377243702 -0.055720858536027117 0 -0.37855239685131797 -0.03292539036703826 0 -0.39303587170780802 -0.039850639511837843 0 -0.39061383377243702 -0.055720858536027117 0 -0.40858780957114049 -0.043834023541926719 0 -0.39217698942491891 -0.020656400148339461 0 -0.40858780957114049 -0.043834023541926719 0 -0.39217698942491891 -0.020656400148339461 0 -0.39303587170780802 -0.039850639511837843 0 -0.40858780957114049 -0.043834023541926719 0 -0.39303587170780802 -0.039850639511837843 0 -0.39941768220115997 -0.048222608245826283 0 -0.39303587170780802 -0.039850639511837843 0 -0.39941768220115997 -0.048222608245826283 0 -0.39061383377243702 -0.055720858536027117 0 -0.40542813345304701 -0.055004265702366863 0 -0.39061383377243702 -0.055720858536027117 0 -0.39991950919138608 -0.067015741724329919 0 -0.40858780957114049 -0.043834023541926719 0 -0.40542813345304701 -0.055004265702366863 0 -0.39941768220115997 -0.048222608245826283 0 -0.40542813345304701 -0.055004265702366863 0 -0.39941768220115997 -0.048222608245826283 0 -0.39061383377243702 -0.055720858536027117 0 -0.39061383377243702 -0.055720858536027117 0 -0.38569538198858588 -0.062397701268467359 0 -0.38920278220463361 -0.06818260843327803 0 -0.39061383377243702 -0.055720858536027117 0 -0.38569538198858588 -0.062397701268467359 0 -0.38122818856641832 -0.058574114976228532 0 -0.39061383377243702 -0.055720858536027117 0 -0.37664525257667181 -0.048475202003900868 0 -0.38122818856641832 -0.058574114976228532 0 -0.37300425533070292 -0.057314083113719487 0 -0.38122818856641832 -0.058574114976228532 0 -0.37520111668623779 -0.063784606980190284 0 -0.37300425533070292 -0.057314083113719487 0 -0.37664525257667181 -0.048475202003900868 0 -0.38122818856641832 -0.058574114976228532 0 -0.38122818856641832 -0.058574114976228532 0 -0.37520111668623779 -0.063784606980190284 0 -0.38173672341085491 -0.067113223128335772 0 -0.37520111668623779 -0.063784606980190284 0 -0.37626372651338369 -0.069557783495216352 0 -0.38173672341085491 -0.067113223128335772 0 -0.37626372651338369 -0.069557783495216352 0 -0.38173672341085491 -0.067113223128335772 0 -0.37921547389572452 -0.071514517978449793 0 -0.38173672341085491 -0.067113223128335772 0 -0.38210229090957559 -0.071970934564664135 0 -0.37921547389572452 -0.071514517978449793 0 -0.38569538198858588 -0.062397701268467359 0 -0.38173672341085491 -0.067113223128335772 0 -0.38920278220463361 -0.06818260843327803 0 -0.38569538198858588 -0.062397701268467359 0 -0.38122818856641832 -0.058574114976228532 0 -0.38173672341085491 -0.067113223128335772 0 -0.38173672341085491 -0.067113223128335772 0 -0.38920278220463361 -0.06818260843327803 0 -0.38581209894477259 -0.072384520786910295 0 -0.38809299732354541 -0.077304123927099025 0 -0.38971074779165421 -0.074037756774188418 0 -0.39106083453765139 -0.078539267938246934 0 -0.38809299732354541 -0.077304123927099025 0 -0.38971074779165421 -0.074037756774188418 0 -0.38570208974557008 -0.075497826107350507 0 -0.38920278220463361 -0.06818260843327803 0 -0.38971074779165421 -0.074037756774188418 0 -0.38581209894477259 -0.072384520786910295 0 -0.38971074779165421 -0.074037756774188418 0 -0.38581209894477259 -0.072384520786910295 0 -0.38570208974557008 -0.075497826107350507 0 -0.38173672341085491 -0.067113223128335772 0 -0.38581209894477259 -0.072384520786910295 0 -0.38210229090957559 -0.071970934564664135 0 -0.38581209894477259 -0.072384520786910295 0 -0.38319570425170929 -0.074540037614807014 0 -0.38570208974557008 -0.075497826107350507 0 -0.38581209894477259 -0.072384520786910295 0 -0.38319570425170929 -0.074540037614807014 0 -0.38210229090957559 -0.071970934564664135 0 -0.38319570425170929 -0.074540037614807014 0 -0.38570208974557008 -0.075497826107350507 0 -0.3829182419734436 -0.077096756390961543 0 -0.38809299732354541 -0.077304123927099025 0 -0.38570208974557008 -0.075497826107350507 0 -0.38554884050097621 -0.07868931572130658 0 -0.38570208974557008 -0.075497826107350507 0 -0.3829182419734436 -0.077096756390961543 0 -0.38554884050097621 -0.07868931572130658 0 -0.3829182419734436 -0.077096756390961543 0 -0.38033791725678828 -0.074712843157240347 0 -0.38077408356806242 -0.077471640784151322 0 -0.38319570425170929 -0.074540037614807014 0 -0.3829182419734436 -0.077096756390961543 0 -0.38033791725678828 -0.074712843157240347 0 -0.38077408356806242 -0.077471640784151322 0 -0.37841309008238722 -0.076356967784839636 0 -0.38002276121796119 -0.079214218208120107 0 -0.38033791725678828 -0.074712843157240347 0 -0.38077408356806242 -0.077471640784151322 0 -0.37841309008238722 -0.076356967784839636 0 -0.38319570425170929 -0.074540037614807014 0 -0.38033791725678828 -0.074712843157240347 0 -0.38210229090957559 -0.071970934564664135 0 -0.38033791725678828 -0.074712843157240347 0 -0.38210229090957559 -0.071970934564664135 0 -0.37921547389572452 -0.071514517978449793 0 -0.38033791725678828 -0.074712843157240347 0 -0.37921547389572452 -0.071514517978449793 0 -0.37642728437476541 -0.073981708035062155 0 -0.37436277614400831 -0.07246088148001828 0 -0.37626372651338369 -0.069557783495216352 0 -0.37642728437476541 -0.073981708035062155 0 -0.37626372651338369 -0.069557783495216352 0 -0.37921547389572452 -0.071514517978449793 0 -0.37642728437476541 -0.073981708035062155 0 -0.37255048490822029 -0.075428045199386021 0 -0.37642728437476541 -0.073981708035062155 0 -0.37691451346587318 -0.077266070630435932 0 -0.38033791725678828 -0.074712843157240347 0 -0.37642728437476541 -0.073981708035062155 0 -0.37841309008238722 -0.076356967784839636 0 -0.37841309008238722 -0.076356967784839636 0 -0.37691451346587318 -0.077266070630435932 0 -0.38002276121796119 -0.079214218208120107 0 -0.37642728437476541 -0.073981708035062155 0 -0.37841309008238722 -0.076356967784839636 0 -0.37691451346587318 -0.077266070630435932 0 -0.37255048490822029 -0.075428045199386021 0 -0.38956594035454478 -0.09269619278727198 0 -0.38370288541600189 -0.084268741995276231 0 -0.37030718454947609 -0.075922333653553678 0 -0.3850793396370561 -0.093684769695607462 0 -0.37255048490822029 -0.075428045199386021 0 -0.37691451346587318 -0.077266070630435932 0 -0.38370288541600189 -0.084268741995276231 0 -0.37255048490822029 -0.075428045199386021 0 -0.38956594035454478 -0.09269619278727198 0 -0.37255048490822029 -0.075428045199386021 0 -0.3850793396370561 -0.093684769695607462 0 -0.38956594035454478 -0.09269619278727198 0 -0.37393460156608921 -0.086848915154910805 0 -0.37030718454947609 -0.075922333653553678 0 -0.3850793396370561 -0.093684769695607462 0 -0.37030718454947609 -0.075922333653553678 0 -0.37255048490822029 -0.075428045199386021 0 -0.3850793396370561 -0.093684769695607462 0 -0.38251264674624091 -0.080264881454046477 0 -0.38002276121796119 -0.079214218208120107 0 -0.38370288541600189 -0.084268741995276231 0 -0.37691451346587318 -0.077266070630435932 0 -0.38002276121796119 -0.079214218208120107 0 -0.38370288541600189 -0.084268741995276231 0 -0.3829182419734436 -0.077096756390961543 0 -0.38077408356806242 -0.077471640784151322 0 -0.38251264674624091 -0.080264881454046477 0 -0.38077408356806242 -0.077471640784151322 0 -0.38251264674624091 -0.080264881454046477 0 -0.38002276121796119 -0.079214218208120107 0 -0.37393460156608921 -0.086848915154910805 0 -0.37546006537226578 -0.093188574994236162 0 -0.3850793396370561 -0.093684769695607462 0 -0.38846736511281332 -0.086955180417490327 0 -0.38956594035454478 -0.09269619278727198 0 -0.38370288541600189 -0.084268741995276231 0 -0.38846736511281332 -0.086955180417490327 0 -0.38956594035454478 -0.09269619278727198 0 -0.39159233756288642 -0.088304702132444554 0 -0.38846736511281332 -0.086955180417490327 0 -0.3900990585087788 -0.084776963900618674 0 -0.39159233756288642 -0.088304702132444554 0 -0.38586262634423091 -0.081862542754875117 0 -0.38554884050097621 -0.07868931572130658 0 -0.38828852132185138 -0.080232246511751273 0 -0.3829182419734436 -0.077096756390961543 0 -0.38251264674624091 -0.080264881454046477 0 -0.38554884050097621 -0.07868931572130658 0 -0.38251264674624091 -0.080264881454046477 0 -0.38586262634423091 -0.081862542754875117 0 -0.38554884050097621 -0.07868931572130658 0 -0.38846736511281332 -0.086955180417490327 0 -0.38370288541600189 -0.084268741995276231 0 -0.38714581876944559 -0.084560493384316829 0 -0.38251264674624091 -0.080264881454046477 0 -0.38586262634423091 -0.081862542754875117 0 -0.38370288541600189 -0.084268741995276231 0 -0.38586262634423091 -0.081862542754875117 0 -0.38370288541600189 -0.084268741995276231 0 -0.38714581876944559 -0.084560493384316829 0 -0.38586262634423091 -0.081862542754875117 0 -0.38849698133700272 -0.08264364709297406 0 -0.38714581876944559 -0.084560493384316829 0 -0.38849698133700272 -0.08264364709297406 0 -0.38714581876944559 -0.084560493384316829 0 -0.3900990585087788 -0.084776963900618674 0 -0.38846736511281332 -0.086955180417490327 0 -0.38714581876944559 -0.084560493384316829 0 -0.3900990585087788 -0.084776963900618674 0 -0.38849698133700272 -0.08264364709297406 0 -0.3900990585087788 -0.084776963900618674 0 -0.39108888174070672 -0.081785988913308405 0 -0.38849698133700272 -0.08264364709297406 0 -0.38828852132185138 -0.080232246511751273 0 -0.39108888174070672 -0.081785988913308405 0 -0.38828852132185138 -0.080232246511751273 0 -0.39106083453765139 -0.078539267938246934 0 -0.39108888174070672 -0.081785988913308405 0 -0.38586262634423091 -0.081862542754875117 0 -0.38849698133700272 -0.08264364709297406 0 -0.38828852132185138 -0.080232246511751273 0 -0.38809299732354541 -0.077304123927099025 0 -0.38554884050097621 -0.07868931572130658 0 -0.38828852132185138 -0.080232246511751273 0 -0.38809299732354541 -0.077304123927099025 0 -0.38828852132185138 -0.080232246511751273 0 -0.39106083453765139 -0.078539267938246934 0 -0.40267527069355658 -0.078516326705015627 0 -0.40651857142065467 -0.094555525519386993 0 -0.39106083453765139 -0.078539267938246934 0 -0.39379343703555691 -0.0805689963887114 0 -0.39503268109229361 -0.077285548740510815 0 -0.40445289291218173 -0.081875937252762349 0 -0.40267527069355658 -0.078516326705015627 0 -0.40651857142065467 -0.094555525519386993 0 -0.40097215569105149 -0.087346299730869728 0 -0.40267527069355658 -0.078516326705015627 0 -0.40651857142065467 -0.094555525519386993 0 -0.39106083453765139 -0.078539267938246934 0 -0.39379343703555691 -0.0805689963887114 0 -0.39108888174070672 -0.081785988913308405 0 -0.3900990585087788 -0.084776963900618674 0 -0.39108888174070672 -0.081785988913308405 0 -0.39415797042412898 -0.084189244571559699 0 -0.3900990585087788 -0.084776963900618674 0 -0.39415797042412898 -0.084189244571559699 0 -0.39159233756288642 -0.088304702132444554 0 -0.39379343703555691 -0.0805689963887114 0 -0.39108888174070672 -0.081785988913308405 0 -0.39415797042412898 -0.084189244571559699 0 -0.39415797042412898 -0.084189244571559699 0 -0.39826687463639132 -0.084044091153965966 0 -0.39607223501124789 -0.088385463276563964 0 -0.39415797042412898 -0.084189244571559699 0 -0.39826687463639132 -0.084044091153965966 0 -0.39691133554240249 -0.08100303903210658 0 -0.39691133554240249 -0.08100303903210658 0 -0.40267527069355658 -0.078516326705015627 0 -0.39503268109229361 -0.077285548740510815 0 -0.39379343703555691 -0.0805689963887114 0 -0.39691133554240249 -0.08100303903210658 0 -0.39503268109229361 -0.077285548740510815 0 -0.39379343703555691 -0.0805689963887114 0 -0.39415797042412898 -0.084189244571559699 0 -0.39691133554240249 -0.08100303903210658 0 -0.38956594035454478 -0.09269619278727198 0 -0.39382746075268599 -0.090668547523480525 0 -0.39807933008206531 -0.093287831897641615 0 -0.38956594035454478 -0.09269619278727198 0 -0.39382746075268599 -0.090668547523480525 0 -0.39159233756288642 -0.088304702132444554 0 -0.39415797042412898 -0.084189244571559699 0 -0.39159233756288642 -0.088304702132444554 0 -0.39607223501124789 -0.088385463276563964 0 -0.39382746075268599 -0.090668547523480525 0 -0.39159233756288642 -0.088304702132444554 0 -0.39607223501124789 -0.088385463276563964 0 -0.39607223501124789 -0.088385463276563964 0 -0.39807933008206531 -0.093287831897641615 0 -0.40097215569105149 -0.087346299730869728 0 -0.39826687463639132 -0.084044091153965966 0 -0.39607223501124789 -0.088385463276563964 0 -0.40097215569105149 -0.087346299730869728 0 -0.39382746075268599 -0.090668547523480525 0 -0.39607223501124789 -0.088385463276563964 0 -0.39807933008206531 -0.093287831897641615 0 -0.39807933008206531 -0.093287831897641615 0 -0.40097215569105149 -0.087346299730869728 0 -0.40651857142065467 -0.094555525519386993 0 -0.39826687463639132 -0.084044091153965966 0 -0.40097215569105149 -0.087346299730869728 0 -0.40267527069355658 -0.078516326705015627 0 -0.39826687463639132 -0.084044091153965966 0 -0.39691133554240249 -0.08100303903210658 0 -0.40267527069355658 -0.078516326705015627 0 -0.40445289291218173 -0.081875937252762349 0 -0.40267527069355658 -0.078516326705015627 0 -0.40779938874224952 -0.077859954655356056 0 -0.40445289291218173 -0.081875937252762349 0 -0.40267527069355658 -0.078516326705015627 0 -0.39061383377243702 -0.055720858536027117 0 -0.40267527069355658 -0.078516326705015627 0 -0.40267527069355658 -0.078516326705015627 0 -0.39991950919138608 -0.067015741724329919 0 -0.40679189247986242 -0.073023333201312365 0 -0.39061383377243702 -0.055720858536027117 0 -0.40267527069355658 -0.078516326705015627 0 -0.39344706311091499 -0.070748619837804005 0 -0.40267527069355658 -0.078516326705015627 0 -0.39991950919138608 -0.067015741724329919 0 -0.39061383377243702 -0.055720858536027117 0 -0.40267527069355658 -0.078516326705015627 0 -0.39991950919138608 -0.067015741724329919 0 -0.40267527069355658 -0.078516326705015627 0 -0.40679189247986242 -0.073023333201312365 0 -0.40779938874224952 -0.077859954655356056 0 -0.40542813345304701 -0.055004265702366863 0 -0.39991950919138608 -0.067015741724329919 0 -0.4093535025285574 -0.066519602116818274 0 -0.39991950919138608 -0.067015741724329919 0 -0.4093535025285574 -0.066519602116818274 0 -0.40679189247986242 -0.073023333201312365 0 -0.39061383377243702 -0.055720858536027117 0 -0.38920278220463361 -0.06818260843327803 0 -0.39344706311091499 -0.070748619837804005 0 -0.38971074779165421 -0.074037756774188418 0 -0.39344706311091499 -0.070748619837804005 0 -0.39503268109229361 -0.077285548740510815 0 -0.40267527069355658 -0.078516326705015627 0 -0.39344706311091499 -0.070748619837804005 0 -0.39503268109229361 -0.077285548740510815 0 -0.38920278220463361 -0.06818260843327803 0 -0.38971074779165421 -0.074037756774188418 0 -0.39344706311091499 -0.070748619837804005 0 -0.38971074779165421 -0.074037756774188418 0 -0.39106083453765139 -0.078539267938246934 0 -0.39503268109229361 -0.077285548740510815 0 -0.37238458741650737 -0.12508344370428551 0 -0.39245810532181818 -0.1291366883341927 0 -0.37947358245264118 -0.1054441875904507 0 -0.37546006537226578 -0.093188574994236162 0 -0.3850793396370561 -0.093684769695607462 0 -0.37947358245264118 -0.1054441875904507 0 -0.3850793396370561 -0.093684769695607462 0 -0.38956594035454478 -0.09269619278727198 0 -0.37947358245264118 -0.1054441875904507 0 -0.38956594035454478 -0.09269619278727198 0 -0.40658139580086528 -0.1099643403751619 0 -0.37947358245264118 -0.1054441875904507 0 -0.40658139580086528 -0.1099643403751619 0 -0.38956594035454478 -0.09269619278727198 0 -0.37947358245264118 -0.1054441875904507 0 -0.40658139580086528 -0.1099643403751619 0 -0.39807933008206531 -0.093287831897641615 0 -0.40658139580086528 -0.1099643403751619 0 -0.40651857142065467 -0.094555525519386993 0 -0.38956594035454478 -0.09269619278727198 0 -0.39807933008206531 -0.093287831897641615 0 -0.40658139580086528 -0.1099643403751619 0 -0.37947358245264118 -0.1054441875904507 0 -0.40119121499656851 -0.12004268840557029 0 -0.40658139580086528 -0.1099643403751619 0 -0.39245810532181818 -0.1291366883341927 0 -0.37947358245264118 -0.1054441875904507 0 -0.40119121499656851 -0.12004268840557029 0 -0.41538048253884657 -0.1315388282564888 0 -0.41134792190906361 -0.11480165293358199 0 -0.41036187214776532 -0.1105947243337554 0 -0.43277140411082737 -0.1143314517121556 0 -0.4222110588796591 -0.12105036347331009 0 -0.41036187214776532 -0.1105947243337554 0 -0.43277140411082737 -0.1143314517121556 0 -0.41538048253884657 -0.1315388282564888 0 -0.41134792190906361 -0.11480165293358199 0 -0.4222110588796591 -0.12105036347331009 0 -0.41538048253884657 -0.1315388282564888 0 -0.40119121499656851 -0.12004268840557029 0 -0.41134792190906361 -0.11480165293358199 0 -0.40119121499656851 -0.12004268840557029 0 -0.41134792190906361 -0.11480165293358199 0 -0.40658139580086528 -0.1099643403751619 0 -0.41134792190906361 -0.11480165293358199 0 -0.40658139580086528 -0.1099643403751619 0 -0.41134792190906361 -0.11480165293358199 0 -0.40658139580086528 -0.1099643403751619 0 -0.41036187214776532 -0.1105947243337554 0 -0.40658139580086528 -0.1099643403751619 0 -0.41036187214776532 -0.1105947243337554 0 -0.41134792190906361 -0.11480165293358199 0 -0.41036187214776532 -0.1105947243337554 0 -0.41134792190906361 -0.11480165293358199 0 -0.41036187214776532 -0.1105947243337554 0 -0.4222110588796591 -0.12105036347331009 0 -0.41036187214776532 -0.1105947243337554 0 -0.40651857142065467 -0.094555525519386993 0 -0.40658139580086528 -0.1099643403751619 0 -0.41036187214776532 -0.1105947243337554 0 -0.40651857142065467 -0.094555525519386993 0 -0.41036187214776532 -0.1105947243337554 0 -0.40651857142065467 -0.094555525519386993 0 -0.42171094964211309 -0.098142979727625201 0 -0.41036187214776532 -0.1105947243337554 0 -0.42171094964211309 -0.098142979727625201 0 -0.43277140411082737 -0.1143314517121556 0 -0.42171094964211309 -0.098142979727625201 0 -0.43277140411082737 -0.1143314517121556 0 -0.44153611574321389 -0.095053672785164689 0 -0.43277140411082737 -0.1143314517121556 0 -0.43450131439846562 -0.1249436758912086 0 -0.4222110588796591 -0.12105036347331009 0 -0.41421179124356228 -0.075205040805041937 0 -0.42566052769249418 -0.082546466388327189 0 -0.42246456164244689 -0.063432686531906549 0 -0.41421179124356228 -0.075205040805041937 0 -0.4093535025285574 -0.066519602116818274 0 -0.42246456164244689 -0.063432686531906549 0 -0.41421179124356228 -0.075205040805041937 0 -0.4093535025285574 -0.066519602116818274 0 -0.40679189247986242 -0.073023333201312365 0 -0.41421179124356228 -0.075205040805041937 0 -0.40679189247986242 -0.073023333201312365 0 -0.40779938874224952 -0.077859954655356056 0 -0.41421179124356228 -0.075205040805041937 0 -0.41020461942694342 -0.08300506757367121 0 -0.41566129188515372 -0.086691016002810511 0 -0.40445289291218173 -0.081875937252762349 0 -0.40779938874224952 -0.077859954655356056 0 -0.41020461942694342 -0.08300506757367121 0 -0.41421179124356228 -0.075205040805041937 0 -0.40779938874224952 -0.077859954655356056 0 -0.41020461942694342 -0.08300506757367121 0 -0.40651857142065467 -0.094555525519386993 0 -0.41020461942694342 -0.08300506757367121 0 -0.41566129188515372 -0.086691016002810511 0 -0.40445289291218173 -0.081875937252762349 0 -0.40651857142065467 -0.094555525519386993 0 -0.41020461942694342 -0.08300506757367121 0 -0.40651857142065467 -0.094555525519386993 0 -0.42171094964211309 -0.098142979727625201 0 -0.41566129188515372 -0.086691016002810511 0 -0.42171094964211309 -0.098142979727625201 0 -0.41566129188515372 -0.086691016002810511 0 -0.42566052769249418 -0.082546466388327189 0 -0.41421179124356228 -0.075205040805041937 0 -0.41566129188515372 -0.086691016002810511 0 -0.42566052769249418 -0.082546466388327189 0 -0.42171094964211309 -0.098142979727625201 0 -0.42566052769249418 -0.082546466388327189 0 -0.44153611574321389 -0.095053672785164689 0 -0.42566052769249418 -0.082546466388327189 0 -0.438278289217783 -0.072080319156987191 0 -0.44153611574321389 -0.095053672785164689 0 -0.42566052769249418 -0.082546466388327189 0 -0.42246456164244689 -0.063432686531906549 0 -0.438278289217783 -0.072080319156987191 0 -0.43630702628640861 -0.052446291435572882 0 -0.42246456164244689 -0.063432686531906549 0 -0.438278289217783 -0.072080319156987191 0 -0.438278289217783 -0.072080319156987191 0 -0.45631645028987827 -0.078341465736253058 0 -0.44738505365225661 -0.060661332064698793 0 -0.438278289217783 -0.072080319156987191 0 -0.45631645028987827 -0.078341465736253058 0 -0.44153611574321389 -0.095053672785164689 0 -0.45631645028987827 -0.078341465736253058 0 -0.47098200394305889 -0.068242897286610954 0 -0.4768928102712407 -0.091196004680402495 0 -0.45631645028987827 -0.078341465736253058 0 -0.44153611574321389 -0.095053672785164689 0 -0.46274900126793561 -0.1005630458030302 0 -0.45631645028987827 -0.078341465736253058 0 -0.46274900126793561 -0.1005630458030302 0 -0.4768928102712407 -0.091196004680402495 0 -0.45631645028987827 -0.078341465736253058 0 -0.46082560209688939 -0.059718277397154358 0 -0.44738505365225661 -0.060661332064698793 0 -0.45631645028987827 -0.078341465736253058 0 -0.47098200394305889 -0.068242897286610954 0 -0.46082560209688939 -0.059718277397154358 0 -0.43277140411082737 -0.1143314517121556 0 -0.45518093607388871 -0.118068179090561 0 -0.43277140411082737 -0.1143314517121556 0 -0.44633151558950429 -0.12470189104356751 0 -0.45518093607388871 -0.118068179090561 0 -0.43277140411082737 -0.1143314517121556 0 -0.43450131439846562 -0.1249436758912086 0 -0.44633151558950429 -0.12470189104356751 0 -0.43277140411082737 -0.1143314517121556 0 -0.44153611574321389 -0.095053672785164689 0 -0.45518093607388871 -0.118068179090561 0 -0.44153611574321389 -0.095053672785164689 0 -0.46274900126793561 -0.1005630458030302 0 -0.45518093607388871 -0.118068179090561 0 -0.46274900126793561 -0.1005630458030302 0 -0.45518093607388871 -0.118068179090561 0 -0.47759046803694999 -0.1218049064689664 0 -0.45518093607388871 -0.118068179090561 0 -0.47759046803694999 -0.1218049064689664 0 -0.45867225585720478 -0.1284486531364101 0 -0.45518093607388871 -0.118068179090561 0 -0.47759046803694999 -0.1218049064689664 0 -0.45867225585720478 -0.1284486531364101 0 -0.44633151558950429 -0.12470189104356751 0 -0.45518093607388871 -0.118068179090561 0 -0.46274900126793561 -0.1005630458030302 0 -0.47759046803694999 -0.1218049064689664 0 -0.48434065573634533 -0.1063386502253216 0 -0.46274900126793561 -0.1005630458030302 0 -0.48434065573634533 -0.1063386502253216 0 -0.4768928102712407 -0.091196004680402495 0 -0.48434065573634533 -0.1063386502253216 0 -0.5 -0.1000493693917536 0 -0.4768928102712407 -0.091196004680402495 0 -0.50000000000001099 -0.1255416338473736 0 -0.47759046803694999 -0.1218049064689664 0 -0.48434065573634533 -0.1063386502253216 0 -0.50000000000001099 -0.1255416338473736 0 -0.47759046803694999 -0.1218049064689664 0 -0.50000000000001099 -0.1255416338473736 0 -0.48434065573634533 -0.1063386502253216 0 -0.5 -0.1000493693917536 0 -0.4836448760925211 -0.076208455096617306 0 -0.47098200394305889 -0.068242897286610954 0 -0.48774402864230881 -0.056736928005038087 0 -0.4836448760925211 -0.076208455096617306 0 -0.47098200394305889 -0.068242897286610954 0 -0.4768928102712407 -0.091196004680402495 0 -0.5 -0.1000493693917536 0 -0.4836448760925211 -0.076208455096617306 0 -0.4768928102712407 -0.091196004680402495 0 -0.5 -0.1000493693917536 0 -0.4836448760925211 -0.076208455096617306 0 -0.49999999999999661 -0.074557104936133559 0 -0.4836448760925211 -0.076208455096617306 0 -0.49999999999999661 -0.074557104936133559 0 -0.48774402864230881 -0.056736928005038087 0 -0.49999999999999661 -0.074557104936133559 0 -0.48774402864230881 -0.056736928005038087 0 -0.49999999999999661 -0.074557104936133559 0 -0.5 -0.047018966645715921 0 -0.48774402864230881 -0.056736928005038087 0 -0.5 -0.047018966645715921 0 -0.48774402864230881 -0.056736928005038087 0 -0.48774402864231048 -0.042967858859829053 0 -0.5 -0.047018966645715921 0 -0.48774402864231048 -0.042967858859829053 0 -0.48774402864231148 -0.029198789714620241 0 -0.5 -0.047018966645715921 0 -0.48774402864231148 -0.029198789714620241 0 -0.50000000000000078 -0.019480828355298092 0 -0.47548805728462179 -0.038916751073942019 0 -0.47287857465128891 -0.054562289061131738 0 -0.46537038760336191 -0.046939217848652057 0 -0.48774402864230881 -0.056736928005038087 0 -0.48774402864231048 -0.042967858859829053 0 -0.47548805728462179 -0.038916751073942019 0 -0.47548805728462179 -0.038916751073942019 0 -0.48774402864231148 -0.029198789714620241 0 -0.48774402864231048 -0.042967858859829053 0 -0.47548805728462179 -0.038916751073942019 0 -0.48774402864231148 -0.029198789714620241 0 -0.47548805728462179 -0.038916751073942019 0 -0.46537038760336191 -0.046939217848652057 0 -0.48774402864230881 -0.056736928005038087 0 -0.47548805728462179 -0.038916751073942019 0 -0.47287857465128891 -0.054562289061131738 0 -0.48774402864230881 -0.056736928005038087 0 -0.47548805728462179 -0.038916751073942019 0 -0.47098200394305889 -0.068242897286610954 0 -0.48774402864230881 -0.056736928005038087 0 -0.47287857465128891 -0.054562289061131738 0 -0.47098200394305889 -0.068242897286610954 0 -0.47287857465128891 -0.054562289061131738 0 -0.46082560209688939 -0.059718277397154358 0 -0.46082560209688939 -0.059718277397154358 0 -0.46537038760336191 -0.046939217848652057 0 -0.45002974559839087 -0.048433775538448479 0 -0.47287857465128891 -0.054562289061131738 0 -0.46082560209688939 -0.059718277397154358 0 -0.46537038760336191 -0.046939217848652057 0 -0.47548805728462179 -0.038916751073942019 0 -0.46537038760336191 -0.046939217848652057 0 -0.45441668069107127 -0.032923283102476428 0 -0.46537038760336191 -0.046939217848652057 0 -0.45441668069107127 -0.032923283102476428 0 -0.45002974559839087 -0.048433775538448479 0 -0.43674233206255769 -0.03881288302652601 0 -0.45441668069107127 -0.032923283102476428 0 -0.45002974559839087 -0.048433775538448479 0 -0.43630702628640861 -0.052446291435572882 0 -0.43674233206255769 -0.03881288302652601 0 -0.45002974559839087 -0.048433775538448479 0 -0.43630702628640861 -0.052446291435572882 0 -0.438278289217783 -0.072080319156987191 0 -0.44738505365225661 -0.060661332064698793 0 -0.43630702628640861 -0.052446291435572882 0 -0.44738505365225661 -0.060661332064698793 0 -0.45002974559839087 -0.048433775538448479 0 -0.46082560209688939 -0.059718277397154358 0 -0.44738505365225661 -0.060661332064698793 0 -0.45002974559839087 -0.048433775538448479 0 -0.43487297574131328 -0.016919223884941478 0 -0.45967952302965398 -0.015931149262118669 0 -0.44387098877468478 0.0070544525497037436 0 -0.45967952302965398 -0.015931149262118669 0 -0.44387098877468478 0.0070544525497037436 0 -0.43674233206255769 -0.03881288302652601 0 -0.43487297574131328 -0.016919223884941478 0 -0.45441668069107127 -0.032923283102476428 0 -0.43487297574131328 -0.016919223884941478 0 -0.45441668069107127 -0.032923283102476428 0 -0.45967952302965398 -0.015931149262118669 0 -0.47548805728462179 -0.038916751073942019 0 -0.45441668069107127 -0.032923283102476428 0 -0.45967952302965398 -0.015931149262118669 0 -0.47548805728462179 -0.038916751073942019 0 -0.45967952302965398 -0.015931149262118669 0 -0.45967952302965398 -0.015931149262118669 0 -0.48228778058750071 -0.0085861168906717217 0 -0.47013787592836209 0.01114807092990935 0 -0.47548805728462179 -0.038916751073942019 0 -0.45967952302965398 -0.015931149262118669 0 -0.48774402864231148 -0.029198789714620241 0 -0.45967952302965398 -0.015931149262118669 0 -0.48228778058750071 -0.0085861168906717217 0 -0.48774402864231148 -0.029198789714620241 0 -0.48228778058750071 -0.0085861168906717217 0 -0.48774402864231148 -0.029198789714620241 0 -0.50000000000000078 -0.019480828355298092 0 -0.48774402864231148 -0.029198789714620241 0 -0.50000000000000078 -0.019480828355298092 0 -0.48228778058750071 -0.0085861168906717217 0 -0.50000000000000078 -0.019480828355298092 0 -0.50000000000000044 0.0083019774979285477 0 -0.50000000000000044 0.0083019774979285477 0 -0.47013787592836209 0.01114807092990935 0 -0.50000000000000044 0.0083019774979285477 0 -0.48053109428957658 0.028314044828115399 0 -0.5 0.033177311036787949 0 -0.48053109428957658 0.028314044828115399 0 -0.47013787592836209 0.01114807092990935 0 -0.45611938010713748 0.022146054721962669 0 -0.50000000000000044 0.0083019774979285477 0 -0.48053109428957658 0.028314044828115399 0 -0.47013787592836209 0.01114807092990935 0 -0.48228778058750071 -0.0085861168906717217 0 -0.50000000000000044 0.0083019774979285477 0 -0.47013787592836209 0.01114807092990935 0 -0.5 0.058052644575647287 0 -0.48555705450657072 0.046132445937015702 0 -0.47467800150980988 0.068895854400337242 0 -0.5 0.058052644575647287 0 -0.5 0.033177311036787949 0 -0.48555705450657072 0.046132445937015702 0 -0.48053109428957658 0.028314044828115399 0 -0.5 0.033177311036787949 0 -0.48555705450657072 0.046132445937015702 0 -0.48053109428957658 0.028314044828115399 0 -0.48555705450657072 0.046132445937015702 0 -0.46755034929343831 0.043617309418489979 0 -0.48555705450657072 0.046132445937015702 0 -0.46755034929343831 0.043617309418489979 0 -0.47467800150980988 0.068895854400337242 0 -0.45479882322040482 0.055007306001233533 0 -0.46755034929343831 0.043617309418489979 0 -0.47467800150980988 0.068895854400337242 0 -0.46755034929343831 0.043617309418489979 0 -0.45134423811474977 0.038001644613357123 0 -0.45611938010713748 0.022146054721962669 0 -0.48053109428957658 0.028314044828115399 0 -0.46755034929343831 0.043617309418489979 0 -0.45611938010713748 0.022146054721962669 0 -0.45479882322040482 0.055007306001233533 0 -0.46755034929343831 0.043617309418489979 0 -0.45134423811474977 0.038001644613357123 0 -0.45134423811474977 0.038001644613357123 0 -0.43771214632371869 0.056679789491300703 0 -0.43916836457848368 0.027635767385417832 0 -0.43771214632371869 0.056679789491300703 0 -0.43916836457848368 0.027635767385417832 0 -0.45479882322040482 0.055007306001233533 0 -0.45134423811474977 0.038001644613357123 0 -0.43771214632371869 0.056679789491300703 0 -0.45479882322040482 0.055007306001233533 0 -0.43771214632371869 0.056679789491300703 0 -0.45290812476500769 0.072000207422029908 0 -0.47013787592836209 0.01114807092990935 0 -0.44027575185672402 0.01399416436189008 0 -0.45967952302965398 -0.015931149262118669 0 -0.47013787592836209 0.01114807092990935 0 -0.44387098877468478 0.0070544525497037436 0 -0.47013787592836209 0.01114807092990935 0 -0.45611938010713748 0.022146054721962669 0 -0.44027575185672402 0.01399416436189008 0 -0.45134423811474977 0.038001644613357123 0 -0.45611938010713748 0.022146054721962669 0 -0.44666269353013238 0.0242789627502463 0 -0.45611938010713748 0.022146054721962669 0 -0.44666269353013238 0.0242789627502463 0 -0.44027575185672402 0.01399416436189008 0 -0.45134423811474977 0.038001644613357123 0 -0.44666269353013238 0.0242789627502463 0 -0.43916836457848368 0.027635767385417832 0 -0.44666269353013238 0.0242789627502463 0 -0.43916836457848368 0.027635767385417832 0 -0.44027575185672402 0.01399416436189008 0 -0.47013787592836209 0.01114807092990935 0 -0.44387098877468478 0.0070544525497037436 0 -0.44027575185672402 0.01399416436189008 0 -0.42034899595775099 -0.0022552999252458648 0 -0.4313306374062012 0.0016034976556527831 0 -0.42622958915105569 0.01853406188309473 0 -0.42034899595775099 -0.0022552999252458648 0 -0.42622958915105569 0.01853406188309473 0 -0.44387098877468478 0.0070544525497037436 0 -0.4313306374062012 0.0016034976556527831 0 -0.42622958915105569 0.01853406188309473 0 -0.42034899595775099 -0.0022552999252458648 0 -0.40987347255783663 0.010749304063525689 0 -0.4012461205054394 0.00052568744523271641 0 -0.42034899595775099 -0.0022552999252458648 0 -0.41676995109014708 0.01817430076666289 0 -0.42622958915105569 0.01853406188309473 0 -0.42034899595775099 -0.0022552999252458648 0 -0.40987347255783663 0.010749304063525689 0 -0.41676995109014708 0.01817430076666289 0 -0.41676995109014708 0.01817430076666289 0 -0.42806245451971559 0.030040054361526219 0 -0.41218697266623222 0.032504304223229273 0 -0.41676995109014708 0.01817430076666289 0 -0.41218697266623222 0.032504304223229273 0 -0.40437901061614012 0.023518101200247891 0 -0.40987347255783663 0.010749304063525689 0 -0.41676995109014708 0.01817430076666289 0 -0.40437901061614012 0.023518101200247891 0 -0.43916836457848368 0.027635767385417832 0 -0.44027575185672402 0.01399416436189008 0 -0.42806245451971559 0.030040054361526219 0 -0.44387098877468478 0.0070544525497037436 0 -0.42806245451971559 0.030040054361526219 0 -0.44387098877468478 0.0070544525497037436 0 -0.42806245451971559 0.030040054361526219 0 -0.42622958915105569 0.01853406188309473 0 -0.44387098877468478 0.0070544525497037436 0 -0.44027575185672402 0.01399416436189008 0 -0.42806245451971559 0.030040054361526219 0 -0.41676995109014708 0.01817430076666289 0 -0.42806245451971559 0.030040054361526219 0 -0.42622958915105569 0.01853406188309473 0 -0.43771214632371869 0.056679789491300703 0 -0.43916836457848368 0.027635767385417832 0 -0.42806245451971559 0.030040054361526219 0 -0.43771214632371869 0.056679789491300703 0 -0.42806245451971559 0.030040054361526219 0 -0.41225392026474628 0.053025656173348701 0 -0.43771214632371869 0.056679789491300703 0 -0.41225392026474628 0.053025656173348701 0 -0.42570840438552648 0.069014525153441197 0 -0.42806245451971559 0.030040054361526219 0 -0.41225392026474628 0.053025656173348701 0 -0.41225392026474628 0.053025656173348701 0 -0.41218697266623222 0.032504304223229273 0 -0.39981180382927067 0.035301570151791882 0 -0.42806245451971559 0.030040054361526219 0 -0.41225392026474628 0.053025656173348701 0 -0.41218697266623222 0.032504304223229273 0 -0.41225392026474628 0.053025656173348701 0 -0.39981180382927067 0.035301570151791882 0 -0.39485194765001391 0.046695036175515819 0 -0.39981180382927067 0.035301570151791882 0 -0.39485194765001391 0.046695036175515819 0 -0.38668410507186829 0.03925009406627758 0 -0.39981180382927067 0.035301570151791882 0 -0.38668410507186829 0.03925009406627758 0 -0.38792053424349793 0.03051038602864526 0 -0.41225392026474628 0.053025656173348701 0 -0.39485194765001391 0.046695036175515819 0 -0.39372730178501558 0.057833536969721787 0 -0.41225392026474628 0.053025656173348701 0 -0.39372730178501558 0.057833536969721787 0 -0.39636111479203617 0.075953355480992857 0 -0.39372730178501558 0.057833536969721787 0 -0.38271098997085568 0.050251736966184707 0 -0.38266079029724842 0.064485457356803763 0 -0.39485194765001391 0.046695036175515819 0 -0.39372730178501558 0.057833536969721787 0 -0.38271098997085568 0.050251736966184707 0 -0.38271098997085568 0.050251736966184707 0 -0.37181203191657258 0.046414640740192858 0 -0.37263919311136651 0.058427960730028289 0 -0.38271098997085568 0.050251736966184707 0 -0.38266079029724842 0.064485457356803763 0 -0.37263919311136651 0.058427960730028289 0 -0.38668410507186829 0.03925009406627758 0 -0.37974329209495522 0.03227214272291732 0 -0.38792053424349793 0.03051038602864526 0 -0.39485194765001391 0.046695036175515819 0 -0.38271098997085568 0.050251736966184707 0 -0.38668410507186829 0.03925009406627758 0 -0.38271098997085568 0.050251736966184707 0 -0.38668410507186829 0.03925009406627758 0 -0.37725554928066413 0.040081702841281937 0 -0.38271098997085568 0.050251736966184707 0 -0.37725554928066413 0.040081702841281937 0 -0.37181203191657258 0.046414640740192858 0 -0.38668410507186829 0.03925009406627758 0 -0.37725554928066413 0.040081702841281937 0 -0.37974329209495522 0.03227214272291732 0 -0.37725554928066413 0.040081702841281937 0 -0.37974329209495522 0.03227214272291732 0 -0.37263177943124731 0.033249493843526053 0 -0.37974329209495522 0.03227214272291732 0 -0.38074046241750198 0.025084519952121642 0 -0.37441339120421929 0.026822871754168861 0 -0.37974329209495522 0.03227214272291732 0 -0.38074046241750198 0.025084519952121642 0 -0.38792053424349793 0.03051038602864526 0 -0.37974329209495522 0.03227214272291732 0 -0.37441339120421929 0.026822871754168861 0 -0.37263177943124731 0.033249493843526053 0 -0.38074046241750198 0.025084519952121642 0 -0.3754483846295848 0.020169662492656289 0 -0.37441339120421929 0.026822871754168861 0 -0.38074046241750198 0.025084519952121642 0 -0.38792053424349793 0.03051038602864526 0 -0.38908106679422533 0.022062399674912629 0 -0.38908106679422533 0.022062399674912629 0 -0.38266975889832472 0.01584883896749727 0 -0.39249514608131347 0.01229336227493423 0 -0.38074046241750198 0.025084519952121642 0 -0.38908106679422533 0.022062399674912629 0 -0.38266975889832472 0.01584883896749727 0 -0.38074046241750198 0.025084519952121642 0 -0.38266975889832472 0.01584883896749727 0 -0.3754483846295848 0.020169662492656289 0 -0.38266975889832472 0.01584883896749727 0 -0.3754483846295848 0.020169662492656289 0 -0.37610383802070929 0.01417088813385226 0 -0.37610383802070929 0.01417088813385226 0 -0.37890043656200167 0.0088647173991593456 0 -0.37241620784035762 0.0091981994654418767 0 -0.38266975889832472 0.01584883896749727 0 -0.37610383802070929 0.01417088813385226 0 -0.37890043656200167 0.0088647173991593456 0 -0.37890043656200167 0.0088647173991593456 0 -0.37576616927869799 0.0025212232452482409 0 -0.38734634054343681 0.00324979067050595 0 -0.37890043656200167 0.0088647173991593456 0 -0.37576616927869799 0.0025212232452482409 0 -0.37241620784035762 0.0091981994654418767 0 -0.38266975889832472 0.01584883896749727 0 -0.37890043656200167 0.0088647173991593456 0 -0.38734634054343681 0.00324979067050595 0 -0.38266975889832472 0.01584883896749727 0 -0.38734634054343681 0.00324979067050595 0 -0.39249514608131347 0.01229336227493423 0 -0.39249514608131347 0.01229336227493423 0 -0.40085442705224122 0.01395588207621583 0 -0.3966206624893357 0.020231116934569832 0 -0.39249514608131347 0.01229336227493423 0 -0.4012461205054394 0.00052568744523271641 0 -0.40085442705224122 0.01395588207621583 0 -0.38734634054343681 0.00324979067050595 0 -0.39249514608131347 0.01229336227493423 0 -0.4012461205054394 0.00052568744523271641 0 -0.40987347255783663 0.010749304063525689 0 -0.4012461205054394 0.00052568744523271641 0 -0.40085442705224122 0.01395588207621583 0 -0.40987347255783663 0.010749304063525689 0 -0.40085442705224122 0.01395588207621583 0 -0.40437901061614012 0.023518101200247891 0 -0.40085442705224122 0.01395588207621583 0 -0.40437901061614012 0.023518101200247891 0 -0.3966206624893357 0.020231116934569832 0 -0.40437901061614012 0.023518101200247891 0 -0.39549416019672218 0.026817082490547262 0 -0.3966206624893357 0.020231116934569832 0 -0.41218697266623222 0.032504304223229273 0 -0.39981180382927067 0.035301570151791882 0 -0.40437901061614012 0.023518101200247891 0 -0.39981180382927067 0.035301570151791882 0 -0.40437901061614012 0.023518101200247891 0 -0.39549416019672218 0.026817082490547262 0 -0.38792053424349793 0.03051038602864526 0 -0.38908106679422533 0.022062399674912629 0 -0.39549416019672218 0.026817082490547262 0 -0.39981180382927067 0.035301570151791882 0 -0.38792053424349793 0.03051038602864526 0 -0.39549416019672218 0.026817082490547262 0 -0.38908106679422533 0.022062399674912629 0 -0.39549416019672218 0.026817082490547262 0 -0.3966206624893357 0.020231116934569832 0 -0.38908106679422533 0.022062399674912629 0 -0.39249514608131347 0.01229336227493423 0 -0.3966206624893357 0.020231116934569832 0 -0.39648695652528831 0.10479260688949329 0 -0.38890767034529311 0.11373695772907511 0 -0.39375817513157552 0.089148387322879552 0 -0.39648695652528831 0.10479260688949329 0 -0.40090409782171832 0.097639075614642579 0 -0.39375817513157552 0.089148387322879552 0 -0.38890767034529311 0.11373695772907511 0 -0.39375817513157552 0.089148387322879552 0 -0.40090409782171832 0.097639075614642579 0 -0.40524132183882888 0.09319673854028325 0 -0.40812993779118117 0.10341856970591549 0 -0.39648695652528831 0.10479260688949329 0 -0.40090409782171832 0.097639075614642579 0 -0.40812993779118117 0.10341856970591549 0 -0.39648695652528831 0.10479260688949329 0 -0.40332062881630421 0.11476412144982009 0 -0.40812993779118117 0.10341856970591549 0 -0.40332062881630421 0.11476412144982009 0 -0.38890767034529311 0.11373695772907511 0 -0.40015099198154008 0.12979398768763711 0 -0.40332062881630421 0.11476412144982009 0 -0.41262360058489639 0.12366733994261921 0 -0.40015099198154008 0.12979398768763711 0 -0.39648695652528831 0.10479260688949329 0 -0.40332062881630421 0.11476412144982009 0 -0.38890767034529311 0.11373695772907511 0 -0.38890767034529311 0.11373695772907511 0 -0.38405716555900832 0.13832552813527019 0 -0.37062744037481132 0.1135505395145804 0 -0.38890767034529311 0.11373695772907511 0 -0.385664096327405 0.091687248412880548 0 -0.37062744037481132 0.1135505395145804 0 -0.38890767034529311 0.11373695772907511 0 -0.385664096327405 0.091687248412880548 0 -0.39375817513157552 0.089148387322879552 0 -0.385664096327405 0.091687248412880548 0 -0.37062744037481132 0.1135505395145804 0 -0.385664096327405 0.091687248412880548 0 -0.37890229464063752 0.076396414118949207 0 -0.39636111479203617 0.075953355480992857 0 -0.385664096327405 0.091687248412880548 0 -0.37890229464063752 0.076396414118949207 0 -0.37120381789877072 0.086152550109330484 0 -0.385664096327405 0.091687248412880548 0 -0.39375817513157552 0.089148387322879552 0 -0.38266079029724842 0.064485457356803763 0 -0.37890229464063752 0.076396414118949207 0 -0.39636111479203617 0.075953355480992857 0 -0.38266079029724842 0.064485457356803763 0 -0.37890229464063752 0.076396414118949207 0 -0.36851044086808049 0.071533944343932357 0 -0.39372730178501558 0.057833536969721787 0 -0.38266079029724842 0.064485457356803763 0 -0.39636111479203617 0.075953355480992857 0 -0.41225392026474628 0.053025656173348701 0 -0.39636111479203617 0.075953355480992857 0 -0.39636111479203617 0.075953355480992857 0 -0.39375817513157552 0.089148387322879552 0 -0.41177666752508468 0.083496545977461867 0 -0.39375817513157552 0.089148387322879552 0 -0.41177666752508468 0.083496545977461867 0 -0.385664096327405 0.091687248412880548 0 -0.39636111479203617 0.075953355480992857 0 -0.385664096327405 0.091687248412880548 0 -0.39636111479203617 0.075953355480992857 0 -0.39375817513157552 0.089148387322879552 0 -0.39375817513157552 0.089148387322879552 0 -0.40524132183882888 0.09319673854028325 0 -0.41177666752508468 0.083496545977461867 0 -0.39636111479203617 0.075953355480992857 0 -0.39375817513157552 0.089148387322879552 0 -0.40090409782171832 0.097639075614642579 0 -0.39375817513157552 0.089148387322879552 0 -0.40524132183882888 0.09319673854028325 0 -0.40524132183882888 0.09319673854028325 0 -0.41177666752508468 0.083496545977461867 0 -0.41591413448155878 0.093169815573362125 0 -0.41177666752508468 0.083496545977461867 0 -0.41591413448155878 0.093169815573362125 0 -0.42263029053480022 0.08100419994409537 0 -0.41177666752508468 0.083496545977461867 0 -0.4142207962914996 0.071127478275261835 0 -0.42263029053480022 0.08100419994409537 0 -0.41591413448155878 0.093169815573362125 0 -0.42501176243114319 0.08968168998896632 0 -0.42263029053480022 0.08100419994409537 0 -0.39636111479203617 0.075953355480992857 0 -0.41177666752508468 0.083496545977461867 0 -0.4142207962914996 0.071127478275261835 0 -0.41225392026474628 0.053025656173348701 0 -0.39636111479203617 0.075953355480992857 0 -0.4142207962914996 0.071127478275261835 0 -0.41225392026474628 0.053025656173348701 0 -0.4142207962914996 0.071127478275261835 0 -0.42570840438552648 0.069014525153441197 0 -0.4142207962914996 0.071127478275261835 0 -0.42570840438552648 0.069014525153441197 0 -0.42263029053480022 0.08100419994409537 0 -0.43771214632371869 0.056679789491300703 0 -0.42570840438552648 0.069014525153441197 0 -0.43625592806895441 0.085723811597183605 0 -0.43771214632371869 0.056679789491300703 0 -0.43625592806895441 0.085723811597183605 0 -0.42570840438552648 0.069014525153441197 0 -0.42263029053480022 0.08100419994409537 0 -0.43625592806895441 0.085723811597183605 0 -0.42501176243114319 0.08968168998896632 0 -0.43625592806895441 0.085723811597183605 0 -0.42524669663926001 0.098828932841224182 0 -0.42263029053480022 0.08100419994409537 0 -0.43625592806895441 0.085723811597183605 0 -0.42501176243114319 0.08968168998896632 0 -0.42263029053480022 0.08100419994409537 0 -0.43625592806895441 0.085723811597183605 0 -0.43625592806895441 0.085723811597183605 0 -0.42524669663926001 0.098828932841224182 0 -0.43496657526210852 0.11143973110427551 0 -0.42524669663926001 0.098828932841224182 0 -0.41860523306393588 0.1113429531862051 0 -0.43496657526210852 0.11143973110427551 0 -0.43625592806895441 0.085723811597183605 0 -0.43496657526210852 0.11143973110427551 0 -0.41591413448155878 0.093169815573362125 0 -0.42501176243114319 0.08968168998896632 0 -0.42524669663926001 0.098828932841224182 0 -0.41591413448155878 0.093169815573362125 0 -0.42524669663926001 0.098828932841224182 0 -0.416622369635195 0.10185408660447171 0 -0.416622369635195 0.10185408660447171 0 -0.40812993779118117 0.10341856970591549 0 -0.41860523306393588 0.1113429531862051 0 -0.42524669663926001 0.098828932841224182 0 -0.416622369635195 0.10185408660447171 0 -0.41860523306393588 0.1113429531862051 0 -0.40524132183882888 0.09319673854028325 0 -0.41591413448155878 0.093169815573362125 0 -0.40812993779118117 0.10341856970591549 0 -0.41591413448155878 0.093169815573362125 0 -0.416622369635195 0.10185408660447171 0 -0.40812993779118117 0.10341856970591549 0 -0.40332062881630421 0.11476412144982009 0 -0.41262360058489639 0.12366733994261921 0 -0.41860523306393588 0.1113429531862051 0 -0.40332062881630421 0.11476412144982009 0 -0.40812993779118117 0.10341856970591549 0 -0.41860523306393588 0.1113429531862051 0 -0.41262360058489639 0.12366733994261921 0 -0.41860523306393588 0.1113429531862051 0 -0.42358325522563589 0.1246704569487012 0 -0.41860523306393588 0.1113429531862051 0 -0.42358325522563589 0.1246704569487012 0 -0.43496657526210852 0.11143973110427551 0 -0.42358325522563589 0.1246704569487012 0 -0.43496657526210852 0.11143973110427551 0 -0.4343232020537891 0.1242716988560993 0 -0.43496657526210852 0.11143973110427551 0 -0.4343232020537891 0.1242716988560993 0 -0.43496657526210852 0.11143973110427551 0 -0.4343232020537891 0.1242716988560993 0 -0.45196102547808531 0.11800318919087729 0 -0.43496657526210852 0.11143973110427551 0 -0.45196102547808531 0.11800318919087729 0 -0.44745131083153278 0.1019847256655175 0 -0.43625592806895441 0.085723811597183605 0 -0.43496657526210852 0.11143973110427551 0 -0.44745131083153278 0.1019847256655175 0 -0.44745131083153278 0.1019847256655175 0 -0.46434613141226422 0.10768180751345829 0 -0.45750395204597072 0.093083644949242789 0 -0.45196102547808531 0.11800318919087729 0 -0.44745131083153278 0.1019847256655175 0 -0.46434613141226422 0.10768180751345829 0 -0.46434613141226422 0.10768180751345829 0 -0.45750395204597072 0.093083644949242789 0 -0.47875197602298619 0.10044347830130421 0 -0.45750395204597072 0.093083644949242789 0 -0.47875197602298619 0.10044347830130421 0 -0.45196102547808531 0.11800318919087729 0 -0.46434613141226422 0.10768180751345829 0 -0.47570352964768692 0.1213650151678401 0 -0.45196102547808531 0.11800318919087729 0 -0.47570352964768692 0.1213650151678401 0 -0.45657704974698288 0.13562654415373371 0 -0.43771214632371869 0.056679789491300703 0 -0.43625592806895441 0.085723811597183605 0 -0.45290812476500769 0.072000207422029908 0 -0.43625592806895441 0.085723811597183605 0 -0.45290812476500769 0.072000207422029908 0 -0.45750395204597072 0.093083644949242789 0 -0.43625592806895441 0.085723811597183605 0 -0.44745131083153278 0.1019847256655175 0 -0.45750395204597072 0.093083644949242789 0 -0.43625592806895441 0.085723811597183605 0 -0.45750395204597072 0.093083644949242789 0 -0.45290812476500769 0.072000207422029908 0 -0.45750395204597072 0.093083644949242789 0 -0.47467800150980988 0.068895854400337242 0 -0.45479882322040482 0.055007306001233533 0 -0.45290812476500769 0.072000207422029908 0 -0.47467800150980988 0.068895854400337242 0 -0.47467800150980988 0.068895854400337242 0 -0.5 0.082927978114506695 0 -0.47875197602298619 0.10044347830130421 0 -0.45750395204597072 0.093083644949242789 0 -0.47467800150980988 0.068895854400337242 0 -0.47875197602298619 0.10044347830130421 0 -0.5 0.058052644575647287 0 -0.47467800150980988 0.068895854400337242 0 -0.5 0.082927978114506695 0 -0.46434613141226422 0.10768180751345829 0 -0.47570352964768692 0.1213650151678401 0 -0.47875197602298619 0.10044347830130421 0 -0.47875197602298619 0.10044347830130421 0 -0.50000000000000155 0.1078033116533661 0 -0.5 0.082927978114506695 0 -0.47875197602298619 0.10044347830130421 0 -0.50000000000000155 0.1078033116533661 0 -0.47570352964768692 0.1213650151678401 0 -0.50000000000000155 0.1078033116533661 0 -0.5 0.13304257955597831 0 -0.47570352964768692 0.1213650151678401 0 -0.47875197602298619 0.10044347830130421 0 -0.50000000000000155 0.1078033116533661 0 -0.47570352964768692 0.1213650151678401 0 -0.5 0.13304257955597831 0 -0.47828852487349022 0.14695419580616251 0 -0.47570352964768692 0.1213650151678401 0 -0.47828852487349022 0.14695419580616251 0 -0.45657704974698288 0.13562654415373371 0 -0.47828852487349022 0.14695419580616251 0 -0.49999999999999789 0.15828184745859039 0 -0.5 0.13304257955597831 0 -0.47828852487349022 0.14695419580616251 0 -0.49999999999999789 0.15828184745859039 0 -0.47828852487349022 0.14695419580616251 0 -0.49999999999999789 0.15828184745859039 0 -0.47871547205417481 0.17384311784868919 0 -0.49999999999999789 0.15828184745859039 0 -0.5 0.1863380371762936 0 -0.47871547205417481 0.17384311784868919 0 -0.5 0.1863380371762936 0 -0.47871547205417481 0.17384311784868919 0 -0.4771798261465488 0.20085112430596949 0 -0.47871547205417481 0.17384311784868919 0 -0.45429614325121959 0.18730802171794231 0 -0.4771798261465488 0.20085112430596949 0 -0.47828852487349022 0.14695419580616251 0 -0.47871547205417481 0.17384311784868919 0 -0.46252833805379062 0.16332548062717681 0 -0.47871547205417481 0.17384311784868919 0 -0.46252833805379062 0.16332548062717681 0 -0.45429614325121959 0.18730802171794231 0 -0.46252833805379062 0.16332548062717681 0 -0.45429614325121959 0.18730802171794231 0 -0.44836708767251238 0.1708475614755324 0 -0.45429614325121959 0.18730802171794231 0 -0.43141246035589043 0.1737649191299151 0 -0.45429614325121959 0.18730802171794231 0 -0.43223485370969161 0.19001438418202671 0 -0.43141246035589043 0.1737649191299151 0 -0.45429614325121959 0.18730802171794231 0 -0.44836708767251238 0.1708475614755324 0 -0.43141246035589043 0.1737649191299151 0 -0.44645792908648207 0.15632099132395391 0 -0.44836708767251238 0.1708475614755324 0 -0.43141246035589043 0.1737649191299151 0 -0.46252833805379062 0.16332548062717681 0 -0.44645792908648207 0.15632099132395391 0 -0.44836708767251238 0.1708475614755324 0 -0.44645792908648207 0.15632099132395391 0 -0.44104310478609321 0.1460622301218327 0 -0.42746021785564459 0.15514573439827581 0 -0.44645792908648207 0.15632099132395391 0 -0.44104310478609321 0.1460622301218327 0 -0.45657704974698288 0.13562654415373371 0 -0.4343232020537891 0.1242716988560993 0 -0.45196102547808531 0.11800318919087729 0 -0.45657704974698288 0.13562654415373371 0 -0.44104310478609321 0.1460622301218327 0 -0.45657704974698288 0.13562654415373371 0 -0.4336772224552633 0.1371556506113675 0 -0.4343232020537891 0.1242716988560993 0 -0.45657704974698288 0.13562654415373371 0 -0.4336772224552633 0.1371556506113675 0 -0.4343232020537891 0.1242716988560993 0 -0.45657704974698288 0.13562654415373371 0 -0.46252833805379062 0.16332548062717681 0 -0.44645792908648207 0.15632099132395391 0 -0.45657704974698288 0.13562654415373371 0 -0.47828852487349022 0.14695419580616251 0 -0.46252833805379062 0.16332548062717681 0 -0.45657704974698288 0.13562654415373371 0 -0.47828852487349022 0.14695419580616251 0 -0.45657704974698288 0.13562654415373371 0 -0.48064652603017638 0.2486227021841052 0 -0.5 0.24172612675294039 0 -0.47361065793536528 0.2242629873469161 0 -0.5 0.24172612675294039 0 -0.47361065793536528 0.2242629873469161 0 -0.50006350904187813 0.21439422689399679 0 -0.47361065793536528 0.2242629873469161 0 -0.50006350904187813 0.21439422689399679 0 -0.4771798261465488 0.20085112430596949 0 -0.47361065793536528 0.2242629873469161 0 -0.4771798261465488 0.20085112430596949 0 -0.46001763819585739 0.20551204668772821 0 -0.50006350904187813 0.21439422689399679 0 -0.4771798261465488 0.20085112430596949 0 -0.5 0.1863380371762936 0 -0.50006350904187813 0.21439422689399679 0 -0.4771798261465488 0.20085112430596949 0 -0.45429614325121959 0.18730802171794231 0 -0.4771798261465488 0.20085112430596949 0 -0.46001763819585739 0.20551204668772821 0 -0.45429614325121959 0.18730802171794231 0 -0.4771798261465488 0.20085112430596949 0 -0.45429614325121959 0.18730802171794231 0 -0.44524321652147753 0.20187657101157541 0 -0.46001763819585739 0.20551204668772821 0 -0.45429614325121959 0.18730802171794231 0 -0.44524321652147753 0.20187657101157541 0 -0.43223485370969161 0.19001438418202671 0 -0.44524321652147753 0.20187657101157541 0 -0.46001763819585739 0.20551204668772821 0 -0.44723890690729179 0.21898287826874291 0 -0.44524321652147753 0.20187657101157541 0 -0.44723890690729179 0.21898287826874291 0 -0.43190365716470519 0.20875747195404221 0 -0.47361065793536528 0.2242629873469161 0 -0.46001763819585739 0.20551204668772821 0 -0.44723890690729179 0.21898287826874291 0 -0.47361065793536528 0.2242629873469161 0 -0.44723890690729179 0.21898287826874291 0 -0.44966682488906112 0.24094375408753541 0 -0.44723890690729179 0.21898287826874291 0 -0.44966682488906112 0.24094375408753541 0 -0.42428092472507911 0.23146588104676011 0 -0.48064652603017638 0.2486227021841052 0 -0.47361065793536528 0.2242629873469161 0 -0.44966682488906112 0.24094375408753541 0 -0.44966682488906112 0.24094375408753541 0 -0.42428092472507911 0.23146588104676011 0 -0.43013776590962011 0.26499420446988969 0 -0.42428092472507911 0.23146588104676011 0 -0.39518783510228028 0.22640289795929811 0 -0.4033433644076177 0.2537704706891048 0 -0.44723890690729179 0.21898287826874291 0 -0.42428092472507911 0.23146588104676011 0 -0.43190365716470519 0.20875747195404221 0 -0.42428092472507911 0.23146588104676011 0 -0.413711344405986 0.20820864107066239 0 -0.39518783510228028 0.22640289795929811 0 -0.42428092472507911 0.23146588104676011 0 -0.413711344405986 0.20820864107066239 0 -0.43190365716470519 0.20875747195404221 0 -0.413711344405986 0.20820864107066239 0 -0.43190365716470519 0.20875747195404221 0 -0.43223485370969161 0.19001438418202671 0 -0.413711344405986 0.20820864107066239 0 -0.43223485370969161 0.19001438418202671 0 -0.44524321652147753 0.20187657101157541 0 -0.43190365716470519 0.20875747195404221 0 -0.43223485370969161 0.19001438418202671 0 -0.413711344405986 0.20820864107066239 0 -0.43223485370969161 0.19001438418202671 0 -0.41050764118978278 0.18587186463612501 0 -0.413711344405986 0.20820864107066239 0 -0.38572420066037583 0.20472932847282951 0 -0.41050764118978278 0.18587186463612501 0 -0.38572420066037583 0.20472932847282951 0 -0.41050764118978278 0.18587186463612501 0 -0.38957171598313761 0.17837084353915181 0 -0.38572420066037583 0.20472932847282951 0 -0.38957171598313761 0.17837084353915181 0 -0.37291407591843101 0.18484957255806561 0 -0.38572420066037583 0.20472932847282951 0 -0.38180229013724148 0.22447774546910251 0 -0.3696327989877356 0.22218160059634881 0 -0.38572420066037583 0.20472932847282951 0 -0.39518783510228028 0.22640289795929811 0 -0.38180229013724148 0.22447774546910251 0 -0.413711344405986 0.20820864107066239 0 -0.38572420066037583 0.20472932847282951 0 -0.39518783510228028 0.22640289795929811 0 -0.413711344405986 0.20820864107066239 0 -0.39518783510228028 0.22640289795929811 0 -0.39518783510228028 0.22640289795929811 0 -0.38180229013724148 0.22447774546910251 0 -0.37666432579857417 0.24459715484793351 0 -0.38180229013724148 0.22447774546910251 0 -0.37666432579857417 0.24459715484793351 0 -0.3696327989877356 0.22218160059634881 0 -0.39518783510228028 0.22640289795929811 0 -0.37666432579857417 0.24459715484793351 0 -0.39518783510228028 0.22640289795929811 0 -0.37666432579857417 0.24459715484793351 0 -0.4033433644076177 0.2537704706891048 0 -0.41553208747316828 0.13960399705722831 0 -0.40852877746056132 0.16022181654188791 0 -0.39749513664940028 0.14617188559269781 0 -0.41553208747316828 0.13960399705722831 0 -0.42746021785564459 0.15514573439827581 0 -0.40852877746056132 0.16022181654188791 0 -0.41262360058489639 0.12366733994261921 0 -0.42358325522563589 0.1246704569487012 0 -0.41553208747316828 0.13960399705722831 0 -0.41262360058489639 0.12366733994261921 0 -0.41553208747316828 0.13960399705722831 0 -0.40015099198154008 0.12979398768763711 0 -0.42358325522563589 0.1246704569487012 0 -0.41553208747316828 0.13960399705722831 0 -0.4336772224552633 0.1371556506113675 0 -0.42358325522563589 0.1246704569487012 0 -0.4343232020537891 0.1242716988560993 0 -0.4336772224552633 0.1371556506113675 0 -0.4343232020537891 0.1242716988560993 0 -0.4336772224552633 0.1371556506113675 0 -0.41553208747316828 0.13960399705722831 0 -0.4336772224552633 0.1371556506113675 0 -0.42746021785564459 0.15514573439827581 0 -0.44104310478609321 0.1460622301218327 0 -0.4336772224552633 0.1371556506113675 0 -0.42746021785564459 0.15514573439827581 0 -0.42746021785564459 0.15514573439827581 0 -0.43141246035589043 0.1737649191299151 0 -0.40852877746056132 0.16022181654188791 0 -0.44645792908648207 0.15632099132395391 0 -0.42746021785564459 0.15514573439827581 0 -0.43141246035589043 0.1737649191299151 0 -0.43223485370969161 0.19001438418202671 0 -0.43141246035589043 0.1737649191299151 0 -0.41050764118978278 0.18587186463612501 0 -0.43141246035589043 0.1737649191299151 0 -0.41050764118978278 0.18587186463612501 0 -0.40852877746056132 0.16022181654188791 0 -0.43141246035589043 0.1737649191299151 0 -0.40852877746056132 0.16022181654188791 0 -0.40852877746056132 0.16022181654188791 0 -0.38957171598313761 0.17837084353915181 0 -0.37920666077272341 0.1629140985414653 0 -0.40852877746056132 0.16022181654188791 0 -0.37920666077272341 0.1629140985414653 0 -0.39749513664940028 0.14617188559269781 0 -0.41050764118978278 0.18587186463612501 0 -0.40852877746056132 0.16022181654188791 0 -0.38957171598313761 0.17837084353915181 0 -0.38957171598313761 0.17837084353915181 0 -0.37291407591843101 0.18484957255806561 0 -0.37117866885953488 0.17202366673085659 0 -0.38957171598313761 0.17837084353915181 0 -0.37920666077272341 0.1629140985414653 0 -0.37117866885953488 0.17202366673085659 0 -0.37920666077272341 0.1629140985414653 0 -0.38405716555900832 0.13832552813527019 0 -0.37018626450847453 0.15096445833262601 0 -0.37920666077272341 0.1629140985414653 0 -0.39749513664940028 0.14617188559269781 0 -0.38405716555900832 0.13832552813527019 0 -0.37920666077272341 0.1629140985414653 0 -0.38405716555900832 0.13832552813527019 0 -0.39749513664940028 0.14617188559269781 0 -0.40015099198154008 0.12979398768763711 0 -0.38405716555900832 0.13832552813527019 0 -0.38890767034529311 0.11373695772907511 0 -0.40015099198154008 0.12979398768763711 0 -0.38405716555900832 0.13832552813527019 0 -0.41553208747316828 0.13960399705722831 0 -0.39749513664940028 0.14617188559269781 0 -0.40015099198154008 0.12979398768763711 0 -0.38890767034529311 0.11373695772907511 0 -0.38405716555900832 0.13832552813527019 0 -0.38405716555900832 0.13832552813527019 0 -0.3555907844222207 0.13541383061628229 0 -0.37062744037481132 0.1135505395145804 0 -0.3555907844222207 0.13541383061628229 0 -0.33496713007716389 0.13557861822198111 0 -0.34164735892785042 0.1246113669834655 0 -0.3555907844222207 0.13541383061628229 0 -0.35205843378173363 0.1166915262502598 0 -0.34164735892785042 0.1246113669834655 0 -0.3555907844222207 0.13541383061628229 0 -0.3405541284696284 0.15727712171798311 0 -0.33889949039224448 0.14426851464531379 0 -0.3555907844222207 0.13541383061628229 0 -0.3405541284696284 0.15727712171798311 0 -0.3555907844222207 0.13541383061628229 0 -0.35774121449257951 0.15546965378809571 0 -0.3405541284696284 0.15727712171798311 0 -0.3555907844222207 0.13541383061628229 0 -0.35774121449257951 0.15546965378809571 0 -0.37018626450847453 0.15096445833262601 0 -0.38405716555900832 0.13832552813527019 0 -0.3555907844222207 0.13541383061628229 0 -0.37018626450847453 0.15096445833262601 0 -0.37920666077272341 0.1629140985414653 0 -0.37018626450847453 0.15096445833262601 0 -0.36638163454642408 0.162522490922347 0 -0.37920666077272341 0.1629140985414653 0 -0.36638163454642408 0.162522490922347 0 -0.37117866885953488 0.17202366673085659 0 -0.36638163454642408 0.162522490922347 0 -0.37117866885953488 0.17202366673085659 0 -0.35673410219402962 0.1710633471380244 0 -0.35774121449257951 0.15546965378809571 0 -0.36638163454642408 0.162522490922347 0 -0.35673410219402962 0.1710633471380244 0 -0.35774121449257951 0.15546965378809571 0 -0.37018626450847453 0.15096445833262601 0 -0.36638163454642408 0.162522490922347 0 -0.37291407591843101 0.18484957255806561 0 -0.3555697453660609 0.17735049209317891 0 -0.35673410219402962 0.1710633471380244 0 -0.37291407591843101 0.18484957255806561 0 -0.37117866885953488 0.17202366673085659 0 -0.35673410219402962 0.1710633471380244 0 -0.37291407591843101 0.18484957255806561 0 -0.3555697453660609 0.17735049209317891 0 -0.36260127217689819 0.19976604634476389 0 -0.37291407591843101 0.18484957255806561 0 -0.35673410219402962 0.1710633471380244 0 -0.3555697453660609 0.17735049209317891 0 -0.35673410219402962 0.1710633471380244 0 -0.3481088351337574 0.17188357940417581 0 -0.34619413988859382 0.18135847507283609 0 -0.3481088351337574 0.17188357940417581 0 -0.34149205975047459 0.172368460998856 0 -0.3555697453660609 0.17735049209317891 0 -0.34619413988859382 0.18135847507283609 0 -0.3481088351337574 0.17188357940417581 0 -0.3555697453660609 0.17735049209317891 0 -0.34619413988859382 0.18135847507283609 0 -0.35108699713028241 0.19205033216183681 0 -0.35673410219402962 0.1710633471380244 0 -0.3481088351337574 0.17188357940417581 0 -0.3405541284696284 0.15727712171798311 0 -0.35774121449257951 0.15546965378809571 0 -0.35673410219402962 0.1710633471380244 0 -0.3405541284696284 0.15727712171798311 0 -0.35673410219402962 0.1710633471380244 0 -0.3405541284696284 0.15727712171798311 0 -0.3405541284696284 0.15727712171798311 0 -0.32612753951186219 0.1562951819447739 0 -0.32174986418006551 0.16638745999021201 0 -0.3405541284696284 0.15727712171798311 0 -0.3252618320341486 0.1795121139686944 0 -0.32174986418006551 0.16638745999021201 0 -0.3405541284696284 0.15727712171798311 0 -0.3252618320341486 0.1795121139686944 0 -0.3405541284696284 0.15727712171798311 0 -0.34149205975047459 0.172368460998856 0 -0.3252618320341486 0.1795121139686944 0 -0.3481088351337574 0.17188357940417581 0 -0.3405541284696284 0.15727712171798311 0 -0.34149205975047459 0.172368460998856 0 -0.33612764788426752 0.18472276974472429 0 -0.3252618320341486 0.1795121139686944 0 -0.32615939245525261 0.19630980424723449 0 -0.33612764788426752 0.18472276974472429 0 -0.34149205975047459 0.172368460998856 0 -0.3252618320341486 0.1795121139686944 0 -0.34619413988859382 0.18135847507283609 0 -0.33612764788426752 0.18472276974472429 0 -0.341530815292868 0.19406499443600031 0 -0.34619413988859382 0.18135847507283609 0 -0.33612764788426752 0.18472276974472429 0 -0.34149205975047459 0.172368460998856 0 -0.3252618320341486 0.1795121139686944 0 -0.31465203273049258 0.17531894010452881 0 -0.30733920091382311 0.18585259958589409 0 -0.3252618320341486 0.1795121139686944 0 -0.31465203273049258 0.17531894010452881 0 -0.32174986418006551 0.16638745999021201 0 -0.31465203273049258 0.17531894010452881 0 -0.32174986418006551 0.16638745999021201 0 -0.30407708566990671 0.17103863135576461 0 -0.32174986418006551 0.16638745999021201 0 -0.30407708566990671 0.17103863135576461 0 -0.32174986418006551 0.16638745999021201 0 -0.31528758498741732 0.15816961609006089 0 -0.30407708566990671 0.17103863135576461 0 -0.32612753951186219 0.1562951819447739 0 -0.32174986418006551 0.16638745999021201 0 -0.31528758498741732 0.15816961609006089 0 -0.31528758498741732 0.15816961609006089 0 -0.32649808430492971 0.14530060082435869 0 -0.31154670520669508 0.14571536314965619 0 -0.32612753951186219 0.1562951819447739 0 -0.31528758498741732 0.15816961609006089 0 -0.32649808430492971 0.14530060082435869 0 -0.31528758498741732 0.15816961609006089 0 -0.32649808430492971 0.14530060082435869 0 -0.32649808430492971 0.14530060082435869 0 -0.30965658215094899 0.13095071688377299 0 -0.31154670520669508 0.14571536314965619 0 -0.32649808430492971 0.14530060082435869 0 -0.30965658215094899 0.13095071688377299 0 -0.32649808430492971 0.14530060082435869 0 -0.32400912083201139 0.1309778834931685 0 -0.30965658215094899 0.13095071688377299 0 -0.32400912083201139 0.1309778834931685 0 -0.30965658215094899 0.13095071688377299 0 -0.32025275660767177 0.1223443448645547 0 -0.32400912083201139 0.1309778834931685 0 -0.3304308193851393 0.1243365102719818 0 -0.32025275660767177 0.1223443448645547 0 -0.3555907844222207 0.13541383061628229 0 -0.33496713007716389 0.13557861822198111 0 -0.33889949039224448 0.14426851464531379 0 -0.32649808430492971 0.14530060082435869 0 -0.32400912083201139 0.1309778834931685 0 -0.33496713007716389 0.13557861822198111 0 -0.32649808430492971 0.14530060082435869 0 -0.33496713007716389 0.13557861822198111 0 -0.33496713007716389 0.13557861822198111 0 -0.34164735892785042 0.1246113669834655 0 -0.3304308193851393 0.1243365102719818 0 -0.32400912083201139 0.1309778834931685 0 -0.33496713007716389 0.13557861822198111 0 -0.3304308193851393 0.1243365102719818 0 -0.3405541284696284 0.15727712171798311 0 -0.32649808430492971 0.14530060082435869 0 -0.33889949039224448 0.14426851464531379 0 -0.3405541284696284 0.15727712171798311 0 -0.32649808430492971 0.14530060082435869 0 -0.3405541284696284 0.15727712171798311 0 -0.32612753951186219 0.1562951819447739 0 -0.32649808430492971 0.14530060082435869 0 -0.32649808430492971 0.14530060082435869 0 -0.33496713007716389 0.13557861822198111 0 -0.33889949039224448 0.14426851464531379 0 -0.3498073679347618 0.23763989950339201 0 -0.36484703261806101 0.2458252011169493 0 -0.35117221935285259 0.2524801087882575 0 -0.3498073679347618 0.23763989950339201 0 -0.36484703261806101 0.2458252011169493 0 -0.36689048239932298 0.23535247248960109 0 -0.37666432579857417 0.24459715484793351 0 -0.36484703261806101 0.2458252011169493 0 -0.37109006168154468 0.24276633889441671 0 -0.37666432579857417 0.24459715484793351 0 -0.37109006168154468 0.24276633889441671 0 -0.36689048239932298 0.23535247248960109 0 -0.36484703261806101 0.2458252011169493 0 -0.37109006168154468 0.24276633889441671 0 -0.36689048239932298 0.23535247248960109 0 -0.37666432579857417 0.24459715484793351 0 -0.36689048239932298 0.23535247248960109 0 -0.3696327989877356 0.22218160059634881 0 -0.37666432579857417 0.24459715484793351 0 -0.3696327989877356 0.22218160059634881 0 -0.3498073679347618 0.23763989950339201 0 -0.36689048239932298 0.23535247248960109 0 -0.3696327989877356 0.22218160059634881 0 -0.3498073679347618 0.23763989950339201 0 -0.3696327989877356 0.22218160059634881 0 -0.34067429588685999 0.22302305589334559 0 -0.3696327989877356 0.22218160059634881 0 -0.34953901292699108 0.20771165286240481 0 -0.34067429588685999 0.22302305589334559 0 -0.38572420066037583 0.20472932847282951 0 -0.3696327989877356 0.22218160059634881 0 -0.36260127217689819 0.19976604634476389 0 -0.3696327989877356 0.22218160059634881 0 -0.34953901292699108 0.20771165286240481 0 -0.36260127217689819 0.19976604634476389 0 -0.3696327989877356 0.22218160059634881 0 -0.36260127217689819 0.19976604634476389 0 -0.38572420066037583 0.20472932847282951 0 -0.37291407591843101 0.18484957255806561 0 -0.36260127217689819 0.19976604634476389 0 -0.3555697453660609 0.17735049209317891 0 -0.36260127217689819 0.19976604634476389 0 -0.35108699713028241 0.19205033216183681 0 -0.34953901292699108 0.20771165286240481 0 -0.35108699713028241 0.19205033216183681 0 -0.341530815292868 0.19406499443600031 0 -0.34953901292699108 0.20771165286240481 0 -0.36260127217689819 0.19976604634476389 0 -0.35108699713028241 0.19205033216183681 0 -0.3555697453660609 0.17735049209317891 0 -0.36260127217689819 0.19976604634476389 0 -0.34619413988859382 0.18135847507283609 0 -0.35108699713028241 0.19205033216183681 0 -0.341530815292868 0.19406499443600031 0 -0.341530815292868 0.19406499443600031 0 -0.32615939245525261 0.19630980424723449 0 -0.33573022670748037 0.20787686077439499 0 -0.33612764788426752 0.18472276974472429 0 -0.341530815292868 0.19406499443600031 0 -0.32615939245525261 0.19630980424723449 0 -0.3252618320341486 0.1795121139686944 0 -0.30996953559866719 0.2017471062194045 0 -0.3252618320341486 0.1795121139686944 0 -0.32615939245525261 0.19630980424723449 0 -0.30996953559866719 0.2017471062194045 0 -0.3252618320341486 0.1795121139686944 0 -0.30996953559866719 0.2017471062194045 0 -0.30733920091382311 0.18585259958589409 0 -0.32615939245525261 0.19630980424723449 0 -0.32074761697543053 0.21827479643298961 0 -0.33573022670748037 0.20787686077439499 0 -0.32615939245525261 0.19630980424723449 0 -0.32074761697543053 0.21827479643298961 0 -0.30996953559866719 0.2017471062194045 0 -0.32074761697543053 0.21827479643298961 0 -0.33573022670748037 0.20787686077439499 0 -0.34067429588685999 0.22302305589334559 0 -0.34953901292699108 0.20771165286240481 0 -0.341530815292868 0.19406499443600031 0 -0.33573022670748037 0.20787686077439499 0 -0.34953901292699108 0.20771165286240481 0 -0.33573022670748037 0.20787686077439499 0 -0.34067429588685999 0.22302305589334559 0 -0.32074761697543053 0.21827479643298961 0 -0.34067429588685999 0.22302305589334559 0 -0.32379916505428818 0.24808657348438179 0 -0.32074761697543053 0.21827479643298961 0 -0.32379916505428818 0.24808657348438179 0 -0.3026674531916953 0.2272768952065593 0 -0.32379916505428818 0.24808657348438179 0 -0.3026674531916953 0.2272768952065593 0 -0.3498073679347618 0.23763989950339201 0 -0.34067429588685999 0.22302305589334559 0 -0.32379916505428818 0.24808657348438179 0 -0.3498073679347618 0.23763989950339201 0 -0.32379916505428818 0.24808657348438179 0 -0.35117221935285259 0.2524801087882575 0 -0.28830756271764091 0.24557795487267961 0 -0.30506580912407988 0.2452115703415513 0 -0.3026674531916953 0.2272768952065593 0 -0.32379916505428818 0.24808657348438179 0 -0.30506580912407988 0.2452115703415513 0 -0.3026674531916953 0.2272768952065593 0 -0.32074761697543053 0.21827479643298961 0 -0.3026674531916953 0.2272768952065593 0 -0.30557004544464778 0.21429792781496629 0 -0.3026674531916953 0.2272768952065593 0 -0.29777725450251968 0.21539655308508421 0 -0.30557004544464778 0.21429792781496629 0 -0.28830756271764091 0.24557795487267961 0 -0.2892601763163829 0.2186462574691681 0 -0.2733193554642746 0.2294929034799833 0 -0.3026674531916953 0.2272768952065593 0 -0.2892601763163829 0.2186462574691681 0 -0.29777725450251968 0.21539655308508421 0 -0.28830756271764091 0.24557795487267961 0 -0.3026674531916953 0.2272768952065593 0 -0.2892601763163829 0.2186462574691681 0 -0.28830756271764091 0.24557795487267961 0 -0.2892601763163829 0.2186462574691681 0 -0.29412161758298361 0.20337406287019841 0 -0.2892601763163829 0.2186462574691681 0 -0.29021278991512489 0.1917145600656566 0 -0.28828505362570112 0.21510897254973979 0 -0.2892601763163829 0.2186462574691681 0 -0.29021278991512489 0.1917145600656566 0 -0.2892601763163829 0.2186462574691681 0 -0.29021278991512489 0.1917145600656566 0 -0.28828505362570112 0.21510897254973979 0 -0.2892601763163829 0.2186462574691681 0 -0.28012727146155442 0.21845335331480731 0 -0.29412161758298361 0.20337406287019841 0 -0.2892601763163829 0.2186462574691681 0 -0.29742045035449072 0.20630636473668379 0 -0.2892601763163829 0.2186462574691681 0 -0.29777725450251968 0.21539655308508421 0 -0.29742045035449072 0.20630636473668379 0 -0.29777725450251968 0.21539655308508421 0 -0.30557004544464778 0.21429792781496629 0 -0.29742045035449072 0.20630636473668379 0 -0.32074761697543053 0.21827479643298961 0 -0.30557004544464778 0.21429792781496629 0 -0.30996953559866719 0.2017471062194045 0 -0.30557004544464778 0.21429792781496629 0 -0.29742045035449072 0.20630636473668379 0 -0.30996953559866719 0.2017471062194045 0 -0.29959305374593609 0.1968290692092852 0 -0.30996953559866719 0.2017471062194045 0 -0.30733920091382311 0.18585259958589409 0 -0.29742045035449072 0.20630636473668379 0 -0.29959305374593609 0.1968290692092852 0 -0.30996953559866719 0.2017471062194045 0 -0.29412161758298361 0.20337406287019841 0 -0.29742045035449072 0.20630636473668379 0 -0.29959305374593609 0.1968290692092852 0 -0.29959305374593609 0.1968290692092852 0 -0.29021278991512489 0.1917145600656566 0 -0.30733920091382311 0.18585259958589409 0 -0.28828505362570112 0.21510897254973979 0 -0.29021278991512489 0.1917145600656566 0 -0.28375078425889189 0.20204769198344649 0 -0.29412161758298361 0.20337406287019841 0 -0.29959305374593609 0.1968290692092852 0 -0.29021278991512489 0.1917145600656566 0 -0.29021278991512489 0.1917145600656566 0 -0.28375078425889189 0.20204769198344649 0 -0.2868607930548826 0.19080195555805149 0 -0.28375078425889189 0.20204769198344649 0 -0.2868607930548826 0.19080195555805149 0 -0.26964450043985899 0.21056527976033881 0 -0.27303715048669341 0.18965015938715221 0 -0.26964450043985899 0.21056527976033881 0 -0.25827636085937339 0.1830925944401752 0 -0.2868607930548826 0.19080195555805149 0 -0.27303715048669341 0.18965015938715221 0 -0.26964450043985899 0.21056527976033881 0 -0.2868607930548826 0.19080195555805149 0 -0.26964450043985899 0.21056527976033881 0 -0.26964450043985899 0.21056527976033881 0 -0.25827636085937339 0.1830925944401752 0 -0.2416772434028289 0.20374817391205191 0 -0.26964450043985899 0.21056527976033881 0 -0.25406663564760762 0.22844778205935701 0 -0.2479927643128377 0.20791230204745789 0 -0.26964450043985899 0.21056527976033881 0 -0.2416772434028289 0.20374817391205191 0 -0.26964450043985899 0.21056527976033881 0 -0.2416772434028289 0.20374817391205191 0 -0.2479927643128377 0.20791230204745789 0 -0.28828505362570112 0.21510897254973979 0 -0.28375078425889189 0.20204769198344649 0 -0.26964450043985899 0.21056527976033881 0 -0.28828505362570112 0.21510897254973979 0 -0.26964450043985899 0.21056527976033881 0 -0.28012727146155442 0.21845335331480731 0 -0.28828505362570112 0.21510897254973979 0 -0.26964450043985899 0.21056527976033881 0 -0.2892601763163829 0.2186462574691681 0 -0.28012727146155442 0.21845335331480731 0 -0.2733193554642746 0.2294929034799833 0 -0.26964450043985899 0.21056527976033881 0 -0.2733193554642746 0.2294929034799833 0 -0.25406663564760762 0.22844778205935701 0 -0.26964450043985899 0.21056527976033881 0 -0.28012727146155442 0.21845335331480731 0 -0.2733193554642746 0.2294929034799833 0 -0.26964450043985899 0.21056527976033881 0 -0.25406663564760762 0.22844778205935701 0 -0.2733193554642746 0.2294929034799833 0 -0.25406663564760762 0.22844778205935701 0 -0.2585424856742547 0.24272475909532731 0 -0.2585424856742547 0.24272475909532731 0 -0.26292185998712631 0.25941996831728192 0 -0.23848877085535369 0.2463302843583732 0 -0.25406663564760762 0.22844778205935701 0 -0.2585424856742547 0.24272475909532731 0 -0.23848877085535369 0.2463302843583732 0 -0.28830756271764091 0.24557795487267961 0 -0.2733193554642746 0.2294929034799833 0 -0.27408924259243911 0.24994504760829259 0 -0.2733193554642746 0.2294929034799833 0 -0.2585424856742547 0.24272475909532731 0 -0.27408924259243911 0.24994504760829259 0 -0.29787535584117281 0.14130702044549801 0 -0.30583124773385528 0.1532853735875338 0 -0.27638796344731442 0.15153661035345181 0 -0.30583124773385528 0.1532853735875338 0 -0.27638796344731442 0.15153661035345181 0 -0.28603808421416549 0.1371803909648944 0 -0.29787535584117281 0.14130702044549801 0 -0.27638796344731442 0.15153661035345181 0 -0.30583124773385528 0.1532853735875338 0 -0.28657022628340911 0.1638238600572377 0 -0.27638796344731442 0.15153661035345181 0 -0.28603808421416549 0.1371803909648944 0 -0.28299091854797759 0.12699181272699131 0 -0.2936223559799373 0.13061018841299299 0 -0.28603808421416549 0.1371803909648944 0 -0.2936223559799373 0.13061018841299299 0 -0.29787535584117281 0.14130702044549801 0 -0.2936223559799373 0.13061018841299299 0 -0.30965658215094899 0.13095071688377299 0 -0.29281507999696849 0.1166008329431874 0 -0.2936223559799373 0.13061018841299299 0 -0.30965658215094899 0.13095071688377299 0 -0.29787535584117281 0.14130702044549801 0 -0.30965658215094899 0.13095071688377299 0 -0.31154670520669508 0.14571536314965619 0 -0.29787535584117281 0.14130702044549801 0 -0.31154670520669508 0.14571536314965619 0 -0.29787535584117281 0.14130702044549801 0 -0.30583124773385528 0.1532853735875338 0 -0.31528758498741732 0.15816961609006089 0 -0.31154670520669508 0.14571536314965619 0 -0.30583124773385528 0.1532853735875338 0 -0.31528758498741732 0.15816961609006089 0 -0.30583124773385528 0.1532853735875338 0 -0.30407708566990671 0.17103863135576461 0 -0.30583124773385528 0.1532853735875338 0 -0.30407708566990671 0.17103863135576461 0 -0.28657022628340911 0.1638238600572377 0 -0.31528758498741732 0.15816961609006089 0 -0.30407708566990671 0.17103863135576461 0 -0.29021278991512489 0.1917145600656566 0 -0.30407708566990671 0.17103863135576461 0 -0.30733920091382311 0.18585259958589409 0 -0.31465203273049258 0.17531894010452881 0 -0.30407708566990671 0.17103863135576461 0 -0.30733920091382311 0.18585259958589409 0 -0.2868607930548826 0.19080195555805149 0 -0.30407708566990671 0.17103863135576461 0 -0.30407708566990671 0.17103863135576461 0 -0.28117672326464033 0.17706561289797071 0 -0.2868607930548826 0.19080195555805149 0 -0.30407708566990671 0.17103863135576461 0 -0.28117672326464033 0.17706561289797071 0 -0.29021278991512489 0.1917145600656566 0 -0.2868607930548826 0.19080195555805149 0 -0.30407708566990671 0.17103863135576461 0 -0.30407708566990671 0.17103863135576461 0 -0.28657022628340911 0.1638238600572377 0 -0.28117672326464033 0.17706561289797071 0 -0.28657022628340911 0.1638238600572377 0 -0.28117672326464033 0.17706561289797071 0 -0.2653781113013286 0.16619307209146589 0 -0.28657022628340911 0.1638238600572377 0 -0.2653781113013286 0.16619307209146589 0 -0.27638796344731442 0.15153661035345181 0 -0.27303715048669341 0.18965015938715221 0 -0.28117672326464033 0.17706561289797071 0 -0.25827636085937339 0.1830925944401752 0 -0.28117672326464033 0.17706561289797071 0 -0.25827636085937339 0.1830925944401752 0 -0.28117672326464033 0.17706561289797071 0 -0.25827636085937339 0.1830925944401752 0 -0.2653781113013286 0.16619307209146589 0 -0.2868607930548826 0.19080195555805149 0 -0.27303715048669341 0.18965015938715221 0 -0.28117672326464033 0.17706561289797071 0 -0.25827636085937339 0.1830925944401752 0 -0.2653781113013286 0.16619307209146589 0 -0.2451331807401034 0.16958755419389371 0 -0.2653781113013286 0.16619307209146589 0 -0.24694467916077331 0.14978784711936979 0 -0.2451331807401034 0.16958755419389371 0 -0.2653781113013286 0.16619307209146589 0 -0.27638796344731442 0.15153661035345181 0 -0.24694467916077331 0.14978784711936979 0 -0.27638796344731442 0.15153661035345181 0 -0.25994915888458059 0.13710235015300901 0 -0.24694467916077331 0.14978784711936979 0 -0.27638796344731442 0.15153661035345181 0 -0.24694467916077331 0.14978784711936979 0 -0.27638796344731442 0.15153661035345181 0 -0.27433219621254301 0.13637580691796591 0 -0.25994915888458059 0.13710235015300901 0 -0.28603808421416549 0.1371803909648944 0 -0.27638796344731442 0.15153661035345181 0 -0.27433219621254301 0.13637580691796591 0 -0.28299091854797759 0.12699181272699131 0 -0.27433219621254301 0.13637580691796591 0 -0.26999747491226528 0.1245674752706618 0 -0.28603808421416549 0.1371803909648944 0 -0.28299091854797759 0.12699181272699131 0 -0.27433219621254301 0.13637580691796591 0 -0.27433219621254301 0.13637580691796591 0 -0.25994915888458059 0.13710235015300901 0 -0.26999747491226528 0.1245674752706618 0 -0.25994915888458059 0.13710235015300901 0 -0.2485103830577845 0.13360273470286391 0 -0.24694467916077331 0.14978784711936979 0 -0.25994915888458059 0.13710235015300901 0 -0.25765129815171239 0.12695443554106281 0 -0.26999747491226528 0.1245674752706618 0 -0.25994915888458059 0.13710235015300901 0 -0.25765129815171239 0.12695443554106281 0 -0.2485103830577845 0.13360273470286391 0 -0.25765129815171239 0.12695443554106281 0 -0.25021589487386009 0.1217627967739804 0 -0.2485103830577845 0.13360273470286391 0 -0.25021589487386009 0.1217627967739804 0 -0.25958357903007179 0.11773682080479909 0 -0.24730766349430119 0.11776489044562111 0 -0.25765129815171239 0.12695443554106281 0 -0.25021589487386009 0.1217627967739804 0 -0.25958357903007179 0.11773682080479909 0 -0.25486013107866828 0.1087134975906747 0 -0.25832574523197749 0.10647479314312019 0 -0.24730766349430119 0.11776489044562111 0 -0.25958357903007179 0.11773682080479909 0 -0.25832574523197749 0.10647479314312019 0 -0.24730766349430119 0.11776489044562111 0 -0.25832574523197749 0.10647479314312019 0 -0.24730766349430119 0.11776489044562111 0 -0.25486013107866828 0.1087134975906747 0 -0.24997009747084009 0.1096221427284915 0 -0.24730766349430119 0.11776489044562111 0 -0.25958357903007179 0.11773682080479909 0 -0.25832574523197749 0.10647479314312019 0 -0.27327358887368108 0.1085114129392019 0 -0.25765129815171239 0.12695443554106281 0 -0.25958357903007179 0.11773682080479909 0 -0.26999747491226528 0.1245674752706618 0 -0.25121874698990321 0.099274658180543388 0 -0.25832574523197749 0.10647479314312019 0 -0.25990685410508302 0.096280189135135197 0 -0.25121874698990321 0.099274658180543388 0 -0.25990685410508302 0.096280189135135197 0 -0.25523928785414762 0.089221309932465798 0 -0.25121874698990321 0.099274658180543388 0 -0.25177912818774689 0.1056966606388251 0 -0.25832574523197749 0.10647479314312019 0 -0.25177912818774689 0.1056966606388251 0 -0.25486013107866828 0.1087134975906747 0 -0.24997009747084009 0.1096221427284915 0 -0.25177912818774689 0.1056966606388251 0 -0.25486013107866828 0.1087134975906747 0 -0.25832574523197749 0.10647479314312019 0 -0.25486013107866828 0.1087134975906747 0 -0.25832574523197749 0.10647479314312019 0 -0.25832574523197749 0.10647479314312019 0 -0.27275119032105921 0.091693211143174524 0 -0.25832574523197749 0.10647479314312019 0 -0.25990685410508302 0.096280189135135197 0 -0.27275119032105921 0.091693211143174524 0 -0.25832574523197749 0.10647479314312019 0 -0.27327358887368108 0.1085114129392019 0 -0.27972012263807422 0.092654533375896908 0 -0.27327358887368108 0.1085114129392019 0 -0.28497866629942947 0.1073357733350612 0 -0.27972012263807422 0.092654533375896908 0 -0.25832574523197749 0.10647479314312019 0 -0.27972012263807422 0.092654533375896908 0 -0.27275119032105921 0.091693211143174524 0 -0.25832574523197749 0.10647479314312019 0 -0.27972012263807422 0.092654533375896908 0 -0.27327358887368108 0.1085114129392019 0 -0.26999747491226528 0.1245674752706618 0 -0.28114031997198607 0.1166161818522455 0 -0.25958357903007179 0.11773682080479909 0 -0.27327358887368108 0.1085114129392019 0 -0.26999747491226528 0.1245674752706618 0 -0.27327358887368108 0.1085114129392019 0 -0.28114031997198607 0.1166161818522455 0 -0.28497866629942947 0.1073357733350612 0 -0.28299091854797759 0.12699181272699131 0 -0.26999747491226528 0.1245674752706618 0 -0.28114031997198607 0.1166161818522455 0 -0.28299091854797759 0.12699181272699131 0 -0.28114031997198607 0.1166161818522455 0 -0.29281507999696849 0.1166008329431874 0 -0.28299091854797759 0.12699181272699131 0 -0.2936223559799373 0.13061018841299299 0 -0.29281507999696849 0.1166008329431874 0 -0.28114031997198607 0.1166161818522455 0 -0.29281507999696849 0.1166008329431874 0 -0.28497866629942947 0.1073357733350612 0 -0.28497866629942947 0.1073357733350612 0 -0.29794422001643728 0.1022959055647743 0 -0.27972012263807422 0.092654533375896908 0 -0.29281507999696849 0.1166008329431874 0 -0.28497866629942947 0.1073357733350612 0 -0.29794422001643728 0.1022959055647743 0 -0.29794422001643728 0.1022959055647743 0 -0.31064312232641378 0.083809903670110319 0 -0.3157870619368035 0.1009482541566013 0 -0.29794422001643728 0.1022959055647743 0 -0.30516753713667422 0.1169365185217331 0 -0.3157870619368035 0.1009482541566013 0 -0.30965658215094899 0.13095071688377299 0 -0.29281507999696849 0.1166008329431874 0 -0.30516753713667422 0.1169365185217331 0 -0.30965658215094899 0.13095071688377299 0 -0.29281507999696849 0.1166008329431874 0 -0.30965658215094899 0.13095071688377299 0 -0.30516753713667422 0.1169365185217331 0 -0.32025275660767177 0.1223443448645547 0 -0.29281507999696849 0.1166008329431874 0 -0.29794422001643728 0.1022959055647743 0 -0.30516753713667422 0.1169365185217331 0 -0.30111450004417101 0.07883427360867401 0 -0.31064312232641378 0.083809903670110319 0 -0.32250887745026868 0.065014013841452403 0 -0.30111450004417101 0.07883427360867401 0 -0.30160208049922199 0.062130047143282553 0 -0.32250887745026868 0.065014013841452403 0 -0.30111450004417101 0.07883427360867401 0 -0.32250887745026868 0.065014013841452403 0 -0.29794422001643728 0.1022959055647743 0 -0.30111450004417101 0.07883427360867401 0 -0.31064312232641378 0.083809903670110319 0 -0.29794422001643728 0.1022959055647743 0 -0.31064312232641378 0.083809903670110319 0 -0.30111450004417101 0.07883427360867401 0 -0.27972012263807422 0.092654533375896908 0 -0.30111450004417101 0.07883427360867401 0 -0.2871766354101406 0.076911629143228549 0 -0.27972012263807422 0.092654533375896908 0 -0.29794422001643728 0.1022959055647743 0 -0.30111450004417101 0.07883427360867401 0 -0.27972012263807422 0.092654533375896908 0 -0.30111450004417101 0.07883427360867401 0 -0.2871766354101406 0.076911629143228549 0 -0.30160208049922199 0.062130047143282553 0 -0.2871766354101406 0.076911629143228549 0 -0.29019440429867721 0.06319036118200437 0 -0.30160208049922199 0.062130047143282553 0 -0.2871766354101406 0.076911629143228549 0 -0.30160208049922199 0.062130047143282553 0 -0.2871766354101406 0.076911629143228549 0 -0.29019440429867721 0.06319036118200437 0 -0.27708196836312121 0.066291360240838551 0 -0.2871766354101406 0.076911629143228549 0 -0.27708196836312121 0.066291360240838551 0 -0.27405117025635939 0.078718314363711961 0 -0.26694497845289228 0.072128062880567612 0 -0.27405117025635939 0.078718314363711961 0 -0.26497703576619591 0.083201982263543112 0 -0.27708196836312121 0.066291360240838551 0 -0.26694497845289228 0.072128062880567612 0 -0.27405117025635939 0.078718314363711961 0 -0.27708196836312121 0.066291360240838551 0 -0.26694497845289228 0.072128062880567612 0 -0.26243605140907061 0.056968836332360717 0 -0.2871766354101406 0.076911629143228549 0 -0.27972012263807422 0.092654533375896908 0 -0.27275119032105921 0.091693211143174524 0 -0.2871766354101406 0.076911629143228549 0 -0.27275119032105921 0.091693211143174524 0 -0.2871766354101406 0.076911629143228549 0 -0.27405117025635939 0.078718314363711961 0 -0.27275119032105921 0.091693211143174524 0 -0.27405117025635939 0.078718314363711961 0 -0.27275119032105921 0.091693211143174524 0 -0.26497703576619591 0.083201982263543112 0 -0.27275119032105921 0.091693211143174524 0 -0.26308311513569987 0.090614484247223293 0 -0.26497703576619591 0.083201982263543112 0 -0.25990685410508302 0.096280189135135197 0 -0.27275119032105921 0.091693211143174524 0 -0.26308311513569987 0.090614484247223293 0 -0.25990685410508302 0.096280189135135197 0 -0.26308311513569987 0.090614484247223293 0 -0.25523928785414762 0.089221309932465798 0 -0.26308311513569987 0.090614484247223293 0 -0.26497703576619591 0.083201982263543112 0 -0.25523928785414762 0.089221309932465798 0 -0.26497703576619591 0.083201982263543112 0 -0.25523928785414762 0.089221309932465798 0 -0.25324543335959387 0.075417011431584843 0 -0.25121874698990321 0.099274658180543388 0 -0.25523928785414762 0.089221309932465798 0 -0.2450665584409219 0.09255505516060239 0 -0.26694497845289228 0.072128062880567612 0 -0.25324543335959387 0.075417011431584843 0 -0.26243605140907061 0.056968836332360717 0 -0.25324543335959387 0.075417011431584843 0 -0.26243605140907061 0.056968836332360717 0 -0.2381268274028103 0.063134185225640488 0 -0.26694497845289228 0.072128062880567612 0 -0.26497703576619591 0.083201982263543112 0 -0.25324543335959387 0.075417011431584843 0 -0.26243605140907061 0.056968836332360717 0 -0.27117169318528211 0.034018892511723881 0 -0.2488212329986276 0.035825705836059457 0 -0.26243605140907061 0.056968836332360717 0 -0.2488212329986276 0.035825705836059457 0 -0.2444732076528876 0.046928516504279913 0 -0.27708196836312121 0.066291360240838551 0 -0.26243605140907061 0.056968836332360717 0 -0.28168857035158701 0.049830957543158118 0 -0.26243605140907061 0.056968836332360717 0 -0.27117169318528211 0.034018892511723881 0 -0.28168857035158701 0.049830957543158118 0 -0.25412876902409431 -0.0029034411103695409 0 -0.25951563859444499 0.0085172264464785548 0 -0.2395998062585549 3.2132456287619487e-05 0 -0.26520086878583649 -0.0060001761445883928 0 -0.25951563859444499 0.0085172264464785548 0 -0.25951563859444499 0.0085172264464785548 0 -0.2488212329986276 0.035825705836059457 0 -0.27117169318528211 0.034018892511723881 0 -0.25951563859444499 0.0085172264464785548 0 -0.2488212329986276 0.035825705836059457 0 -0.25951563859444499 0.0085172264464785548 0 -0.24509883809478239 0.01481825845038178 0 -0.2488212329986276 0.035825705836059457 0 -0.27117169318528211 0.034018892511723881 0 -0.25951563859444499 0.0085172264464785548 0 -0.28603681494027161 0.019816511870723721 0 -0.25951563859444499 0.0085172264464785548 0 -0.28603681494027161 0.019816511870723721 0 -0.25951563859444499 0.0085172264464785548 0 -0.28013978120368888 0.001827391234728012 0 -0.28603681494027161 0.019816511870723721 0 -0.26520086878583649 -0.0060001761445883928 0 -0.25951563859444499 0.0085172264464785548 0 -0.28013978120368888 0.001827391234728012 0 -0.28603681494027161 0.019816511870723721 0 -0.30605116750538269 0.015841283414128479 0 -0.29779626154072752 0.0042823716210633614 0 -0.28013978120368888 0.001827391234728012 0 -0.28603681494027161 0.019816511870723721 0 -0.29779626154072752 0.0042823716210633614 0 -0.28603681494027161 0.019816511870723721 0 -0.30605116750538269 0.015841283414128479 0 -0.31255799128609701 0.031115797294971291 0 -0.28603681494027161 0.019816511870723721 0 -0.31255799128609701 0.031115797294971291 0 -0.28603681494027161 0.019816511870723721 0 -0.29632160119802259 0.040236886585433777 0 -0.31255799128609701 0.031115797294971291 0 -0.30605116750538269 0.015841283414128479 0 -0.29779626154072752 0.0042823716210633614 0 -0.3148125425607311 0.006281449036354257 0 -0.3084315513875262 -0.0060104425541563401 0 -0.29779626154072752 0.0042823716210633614 0 -0.3148125425607311 0.006281449036354257 0 -0.28168857035158701 0.049830957543158118 0 -0.29632160119802259 0.040236886585433777 0 -0.30209872390092729 0.057422485692306499 0 -0.29019440429867721 0.06319036118200437 0 -0.27708196836312121 0.066291360240838551 0 -0.28168857035158701 0.049830957543158118 0 -0.29019440429867721 0.06319036118200437 0 -0.28168857035158701 0.049830957543158118 0 -0.30209872390092729 0.057422485692306499 0 -0.28168857035158701 0.049830957543158118 0 -0.30209872390092729 0.057422485692306499 0 -0.27117169318528211 0.034018892511723881 0 -0.28168857035158701 0.049830957543158118 0 -0.29632160119802259 0.040236886585433777 0 -0.27117169318528211 0.034018892511723881 0 -0.28603681494027161 0.019816511870723721 0 -0.29632160119802259 0.040236886585433777 0 -0.29632160119802259 0.040236886585433777 0 -0.31562370662679029 0.052292538249778371 0 -0.31255799128609701 0.031115797294971291 0 -0.30209872390092729 0.057422485692306499 0 -0.30160208049922199 0.062130047143282553 0 -0.32250887745026868 0.065014013841452403 0 -0.30209872390092729 0.057422485692306499 0 -0.32250887745026868 0.065014013841452403 0 -0.29632160119802259 0.040236886585433777 0 -0.30209872390092729 0.057422485692306499 0 -0.31562370662679029 0.052292538249778371 0 -0.29019440429867721 0.06319036118200437 0 -0.30209872390092729 0.057422485692306499 0 -0.30160208049922199 0.062130047143282553 0 -0.31562370662679029 0.052292538249778371 0 -0.3390791676319227 0.042415082719218573 0 -0.32438937434350651 0.063799257503246221 0 -0.30209872390092729 0.057422485692306499 0 -0.31562370662679029 0.052292538249778371 0 -0.32250887745026868 0.065014013841452403 0 -0.31562370662679029 0.052292538249778371 0 -0.32250887745026868 0.065014013841452403 0 -0.32438937434350651 0.063799257503246221 0 -0.31562370662679029 0.052292538249778371 0 -0.3390791676319227 0.042415082719218573 0 -0.31255799128609701 0.031115797294971291 0 -0.3390791676319227 0.042415082719218573 0 -0.31255799128609701 0.031115797294971291 0 -0.33186984878225012 0.02468697933672807 0 -0.3390791676319227 0.042415082719218573 0 -0.31255799128609701 0.031115797294971291 0 -0.3390791676319227 0.042415082719218573 0 -0.33186984878225012 0.02468697933672807 0 -0.34908996430616229 0.027842200609419911 0 -0.3390791676319227 0.042415082719218573 0 -0.34187828809062459 0.043607641472545262 0 -0.33943274181077648 0.054081599343573573 0 -0.3390791676319227 0.042415082719218573 0 -0.34187828809062459 0.043607641472545262 0 -0.34725699648823583 0.03790815975036993 0 -0.3390791676319227 0.042415082719218573 0 -0.34187828809062459 0.043607641472545262 0 -0.3390791676319227 0.042415082719218573 0 -0.32438937434350651 0.063799257503246221 0 -0.33943274181077648 0.054081599343573573 0 -0.34906672711246628 0.05755566250203311 0 -0.34108900133092218 0.071924865007452626 0 -0.3390791676319227 0.042415082719218573 0 -0.33943274181077648 0.054081599343573573 0 -0.32438937434350651 0.063799257503246221 0 -0.33943274181077648 0.054081599343573573 0 -0.32438937434350651 0.063799257503246221 0 -0.3084315513875262 -0.0060104425541563401 0 -0.32720427759267651 0.001243125536590062 0 -0.3148125425607311 0.006281449036354257 0 -0.32720427759267651 0.001243125536590062 0 -0.3148125425607311 0.006281449036354257 0 -0.32714288792072788 0.011458395421717451 0 -0.3148125425607311 0.006281449036354257 0 -0.32714288792072788 0.011458395421717451 0 -0.3190522271990866 0.01771028724752978 0 -0.30605116750538269 0.015841283414128479 0 -0.3148125425607311 0.006281449036354257 0 -0.3190522271990866 0.01771028724752978 0 -0.3190522271990866 0.01771028724752978 0 -0.31255799128609701 0.031115797294971291 0 -0.33186984878225012 0.02468697933672807 0 -0.32714288792072788 0.011458395421717451 0 -0.3190522271990866 0.01771028724752978 0 -0.33186984878225012 0.02468697933672807 0 -0.30605116750538269 0.015841283414128479 0 -0.3190522271990866 0.01771028724752978 0 -0.31255799128609701 0.031115797294971291 0 -0.33186984878225012 0.02468697933672807 0 -0.33726486249122822 0.01248374745135236 0 -0.34908996430616229 0.027842200609419911 0 -0.33726486249122822 0.01248374745135236 0 -0.34908996430616229 0.027842200609419911 0 -0.32714288792072788 0.011458395421717451 0 -0.33186984878225012 0.02468697933672807 0 -0.33726486249122822 0.01248374745135236 0 -0.32720427759267651 0.001243125536590062 0 -0.32714288792072788 0.011458395421717451 0 -0.33726486249122822 0.01248374745135236 0 -0.33726486249122822 0.01248374745135236 0 -0.3366738177339772 0.00047495279275041642 0 -0.34598467737131322 0.0035373190053896442 0 -0.3254397606762941 -0.002874705706715192 0 -0.33726486249122822 0.01248374745135236 0 -0.3254397606762941 -0.002874705706715192 0 -0.32720427759267651 0.001243125536590062 0 -0.33726486249122822 0.01248374745135236 0 -0.3254397606762941 -0.002874705706715192 0 -0.33726486249122822 0.01248374745135236 0 -0.3366738177339772 0.00047495279275041642 0 -0.33726486249122822 0.01248374745135236 0 -0.34598467737131322 0.0035373190053896442 0 -0.35058664137600798 0.02566346307183788 0 -0.34598467737131322 0.0035373190053896442 0 -0.35058664137600798 0.02566346307183788 0 -0.35469979421701792 0.0072200640997019706 0 -0.34598467737131322 0.0035373190053896442 0 -0.35058664137600798 0.02566346307183788 0 -0.35469979421701792 0.0072200640997019706 0 -0.35058664137600798 0.02566346307183788 0 -0.36663220051669981 0.0023056775376684231 0 -0.35058664137600798 0.02566346307183788 0 -0.36663220051669981 0.0023056775376684231 0 -0.35559565760404982 -0.002626203216087876 0 -0.35469979421701792 0.0072200640997019706 0 -0.36663220051669981 0.0023056775376684231 0 -0.35559565760404982 -0.002626203216087876 0 -0.35469979421701792 0.0072200640997019706 0 -0.34598467737131322 0.0035373190053896442 0 -0.35058664137600798 0.02566346307183788 0 -0.35767165533239131 0.024911961056320781 0 -0.36150426894303189 0.017452711053197359 0 -0.33726486249122822 0.01248374745135236 0 -0.35058664137600798 0.02566346307183788 0 -0.34908996430616229 0.027842200609419911 0 -0.35058664137600798 0.02566346307183788 0 -0.34908996430616229 0.027842200609419911 0 -0.35058664137600798 0.02566346307183788 0 -0.34908996430616229 0.027842200609419911 0 -0.35176145313442458 0.03131193276676545 0 -0.35058664137600798 0.02566346307183788 0 -0.35176145313442458 0.03131193276676545 0 -0.34908996430616229 0.027842200609419911 0 -0.35176145313442458 0.03131193276676545 0 -0.35431593940061717 0.027812852432652631 0 -0.35724400775964421 0.0293640528356864 0 -0.35176145313442458 0.03131193276676545 0 -0.35058664137600798 0.02566346307183788 0 -0.35431593940061717 0.027812852432652631 0 -0.35176145313442458 0.03131193276676545 0 -0.35058664137600798 0.02566346307183788 0 -0.35431593940061717 0.027812852432652631 0 -0.35767165533239131 0.024911961056320781 0 -0.35431593940061717 0.027812852432652631 0 -0.35767165533239131 0.024911961056320781 0 -0.35724400775964421 0.0293640528356864 0 -0.35724400775964421 0.0293640528356864 0 -0.36229417248555201 0.029611558778278931 0 -0.35784717372157271 0.034192701757999079 0 -0.35767165533239131 0.024911961056320781 0 -0.35724400775964421 0.0293640528356864 0 -0.36229417248555201 0.029611558778278931 0 -0.35767165533239131 0.024911961056320781 0 -0.36229417248555201 0.029611558778278931 0 -0.363203522599159 0.02277009143356289 0 -0.36229417248555201 0.029611558778278931 0 -0.36863773567475477 0.028208248799502889 0 -0.363203522599159 0.02277009143356289 0 -0.36863773567475477 0.028208248799502889 0 -0.36927869297727212 0.021953162714289012 0 -0.363203522599159 0.02277009143356289 0 -0.36229417248555201 0.029611558778278931 0 -0.36863773567475477 0.028208248799502889 0 -0.36722395113021061 0.033577167777973607 0 -0.36863773567475477 0.028208248799502889 0 -0.37441339120421929 0.026822871754168861 0 -0.37263177943124731 0.033249493843526053 0 -0.36863773567475477 0.028208248799502889 0 -0.37441339120421929 0.026822871754168861 0 -0.36927869297727212 0.021953162714289012 0 -0.3754483846295848 0.020169662492656289 0 -0.37441339120421929 0.026822871754168861 0 -0.36927869297727212 0.021953162714289012 0 -0.3754483846295848 0.020169662492656289 0 -0.36927869297727212 0.021953162714289012 0 -0.3710593831183267 0.016021958648373372 0 -0.3754483846295848 0.020169662492656289 0 -0.37610383802070929 0.01417088813385226 0 -0.3710593831183267 0.016021958648373372 0 -0.36927869297727212 0.021953162714289012 0 -0.3710593831183267 0.016021958648373372 0 -0.36612028068702868 0.01821990080919391 0 -0.36612028068702868 0.01821990080919391 0 -0.36150426894303189 0.017452711053197359 0 -0.36698889455500788 0.012419938274806889 0 -0.36612028068702868 0.01821990080919391 0 -0.363203522599159 0.02277009143356289 0 -0.36150426894303189 0.017452711053197359 0 -0.36927869297727212 0.021953162714289012 0 -0.36612028068702868 0.01821990080919391 0 -0.363203522599159 0.02277009143356289 0 -0.35767165533239131 0.024911961056320781 0 -0.363203522599159 0.02277009143356289 0 -0.36150426894303189 0.017452711053197359 0 -0.35058664137600798 0.02566346307183788 0 -0.36150426894303189 0.017452711053197359 0 -0.36663220051669981 0.0023056775376684231 0 -0.36150426894303189 0.017452711053197359 0 -0.36698889455500788 0.012419938274806889 0 -0.36663220051669981 0.0023056775376684231 0 -0.36698889455500788 0.012419938274806889 0 -0.37241620784035762 0.0091981994654418767 0 -0.36663220051669981 0.0023056775376684231 0 -0.3710593831183267 0.016021958648373372 0 -0.36612028068702868 0.01821990080919391 0 -0.36698889455500788 0.012419938274806889 0 -0.3710593831183267 0.016021958648373372 0 -0.36698889455500788 0.012419938274806889 0 -0.37241620784035762 0.0091981994654418767 0 -0.37610383802070929 0.01417088813385226 0 -0.3710593831183267 0.016021958648373372 0 -0.37241620784035762 0.0091981994654418767 0 -0.37576616927869799 0.0025212232452482409 0 -0.37241620784035762 0.0091981994654418767 0 -0.36663220051669981 0.0023056775376684231 0 -0.35447610927804668 0.044363941183901308 0 -0.35848638921040549 0.063645280942234636 0 -0.35447610927804668 0.044363941183901308 0 -0.36217926009603801 0.052531910991645947 0 -0.35848638921040549 0.063645280942234636 0 -0.34906672711246628 0.05755566250203311 0 -0.35447610927804668 0.044363941183901308 0 -0.35848638921040549 0.063645280942234636 0 -0.34187828809062459 0.043607641472545262 0 -0.33943274181077648 0.054081599343573573 0 -0.35447610927804668 0.044363941183901308 0 -0.33943274181077648 0.054081599343573573 0 -0.35447610927804668 0.044363941183901308 0 -0.33943274181077648 0.054081599343573573 0 -0.34906672711246628 0.05755566250203311 0 -0.35447610927804668 0.044363941183901308 0 -0.34187828809062459 0.043607641472545262 0 -0.34725699648823583 0.03790815975036993 0 -0.35447610927804668 0.044363941183901308 0 -0.34725699648823583 0.03790815975036993 0 -0.35176145313442458 0.03131193276676545 0 -0.35447610927804668 0.044363941183901308 0 -0.34908996430616229 0.027842200609419911 0 -0.34725699648823583 0.03790815975036993 0 -0.35176145313442458 0.03131193276676545 0 -0.3390791676319227 0.042415082719218573 0 -0.34908996430616229 0.027842200609419911 0 -0.34725699648823583 0.03790815975036993 0 -0.3390791676319227 0.042415082719218573 0 -0.34908996430616229 0.027842200609419911 0 -0.35176145313442458 0.03131193276676545 0 -0.35937446504971549 0.041199719673185781 0 -0.35176145313442458 0.03131193276676545 0 -0.35447610927804668 0.044363941183901308 0 -0.35937446504971549 0.041199719673185781 0 -0.35176145313442458 0.03131193276676545 0 -0.35447610927804668 0.044363941183901308 0 -0.35176145313442458 0.03131193276676545 0 -0.35784717372157271 0.034192701757999079 0 -0.35937446504971549 0.041199719673185781 0 -0.35724400775964421 0.0293640528356864 0 -0.35176145313442458 0.03131193276676545 0 -0.35784717372157271 0.034192701757999079 0 -0.35447610927804668 0.044363941183901308 0 -0.35937446504971549 0.041199719673185781 0 -0.36217926009603801 0.052531910991645947 0 -0.35447610927804668 0.044363941183901308 0 -0.35937446504971549 0.041199719673185781 0 -0.35937446504971549 0.041199719673185781 0 -0.36558167755732568 0.04070689858620169 0 -0.37181203191657258 0.046414640740192858 0 -0.35937446504971549 0.041199719673185781 0 -0.36191066453086618 0.039561395033693748 0 -0.36110203037623351 0.037063497233621519 0 -0.35937446504971549 0.041199719673185781 0 -0.36191066453086618 0.039561395033693748 0 -0.36558167755732568 0.04070689858620169 0 -0.35937446504971549 0.041199719673185781 0 -0.36191066453086618 0.039561395033693748 0 -0.36191066453086618 0.039561395033693748 0 -0.36558167755732568 0.04070689858620169 0 -0.36475842109075929 0.037482550750697091 0 -0.35784717372157271 0.034192701757999079 0 -0.36272248766454451 0.034233908159682858 0 -0.36110203037623351 0.037063497233621519 0 -0.36229417248555201 0.029611558778278931 0 -0.35784717372157271 0.034192701757999079 0 -0.36272248766454451 0.034233908159682858 0 -0.35784717372157271 0.034192701757999079 0 -0.35937446504971549 0.041199719673185781 0 -0.36110203037623351 0.037063497233621519 0 -0.36272248766454451 0.034233908159682858 0 -0.36110203037623351 0.037063497233621519 0 -0.36475842109075929 0.037482550750697091 0 -0.36191066453086618 0.039561395033693748 0 -0.36110203037623351 0.037063497233621519 0 -0.36475842109075929 0.037482550750697091 0 -0.36558167755732568 0.04070689858620169 0 -0.36475842109075929 0.037482550750697091 0 -0.37005280519871508 0.038876186733238997 0 -0.36272248766454451 0.034233908159682858 0 -0.36475842109075929 0.037482550750697091 0 -0.36722395113021061 0.033577167777973607 0 -0.36229417248555201 0.029611558778278931 0 -0.36272248766454451 0.034233908159682858 0 -0.36722395113021061 0.033577167777973607 0 -0.36863773567475477 0.028208248799502889 0 -0.36722395113021061 0.033577167777973607 0 -0.37263177943124731 0.033249493843526053 0 -0.36475842109075929 0.037482550750697091 0 -0.36722395113021061 0.033577167777973607 0 -0.37005280519871508 0.038876186733238997 0 -0.36722395113021061 0.033577167777973607 0 -0.37005280519871508 0.038876186733238997 0 -0.37263177943124731 0.033249493843526053 0 -0.37725554928066413 0.040081702841281937 0 -0.37005280519871508 0.038876186733238997 0 -0.37263177943124731 0.033249493843526053 0 -0.36558167755732568 0.04070689858620169 0 -0.37005280519871508 0.038876186733238997 0 -0.37181203191657258 0.046414640740192858 0 -0.37725554928066413 0.040081702841281937 0 -0.37005280519871508 0.038876186733238997 0 -0.37181203191657258 0.046414640740192858 0 -0.35937446504971549 0.041199719673185781 0 -0.37181203191657258 0.046414640740192858 0 -0.37263919311136651 0.058427960730028289 0 -0.35937446504971549 0.041199719673185781 0 -0.36217926009603801 0.052531910991645947 0 -0.37263919311136651 0.058427960730028289 0 -0.35937446504971549 0.041199719673185781 0 -0.37263919311136651 0.058427960730028289 0 -0.36217926009603801 0.052531910991645947 0 -0.37263919311136651 0.058427960730028289 0 -0.35848638921040549 0.063645280942234636 0 -0.35848638921040549 0.063645280942234636 0 -0.36249666914276429 0.082926620700568027 0 -0.38266079029724842 0.064485457356803763 0 -0.37263919311136651 0.058427960730028289 0 -0.36851044086808049 0.071533944343932357 0 -0.36851044086808049 0.071533944343932357 0 -0.35848638921040549 0.063645280942234636 0 -0.36249666914276429 0.082926620700568027 0 -0.35848638921040549 0.063645280942234636 0 -0.3588359780254558 0.078525828239460541 0 -0.36249666914276429 0.082926620700568027 0 -0.37890229464063752 0.076396414118949207 0 -0.36851044086808049 0.071533944343932357 0 -0.37027830563756331 0.079252382318195022 0 -0.36851044086808049 0.071533944343932357 0 -0.36249666914276429 0.082926620700568027 0 -0.37027830563756331 0.079252382318195022 0 -0.37263919311136651 0.058427960730028289 0 -0.36851044086808049 0.071533944343932357 0 -0.35848638921040549 0.063645280942234636 0 -0.35848638921040549 0.063645280942234636 0 -0.3588359780254558 0.078525828239460541 0 -0.34108900133092218 0.071924865007452626 0 -0.34906672711246628 0.05755566250203311 0 -0.35848638921040549 0.063645280942234636 0 -0.34108900133092218 0.071924865007452626 0 -0.3588359780254558 0.078525828239460541 0 -0.34108900133092218 0.071924865007452626 0 -0.35145639959466252 0.085497139119470059 0 -0.3588359780254558 0.078525828239460541 0 -0.34108900133092218 0.071924865007452626 0 -0.35145639959466252 0.085497139119470059 0 -0.36249666914276429 0.082926620700568027 0 -0.35883190993049568 0.100103671782501 0 -0.35145639959466252 0.085497139119470059 0 -0.35883190993049568 0.100103671782501 0 -0.33602843954367412 0.094004709867368155 0 -0.35145639959466252 0.085497139119470059 0 -0.3588359780254558 0.078525828239460541 0 -0.36249666914276429 0.082926620700568027 0 -0.36249666914276429 0.082926620700568027 0 -0.37120381789877072 0.086152550109330484 0 -0.35883190993049568 0.100103671782501 0 -0.385664096327405 0.091687248412880548 0 -0.37120381789877072 0.086152550109330484 0 -0.35883190993049568 0.100103671782501 0 -0.36249666914276429 0.082926620700568027 0 -0.37027830563756331 0.079252382318195022 0 -0.37120381789877072 0.086152550109330484 0 -0.37890229464063752 0.076396414118949207 0 -0.37027830563756331 0.079252382318195022 0 -0.37120381789877072 0.086152550109330484 0 -0.385664096327405 0.091687248412880548 0 -0.37062744037481132 0.1135505395145804 0 -0.35883190993049568 0.100103671782501 0 -0.385664096327405 0.091687248412880548 0 -0.35883190993049568 0.100103671782501 0 -0.3555907844222207 0.13541383061628229 0 -0.37062744037481132 0.1135505395145804 0 -0.37062744037481132 0.1135505395145804 0 -0.35205843378173363 0.1166915262502598 0 -0.35883190993049568 0.100103671782501 0 -0.3555907844222207 0.13541383061628229 0 -0.37062744037481132 0.1135505395145804 0 -0.35205843378173363 0.1166915262502598 0 -0.35205843378173363 0.1166915262502598 0 -0.35883190993049568 0.100103671782501 0 -0.33199972353358509 0.108520095152117 0 -0.35883190993049568 0.100103671782501 0 -0.33199972353358509 0.108520095152117 0 -0.35883190993049568 0.100103671782501 0 -0.33602843954367412 0.094004709867368155 0 -0.33199972353358509 0.108520095152117 0 -0.33199972353358509 0.108520095152117 0 -0.34164735892785042 0.1246113669834655 0 -0.3304308193851393 0.1243365102719818 0 -0.35205843378173363 0.1166915262502598 0 -0.33199972353358509 0.108520095152117 0 -0.34164735892785042 0.1246113669834655 0 -0.30516753713667422 0.1169365185217331 0 -0.33199972353358509 0.108520095152117 0 -0.32025275660767177 0.1223443448645547 0 -0.30516753713667422 0.1169365185217331 0 -0.33199972353358509 0.108520095152117 0 -0.33199972353358509 0.108520095152117 0 -0.3304308193851393 0.1243365102719818 0 -0.32025275660767177 0.1223443448645547 0 -0.33602843954367412 0.094004709867368155 0 -0.3157870619368035 0.1009482541566013 0 -0.3224539054397505 0.090112395005531379 0 -0.33602843954367412 0.094004709867368155 0 -0.33199972353358509 0.108520095152117 0 -0.3157870619368035 0.1009482541566013 0 -0.30516753713667422 0.1169365185217331 0 -0.33199972353358509 0.108520095152117 0 -0.3157870619368035 0.1009482541566013 0 -0.31064312232641378 0.083809903670110319 0 -0.3224539054397505 0.090112395005531379 0 -0.32735699795211048 0.081686712328045821 0 -0.31064312232641378 0.083809903670110319 0 -0.3157870619368035 0.1009482541566013 0 -0.3224539054397505 0.090112395005531379 0 -0.31064312232641378 0.083809903670110319 0 -0.32735699795211048 0.081686712328045821 0 -0.32250887745026868 0.065014013841452403 0 -0.31064312232641378 0.083809903670110319 0 -0.32250887745026868 0.065014013841452403 0 -0.32250887745026868 0.065014013841452403 0 -0.32438937434350651 0.063799257503246221 0 -0.32735699795211048 0.081686712328045821 0 -0.32250887745026868 0.065014013841452403 0 -0.34108900133092218 0.071924865007452626 0 -0.32250887745026868 0.065014013841452403 0 -0.32438937434350651 0.063799257503246221 0 -0.34108900133092218 0.071924865007452626 0 -0.33943274181077648 0.054081599343573573 0 -0.32438937434350651 0.063799257503246221 0 -0.34108900133092218 0.071924865007452626 0 -0.32250887745026868 0.065014013841452403 0 -0.34108900133092218 0.071924865007452626 0 -0.35145639959466252 0.085497139119470059 0 -0.33602843954367412 0.094004709867368155 0 -0.34108900133092218 0.071924865007452626 0 -0.33602843954367412 0.094004709867368155 0 -0.32735699795211048 0.081686712328045821 0 -0.34108900133092218 0.071924865007452626 0 -0.33602843954367412 0.094004709867368155 0 -0.3224539054397505 0.090112395005531379 0 -0.32735699795211048 0.081686712328045821 0 -0.39960166763298932 0.47350328215519938 0 -0.37718483160402932 0.5 0 -0.4297676361559094 0.5 0 -0.39960166763298932 0.47350328215519938 0 -0.37718483160402932 0.5 0 -0.37339273248599281 0.47576386728528902 0 -0.39960166763298932 0.47350328215519938 0 -0.38729888651629302 0.45683535036774542 0 -0.37339273248599281 0.47576386728528902 0 -0.38729888651629302 0.45683535036774542 0 -0.3785934402040424 0.44484573310708808 0 -0.39316748917573541 0.44417702172791462 0 -0.403976916638012 0.44630343682356061 0 -0.39316748917573541 0.44417702172791462 0 -0.402800713344595 0.42872356661326261 0 -0.38729888651629302 0.45683535036774542 0 -0.403976916638012 0.44630343682356061 0 -0.39316748917573541 0.44417702172791462 0 -0.3785934402040424 0.44484573310708808 0 -0.39316748917573541 0.44417702172791462 0 -0.402800713344595 0.42872356661326261 0 -0.38729888651629302 0.45683535036774542 0 -0.403976916638012 0.44630343682356061 0 -0.39960166763298932 0.47350328215519938 0 -0.38729888651629302 0.45683535036774542 0 -0.403976916638012 0.44630343682356061 0 -0.39960166763298932 0.47350328215519938 0 -0.403976916638012 0.44630343682356061 0 -0.42636001813454671 0.46162363325653782 0 -0.403976916638012 0.44630343682356061 0 -0.42636001813454671 0.46162363325653782 0 -0.42065494675973231 0.43577152327937763 0 -0.403976916638012 0.44630343682356061 0 -0.42065494675973231 0.43577152327937763 0 -0.42636001813454671 0.46162363325653782 0 -0.44710329783982011 0.44621200694330337 0 -0.42065494675973231 0.43577152327937763 0 -0.44710329783982011 0.44621200694330337 0 -0.42065494675973231 0.43577152327937763 0 -0.39960166763298932 0.47350328215519938 0 -0.42636001813454671 0.46162363325653782 0 -0.4297676361559094 0.5 0 -0.42636001813454671 0.46162363325653782 0 -0.4297676361559094 0.5 0 -0.45100054264813028 0.46960692358852951 0 -0.4297676361559094 0.5 0 -0.45100054264813028 0.46960692358852951 0 -0.47086396554478882 0.478670477693382 0 -0.4297676361559094 0.5 0 -0.5 0.5 0 -0.47086396554478882 0.478670477693382 0 -0.5 0.5 0 -0.47086396554478882 0.478670477693382 0 -0.49999999999999689 0.46709297427115148 0 -0.5 0.44663449148296808 0 -0.4735516489199082 0.4566524906072279 0 -0.48802745618025117 0.43612928732099671 0 -0.5 0.44663449148296808 0 -0.49999999999999689 0.46709297427115148 0 -0.4735516489199082 0.4566524906072279 0 -0.49999999999999689 0.46709297427115148 0 -0.4735516489199082 0.4566524906072279 0 -0.47086396554478882 0.478670477693382 0 -0.49999999999999689 0.46709297427115148 0 -0.4735516489199082 0.4566524906072279 0 -0.4735516489199082 0.4566524906072279 0 -0.47432138843108618 0.43060593858864687 0 -0.48802745618025117 0.43612928732099671 0 -0.4735516489199082 0.4566524906072279 0 -0.45705885291148712 0.43203702656976739 0 -0.47432138843108618 0.43060593858864687 0 -0.4735516489199082 0.4566524906072279 0 -0.44710329783982011 0.44621200694330337 0 -0.45705885291148712 0.43203702656976739 0 -0.4735516489199082 0.4566524906072279 0 -0.44710329783982011 0.44621200694330337 0 -0.45100054264813028 0.46960692358852951 0 -0.4735516489199082 0.4566524906072279 0 -0.44710329783982011 0.44621200694330337 0 -0.45100054264813028 0.46960692358852951 0 -0.47086396554478882 0.478670477693382 0 -0.4735516489199082 0.4566524906072279 0 -0.42636001813454671 0.46162363325653782 0 -0.45100054264813028 0.46960692358852951 0 -0.44710329783982011 0.44621200694330337 0 -0.45336966432342041 0.41511269399986078 0 -0.45705885291148712 0.43203702656976739 0 -0.43701230554157577 0.42544210863961829 0 -0.44710329783982011 0.44621200694330337 0 -0.45705885291148712 0.43203702656976739 0 -0.43701230554157577 0.42544210863961829 0 -0.45336966432342041 0.41511269399986078 0 -0.43696067153341722 0.40288061689754662 0 -0.43701230554157577 0.42544210863961829 0 -0.45336966432342041 0.41511269399986078 0 -0.43701230554157577 0.42544210863961829 0 -0.45336966432342041 0.41511269399986078 0 -0.45705885291148712 0.43203702656976739 0 -0.46918177942791528 0.41838339619110942 0 -0.45336966432342041 0.41511269399986078 0 -0.46918177942791528 0.41838339619110942 0 -0.47622346181259501 0.39750469357194529 0 -0.45705885291148712 0.43203702656976739 0 -0.47432138843108618 0.43060593858864687 0 -0.46918177942791528 0.41838339619110942 0 -0.47432138843108618 0.43060593858864687 0 -0.48493552966098769 0.41665662822532651 0 -0.48802745618025117 0.43612928732099671 0 -0.46918177942791528 0.41838339619110942 0 -0.48493552966098769 0.41665662822532651 0 -0.47622346181259501 0.39750469357194529 0 -0.47432138843108618 0.43060593858864687 0 -0.46918177942791528 0.41838339619110942 0 -0.48493552966098769 0.41665662822532651 0 -0.48493552966098769 0.41665662822532651 0 -0.5 0.42617600869478489 0 -0.49999999999999861 0.40571752590660171 0 -0.48493552966098769 0.41665662822532651 0 -0.49999999999999861 0.40571752590660171 0 -0.47622346181259501 0.39750469357194529 0 -0.48493552966098769 0.41665662822532651 0 -0.5 0.42617600869478489 0 -0.48802745618025117 0.43612928732099671 0 -0.5 0.44663449148296808 0 -0.5 0.42617600869478489 0 -0.48802745618025117 0.43612928732099671 0 -0.5 0.37838562604765807 0 -0.49999999999999861 0.40571752590660171 0 -0.47622346181259501 0.39750469357194529 0 -0.49999999999999861 0.40571752590660171 0 -0.47622346181259501 0.39750469357194529 0 -0.5 0.37838562604765807 0 -0.47622346181259501 0.39750469357194529 0 -0.47311830144693978 0.36775422850239758 0 -0.45244692362519151 0.38929186123728837 0 -0.44901831408264209 0.3681914845402145 0 -0.47311830144693978 0.36775422850239758 0 -0.47622346181259501 0.39750469357194529 0 -0.45244692362519151 0.38929186123728837 0 -0.47311830144693978 0.36775422850239758 0 -0.45336966432342041 0.41511269399986078 0 -0.47622346181259501 0.39750469357194529 0 -0.45244692362519151 0.38929186123728837 0 -0.47622346181259501 0.39750469357194529 0 -0.45244692362519151 0.38929186123728837 0 -0.45336966432342041 0.41511269399986078 0 -0.45244692362519151 0.38929186123728837 0 -0.43696067153341722 0.40288061689754662 0 -0.45244692362519151 0.38929186123728837 0 -0.4286703854377879 0.38107902890263162 0 -0.43696067153341722 0.40288061689754662 0 -0.45244692362519151 0.38929186123728837 0 -0.4286703854377879 0.38107902890263162 0 -0.45244692362519151 0.38929186123728837 0 -0.4286703854377879 0.38107902890263162 0 -0.44901831408264209 0.3681914845402145 0 -0.41907532962984861 0.39444964090007811 0 -0.40232646152573281 0.38643921777387191 0 -0.41150578656856479 0.373104468666143 0 -0.4286703854377879 0.38107902890263162 0 -0.41907532962984861 0.39444964090007811 0 -0.41150578656856479 0.373104468666143 0 -0.41907532962984861 0.39444964090007811 0 -0.40232646152573281 0.38643921777387191 0 -0.40493109500713581 0.4028970370678272 0 -0.41907532962984861 0.39444964090007811 0 -0.4218084676239553 0.41124545728871092 0 -0.40493109500713581 0.4028970370678272 0 -0.4286703854377879 0.38107902890263162 0 -0.41907532962984861 0.39444964090007811 0 -0.43696067153341722 0.40288061689754662 0 -0.41907532962984861 0.39444964090007811 0 -0.43696067153341722 0.40288061689754662 0 -0.4218084676239553 0.41124545728871092 0 -0.43701230554157577 0.42544210863961829 0 -0.41894501430933628 0.42376180282987869 0 -0.4218084676239553 0.41124545728871092 0 -0.43696067153341722 0.40288061689754662 0 -0.43701230554157577 0.42544210863961829 0 -0.4218084676239553 0.41124545728871092 0 -0.43701230554157577 0.42544210863961829 0 -0.42065494675973231 0.43577152327937763 0 -0.41894501430933628 0.42376180282987869 0 -0.43701230554157577 0.42544210863961829 0 -0.42065494675973231 0.43577152327937763 0 -0.44710329783982011 0.44621200694330337 0 -0.43701230554157577 0.42544210863961829 0 -0.42065494675973231 0.43577152327937763 0 -0.42065494675973231 0.43577152327937763 0 -0.40699113212208832 0.42593272648775732 0 -0.402800713344595 0.42872356661326261 0 -0.403976916638012 0.44630343682356061 0 -0.42065494675973231 0.43577152327937763 0 -0.402800713344595 0.42872356661326261 0 -0.42065494675973231 0.43577152327937763 0 -0.402800713344595 0.42872356661326261 0 -0.42065494675973231 0.43577152327937763 0 -0.41894501430933628 0.42376180282987869 0 -0.40699113212208832 0.42593272648775732 0 -0.41894501430933628 0.42376180282987869 0 -0.40699113212208832 0.42593272648775732 0 -0.4114842019152129 0.41613689218010652 0 -0.4218084676239553 0.41124545728871092 0 -0.4114842019152129 0.41613689218010652 0 -0.40493109500713581 0.4028970370678272 0 -0.41894501430933628 0.42376180282987869 0 -0.4218084676239553 0.41124545728871092 0 -0.4114842019152129 0.41613689218010652 0 -0.38411326391858958 0.42134669801900693 0 -0.40493109500713581 0.4028970370678272 0 -0.4114842019152129 0.41613689218010652 0 -0.38411326391858958 0.42134669801900693 0 -0.40493109500713581 0.4028970370678272 0 -0.40699113212208832 0.42593272648775732 0 -0.4114842019152129 0.41613689218010652 0 -0.38411326391858958 0.42134669801900693 0 -0.402800713344595 0.42872356661326261 0 -0.38411326391858958 0.42134669801900693 0 -0.40699113212208832 0.42593272648775732 0 -0.402800713344595 0.42872356661326261 0 -0.38411326391858958 0.42134669801900693 0 -0.3785934402040424 0.44484573310708808 0 -0.402800713344595 0.42872356661326261 0 -0.40699113212208832 0.42593272648775732 0 -0.402800713344595 0.42872356661326261 0 -0.3785934402040424 0.44484573310708808 0 -0.38411326391858958 0.42134669801900693 0 -0.36273211952709972 0.44029559154655168 0 -0.3785934402040424 0.44484573310708808 0 -0.402800713344595 0.42872356661326261 0 -0.38411326391858958 0.42134669801900693 0 -0.38411326391858958 0.42134669801900693 0 -0.38140417663694509 0.39666361527351879 0 -0.40493109500713581 0.4028970370678272 0 -0.38411326391858958 0.42134669801900693 0 -0.38140417663694509 0.39666361527351879 0 -0.36051548735737521 0.41203147833116482 0 -0.38140417663694509 0.39666361527351879 0 -0.38995032872260288 0.3752823692795958 0 -0.37308192128755968 0.37697964105510451 0 -0.38995032872260288 0.3752823692795958 0 -0.40232646152573281 0.38643921777387191 0 -0.41150578656856479 0.373104468666143 0 -0.38140417663694509 0.39666361527351879 0 -0.38995032872260288 0.3752823692795958 0 -0.40232646152573281 0.38643921777387191 0 -0.38140417663694509 0.39666361527351879 0 -0.40232646152573281 0.38643921777387191 0 -0.40493109500713581 0.4028970370678272 0 -0.39557200151156702 0.36076716082044391 0 -0.38577013882049799 0.34234764835718978 0 -0.41009711242777719 0.35117634634209932 0 -0.39557200151156702 0.36076716082044391 0 -0.41009711242777719 0.35117634634209932 0 -0.41150578656856479 0.373104468666143 0 -0.38995032872260288 0.3752823692795958 0 -0.39557200151156702 0.36076716082044391 0 -0.41150578656856479 0.373104468666143 0 -0.38995032872260288 0.3752823692795958 0 -0.39557200151156702 0.36076716082044391 0 -0.38053664101839191 0.36192497145719149 0 -0.38995032872260288 0.3752823692795958 0 -0.38053664101839191 0.36192497145719149 0 -0.37308192128755968 0.37697964105510451 0 -0.38053664101839191 0.36192497145719149 0 -0.38577013882049799 0.34234764835718978 0 -0.36872453066584288 0.35212079048237599 0 -0.39557200151156702 0.36076716082044391 0 -0.38053664101839191 0.36192497145719149 0 -0.38577013882049799 0.34234764835718978 0 -0.38577013882049799 0.34234764835718978 0 -0.38610161189013442 0.32144924605895941 0 -0.37214106851808199 0.32593184072275072 0 -0.38577013882049799 0.34234764835718978 0 -0.37214106851808199 0.32593184072275072 0 -0.36840613925911869 0.33927986123385312 0 -0.38610161189013442 0.32144924605895941 0 -0.37561790996601591 0.31062122265366471 0 -0.37214106851808199 0.32593184072275072 0 -0.40285450012793128 0.32808788016712809 0 -0.39412444201814439 0.30025763839406361 0 -0.38610161189013442 0.32144924605895941 0 -0.40285450012793128 0.32808788016712809 0 -0.39412444201814439 0.30025763839406361 0 -0.38577013882049799 0.34234764835718978 0 -0.40285450012793128 0.32808788016712809 0 -0.38577013882049799 0.34234764835718978 0 -0.38610161189013442 0.32144924605895941 0 -0.40285450012793128 0.32808788016712809 0 -0.38577013882049799 0.34234764835718978 0 -0.40285450012793128 0.32808788016712809 0 -0.41009711242777719 0.35117634634209932 0 -0.40285450012793128 0.32808788016712809 0 -0.41009711242777719 0.35117634634209932 0 -0.40285450012793128 0.32808788016712809 0 -0.42842685025109217 0.33472921989481302 0 -0.41009711242777719 0.35117634634209932 0 -0.40285450012793128 0.32808788016712809 0 -0.42593172765449883 0.30882605883964193 0 -0.40285450012793128 0.32808788016712809 0 -0.42842685025109217 0.33472921989481302 0 -0.42593172765449883 0.30882605883964193 0 -0.42842685025109217 0.33472921989481302 0 -0.44638184840210909 0.3204365204258568 0 -0.42593172765449883 0.30882605883964193 0 -0.42842685025109217 0.33472921989481302 0 -0.43065684418194372 0.35853402340556217 0 -0.41009711242777719 0.35117634634209932 0 -0.43065684418194372 0.35853402340556217 0 -0.41009711242777719 0.35117634634209932 0 -0.41150578656856479 0.373104468666143 0 -0.4286703854377879 0.38107902890263162 0 -0.43065684418194372 0.35853402340556217 0 -0.41150578656856479 0.373104468666143 0 -0.4286703854377879 0.38107902890263162 0 -0.43065684418194372 0.35853402340556217 0 -0.44901831408264209 0.3681914845402145 0 -0.42842685025109217 0.33472921989481302 0 -0.43065684418194372 0.35853402340556217 0 -0.45472359948954733 0.34417725922200171 0 -0.43065684418194372 0.35853402340556217 0 -0.44901831408264209 0.3681914845402145 0 -0.45472359948954733 0.34417725922200171 0 -0.44901831408264209 0.3681914845402145 0 -0.45472359948954733 0.34417725922200171 0 -0.47311830144693978 0.36775422850239758 0 -0.45472359948954733 0.34417725922200171 0 -0.47311830144693978 0.36775422850239758 0 -0.47883518981237522 0.33791431924931331 0 -0.47311830144693978 0.36775422850239758 0 -0.5 0.35105372618871472 0 -0.47883518981237522 0.33791431924931331 0 -0.5 0.37838562604765807 0 -0.47311830144693978 0.36775422850239758 0 -0.5 0.35105372618871472 0 -0.5 0.35105372618871472 0 -0.5 0.32372182632977109 0 -0.47883518981237522 0.33791431924931331 0 -0.5 0.32372182632977109 0 -0.47883518981237522 0.33791431924931331 0 -0.47051228905654402 0.31501570654739769 0 -0.45472359948954733 0.34417725922200171 0 -0.47051228905654402 0.31501570654739769 0 -0.44638184840210909 0.3204365204258568 0 -0.45472359948954733 0.34417725922200171 0 -0.47883518981237522 0.33791431924931331 0 -0.47051228905654402 0.31501570654739769 0 -0.42842685025109217 0.33472921989481302 0 -0.45472359948954733 0.34417725922200171 0 -0.44638184840210909 0.3204365204258568 0 -0.44638184840210909 0.3204365204258568 0 -0.44900895518106432 0.28956423751215332 0 -0.42593172765449883 0.30882605883964193 0 -0.44900895518106432 0.28956423751215332 0 -0.4751640768141186 0.29032140810786938 0 -0.46895811738769588 0.26551947142513932 0 -0.47051228905654402 0.31501570654739769 0 -0.44900895518106432 0.28956423751215332 0 -0.4751640768141186 0.29032140810786938 0 -0.47051228905654402 0.31501570654739769 0 -0.44638184840210909 0.3204365204258568 0 -0.44900895518106432 0.28956423751215332 0 -0.47051228905654402 0.31501570654739769 0 -0.4751640768141186 0.29032140810786938 0 -0.5 0.29638992647082751 0 -0.4751640768141186 0.29032140810786938 0 -0.5 0.29638992647082751 0 -0.5 0.26905802661188388 0 -0.5 0.32372182632977109 0 -0.47051228905654402 0.31501570654739769 0 -0.5 0.29638992647082751 0 -0.48064652603017638 0.2486227021841052 0 -0.5 0.24172612675294039 0 -0.5 0.26905802661188388 0 -0.4751640768141186 0.29032140810786938 0 -0.5 0.26905802661188388 0 -0.46895811738769588 0.26551947142513932 0 -0.48064652603017638 0.2486227021841052 0 -0.5 0.26905802661188388 0 -0.46895811738769588 0.26551947142513932 0 -0.44966682488906112 0.24094375408753541 0 -0.46895811738769588 0.26551947142513932 0 -0.44948996083656811 0.26399664136422812 0 -0.48064652603017638 0.2486227021841052 0 -0.44966682488906112 0.24094375408753541 0 -0.46895811738769588 0.26551947142513932 0 -0.44900895518106432 0.28956423751215332 0 -0.46895811738769588 0.26551947142513932 0 -0.44948996083656811 0.26399664136422812 0 -0.44900895518106432 0.28956423751215332 0 -0.44948996083656811 0.26399664136422812 0 -0.43013776590962011 0.26499420446988969 0 -0.44966682488906112 0.24094375408753541 0 -0.44948996083656811 0.26399664136422812 0 -0.43013776590962011 0.26499420446988969 0 -0.42428092472507911 0.23146588104676011 0 -0.43013776590962011 0.26499420446988969 0 -0.4033433644076177 0.2537704706891048 0 -0.44900895518106432 0.28956423751215332 0 -0.43013776590962011 0.26499420446988969 0 -0.41465677317988392 0.28164000108764198 0 -0.43013776590962011 0.26499420446988969 0 -0.41465677317988392 0.28164000108764198 0 -0.4033433644076177 0.2537704706891048 0 -0.44900895518106432 0.28956423751215332 0 -0.42593172765449883 0.30882605883964193 0 -0.41465677317988392 0.28164000108764198 0 -0.40285450012793128 0.32808788016712809 0 -0.42593172765449883 0.30882605883964193 0 -0.39412444201814439 0.30025763839406361 0 -0.42593172765449883 0.30882605883964193 0 -0.41465677317988392 0.28164000108764198 0 -0.39412444201814439 0.30025763839406361 0 -0.44900895518106432 0.28956423751215332 0 -0.42593172765449883 0.30882605883964193 0 -0.41465677317988392 0.28164000108764198 0 -0.39412444201814439 0.30025763839406361 0 -0.38539438390835867 0.2724273966209988 0 -0.39412444201814439 0.30025763839406361 0 -0.37561790996601591 0.31062122265366471 0 -0.36606258877947367 0.2897059300400267 0 -0.38610161189013442 0.32144924605895941 0 -0.39412444201814439 0.30025763839406361 0 -0.37561790996601591 0.31062122265366471 0 -0.39412444201814439 0.30025763839406361 0 -0.38539438390835867 0.2724273966209988 0 -0.39412444201814439 0.30025763839406361 0 -0.38539438390835867 0.2724273966209988 0 -0.36606258877947367 0.2897059300400267 0 -0.37666432579857417 0.24459715484793351 0 -0.38539438390835867 0.2724273966209988 0 -0.4033433644076177 0.2537704706891048 0 -0.37666432579857417 0.24459715484793351 0 -0.38539438390835867 0.2724273966209988 0 -0.3701446455157591 0.26201951237180071 0 -0.37666432579857417 0.24459715484793351 0 -0.38539438390835867 0.2724273966209988 0 -0.41465677317988392 0.28164000108764198 0 -0.38539438390835867 0.2724273966209988 0 -0.4033433644076177 0.2537704706891048 0 -0.34493087691688112 0.26889625176220427 0 -0.36606258877947367 0.2897059300400267 0 -0.34493087691688112 0.26889625176220427 0 -0.35117221935285259 0.2524801087882575 0 -0.3701446455157591 0.26201951237180071 0 -0.36484703261806101 0.2458252011169493 0 -0.35117221935285259 0.2524801087882575 0 -0.3701446455157591 0.26201951237180071 0 -0.37666432579857417 0.24459715484793351 0 -0.36484703261806101 0.2458252011169493 0 -0.3701446455157591 0.26201951237180071 0 -0.38539438390835867 0.2724273966209988 0 -0.3701446455157591 0.26201951237180071 0 -0.36606258877947367 0.2897059300400267 0 -0.34493087691688112 0.26889625176220427 0 -0.3701446455157591 0.26201951237180071 0 -0.36606258877947367 0.2897059300400267 0 -0.37561790996601591 0.31062122265366471 0 -0.36606258877947367 0.2897059300400267 0 -0.35877804075186731 0.31077356936836159 0 -0.35877804075186731 0.31077356936836159 0 -0.33497034354087768 0.29801893033763799 0 -0.34188639403676901 0.31720854293731271 0 -0.35877804075186731 0.31077356936836159 0 -0.33497034354087768 0.29801893033763799 0 -0.36606258877947367 0.2897059300400267 0 -0.35877804075186731 0.31077356936836159 0 -0.33497034354087768 0.29801893033763799 0 -0.34493087691688112 0.26889625176220427 0 -0.36606258877947367 0.2897059300400267 0 -0.33497034354087768 0.29801893033763799 0 -0.33497034354087768 0.29801893033763799 0 -0.32311423163464692 0.31995092211256632 0 -0.34188639403676901 0.31720854293731271 0 -0.33497034354087768 0.29801893033763799 0 -0.31116264632988833 0.28526429130691461 0 -0.30728712213562548 0.30848323977430309 0 -0.33497034354087768 0.29801893033763799 0 -0.30728712213562548 0.30848323977430309 0 -0.32311423163464692 0.31995092211256632 0 -0.33497034354087768 0.29801893033763799 0 -0.32382114399493928 0.26964235045162438 0 -0.31116264632988833 0.28526429130691461 0 -0.33497034354087768 0.29801893033763799 0 -0.31116264632988833 0.28526429130691461 0 -0.32382114399493928 0.26964235045162438 0 -0.30548905553269529 0.25990485780258449 0 -0.31116264632988833 0.28526429130691461 0 -0.34493087691688112 0.26889625176220427 0 -0.33497034354087768 0.29801893033763799 0 -0.32382114399493928 0.26964235045162438 0 -0.32379916505428818 0.24808657348438179 0 -0.34493087691688112 0.26889625176220427 0 -0.32382114399493928 0.26964235045162438 0 -0.32379916505428818 0.24808657348438179 0 -0.34493087691688112 0.26889625176220427 0 -0.32379916505428818 0.24808657348438179 0 -0.34493087691688112 0.26889625176220427 0 -0.35117221935285259 0.2524801087882575 0 -0.32379916505428818 0.24808657348438179 0 -0.32382114399493928 0.26964235045162438 0 -0.30548905553269529 0.25990485780258449 0 -0.32379916505428818 0.24808657348438179 0 -0.30506580912407988 0.2452115703415513 0 -0.30548905553269529 0.25990485780258449 0 -0.28830756271764091 0.24557795487267961 0 -0.30506580912407988 0.2452115703415513 0 -0.30548905553269529 0.25990485780258449 0 -0.28735494911889892 0.27250965227619101 0 -0.31116264632988833 0.28526429130691461 0 -0.30548905553269529 0.25990485780258449 0 -0.28735494911889892 0.27250965227619101 0 -0.31116264632988833 0.28526429130691461 0 -0.28830756271764091 0.24557795487267961 0 -0.30548905553269529 0.25990485780258449 0 -0.28735494911889892 0.27250965227619101 0 -0.28830756271764091 0.24557795487267961 0 -0.27408924259243911 0.24994504760829259 0 -0.28735494911889892 0.27250965227619101 0 -0.28830756271764091 0.24557795487267961 0 -0.28735494911889892 0.27250965227619101 0 -0.27408924259243911 0.24994504760829259 0 -0.28735494911889892 0.27250965227619101 0 -0.26292185998712631 0.25941996831728192 0 -0.28735494911889892 0.27250965227619101 0 -0.26292185998712631 0.25941996831728192 0 -0.28735494911889892 0.27250965227619101 0 -0.26292185998712631 0.25941996831728192 0 -0.26412386844609292 0.28600713087235557 0 -0.26292185998712631 0.25941996831728192 0 -0.26412386844609292 0.28600713087235557 0 -0.24558079483977169 0.27374289218359499 0 -0.26292185998712631 0.25941996831728192 0 -0.24269823368249191 0.25990187884213117 0 -0.24558079483977169 0.27374289218359499 0 -0.26292185998712631 0.25941996831728192 0 -0.23848877085535369 0.2463302843583732 0 -0.2585424856742547 0.24272475909532731 0 -0.27408924259243911 0.24994504760829259 0 -0.26292185998712631 0.25941996831728192 0 -0.26964383496036698 0.30662366644199041 0 -0.26344642021158782 0.31963645363845072 0 -0.2487026013327101 0.30432428835627789 0 -0.26412386844609292 0.28600713087235557 0 -0.26964383496036698 0.30662366644199041 0 -0.2487026013327101 0.30432428835627789 0 -0.26412386844609292 0.28600713087235557 0 -0.24163358300240251 0.28930517342151751 0 -0.2487026013327101 0.30432428835627789 0 -0.26412386844609292 0.28600713087235557 0 -0.24163358300240251 0.28930517342151751 0 -0.24558079483977169 0.27374289218359499 0 -0.28735494911889892 0.27250965227619101 0 -0.26412386844609292 0.28600713087235557 0 -0.28643374464344767 0.29855337053968622 0 -0.26412386844609292 0.28600713087235557 0 -0.26964383496036698 0.30662366644199041 0 -0.28643374464344767 0.29855337053968622 0 -0.26964383496036698 0.30662366644199041 0 -0.28643374464344767 0.29855337053968622 0 -0.2855125401679966 0.3245970888031815 0 -0.28643374464344767 0.29855337053968622 0 -0.2855125401679966 0.3245970888031815 0 -0.28643374464344767 0.29855337053968622 0 -0.30728712213562548 0.30848323977430309 0 -0.2855125401679966 0.3245970888031815 0 -0.28735494911889892 0.27250965227619101 0 -0.28643374464344767 0.29855337053968622 0 -0.31116264632988833 0.28526429130691461 0 -0.28735494911889892 0.27250965227619101 0 -0.28643374464344767 0.29855337053968622 0 -0.28643374464344767 0.29855337053968622 0 -0.31116264632988833 0.28526429130691461 0 -0.30728712213562548 0.30848323977430309 0 -0.30728712213562548 0.30848323977430309 0 -0.30542008362082251 0.32533946422366988 0 -0.2855125401679966 0.3245970888031815 0 -0.30728712213562548 0.30848323977430309 0 -0.30542008362082251 0.32533946422366988 0 -0.32311423163464692 0.31995092211256632 0 -0.30542008362082251 0.32533946422366988 0 -0.29707509991866038 0.33884467611174618 0 -0.31411142424718319 0.33482139431655222 0 -0.29707509991866038 0.33884467611174618 0 -0.30451243221496532 0.34568098359385607 0 -0.31411142424718319 0.33482139431655222 0 -0.30451243221496532 0.34568098359385607 0 -0.31346003334067712 0.34915357717690199 0 -0.31411142424718319 0.33482139431655222 0 -0.2855125401679966 0.3245970888031815 0 -0.28459133569254541 0.35064080706667677 0 -0.29707509991866038 0.33884467611174618 0 -0.2855125401679966 0.3245970888031815 0 -0.28459133569254541 0.35064080706667677 0 -0.2855125401679966 0.3245970888031815 0 -0.27630283876348799 0.34268806770638638 0 -0.28459133569254541 0.35064080706667677 0 -0.30542008362082251 0.32533946422366988 0 -0.29707509991866038 0.33884467611174618 0 -0.2855125401679966 0.3245970888031815 0 -0.2855125401679966 0.3245970888031815 0 -0.2710942794869477 0.33130699570093552 0 -0.26344642021158782 0.31963645363845072 0 -0.26964383496036698 0.30662366644199041 0 -0.2855125401679966 0.3245970888031815 0 -0.26344642021158782 0.31963645363845072 0 -0.2855125401679966 0.3245970888031815 0 -0.27630283876348799 0.34268806770638638 0 -0.2710942794869477 0.33130699570093552 0 -0.27630283876348799 0.34268806770638638 0 -0.2710942794869477 0.33130699570093552 0 -0.26500855592244787 0.34353919525505849 0 -0.2710942794869477 0.33130699570093552 0 -0.2595126058785624 0.33179323393453131 0 -0.26500855592244787 0.34353919525505849 0 -0.2595126058785624 0.33179323393453131 0 -0.26500855592244787 0.34353919525505849 0 -0.25446648375608161 0.34080472638544701 0 -0.2595126058785624 0.33179323393453131 0 -0.25446648375608161 0.34080472638544701 0 -0.2460336656789357 0.3337283287742524 0 -0.2595126058785624 0.33179323393453131 0 -0.24874910864909841 0.32206925242336931 0 -0.2460336656789357 0.3337283287742524 0 -0.26344642021158782 0.31963645363845072 0 -0.24874910864909841 0.32206925242336931 0 -0.2487026013327101 0.30432428835627789 0 -0.2595126058785624 0.33179323393453131 0 -0.26344642021158782 0.31963645363845072 0 -0.24874910864909841 0.32206925242336931 0 -0.2710942794869477 0.33130699570093552 0 -0.2595126058785624 0.33179323393453131 0 -0.26344642021158782 0.31963645363845072 0 -0.25894153914192092 0.36614976586578679 0 -0.26467452554321769 0.36283952152193327 0 -0.26386537326800541 0.37091178662154062 0 -0.25894153914192092 0.36614976586578679 0 -0.25855354497887439 0.36000290950605801 0 -0.26467452554321769 0.36283952152193327 0 -0.26386537326800541 0.37091178662154062 0 -0.25732574761791338 0.3727848793944793 0 -0.26163059906557168 0.37839599218038023 0 -0.25894153914192092 0.36614976586578679 0 -0.26386537326800541 0.37091178662154062 0 -0.25732574761791338 0.3727848793944793 0 -0.25732574761791338 0.3727848793944793 0 -0.25135861017078309 0.36458230349300091 0 -0.25091287677097768 0.37673746352190368 0 -0.25894153914192092 0.36614976586578679 0 -0.25732574761791338 0.3727848793944793 0 -0.25135861017078309 0.36458230349300091 0 -0.25894153914192092 0.36614976586578679 0 -0.25855354497887439 0.36000290950605801 0 -0.25135861017078309 0.36458230349300091 0 -0.25855354497887439 0.36000290950605801 0 -0.25135861017078309 0.36458230349300091 0 -0.25379026269596222 0.35183812540250081 0 -0.26500855592244787 0.34353919525505849 0 -0.25446648375608161 0.34080472638544701 0 -0.25379026269596222 0.35183812540250081 0 -0.25446648375608161 0.34080472638544701 0 -0.25379026269596222 0.35183812540250081 0 -0.24387546729111939 0.3448630346860822 0 -0.26500855592244787 0.34353919525505849 0 -0.25379026269596222 0.35183812540250081 0 -0.264002787342488 0.35460483124706799 0 -0.25855354497887439 0.36000290950605801 0 -0.25379026269596222 0.35183812540250081 0 -0.264002787342488 0.35460483124706799 0 -0.25855354497887439 0.36000290950605801 0 -0.26467452554321769 0.36283952152193327 0 -0.264002787342488 0.35460483124706799 0 -0.26467452554321769 0.36283952152193327 0 -0.264002787342488 0.35460483124706799 0 -0.2712870802502676 0.35876005338655698 0 -0.264002787342488 0.35460483124706799 0 -0.2712870802502676 0.35876005338655698 0 -0.27164719767140227 0.35133205993476191 0 -0.2712870802502676 0.35876005338655698 0 -0.27164719767140227 0.35133205993476191 0 -0.2770575876904004 0.35360823930241841 0 -0.27630283876348799 0.34268806770638638 0 -0.26500855592244787 0.34353919525505849 0 -0.27164719767140227 0.35133205993476191 0 -0.26500855592244787 0.34353919525505849 0 -0.264002787342488 0.35460483124706799 0 -0.27164719767140227 0.35133205993476191 0 -0.27630283876348799 0.34268806770638638 0 -0.27164719767140227 0.35133205993476191 0 -0.2770575876904004 0.35360823930241841 0 -0.27630283876348799 0.34268806770638638 0 -0.2770575876904004 0.35360823930241841 0 -0.28459133569254541 0.35064080706667677 0 -0.2712870802502676 0.35876005338655698 0 -0.2770575876904004 0.35360823930241841 0 -0.27875553649682488 0.36342690355038582 0 -0.2770575876904004 0.35360823930241841 0 -0.27875553649682488 0.36342690355038582 0 -0.28459133569254541 0.35064080706667677 0 -0.2712870802502676 0.35876005338655698 0 -0.27875553649682488 0.36342690355038582 0 -0.27158484675727262 0.36674876476277501 0 -0.26467452554321769 0.36283952152193327 0 -0.2712870802502676 0.35876005338655698 0 -0.27158484675727262 0.36674876476277501 0 -0.26467452554321769 0.36283952152193327 0 -0.26386537326800541 0.37091178662154062 0 -0.27158484675727262 0.36674876476277501 0 -0.26386537326800541 0.37091178662154062 0 -0.27055524767236178 0.3740667518285905 0 -0.26599387380891859 0.37588532433855648 0 -0.26386537326800541 0.37091178662154062 0 -0.27158484675727262 0.36674876476277501 0 -0.27055524767236178 0.3740667518285905 0 -0.27158484675727262 0.36674876476277501 0 -0.27055524767236178 0.3740667518285905 0 -0.27616536711970008 0.37225187755713018 0 -0.27875553649682488 0.36342690355038582 0 -0.27616536711970008 0.37225187755713018 0 -0.28367013121709428 0.3766845253301721 0 -0.27875553649682488 0.36342690355038582 0 -0.27158484675727262 0.36674876476277501 0 -0.27616536711970008 0.37225187755713018 0 -0.28459133569254541 0.35064080706667677 0 -0.28367013121709428 0.3766845253301721 0 -0.28459133569254541 0.35064080706667677 0 -0.28790636077075987 0.35895628946959612 0 -0.28367013121709428 0.3766845253301721 0 -0.291855491410693 0.36628078166111022 0 -0.28790636077075987 0.35895628946959612 0 -0.28367013121709428 0.3766845253301721 0 -0.291855491410693 0.36628078166111022 0 -0.28790636077075987 0.35895628946959612 0 -0.30461276727517628 0.35754328265578972 0 -0.291855491410693 0.36628078166111022 0 -0.29089111649843452 0.37291924787615061 0 -0.28367013121709428 0.3766845253301721 0 -0.27875553649682488 0.36342690355038582 0 -0.28459133569254541 0.35064080706667677 0 -0.28367013121709428 0.3766845253301721 0 -0.291855491410693 0.36628078166111022 0 -0.29089111649843452 0.37291924787615061 0 -0.29783278761840098 0.36910154298605707 0 -0.29089111649843452 0.37291924787615061 0 -0.29783278761840098 0.36910154298605707 0 -0.29138016123221661 0.38040201236314081 0 -0.28790636077075987 0.35895628946959612 0 -0.30461276727517628 0.35754328265578972 0 -0.28459133569254541 0.35064080706667677 0 -0.28790636077075987 0.35895628946959612 0 -0.29483182615806358 0.35014893490878329 0 -0.28790636077075987 0.35895628946959612 0 -0.29483182615806358 0.35014893490878329 0 -0.30308377741024212 0.35543633545529668 0 -0.29707509991866038 0.33884467611174618 0 -0.28459133569254541 0.35064080706667677 0 -0.29483182615806358 0.35014893490878329 0 -0.28790636077075987 0.35895628946959612 0 -0.30308377741024212 0.35543633545529668 0 -0.30461276727517628 0.35754328265578972 0 -0.29483182615806358 0.35014893490878329 0 -0.30451243221496532 0.34568098359385607 0 -0.30308377741024212 0.35543633545529668 0 -0.29707509991866038 0.33884467611174618 0 -0.29483182615806358 0.35014893490878329 0 -0.30451243221496532 0.34568098359385607 0 -0.30308377741024212 0.35543633545529668 0 -0.30461276727517628 0.35754328265578972 0 -0.30308377741024212 0.35543633545529668 0 -0.30461276727517628 0.35754328265578972 0 -0.31346003334067712 0.34915357717690199 0 -0.30451243221496532 0.34568098359385607 0 -0.30308377741024212 0.35543633545529668 0 -0.31346003334067712 0.34915357717690199 0 -0.30461276727517628 0.35754328265578972 0 -0.29783278761840098 0.36910154298605707 0 -0.31549298678804882 0.3725362192141819 0 -0.29783278761840098 0.36910154298605707 0 -0.31549298678804882 0.3725362192141819 0 -0.29138016123221661 0.38040201236314081 0 -0.291855491410693 0.36628078166111022 0 -0.30461276727517628 0.35754328265578972 0 -0.29783278761840098 0.36910154298605707 0 -0.30461276727517628 0.35754328265578972 0 -0.31549298678804882 0.3725362192141819 0 -0.31549298678804882 0.3725362192141819 0 -0.31797238493267088 0.37172742005896231 0 -0.32654453833529251 0.37635933615731149 0 -0.31549298678804882 0.3725362192141819 0 -0.31797238493267088 0.37172742005896231 0 -0.31866593274111138 0.3646529983220862 0 -0.31549298678804882 0.3725362192141819 0 -0.31797238493267088 0.37172742005896231 0 -0.30461276727517628 0.35754328265578972 0 -0.31549298678804882 0.3725362192141819 0 -0.31866593274111138 0.3646529983220862 0 -0.31866593274111138 0.3646529983220862 0 -0.33098786372833022 0.36557683485728643 0 -0.32426366098133058 0.3558812348242108 0 -0.31797238493267088 0.37172742005896231 0 -0.31866593274111138 0.3646529983220862 0 -0.33098786372833022 0.36557683485728643 0 -0.31797238493267088 0.37172742005896231 0 -0.33098786372833022 0.36557683485728643 0 -0.32654453833529251 0.37635933615731149 0 -0.33098786372833022 0.36557683485728643 0 -0.33711340478422552 0.37558421607498932 0 -0.32654453833529251 0.37635933615731149 0 -0.33098786372833022 0.36557683485728643 0 -0.34581150585822229 0.36082526726043163 0 -0.34391455468748489 0.35421918699263011 0 -0.34581150585822229 0.36082526726043163 0 -0.33711340478422552 0.37558421607498932 0 -0.33098786372833022 0.36557683485728643 0 -0.34581150585822229 0.36082526726043163 0 -0.33711340478422552 0.37558421607498932 0 -0.32980596366267279 0.34463247423300303 0 -0.32426366098133058 0.3558812348242108 0 -0.34391455468748489 0.35421918699263011 0 -0.33098786372833022 0.36557683485728643 0 -0.32426366098133058 0.3558812348242108 0 -0.34391455468748489 0.35421918699263011 0 -0.32426366098133058 0.3558812348242108 0 -0.34391455468748489 0.35421918699263011 0 -0.30461276727517628 0.35754328265578972 0 -0.32426366098133058 0.3558812348242108 0 -0.31346003334067712 0.34915357717690199 0 -0.32980596366267279 0.34463247423300303 0 -0.32426366098133058 0.3558812348242108 0 -0.31346003334067712 0.34915357717690199 0 -0.30461276727517628 0.35754328265578972 0 -0.31866593274111138 0.3646529983220862 0 -0.32426366098133058 0.3558812348242108 0 -0.30461276727517628 0.35754328265578972 0 -0.32426366098133058 0.3558812348242108 0 -0.32980596366267279 0.34463247423300303 0 -0.31411142424718319 0.33482139431655222 0 -0.33705590760382281 0.33033413720211341 0 -0.31411142424718319 0.33482139431655222 0 -0.32311423163464692 0.31995092211256632 0 -0.33705590760382281 0.33033413720211341 0 -0.32980596366267279 0.34463247423300303 0 -0.31346003334067712 0.34915357717690199 0 -0.31411142424718319 0.33482139431655222 0 -0.30542008362082251 0.32533946422366988 0 -0.31411142424718319 0.33482139431655222 0 -0.32311423163464692 0.31995092211256632 0 -0.32311423163464692 0.31995092211256632 0 -0.34188639403676901 0.31720854293731271 0 -0.33705590760382281 0.33033413720211341 0 -0.32980596366267279 0.34463247423300303 0 -0.33705590760382281 0.33033413720211341 0 -0.34391455468748489 0.35421918699263011 0 -0.33705590760382281 0.33033413720211341 0 -0.34391455468748489 0.35421918699263011 0 -0.33705590760382281 0.33033413720211341 0 -0.35657860870015379 0.3425556336503689 0 -0.35551344665263018 0.32696515566588402 0 -0.33705590760382281 0.33033413720211341 0 -0.35657860870015379 0.3425556336503689 0 -0.34391455468748489 0.35421918699263011 0 -0.34188639403676901 0.31720854293731271 0 -0.33705590760382281 0.33033413720211341 0 -0.35551344665263018 0.32696515566588402 0 -0.35877804075186731 0.31077356936836159 0 -0.34188639403676901 0.31720854293731271 0 -0.35551344665263018 0.32696515566588402 0 -0.35877804075186731 0.31077356936836159 0 -0.35551344665263018 0.32696515566588402 0 -0.37214106851808199 0.32593184072275072 0 -0.37561790996601591 0.31062122265366471 0 -0.35877804075186731 0.31077356936836159 0 -0.37214106851808199 0.32593184072275072 0 -0.35551344665263018 0.32696515566588402 0 -0.37214106851808199 0.32593184072275072 0 -0.36840613925911869 0.33927986123385312 0 -0.35657860870015379 0.3425556336503689 0 -0.35551344665263018 0.32696515566588402 0 -0.36840613925911869 0.33927986123385312 0 -0.38577013882049799 0.34234764835718978 0 -0.36840613925911869 0.33927986123385312 0 -0.36872453066584288 0.35212079048237599 0 -0.36872453066584288 0.35212079048237599 0 -0.36035496345206169 0.36459887646941752 0 -0.35000852081566453 0.3537037670152744 0 -0.35657860870015379 0.3425556336503689 0 -0.36840613925911869 0.33927986123385312 0 -0.36872453066584288 0.35212079048237599 0 -0.38053664101839191 0.36192497145719149 0 -0.36872453066584288 0.35212079048237599 0 -0.36035496345206169 0.36459887646941752 0 -0.38053664101839191 0.36192497145719149 0 -0.36035496345206169 0.36459887646941752 0 -0.37308192128755968 0.37697964105510451 0 -0.36035496345206169 0.36459887646941752 0 -0.34581150585822229 0.36082526726043163 0 -0.35316349660779672 0.38642837279579878 0 -0.34581150585822229 0.36082526726043163 0 -0.35316349660779672 0.38642837279579878 0 -0.33711340478422552 0.37558421607498932 0 -0.34581150585822229 0.36082526726043163 0 -0.35316349660779672 0.38642837279579878 0 -0.36035496345206169 0.36459887646941752 0 -0.34581150585822229 0.36082526726043163 0 -0.35000852081566453 0.3537037670152744 0 -0.34581150585822229 0.36082526726043163 0 -0.34391455468748489 0.35421918699263011 0 -0.35657860870015379 0.3425556336503689 0 -0.36872453066584288 0.35212079048237599 0 -0.35000852081566453 0.3537037670152744 0 -0.36872453066584288 0.35212079048237599 0 -0.35000852081566453 0.3537037670152744 0 -0.34581150585822229 0.36082526726043163 0 -0.35000852081566453 0.3537037670152744 0 -0.34391455468748489 0.35421918699263011 0 -0.34581150585822229 0.36082526726043163 0 -0.35000852081566453 0.3537037670152744 0 -0.35000852081566453 0.3537037670152744 0 -0.34391455468748489 0.35421918699263011 0 -0.35657860870015379 0.3425556336503689 0 -0.35000852081566453 0.3537037670152744 0 -0.34391455468748489 0.35421918699263011 0 -0.35657860870015379 0.3425556336503689 0 -0.35000852081566453 0.3537037670152744 0 -0.35316349660779672 0.38642837279579878 0 -0.36051548735737521 0.41203147833116482 0 -0.34371758288025878 0.40540050739650979 0 -0.35316349660779672 0.38642837279579878 0 -0.34043510433909852 0.39343211041710058 0 -0.34371758288025878 0.40540050739650979 0 -0.35316349660779672 0.38642837279579878 0 -0.36051548735737521 0.41203147833116482 0 -0.38140417663694509 0.39666361527351879 0 -0.35316349660779672 0.38642837279579878 0 -0.37308192128755968 0.37697964105510451 0 -0.36035496345206169 0.36459887646941752 0 -0.35316349660779672 0.38642837279579878 0 -0.37308192128755968 0.37697964105510451 0 -0.38140417663694509 0.39666361527351879 0 -0.35316349660779672 0.38642837279579878 0 -0.36051548735737521 0.41203147833116482 0 -0.38411326391858958 0.42134669801900693 0 -0.36111162496301602 0.41410751114335198 0 -0.36316028445023868 0.42336831983417772 0 -0.38411326391858958 0.42134669801900693 0 -0.36051548735737521 0.41203147833116482 0 -0.38411326391858958 0.42134669801900693 0 -0.36111162496301602 0.41410751114335198 0 -0.36051548735737521 0.41203147833116482 0 -0.3595661592327532 0.4192393763204012 0 -0.36111162496301602 0.41410751114335198 0 -0.36316028445023868 0.42336831983417772 0 -0.36111162496301602 0.41410751114335198 0 -0.36051548735737521 0.41203147833116482 0 -0.38411326391858958 0.42134669801900693 0 -0.36273211952709972 0.44029559154655168 0 -0.36316028445023868 0.42336831983417772 0 -0.3564845335565815 0.4290225483184727 0 -0.36273211952709972 0.44029559154655168 0 -0.38411326391858958 0.42134669801900693 0 -0.36316028445023868 0.42336831983417772 0 -0.36273211952709972 0.44029559154655168 0 -0.3595661592327532 0.4192393763204012 0 -0.36316028445023868 0.42336831983417772 0 -0.3564845335565815 0.4290225483184727 0 -0.3564845335565815 0.4290225483184727 0 -0.3459903929534579 0.43935321507684449 0 -0.36273211952709972 0.44029559154655168 0 -0.3564845335565815 0.4290225483184727 0 -0.35087411795249818 0.42129139867404558 0 -0.3459903929534579 0.43935321507684449 0 -0.3595661592327532 0.4192393763204012 0 -0.3564845335565815 0.4290225483184727 0 -0.35517009810727951 0.41769325154718251 0 -0.3564845335565815 0.4290225483184727 0 -0.35517009810727951 0.41769325154718251 0 -0.35087411795249818 0.42129139867404558 0 -0.3564845335565815 0.4290225483184727 0 -0.35087411795249818 0.42129139867404558 0 -0.35087411795249818 0.42129139867404558 0 -0.34371758288025878 0.40540050739650979 0 -0.33964471083136571 0.40581728178179621 0 -0.36051548735737521 0.41203147833116482 0 -0.34371758288025878 0.40540050739650979 0 -0.35517009810727951 0.41769325154718251 0 -0.35087411795249818 0.42129139867404558 0 -0.34371758288025878 0.40540050739650979 0 -0.36051548735737521 0.41203147833116482 0 -0.35517009810727951 0.41769325154718251 0 -0.34371758288025878 0.40540050739650979 0 -0.36111162496301602 0.41410751114335198 0 -0.36051548735737521 0.41203147833116482 0 -0.35517009810727951 0.41769325154718251 0 -0.3595661592327532 0.4192393763204012 0 -0.36111162496301602 0.41410751114335198 0 -0.35517009810727951 0.41769325154718251 0 -0.35517009810727951 0.41769325154718251 0 -0.35087411795249818 0.42129139867404558 0 -0.35087411795249818 0.42129139867404558 0 -0.33964471083136571 0.40581728178179621 0 -0.35087411795249818 0.42129139867404558 0 -0.3251826359379294 0.42261380445516028 0 -0.33964471083136571 0.40581728178179621 0 -0.35087411795249818 0.42129139867404558 0 -0.33281576374009347 0.43641637900081098 0 -0.3251826359379294 0.42261380445516028 0 -0.35087411795249818 0.42129139867404558 0 -0.33281576374009347 0.43641637900081098 0 -0.35087411795249818 0.42129139867404558 0 -0.33281576374009347 0.43641637900081098 0 -0.3459903929534579 0.43935321507684449 0 -0.3251826359379294 0.42261380445516028 0 -0.3199450734187258 0.43019021739162261 0 -0.30860579447516628 0.42614397422754169 0 -0.33281576374009347 0.43641637900081098 0 -0.3199450734187258 0.43019021739162261 0 -0.31317609952171388 0.43558671188297748 0 -0.33281576374009347 0.43641637900081098 0 -0.3251826359379294 0.42261380445516028 0 -0.3199450734187258 0.43019021739162261 0 -0.3199450734187258 0.43019021739162261 0 -0.31317609952171388 0.43558671188297748 0 -0.30860579447516628 0.42614397422754169 0 -0.3251826359379294 0.42261380445516028 0 -0.31775162710097699 0.40843730473824502 0 -0.33964471083136571 0.40581728178179621 0 -0.3251826359379294 0.42261380445516028 0 -0.31775162710097699 0.40843730473824502 0 -0.30860579447516628 0.42614397422754169 0 -0.31775162710097699 0.40843730473824502 0 -0.32841530371023098 0.39034316488954829 0 -0.30886072066142101 0.39100814250577071 0 -0.31775162710097699 0.40843730473824502 0 -0.32841530371023098 0.39034316488954829 0 -0.31775162710097699 0.40843730473824502 0 -0.33964471083136571 0.40581728178179621 0 -0.32841530371023098 0.39034316488954829 0 -0.33964471083136571 0.40581728178179621 0 -0.32841530371023098 0.39034316488954829 0 -0.34043510433909852 0.39343211041710058 0 -0.33964471083136571 0.40581728178179621 0 -0.32841530371023098 0.39034316488954829 0 -0.34043510433909852 0.39343211041710058 0 -0.34371758288025878 0.40540050739650979 0 -0.33964471083136571 0.40581728178179621 0 -0.35316349660779672 0.38642837279579878 0 -0.34043510433909852 0.39343211041710058 0 -0.33711340478422552 0.37558421607498932 0 -0.34043510433909852 0.39343211041710058 0 -0.33711340478422552 0.37558421607498932 0 -0.32841530371023098 0.39034316488954829 0 -0.33711340478422552 0.37558421607498932 0 -0.32841530371023098 0.39034316488954829 0 -0.33711340478422552 0.37558421607498932 0 -0.32841530371023098 0.39034316488954829 0 -0.32654453833529251 0.37635933615731149 0 -0.31549298678804882 0.3725362192141819 0 -0.32841530371023098 0.39034316488954829 0 -0.30886072066142101 0.39100814250577071 0 -0.31549298678804882 0.3725362192141819 0 -0.32841530371023098 0.39034316488954829 0 -0.32654453833529251 0.37635933615731149 0 -0.31549298678804882 0.3725362192141819 0 -0.32841530371023098 0.39034316488954829 0 -0.31549298678804882 0.3725362192141819 0 -0.29138016123221661 0.38040201236314081 0 -0.31549298678804882 0.3725362192141819 0 -0.30886072066142101 0.39100814250577071 0 -0.29138016123221661 0.38040201236314081 0 -0.30886072066142101 0.39100814250577071 0 -0.30176975838319597 0.40614034444945851 0 -0.28850180653355068 0.39589245962026409 0 -0.31775162710097699 0.40843730473824502 0 -0.30886072066142101 0.39100814250577071 0 -0.30176975838319597 0.40614034444945851 0 -0.30176975838319597 0.40614034444945851 0 -0.28850180653355068 0.39589245962026409 0 -0.28794375856830778 0.40988084241051581 0 -0.28850180653355068 0.39589245962026409 0 -0.2750541955962118 0.40470051900661158 0 -0.28794375856830778 0.40988084241051581 0 -0.30886072066142101 0.39100814250577071 0 -0.28850180653355068 0.39589245962026409 0 -0.29138016123221661 0.38040201236314081 0 -0.28850180653355068 0.39589245962026409 0 -0.29138016123221661 0.38040201236314081 0 -0.26726733567638428 0.38826780551209977 0 -0.29138016123221661 0.38040201236314081 0 -0.28367013121709428 0.3766845253301721 0 -0.27626107345494672 0.38033244231372743 0 -0.29089111649843452 0.37291924787615061 0 -0.29138016123221661 0.38040201236314081 0 -0.28367013121709428 0.3766845253301721 0 -0.29138016123221661 0.38040201236314081 0 -0.27626107345494672 0.38033244231372743 0 -0.26726733567638428 0.38826780551209977 0 -0.27055524767236178 0.3740667518285905 0 -0.27616536711970008 0.37225187755713018 0 -0.27626107345494672 0.38033244231372743 0 -0.27616536711970008 0.37225187755713018 0 -0.28367013121709428 0.3766845253301721 0 -0.27626107345494672 0.38033244231372743 0 -0.29138016123221661 0.38040201236314081 0 -0.26726733567638428 0.38826780551209977 0 -0.27055524767236178 0.3740667518285905 0 -0.27626107345494672 0.38033244231372743 0 -0.26792427522973572 0.38016676672371491 0 -0.27055524767236178 0.3740667518285905 0 -0.26792427522973572 0.38016676672371491 0 -0.26599387380891859 0.37588532433855648 0 -0.27626107345494672 0.38033244231372743 0 -0.26792427522973572 0.38016676672371491 0 -0.26726733567638428 0.38826780551209977 0 -0.26792427522973572 0.38016676672371491 0 -0.26726733567638428 0.38826780551209977 0 -0.26437520833431249 0.38251847541194389 0 -0.26726733567638428 0.38826780551209977 0 -0.26664664193402909 0.39827721789696968 0 -0.27317121789450249 0.41097514049203943 0 -0.28850180653355068 0.39589245962026409 0 -0.26726733567638428 0.38826780551209977 0 -0.2750541955962118 0.40470051900661158 0 -0.26726733567638428 0.38826780551209977 0 -0.27317121789450249 0.41097514049203943 0 -0.26726733567638428 0.38826780551209977 0 -0.2750541955962118 0.40470051900661158 0 -0.27317121789450249 0.41097514049203943 0 -0.26726733567638428 0.38826780551209977 0 -0.26664664193402909 0.39827721789696968 0 -0.25505961061694071 0.40004559139494289 0 -0.26664664193402909 0.39827721789696968 0 -0.25505961061694071 0.40004559139494289 0 -0.24731120580234131 0.41492324013528398 0 -0.26726733567638428 0.38826780551209977 0 -0.25505961061694071 0.40004559139494289 0 -0.2481375357009743 0.39450809656547009 0 -0.26726733567638428 0.38826780551209977 0 -0.2481375357009743 0.39450809656547009 0 -0.26726733567638428 0.38826780551209977 0 -0.25509250894188418 0.38662660351746281 0 -0.2481375357009743 0.39450809656547009 0 -0.25509250894188418 0.38662660351746281 0 -0.25724548729022118 0.37993196468426382 0 -0.2610418684181256 0.38464043947443022 0 -0.25509250894188418 0.38662660351746281 0 -0.25091287677097768 0.37673746352190368 0 -0.25724548729022118 0.37993196468426382 0 -0.25732574761791338 0.3727848793944793 0 -0.25091287677097768 0.37673746352190368 0 -0.25724548729022118 0.37993196468426382 0 -0.25724548729022118 0.37993196468426382 0 -0.26163059906557168 0.37839599218038023 0 -0.2610418684181256 0.38464043947443022 0 -0.25732574761791338 0.3727848793944793 0 -0.25724548729022118 0.37993196468426382 0 -0.26163059906557168 0.37839599218038023 0 -0.26386537326800541 0.37091178662154062 0 -0.26599387380891859 0.37588532433855648 0 -0.26163059906557168 0.37839599218038023 0 -0.26792427522973572 0.38016676672371491 0 -0.26599387380891859 0.37588532433855648 0 -0.26163059906557168 0.37839599218038023 0 -0.26163059906557168 0.37839599218038023 0 -0.26437520833431249 0.38251847541194389 0 -0.2610418684181256 0.38464043947443022 0 -0.26792427522973572 0.38016676672371491 0 -0.26163059906557168 0.37839599218038023 0 -0.26437520833431249 0.38251847541194389 0 -0.26726733567638428 0.38826780551209977 0 -0.26437520833431249 0.38251847541194389 0 -0.2610418684181256 0.38464043947443022 0 -0.26726733567638428 0.38826780551209977 0 -0.25509250894188418 0.38662660351746281 0 -0.2610418684181256 0.38464043947443022 0 -0.26330684902596407 0.42566103453547632 0 -0.25331280556017471 0.44025899166082599 0 -0.2431553579901076 0.42999901293818088 0 -0.26330684902596407 0.42566103453547632 0 -0.24731120580234131 0.41492324013528398 0 -0.2431553579901076 0.42999901293818088 0 -0.26330684902596407 0.42566103453547632 0 -0.27907510011262088 0.43368247547197891 0 -0.25331280556017471 0.44025899166082599 0 -0.26330684902596407 0.42566103453547632 0 -0.26260897866420929 0.41245915826494228 0 -0.24731120580234131 0.41492324013528398 0 -0.26664664193402909 0.39827721789696968 0 -0.24731120580234131 0.41492324013528398 0 -0.26664664193402909 0.39827721789696968 0 -0.26260897866420929 0.41245915826494228 0 -0.24731120580234131 0.41492324013528398 0 -0.2750541955962118 0.40470051900661158 0 -0.28467807423216501 0.43225216615198431 0 -0.26330684902596407 0.42566103453547632 0 -0.26260897866420929 0.41245915826494228 0 -0.27317121789450249 0.41097514049203943 0 -0.2750541955962118 0.40470051900661158 0 -0.27317121789450249 0.41097514049203943 0 -0.28467807423216501 0.43225216615198431 0 -0.26664664193402909 0.39827721789696968 0 -0.26260897866420929 0.41245915826494228 0 -0.27317121789450249 0.41097514049203943 0 -0.27317121789450249 0.41097514049203943 0 -0.27907510011262088 0.43368247547197891 0 -0.28467807423216501 0.43225216615198431 0 -0.27907510011262088 0.43368247547197891 0 -0.25331280556017471 0.44025899166082599 0 -0.27317121789450249 0.41097514049203943 0 -0.27907510011262088 0.43368247547197891 0 -0.26330684902596407 0.42566103453547632 0 -0.27317121789450249 0.41097514049203943 0 -0.27907510011262088 0.43368247547197891 0 -0.28467807423216501 0.43225216615198431 0 -0.30708795049172433 0.42653144458694248 0 -0.28467807423216501 0.43225216615198431 0 -0.30708795049172433 0.42653144458694248 0 -0.29806814438587742 0.44183626290314099 0 -0.28467807423216501 0.43225216615198431 0 -0.29505361268973967 0.4174399722682216 0 -0.30708795049172433 0.42653144458694248 0 -0.27907510011262088 0.43368247547197891 0 -0.28467807423216501 0.43225216615198431 0 -0.28467807423216501 0.43225216615198431 0 -0.28794375856830778 0.40988084241051581 0 -0.29505361268973967 0.4174399722682216 0 -0.2750541955962118 0.40470051900661158 0 -0.28467807423216501 0.43225216615198431 0 -0.28794375856830778 0.40988084241051581 0 -0.30176975838319597 0.40614034444945851 0 -0.28794375856830778 0.40988084241051581 0 -0.29505361268973967 0.4174399722682216 0 -0.31775162710097699 0.40843730473824502 0 -0.30708795049172433 0.42653144458694248 0 -0.30176975838319597 0.40614034444945851 0 -0.29505361268973967 0.4174399722682216 0 -0.30708795049172433 0.42653144458694248 0 -0.31775162710097699 0.40843730473824502 0 -0.30708795049172433 0.42653144458694248 0 -0.30860579447516628 0.42614397422754169 0 -0.31775162710097699 0.40843730473824502 0 -0.30176975838319597 0.40614034444945851 0 -0.30708795049172433 0.42653144458694248 0 -0.30708795049172433 0.42653144458694248 0 -0.29806814438587742 0.44183626290314099 0 -0.31317609952171388 0.43558671188297748 0 -0.30708795049172433 0.42653144458694248 0 -0.30860579447516628 0.42614397422754169 0 -0.30708795049172433 0.42653144458694248 0 -0.30860579447516628 0.42614397422754169 0 -0.31317609952171388 0.43558671188297748 0 -0.30708795049172433 0.42653144458694248 0 -0.29806814438587742 0.44183626290314099 0 -0.29806814438587742 0.44183626290314099 0 -0.29068856477372462 0.44945925290316302 0 -0.31475740952768888 0.45154135932757622 0 -0.31317609952171388 0.43558671188297748 0 -0.29806814438587742 0.44183626290314099 0 -0.31475740952768888 0.45154135932757622 0 -0.29669905531528429 0.46666633965434162 0 -0.31285130167923919 0.47376574235416591 0 -0.31475740952768888 0.45154135932757622 0 -0.29669905531528429 0.46666633965434162 0 -0.29068856477372462 0.44945925290316302 0 -0.31475740952768888 0.45154135932757622 0 -0.29669905531528429 0.46666633965434162 0 -0.31475740952768888 0.45154135932757622 0 -0.28392789749485031 0.46019307462928971 0 -0.28699656134937518 0.46414976245164968 0 -0.28340535885816098 0.47780062658985101 0 -0.29669905531528429 0.46666633965434162 0 -0.29068856477372462 0.44945925290316302 0 -0.29669905531528429 0.46666633965434162 0 -0.28699656134937518 0.46414976245164968 0 -0.29068856477372462 0.44945925290316302 0 -0.28699656134937518 0.46414976245164968 0 -0.28303583073099808 0.44891611896181433 0 -0.28392789749485031 0.46019307462928971 0 -0.28699656134937518 0.46414976245164968 0 -0.28303583073099808 0.44891611896181433 0 -0.28699656134937518 0.46414976245164968 0 -0.29068856477372462 0.44945925290316302 0 -0.28303583073099808 0.44891611896181433 0 -0.27907510011262088 0.43368247547197891 0 -0.28467807423216501 0.43225216615198431 0 -0.28303583073099808 0.44891611896181433 0 -0.28467807423216501 0.43225216615198431 0 -0.29068856477372462 0.44945925290316302 0 -0.28467807423216501 0.43225216615198431 0 -0.29068856477372462 0.44945925290316302 0 -0.28303583073099808 0.44891611896181433 0 -0.28467807423216501 0.43225216615198431 0 -0.29806814438587742 0.44183626290314099 0 -0.29068856477372462 0.44945925290316302 0 -0.27907510011262088 0.43368247547197891 0 -0.28303583073099808 0.44891611896181433 0 -0.27907510011262088 0.43368247547197891 0 -0.28303583073099808 0.44891611896181433 0 -0.27070857180740437 0.44691355687595657 0 -0.27907510011262088 0.43368247547197891 0 -0.27070857180740437 0.44691355687595657 0 -0.25331280556017471 0.44025899166082599 0 -0.28303583073099808 0.44891611896181433 0 -0.27070857180740437 0.44691355687595657 0 -0.2724535562513587 0.45852101768821057 0 -0.28392789749485031 0.46019307462928971 0 -0.28303583073099808 0.44891611896181433 0 -0.2724535562513587 0.45852101768821057 0 -0.28392789749485031 0.46019307462928971 0 -0.2724535562513587 0.45852101768821057 0 -0.2614910153427481 0.48009653731464541 0 -0.2724535562513587 0.45852101768821057 0 -0.26310446588079273 0.45648580065934741 0 -0.2614910153427481 0.48009653731464541 0 -0.27070857180740437 0.44691355687595657 0 -0.2724535562513587 0.45852101768821057 0 -0.26310446588079273 0.45648580065934741 0 -0.26310446588079273 0.45648580065934741 0 -0.25269346093040262 0.46687103503289329 0 -0.2614910153427481 0.48009653731464541 0 -0.26310446588079273 0.45648580065934741 0 -0.25269346093040262 0.46687103503289329 0 -0.25163548073391828 0.45481593471092191 0 -0.26310446588079273 0.45648580065934741 0 -0.25163548073391828 0.45481593471092191 0 -0.25331280556017471 0.44025899166082599 0 -0.27070857180740437 0.44691355687595657 0 -0.26310446588079273 0.45648580065934741 0 -0.25331280556017471 0.44025899166082599 0 -0.2614910153427481 0.48009653731464541 0 -0.23905413319064581 0.50000000000000067 0 -0.2614910153427481 0.48009653731464541 0 -0.26741699425246312 0.5 0 -0.23905413319064581 0.50000000000000067 0 -0.25269346093040262 0.46687103503289329 0 -0.2614910153427481 0.48009653731464541 0 -0.2373209964795541 0.47867397727431937 0 -0.2614910153427481 0.48009653731464541 0 -0.28018571054228691 0.48984091033655769 0 -0.28340535885816098 0.47780062658985101 0 -0.28392789749485031 0.46019307462928971 0 -0.2614910153427481 0.48009653731464541 0 -0.28340535885816098 0.47780062658985101 0 -0.28392789749485031 0.46019307462928971 0 -0.2614910153427481 0.48009653731464541 0 -0.28018571054228691 0.48984091033655769 0 -0.26741699425246312 0.5 0 -0.29577985531428053 0.49999999999999978 0 -0.2614910153427481 0.48009653731464541 0 -0.28018571054228691 0.48984091033655769 0 -0.26741699425246312 0.5 0 -0.28018571054228691 0.48984091033655769 0 -0.29244713914259862 0.48603160055608519 0 -0.28340535885816098 0.47780062658985101 0 -0.28018571054228691 0.48984091033655769 0 -0.29244713914259862 0.48603160055608519 0 -0.29577985531428053 0.49999999999999978 0 -0.29669905531528429 0.46666633965434162 0 -0.29244713914259862 0.48603160055608519 0 -0.28340535885816098 0.47780062658985101 0 -0.29669905531528429 0.46666633965434162 0 -0.28699656134937518 0.46414976245164968 0 -0.28340535885816098 0.47780062658985101 0 -0.29669905531528429 0.46666633965434162 0 -0.28340535885816098 0.47780062658985101 0 -0.29669905531528429 0.46666633965434162 0 -0.30597162078238949 0.49321223258857172 0 -0.29669905531528429 0.46666633965434162 0 -0.30597162078238949 0.49321223258857172 0 -0.31285130167923919 0.47376574235416591 0 -0.29669905531528429 0.46666633965434162 0 -0.29244713914259862 0.48603160055608519 0 -0.30597162078238949 0.49321223258857172 0 -0.29244713914259862 0.48603160055608519 0 -0.29577985531428053 0.49999999999999978 0 -0.30597162078238949 0.49321223258857172 0 -0.29577985531428053 0.49999999999999978 0 -0.30597162078238949 0.49321223258857172 0 -0.29577985531428053 0.49999999999999978 0 -0.30597162078238949 0.49321223258857172 0 -0.30834260969030969 0.49999999999999811 0 -0.30597162078238949 0.49321223258857172 0 -0.30834260969030969 0.49999999999999811 0 -0.30597162078238949 0.49321223258857172 0 -0.3301788939229412 0.47709006609474502 0 -0.37718483160402932 0.5 0 -0.30834260969030969 0.49999999999999811 0 -0.34869704695335307 0.48276436659618971 0 -0.30834260969030969 0.49999999999999811 0 -0.3301788939229412 0.47709006609474502 0 -0.34869704695335307 0.48276436659618971 0 -0.30597162078238949 0.49321223258857172 0 -0.30834260969030969 0.49999999999999811 0 -0.3301788939229412 0.47709006609474502 0 -0.3301788939229412 0.47709006609474502 0 -0.3543861670634918 0.46096789960091661 0 -0.3301788939229412 0.47709006609474502 0 -0.31285130167923919 0.47376574235416591 0 -0.32616468561486889 0.4622981081395347 0 -0.30597162078238949 0.49321223258857172 0 -0.3301788939229412 0.47709006609474502 0 -0.31285130167923919 0.47376574235416591 0 -0.31285130167923919 0.47376574235416591 0 -0.32616468561486889 0.4622981081395347 0 -0.31475740952768888 0.45154135932757622 0 -0.32616468561486889 0.4622981081395347 0 -0.31475740952768888 0.45154135932757622 0 -0.33168484780886609 0.44984888784709048 0 -0.33281576374009347 0.43641637900081098 0 -0.31475740952768888 0.45154135932757622 0 -0.33168484780886609 0.44984888784709048 0 -0.33281576374009347 0.43641637900081098 0 -0.31475740952768888 0.45154135932757622 0 -0.33281576374009347 0.43641637900081098 0 -0.31317609952171388 0.43558671188297748 0 -0.31475740952768888 0.45154135932757622 0 -0.33168484780886609 0.44984888784709048 0 -0.34135097513560902 0.45924448507409571 0 -0.3459903929534579 0.43935321507684449 0 -0.33281576374009347 0.43641637900081098 0 -0.33168484780886609 0.44984888784709048 0 -0.3459903929534579 0.43935321507684449 0 -0.3301788939229412 0.47709006609474502 0 -0.34135097513560902 0.45924448507409571 0 -0.3543861670634918 0.46096789960091661 0 -0.3301788939229412 0.47709006609474502 0 -0.32616468561486889 0.4622981081395347 0 -0.34135097513560902 0.45924448507409571 0 -0.32616468561486889 0.4622981081395347 0 -0.33168484780886609 0.44984888784709048 0 -0.34135097513560902 0.45924448507409571 0 -0.38729888651629302 0.45683535036774542 0 -0.3785934402040424 0.44484573310708808 0 -0.3543861670634918 0.46096789960091661 0 -0.34135097513560902 0.45924448507409571 0 -0.3543861670634918 0.46096789960091661 0 -0.36273211952709972 0.44029559154655168 0 -0.38729888651629302 0.45683535036774542 0 -0.3543861670634918 0.46096789960091661 0 -0.37339273248599281 0.47576386728528902 0 -0.34135097513560902 0.45924448507409571 0 -0.36273211952709972 0.44029559154655168 0 -0.34135097513560902 0.45924448507409571 0 -0.3459903929534579 0.43935321507684449 0 -0.36273211952709972 0.44029559154655168 0 -0.3785934402040424 0.44484573310708808 0 -0.3543861670634918 0.46096789960091661 0 -0.36273211952709972 0.44029559154655168 0 -0.3785934402040424 0.44484573310708808 0 -0.3543861670634918 0.46096789960091661 0 -0.37718483160402932 0.5 0 -0.37339273248599281 0.47576386728528902 0 -0.34869704695335307 0.48276436659618971 0 -0.3301788939229412 0.47709006609474502 0 -0.3543861670634918 0.46096789960091661 0 -0.34869704695335307 0.48276436659618971 0 -0.3543861670634918 0.46096789960091661 0 -0.37339273248599281 0.47576386728528902 0 -0.34869704695335307 0.48276436659618971 0 -0.14935927993560361 0.482123924481344 0 -0.1488412748393807 0.46534047473873269 0 -0.16521342107828049 0.47057054110123508 0 -0.14935927993560361 0.482123924481344 0 -0.13500126002409349 0.47081655493691549 0 -0.1488412748393807 0.46534047473873269 0 -0.14935927993560361 0.482123924481344 0 -0.14698242994402999 0.50000000000000155 0 -0.13347674227911799 0.48601597611118108 0 -0.14935927993560361 0.482123924481344 0 -0.14698242994402999 0.50000000000000155 0 -0.1666405514487197 0.499999999999997 0 -0.13347674227911799 0.48601597611118108 0 -0.13280886143312329 0.49267473905830189 0 -0.14698242994402999 0.50000000000000155 0 -0.13347674227911799 0.48601597611118108 0 -0.13280886143312329 0.49267473905830189 0 -0.14698242994402999 0.50000000000000155 0 -0.13465231946070799 0.499999999999999 0 -0.13280886143312329 0.49267473905830189 0 -0.14698242994402999 0.50000000000000155 0 -0.13347674227911799 0.48601597611118108 0 -0.13465231946070799 0.499999999999999 0 -0.13280886143312329 0.49267473905830189 0 -0.13465231946070799 0.499999999999999 0 -0.13207413014539041 0.500000000000006 0 -0.13280886143312329 0.49267473905830189 0 -0.13207413014539041 0.500000000000006 0 -0.12696377206690171 0.49566061645915188 0 -0.11877045042250441 0.50000000000000377 0 -0.13280886143312329 0.49267473905830189 0 -0.12696377206690171 0.49566061645915188 0 -0.12420164626658579 0.48996772677829548 0 -0.13207413014539041 0.500000000000006 0 -0.13280886143312329 0.49267473905830189 0 -0.13207413014539041 0.500000000000006 0 -0.13280886143312329 0.49267473905830189 0 -0.12696377206690171 0.49566061645915188 0 -0.13280886143312329 0.49267473905830189 0 -0.1303072579155207 0.48273423687987022 0 -0.13347674227911799 0.48601597611118108 0 -0.13280886143312329 0.49267473905830189 0 -0.1303072579155207 0.48273423687987022 0 -0.13280886143312329 0.49267473905830189 0 -0.1303072579155207 0.48273423687987022 0 -0.12420164626658579 0.48996772677829548 0 -0.1303072579155207 0.48273423687987022 0 -0.1241918952771781 0.45843391302733461 0 -0.14935927993560361 0.482123924481344 0 -0.13347674227911799 0.48601597611118108 0 -0.13500126002409349 0.47081655493691549 0 -0.1303072579155207 0.48273423687987022 0 -0.13500126002409349 0.47081655493691549 0 -0.1241918952771781 0.45843391302733461 0 -0.13347674227911799 0.48601597611118108 0 -0.1303072579155207 0.48273423687987022 0 -0.13347674227911799 0.48601597611118108 0 -0.13500126002409349 0.47081655493691549 0 -0.13347674227911799 0.48601597611118108 0 -0.1303072579155207 0.48273423687987022 0 -0.13500126002409349 0.47081655493691549 0 -0.13500126002409349 0.47081655493691549 0 -0.1365257777690716 0.45561713376265017 0 -0.1241918952771781 0.45843391302733461 0 -0.1365257777690716 0.45561713376265017 0 -0.1278319557291811 0.44992854849024039 0 -0.1241918952771781 0.45843391302733461 0 -0.1365257777690716 0.45561713376265017 0 -0.1241918952771781 0.45843391302733461 0 -0.13500126002409349 0.47081655493691549 0 -0.1365257777690716 0.45561713376265017 0 -0.1488412748393807 0.46534047473873269 0 -0.13500126002409349 0.47081655493691549 0 -0.1365257777690716 0.45561713376265017 0 -0.1365257777690716 0.45561713376265017 0 -0.1306959818988441 0.44422743441813822 0 -0.1385849076200201 0.4350876371659167 0 -0.1365257777690716 0.45561713376265017 0 -0.1385849076200201 0.4350876371659167 0 -0.1306959818988441 0.44422743441813822 0 -0.1291728855482859 0.43635421317304851 0 -0.11991416797163031 0.44143571275283788 0 -0.1306959818988441 0.44422743441813822 0 -0.1278319557291811 0.44992854849024039 0 -0.11991416797163031 0.44143571275283788 0 -0.1306959818988441 0.44422743441813822 0 -0.1385849076200201 0.4350876371659167 0 -0.1291728855482859 0.43635421317304851 0 -0.1365257777690716 0.45561713376265017 0 -0.1306959818988441 0.44422743441813822 0 -0.1278319557291811 0.44992854849024039 0 -0.1365257777690716 0.45561713376265017 0 -0.1511110733117324 0.43936625953420522 0 -0.1385849076200201 0.4350876371659167 0 -0.1365257777690716 0.45561713376265017 0 -0.15613024939206041 0.45113991669827569 0 -0.1511110733117324 0.43936625953420522 0 -0.1365257777690716 0.45561713376265017 0 -0.15613024939206041 0.45113991669827569 0 -0.1488412748393807 0.46534047473873269 0 -0.1365257777690716 0.45561713376265017 0 -0.15613024939206041 0.45113991669827569 0 -0.1637862907078412 0.44114108220247322 0 -0.16521342107828049 0.47057054110123508 0 -0.15613024939206041 0.45113991669827569 0 -0.1488412748393807 0.46534047473873269 0 -0.16521342107828049 0.47057054110123508 0 -0.15613024939206041 0.45113991669827569 0 -0.1637862907078412 0.44114108220247322 0 -0.16521342107828049 0.47057054110123508 0 -0.1637862907078412 0.44114108220247322 0 -0.18284635934875729 0.45637045440085522 0 -0.16521342107828049 0.47057054110123508 0 -0.15613024939206041 0.45113991669827569 0 -0.1511110733117324 0.43936625953420522 0 -0.1637862907078412 0.44114108220247322 0 -0.1637862907078412 0.44114108220247322 0 -0.18693263735845669 0.4391234174244229 0 -0.18284635934875729 0.45637045440085522 0 -0.18284635934875729 0.45637045440085522 0 -0.16521342107828049 0.47057054110123508 0 -0.18976736553875551 0.47129652384998272 0 -0.16521342107828049 0.47057054110123508 0 -0.1797643476492774 0.48476570115886392 0 -0.18976736553875551 0.47129652384998272 0 -0.14935927993560361 0.482123924481344 0 -0.16521342107828049 0.47057054110123508 0 -0.1666405514487197 0.499999999999997 0 -0.16521342107828049 0.47057054110123508 0 -0.1666405514487197 0.499999999999997 0 -0.16521342107828049 0.47057054110123508 0 -0.1666405514487197 0.499999999999997 0 -0.1797643476492774 0.48476570115886392 0 -0.1666405514487197 0.499999999999997 0 -0.1797643476492774 0.48476570115886392 0 -0.19077841202936169 0.5 0 -0.19077841202936169 0.5 0 -0.20140952300388551 0.4833864388960385 0 -0.21491627261000371 0.5 0 -0.1797643476492774 0.48476570115886392 0 -0.19077841202936169 0.5 0 -0.20140952300388551 0.4833864388960385 0 -0.1797643476492774 0.48476570115886392 0 -0.20140952300388551 0.4833864388960385 0 -0.18976736553875551 0.47129652384998272 0 -0.20140952300388551 0.4833864388960385 0 -0.18976736553875551 0.47129652384998272 0 -0.20545960732411631 0.46532248650808472 0 -0.20140952300388551 0.4833864388960385 0 -0.218324134615762 0.47833456514041589 0 -0.20545960732411631 0.46532248650808472 0 -0.20140952300388551 0.4833864388960385 0 -0.218324134615762 0.47833456514041589 0 -0.21491627261000371 0.5 0 -0.21491627261000371 0.5 0 -0.2373209964795541 0.47867397727431937 0 -0.23905413319064581 0.50000000000000067 0 -0.218324134615762 0.47833456514041589 0 -0.21491627261000371 0.5 0 -0.2373209964795541 0.47867397727431937 0 -0.218324134615762 0.47833456514041589 0 -0.2373209964795541 0.47867397727431937 0 -0.22652317059566529 0.46173427076032059 0 -0.25269346093040262 0.46687103503289329 0 -0.2373209964795541 0.47867397727431937 0 -0.24223180573297701 0.46374582104756379 0 -0.2614910153427481 0.48009653731464541 0 -0.2373209964795541 0.47867397727431937 0 -0.23905413319064581 0.50000000000000067 0 -0.25331280556017471 0.44025899166082599 0 -0.24025075472609281 0.45347810520586118 0 -0.22755051100772861 0.44683550784967307 0 -0.25331280556017471 0.44025899166082599 0 -0.22755051100772861 0.44683550784967307 0 -0.2431553579901076 0.42999901293818088 0 -0.25331280556017471 0.44025899166082599 0 -0.22755051100772861 0.44683550784967307 0 -0.25163548073391828 0.45481593471092191 0 -0.25331280556017471 0.44025899166082599 0 -0.24025075472609281 0.45347810520586118 0 -0.25163548073391828 0.45481593471092191 0 -0.24223180573297701 0.46374582104756379 0 -0.24025075472609281 0.45347810520586118 0 -0.2373209964795541 0.47867397727431937 0 -0.24223180573297701 0.46374582104756379 0 -0.22652317059566529 0.46173427076032059 0 -0.24223180573297701 0.46374582104756379 0 -0.24025075472609281 0.45347810520586118 0 -0.22652317059566529 0.46173427076032059 0 -0.25269346093040262 0.46687103503289329 0 -0.25163548073391828 0.45481593471092191 0 -0.24223180573297701 0.46374582104756379 0 -0.24025075472609281 0.45347810520586118 0 -0.22652317059566529 0.46173427076032059 0 -0.22755051100772861 0.44683550784967307 0 -0.22652317059566529 0.46173427076032059 0 -0.22755051100772861 0.44683550784967307 0 -0.20864033353896561 0.44821528461191279 0 -0.22755051100772861 0.44683550784967307 0 -0.20864033353896561 0.44821528461191279 0 -0.2279757696706535 0.43156926237359838 0 -0.20864033353896561 0.44821528461191279 0 -0.2279757696706535 0.43156926237359838 0 -0.22652317059566529 0.46173427076032059 0 -0.20864033353896561 0.44821528461191279 0 -0.20545960732411631 0.46532248650808472 0 -0.218324134615762 0.47833456514041589 0 -0.22652317059566529 0.46173427076032059 0 -0.20545960732411631 0.46532248650808472 0 -0.18284635934875729 0.45637045440085522 0 -0.20864033353896561 0.44821528461191279 0 -0.20545960732411631 0.46532248650808472 0 -0.18284635934875729 0.45637045440085522 0 -0.18976736553875551 0.47129652384998272 0 -0.20545960732411631 0.46532248650808472 0 -0.18693263735845669 0.4391234174244229 0 -0.20864033353896561 0.44821528461191279 0 -0.20636008534223049 0.42601393455590603 0 -0.18693263735845669 0.4391234174244229 0 -0.18284635934875729 0.45637045440085522 0 -0.20864033353896561 0.44821528461191279 0 -0.18693263735845669 0.4391234174244229 0 -0.20636008534223049 0.42601393455590603 0 -0.17697482262078609 0.42343303435322049 0 -0.18807560316879601 0.40834059478241458 0 -0.2137920460001905 0.40496956626112007 0 -0.18807560316879601 0.40834059478241458 0 -0.20636008534223049 0.42601393455590603 0 -0.2137920460001905 0.40496956626112007 0 -0.18807560316879601 0.40834059478241458 0 -0.20636008534223049 0.42601393455590603 0 -0.17697482262078609 0.42343303435322049 0 -0.20636008534223049 0.42601393455590603 0 -0.21885005422095319 0.42031177852292839 0 -0.2137920460001905 0.40496956626112007 0 -0.20636008534223049 0.42601393455590603 0 -0.2279757696706535 0.43156926237359838 0 -0.21885005422095319 0.42031177852292839 0 -0.20864033353896561 0.44821528461191279 0 -0.20636008534223049 0.42601393455590603 0 -0.2279757696706535 0.43156926237359838 0 -0.2279757696706535 0.43156926237359838 0 -0.21885005422095319 0.42031177852292839 0 -0.2275492034655601 0.41452147562068248 0 -0.22755051100772861 0.44683550784967307 0 -0.2279757696706535 0.43156926237359838 0 -0.2431553579901076 0.42999901293818088 0 -0.2279757696706535 0.43156926237359838 0 -0.2275492034655601 0.41452147562068248 0 -0.23779271335118141 0.411550186155686 0 -0.2275492034655601 0.41452147562068248 0 -0.23950848883158499 0.40159853773982568 0 -0.2137920460001905 0.40496956626112007 0 -0.21885005422095319 0.42031177852292839 0 -0.2275492034655601 0.41452147562068248 0 -0.2137920460001905 0.40496956626112007 0 -0.2279757696706535 0.43156926237359838 0 -0.23779271335118141 0.411550186155686 0 -0.24731120580234131 0.41492324013528398 0 -0.2275492034655601 0.41452147562068248 0 -0.23779271335118141 0.411550186155686 0 -0.23950848883158499 0.40159853773982568 0 -0.25505961061694071 0.40004559139494289 0 -0.24731120580234131 0.41492324013528398 0 -0.24593533397097461 0.40425159686489082 0 -0.23779271335118141 0.411550186155686 0 -0.24731120580234131 0.41492324013528398 0 -0.24593533397097461 0.40425159686489082 0 -0.2279757696706535 0.43156926237359838 0 -0.24731120580234131 0.41492324013528398 0 -0.2279757696706535 0.43156926237359838 0 -0.24731120580234131 0.41492324013528398 0 -0.2431553579901076 0.42999901293818088 0 -0.24388873083217039 0.38393798207464852 0 -0.235305036286487 0.39080571692183841 0 -0.23214585750550251 0.38216553093651151 0 -0.24388873083217039 0.38393798207464852 0 -0.23214585750550251 0.38216553093651151 0 -0.24001945356167789 0.37070887765699118 0 -0.25091287677097768 0.37673746352190368 0 -0.24388873083217039 0.38393798207464852 0 -0.24001945356167789 0.37070887765699118 0 -0.25509250894188418 0.38662660351746281 0 -0.25091287677097768 0.37673746352190368 0 -0.24388873083217039 0.38393798207464852 0 -0.25509250894188418 0.38662660351746281 0 -0.24388873083217039 0.38393798207464852 0 -0.2481375357009743 0.39450809656547009 0 -0.24388873083217039 0.38393798207464852 0 -0.2481375357009743 0.39450809656547009 0 -0.235305036286487 0.39080571692183841 0 -0.2481375357009743 0.39450809656547009 0 -0.235305036286487 0.39080571692183841 0 -0.22900773572556429 0.40074838761884041 0 -0.2481375357009743 0.39450809656547009 0 -0.22900773572556429 0.40074838761884041 0 -0.2481375357009743 0.39450809656547009 0 -0.23950848883158499 0.40159853773982568 0 -0.22900773572556429 0.40074838761884041 0 -0.25505961061694071 0.40004559139494289 0 -0.2481375357009743 0.39450809656547009 0 -0.24593533397097461 0.40425159686489082 0 -0.2481375357009743 0.39450809656547009 0 -0.24593533397097461 0.40425159686489082 0 -0.23950848883158499 0.40159853773982568 0 -0.23779271335118141 0.411550186155686 0 -0.24593533397097461 0.40425159686489082 0 -0.23950848883158499 0.40159853773982568 0 -0.23950848883158499 0.40159853773982568 0 -0.2137920460001905 0.40496956626112007 0 -0.22900773572556429 0.40074838761884041 0 -0.21990708921718499 0.38851738075829501 0 -0.2137920460001905 0.40496956626112007 0 -0.235305036286487 0.39080571692183841 0 -0.22900773572556429 0.40074838761884041 0 -0.21990708921718499 0.38851738075829501 0 -0.23950848883158499 0.40159853773982568 0 -0.22900773572556429 0.40074838761884041 0 -0.2137920460001905 0.40496956626112007 0 -0.235305036286487 0.39080571692183841 0 -0.21990708921718499 0.38851738075829501 0 -0.23214585750550251 0.38216553093651151 0 -0.23214585750550251 0.38216553093651151 0 -0.22472739676719611 0.37443965331661011 0 -0.24001945356167789 0.37070887765699118 0 -0.21990708921718499 0.38851738075829501 0 -0.23214585750550251 0.38216553093651151 0 -0.22472739676719611 0.37443965331661011 0 -0.1846508010622733 0.38767806252359621 0 -0.17438384246743671 0.37006763361412831 0 -0.2065701693010345 0.37105859557956922 0 -0.21990708921718499 0.38851738075829501 0 -0.20169903748741799 0.39231936916346438 0 -0.2065701693010345 0.37105859557956922 0 -0.21990708921718499 0.38851738075829501 0 -0.2065701693010345 0.37105859557956922 0 -0.22472739676719611 0.37443965331661011 0 -0.21990708921718499 0.38851738075829501 0 -0.2137920460001905 0.40496956626112007 0 -0.20169903748741799 0.39231936916346438 0 -0.18807560316879601 0.40834059478241458 0 -0.2137920460001905 0.40496956626112007 0 -0.20169903748741799 0.39231936916346438 0 -0.18807560316879601 0.40834059478241458 0 -0.20169903748741799 0.39231936916346438 0 -0.1846508010622733 0.38767806252359621 0 -0.20169903748741799 0.39231936916346438 0 -0.1846508010622733 0.38767806252359621 0 -0.2065701693010345 0.37105859557956922 0 -0.1846508010622733 0.38767806252359621 0 -0.16152639551145939 0.39453882765374998 0 -0.17438384246743671 0.37006763361412831 0 -0.16152639551145939 0.39453882765374998 0 -0.15472588850446101 0.38209793038606987 0 -0.17438384246743671 0.37006763361412831 0 -0.16152639551145939 0.39453882765374998 0 -0.16235916033740169 0.41171162330371119 0 -0.18807560316879601 0.40834059478241458 0 -0.16152639551145939 0.39453882765374998 0 -0.16235916033740169 0.41171162330371119 0 -0.16152639551145939 0.39453882765374998 0 -0.16235916033740169 0.41171162330371119 0 -0.15134689792984721 0.40353011948942569 0 -0.18807560316879601 0.40834059478241458 0 -0.1846508010622733 0.38767806252359621 0 -0.16152639551145939 0.39453882765374998 0 -0.18807560316879601 0.40834059478241458 0 -0.17697482262078609 0.42343303435322049 0 -0.16235916033740169 0.41171162330371119 0 -0.18807560316879601 0.40834059478241458 0 -0.16235916033740169 0.41171162330371119 0 -0.1637862907078412 0.44114108220247322 0 -0.18693263735845669 0.4391234174244229 0 -0.17697482262078609 0.42343303435322049 0 -0.1637862907078412 0.44114108220247322 0 -0.16235916033740169 0.41171162330371119 0 -0.1637862907078412 0.44114108220247322 0 -0.17697482262078609 0.42343303435322049 0 -0.16235916033740169 0.41171162330371119 0 -0.1637862907078412 0.44114108220247322 0 -0.16235916033740169 0.41171162330371119 0 -0.1512970938895935 0.42837294855509789 0 -0.16235916033740169 0.41171162330371119 0 -0.1512970938895935 0.42837294855509789 0 -0.14064403747097179 0.41455814056918339 0 -0.16235916033740169 0.41171162330371119 0 -0.14064403747097179 0.41455814056918339 0 -0.15134689792984721 0.40353011948942569 0 -0.16235916033740169 0.41171162330371119 0 -0.14064403747097179 0.41455814056918339 0 -0.1512970938895935 0.42837294855509789 0 -0.1385849076200201 0.4350876371659167 0 -0.14064403747097179 0.41455814056918339 0 -0.1511110733117324 0.43936625953420522 0 -0.1637862907078412 0.44114108220247322 0 -0.1512970938895935 0.42837294855509789 0 -0.1511110733117324 0.43936625953420522 0 -0.1512970938895935 0.42837294855509789 0 -0.1385849076200201 0.4350876371659167 0 -0.1385849076200201 0.4350876371659167 0 -0.13296840214681341 0.42910864185691849 0 -0.14064403747097179 0.41455814056918339 0 -0.1385849076200201 0.4350876371659167 0 -0.14064403747097179 0.41455814056918339 0 -0.1385849076200201 0.4350876371659167 0 -0.13296840214681341 0.42910864185691849 0 -0.1291728855482859 0.43635421317304851 0 -0.13296840214681341 0.42910864185691849 0 -0.13253099784171141 0.4156216347765242 0 -0.13296840214681341 0.42910864185691849 0 -0.12903479920957539 0.42629795108223228 0 -0.1237634657142843 0.43059473016910937 0 -0.13296840214681341 0.42910864185691849 0 -0.12903479920957539 0.42629795108223228 0 -0.13253099784171141 0.4156216347765242 0 -0.12903479920957539 0.42629795108223228 0 -0.12746200712738129 0.42172634963799549 0 -0.12389896432104849 0.42524252526554379 0 -0.12903479920957539 0.42629795108223228 0 -0.1237634657142843 0.43059473016910937 0 -0.12389896432104849 0.42524252526554379 0 -0.13296840214681341 0.42910864185691849 0 -0.1291728855482859 0.43635421317304851 0 -0.1237634657142843 0.43059473016910937 0 -0.14064403747097179 0.41455814056918339 0 -0.13253099784171141 0.4156216347765242 0 -0.13179910882033979 0.39305443025164849 0 -0.13253099784171141 0.4156216347765242 0 -0.12749629121599021 0.4162816070651868 0 -0.1276403685902934 0.39340031590433988 0 -0.13296840214681341 0.42910864185691849 0 -0.14064403747097179 0.41455814056918339 0 -0.13253099784171141 0.4156216347765242 0 -0.14064403747097179 0.41455814056918339 0 -0.13253099784171141 0.4156216347765242 0 -0.12903479920957539 0.42629795108223228 0 -0.13253099784171141 0.4156216347765242 0 -0.12746200712738129 0.42172634963799549 0 -0.13253099784171141 0.4156216347765242 0 -0.12746200712738129 0.42172634963799549 0 -0.12749629121599021 0.4162816070651868 0 -0.13253099784171141 0.4156216347765242 0 -0.12749629121599021 0.4162816070651868 0 -0.12746200712738129 0.42172634963799549 0 -0.12749629121599021 0.4162816070651868 0 -0.12746200712738129 0.42172634963799549 0 -0.12749629121599021 0.4162816070651868 0 -0.1219308753491178 0.42128676145898958 0 -0.12749629121599021 0.4162816070651868 0 -0.1276403685902934 0.39340031590433988 0 -0.12007515546669791 0.40585573689239302 0 -0.14064403747097179 0.41455814056918339 0 -0.13179910882033979 0.39305443025164849 0 -0.14286102305298029 0.39245482448165819 0 -0.12749629121599021 0.4162816070651868 0 -0.1276403685902934 0.39340031590433988 0 -0.13253099784171141 0.4156216347765242 0 -0.13179910882033979 0.39305443025164849 0 -0.13253099784171141 0.4156216347765242 0 -0.13179910882033979 0.39305443025164849 0 -0.1276403685902934 0.39340031590433988 0 -0.1276403685902934 0.39340031590433988 0 -0.12778444596459629 0.37051902474349302 0 -0.13179910882033979 0.39305443025164849 0 -0.1310672197989694 0.37048722572677278 0 -0.13179910882033979 0.39305443025164849 0 -0.1276403685902934 0.39340031590433988 0 -0.12778444596459629 0.37051902474349302 0 -0.13179910882033979 0.39305443025164849 0 -0.1310672197989694 0.37048722572677278 0 -0.12778444596459629 0.37051902474349302 0 -0.13179910882033979 0.39305443025164849 0 -0.14227153903274911 0.38140581209693958 0 -0.1310672197989694 0.37048722572677278 0 -0.1276403685902934 0.39340031590433988 0 -0.12778444596459629 0.37051902474349302 0 -0.12566660637393731 0.37140256080148998 0 -0.14227153903274911 0.38140581209693958 0 -0.1365189017948594 0.37043441729838611 0 -0.13179910882033979 0.39305443025164849 0 -0.14227153903274911 0.38140581209693958 0 -0.14286102305298029 0.39245482448165819 0 -0.14286102305298029 0.39245482448165819 0 -0.1450780086349896 0.370351508394133 0 -0.15472588850446101 0.38209793038606987 0 -0.14286102305298029 0.39245482448165819 0 -0.1450780086349896 0.370351508394133 0 -0.14227153903274911 0.38140581209693958 0 -0.14286102305298029 0.39245482448165819 0 -0.1450780086349896 0.370351508394133 0 -0.16152639551145939 0.39453882765374998 0 -0.15472588850446101 0.38209793038606987 0 -0.14286102305298029 0.39245482448165819 0 -0.14064403747097179 0.41455814056918339 0 -0.14286102305298029 0.39245482448165819 0 -0.16152639551145939 0.39453882765374998 0 -0.15134689792984721 0.40353011948942569 0 -0.14286102305298029 0.39245482448165819 0 -0.14064403747097179 0.41455814056918339 0 -0.15134689792984721 0.40353011948942569 0 -0.14286102305298029 0.39245482448165819 0 -0.14687391915407971 0.35244630495459522 0 -0.16539319896281821 0.33589275996782109 0 -0.14687391915407971 0.35244630495459522 0 -0.1450780086349896 0.370351508394133 0 -0.16240610111026901 0.35463205222075528 0 -0.14687391915407971 0.35244630495459522 0 -0.1389315943192819 0.34870914064421737 0 -0.13975298650236209 0.33997001965033058 0 -0.14687391915407971 0.35244630495459522 0 -0.1450780086349896 0.370351508394133 0 -0.14687391915407971 0.35244630495459522 0 -0.1450780086349896 0.370351508394133 0 -0.13340141516724749 0.36448876573783201 0 -0.1450780086349896 0.370351508394133 0 -0.1365189017948594 0.37043441729838611 0 -0.14227153903274911 0.38140581209693958 0 -0.1450780086349896 0.370351508394133 0 -0.1365189017948594 0.37043441729838611 0 -0.12778444596459629 0.37051902474349302 0 -0.12788862054246969 0.35397479731419712 0 -0.12778444596459629 0.37051902474349302 0 -0.12788862054246969 0.35397479731419712 0 -0.13070595783121311 0.35934800587876953 0 -0.12778444596459629 0.37051902474349302 0 -0.12788862054246969 0.35397479731419712 0 -0.12008441417418871 0.36271820918391012 0 -0.13340141516724749 0.36448876573783201 0 -0.13070595783121311 0.35934800587876953 0 -0.1360080323966521 0.35494806890086322 0 -0.13340141516724749 0.36448876573783201 0 -0.1365189017948594 0.37043441729838611 0 -0.13094392103691729 0.36668540837519531 0 -0.14227153903274911 0.38140581209693958 0 -0.1365189017948594 0.37043441729838611 0 -0.1310672197989694 0.37048722572677278 0 -0.1450780086349896 0.370351508394133 0 -0.13340141516724749 0.36448876573783201 0 -0.1365189017948594 0.37043441729838611 0 -0.1365189017948594 0.37043441729838611 0 -0.1310672197989694 0.37048722572677278 0 -0.13340141516724749 0.36448876573783201 0 -0.1365189017948594 0.37043441729838611 0 -0.1365189017948594 0.37043441729838611 0 -0.1310672197989694 0.37048722572677278 0 -0.13094392103691729 0.36668540837519531 0 -0.1310672197989694 0.37048722572677278 0 -0.12778444596459629 0.37051902474349302 0 -0.13094392103691729 0.36668540837519531 0 -0.1310672197989694 0.37048722572677278 0 -0.12778444596459629 0.37051902474349302 0 -0.1310672197989694 0.37048722572677278 0 -0.13094392103691729 0.36668540837519531 0 -0.12778444596459629 0.37051902474349302 0 -0.13094392103691729 0.36668540837519531 0 -0.12778444596459629 0.37051902474349302 0 -0.12566660637393731 0.37140256080148998 0 -0.12778444596459629 0.37051902474349302 0 -0.13094392103691729 0.36668540837519531 0 -0.13070595783121311 0.35934800587876953 0 -0.13094392103691729 0.36668540837519531 0 -0.13070595783121311 0.35934800587876953 0 -0.13340141516724749 0.36448876573783201 0 -0.13070595783121311 0.35934800587876953 0 -0.13340141516724749 0.36448876573783201 0 -0.13094392103691729 0.36668540837519531 0 -0.13070595783121311 0.35934800587876953 0 -0.13340141516724749 0.36448876573783201 0 -0.13094392103691729 0.36668540837519531 0 -0.13070595783121311 0.35934800587876953 0 -0.1360080323966521 0.35494806890086322 0 -0.13043200606833061 0.35090092540292578 0 -0.12788862054246969 0.35397479731419712 0 -0.13070595783121311 0.35934800587876953 0 -0.13043200606833061 0.35090092540292578 0 -0.12788862054246969 0.35397479731419712 0 -0.13043200606833061 0.35090092540292578 0 -0.12805831269605539 0.32702555845781112 0 -0.13070595783121311 0.35934800587876953 0 -0.13043200606833061 0.35090092540292578 0 -0.12788862054246969 0.35397479731419712 0 -0.13070595783121311 0.35934800587876953 0 -0.14687391915407971 0.35244630495459522 0 -0.13340141516724749 0.36448876573783201 0 -0.1360080323966521 0.35494806890086322 0 -0.14687391915407971 0.35244630495459522 0 -0.1360080323966521 0.35494806890086322 0 -0.1389315943192819 0.34870914064421737 0 -0.14687391915407971 0.35244630495459522 0 -0.13340141516724749 0.36448876573783201 0 -0.1389315943192819 0.34870914064421737 0 -0.13043200606833061 0.35090092540292578 0 -0.13975298650236209 0.33997001965033058 0 -0.1360080323966521 0.35494806890086322 0 -0.1389315943192819 0.34870914064421737 0 -0.13043200606833061 0.35090092540292578 0 -0.13043200606833061 0.35090092540292578 0 -0.13975298650236209 0.33997001965033058 0 -0.12805831269605539 0.32702555845781112 0 -0.12788862054246969 0.35397479731419712 0 -0.12805831269605539 0.32702555845781112 0 -0.13975298650236209 0.33997001965033058 0 -0.12805831269605539 0.32702555845781112 0 -0.14920990974708201 0.32915651052668399 0 -0.12805831269605539 0.32702555845781112 0 -0.13926053190821441 0.31553127617117332 0 -0.14920990974708201 0.32915651052668399 0 -0.12805831269605539 0.32702555845781112 0 -0.13926053190821441 0.31553127617117332 0 -0.12822800484964031 0.30007631960142489 0 -0.12805831269605539 0.32702555845781112 0 -0.12822800484964031 0.30007631960142489 0 -0.12805831269605539 0.32702555845781112 0 -0.12822800484964031 0.30007631960142489 0 -0.1223272277487793 0.31341771335827351 0 -0.14920990974708201 0.32915651052668399 0 -0.1515459003400797 0.30586671609877258 0 -0.13926053190821441 0.31553127617117332 0 -0.14920990974708201 0.32915651052668399 0 -0.1515459003400797 0.30586671609877258 0 -0.14687391915407971 0.35244630495459522 0 -0.13975298650236209 0.33997001965033058 0 -0.14920990974708201 0.32915651052668399 0 -0.14687391915407971 0.35244630495459522 0 -0.14920990974708201 0.32915651052668399 0 -0.14687391915407971 0.35244630495459522 0 -0.14920990974708201 0.32915651052668399 0 -0.16539319896281821 0.33589275996782109 0 -0.14920990974708201 0.32915651052668399 0 -0.16539319896281821 0.33589275996782109 0 -0.16931523243027419 0.32233515453520561 0 -0.16931523243027419 0.32233515453520561 0 -0.18020165371944799 0.31298263160087131 0 -0.1515459003400797 0.30586671609877258 0 -0.14920990974708201 0.32915651052668399 0 -0.16931523243027419 0.32233515453520561 0 -0.1515459003400797 0.30586671609877258 0 -0.16539319896281821 0.33589275996782109 0 -0.16931523243027419 0.32233515453520561 0 -0.1839124787715567 0.31933921498104689 0 -0.16539319896281821 0.33589275996782109 0 -0.1839124787715567 0.31933921498104689 0 -0.16931523243027419 0.32233515453520561 0 -0.1839124787715567 0.31933921498104689 0 -0.18020165371944799 0.31298263160087131 0 -0.1839124787715567 0.31933921498104689 0 -0.17994238034222171 0.33415974876928362 0 -0.18843589386148429 0.3295988083961533 0 -0.1839124787715567 0.31933921498104689 0 -0.18020165371944799 0.31298263160087131 0 -0.1923194432066071 0.32186421988007169 0 -0.16539319896281821 0.33589275996782109 0 -0.1839124787715567 0.31933921498104689 0 -0.17994238034222171 0.33415974876928362 0 -0.17994238034222171 0.33415974876928362 0 -0.1901247293585763 0.34544910545163943 0 -0.18843589386148429 0.3295988083961533 0 -0.17994238034222171 0.33415974876928362 0 -0.17445005044826439 0.34804026000472549 0 -0.1901247293585763 0.34544910545163943 0 -0.16539319896281821 0.33589275996782109 0 -0.17994238034222171 0.33415974876928362 0 -0.17445005044826439 0.34804026000472549 0 -0.17445005044826439 0.34804026000472549 0 -0.17438384246743671 0.37006763361412831 0 -0.1901247293585763 0.34544910545163943 0 -0.16539319896281821 0.33589275996782109 0 -0.17445005044826439 0.34804026000472549 0 -0.16240610111026901 0.35463205222075528 0 -0.14687391915407971 0.35244630495459522 0 -0.16539319896281821 0.33589275996782109 0 -0.16240610111026901 0.35463205222075528 0 -0.17445005044826439 0.34804026000472549 0 -0.16240610111026901 0.35463205222075528 0 -0.17438384246743671 0.37006763361412831 0 -0.1450780086349896 0.370351508394133 0 -0.16240610111026901 0.35463205222075528 0 -0.17438384246743671 0.37006763361412831 0 -0.15472588850446101 0.38209793038606987 0 -0.1450780086349896 0.370351508394133 0 -0.17438384246743671 0.37006763361412831 0 -0.1450780086349896 0.370351508394133 0 -0.17438384246743671 0.37006763361412831 0 -0.17438384246743671 0.37006763361412831 0 -0.1901247293585763 0.34544910545163943 0 -0.2065701693010345 0.37105859557956922 0 -0.1901247293585763 0.34544910545163943 0 -0.2065701693010345 0.37105859557956922 0 -0.21280150364312539 0.3418834851050101 0 -0.2065701693010345 0.37105859557956922 0 -0.21280150364312539 0.3418834851050101 0 -0.2065701693010345 0.37105859557956922 0 -0.22499441425058081 0.35974788165168381 0 -0.21280150364312539 0.3418834851050101 0 -0.2065701693010345 0.37105859557956922 0 -0.22472739676719611 0.37443965331661011 0 -0.22499441425058081 0.35974788165168381 0 -0.22472739676719611 0.37443965331661011 0 -0.22499441425058081 0.35974788165168381 0 -0.24001945356167789 0.37070887765699118 0 -0.22499441425058081 0.35974788165168381 0 -0.23229369300795191 0.34206704114122588 0 -0.21280150364312539 0.3418834851050101 0 -0.22499441425058081 0.35974788165168381 0 -0.24079631860767159 0.35581636071620598 0 -0.23229369300795191 0.34206704114122588 0 -0.24079631860767159 0.35581636071620598 0 -0.24387546729111939 0.3448630346860822 0 -0.23229369300795191 0.34206704114122588 0 -0.25379026269596222 0.35183812540250081 0 -0.24079631860767159 0.35581636071620598 0 -0.24387546729111939 0.3448630346860822 0 -0.25135861017078309 0.36458230349300091 0 -0.25379026269596222 0.35183812540250081 0 -0.24079631860767159 0.35581636071620598 0 -0.25135861017078309 0.36458230349300091 0 -0.24079631860767159 0.35581636071620598 0 -0.24001945356167789 0.37070887765699118 0 -0.22499441425058081 0.35974788165168381 0 -0.24079631860767159 0.35581636071620598 0 -0.24001945356167789 0.37070887765699118 0 -0.25135861017078309 0.36458230349300091 0 -0.25091287677097768 0.37673746352190368 0 -0.24001945356167789 0.37070887765699118 0 -0.2352763000549028 0.31680824933994012 0 -0.24874910864909841 0.32206925242336931 0 -0.2487026013327101 0.30432428835627789 0 -0.2352763000549028 0.31680824933994012 0 -0.24874910864909841 0.32206925242336931 0 -0.23662847026470399 0.32906269993283072 0 -0.24874910864909841 0.32206925242336931 0 -0.2460336656789357 0.3337283287742524 0 -0.23662847026470399 0.32906269993283072 0 -0.25446648375608161 0.34080472638544701 0 -0.24387546729111939 0.3448630346860822 0 -0.2460336656789357 0.3337283287742524 0 -0.24387546729111939 0.3448630346860822 0 -0.2460336656789357 0.3337283287742524 0 -0.23229369300795191 0.34206704114122588 0 -0.2460336656789357 0.3337283287742524 0 -0.23662847026470399 0.32906269993283072 0 -0.23229369300795191 0.34206704114122588 0 -0.23662847026470399 0.32906269993283072 0 -0.22694988190883811 0.32859135634811049 0 -0.23229369300795191 0.34206704114122588 0 -0.22694988190883811 0.32859135634811049 0 -0.23229369300795191 0.34206704114122588 0 -0.21280150364312539 0.3418834851050101 0 -0.22694988190883811 0.32859135634811049 0 -0.21903283798521639 0.31270837463045098 0 -0.21280150364312539 0.3418834851050101 0 -0.2352763000549028 0.31680824933994012 0 -0.22694988190883811 0.32859135634811049 0 -0.21903283798521639 0.31270837463045098 0 -0.2352763000549028 0.31680824933994012 0 -0.23662847026470399 0.32906269993283072 0 -0.22694988190883811 0.32859135634811049 0 -0.21903283798521639 0.31270837463045098 0 -0.20885740709881639 0.32009854710296931 0 -0.20759250911494001 0.30765663132847998 0 -0.21903283798521639 0.31270837463045098 0 -0.20885740709881639 0.32009854710296931 0 -0.21280150364312539 0.3418834851050101 0 -0.21903283798521639 0.31270837463045098 0 -0.21280150364312539 0.3418834851050101 0 -0.20885740709881639 0.32009854710296931 0 -0.21280150364312539 0.3418834851050101 0 -0.19830464803005551 0.33128547033861161 0 -0.1901247293585763 0.34544910545163943 0 -0.19830464803005551 0.33128547033861161 0 -0.18843589386148429 0.3295988083961533 0 -0.1901247293585763 0.34544910545163943 0 -0.21280150364312539 0.3418834851050101 0 -0.19830464803005551 0.33128547033861161 0 -0.18020165371944799 0.31298263160087131 0 -0.20885740709881639 0.32009854710296931 0 -0.19663957273835439 0.30774273028745741 0 -0.18020165371944799 0.31298263160087131 0 -0.20885740709881639 0.32009854710296931 0 -0.1923194432066071 0.32186421988007169 0 -0.18020165371944799 0.31298263160087131 0 -0.20885740709881639 0.32009854710296931 0 -0.20885740709881639 0.32009854710296931 0 -0.19830464803005551 0.33128547033861161 0 -0.1923194432066071 0.32186421988007169 0 -0.1839124787715567 0.31933921498104689 0 -0.18843589386148429 0.3295988083961533 0 -0.1923194432066071 0.32186421988007169 0 -0.19830464803005551 0.33128547033861161 0 -0.18843589386148429 0.3295988083961533 0 -0.1923194432066071 0.32186421988007169 0 -0.18020165371944799 0.31298263160087131 0 -0.19663957273835439 0.30774273028745741 0 -0.1863584632691615 0.29884682916076788 0 -0.19663957273835439 0.30774273028745741 0 -0.19950191949094939 0.296516805315585 0 -0.1863584632691615 0.29884682916076788 0 -0.19663957273835439 0.30774273028745741 0 -0.19950191949094939 0.296516805315585 0 -0.20759250911494001 0.30765663132847998 0 -0.19109355721209739 0.28490557629901031 0 -0.19950191949094939 0.296516805315585 0 -0.1863584632691615 0.29884682916076788 0 -0.19109355721209739 0.28490557629901031 0 -0.19950191949094939 0.296516805315585 0 -0.20669342317157871 0.28508790648840132 0 -0.20669342317157871 0.28508790648840132 0 -0.21183764163351401 0.29730763320819398 0 -0.22526417232730719 0.28353326415589208 0 -0.19950191949094939 0.296516805315585 0 -0.20669342317157871 0.28508790648840132 0 -0.21183764163351401 0.29730763320819398 0 -0.21903283798521639 0.31270837463045098 0 -0.21183764163351401 0.29730763320819398 0 -0.22526417232730719 0.28353326415589208 0 -0.20885740709881639 0.32009854710296931 0 -0.19663957273835439 0.30774273028745741 0 -0.20759250911494001 0.30765663132847998 0 -0.19950191949094939 0.296516805315585 0 -0.20759250911494001 0.30765663132847998 0 -0.21183764163351401 0.29730763320819398 0 -0.21903283798521639 0.31270837463045098 0 -0.20759250911494001 0.30765663132847998 0 -0.21183764163351401 0.29730763320819398 0 -0.2352763000549028 0.31680824933994012 0 -0.21903283798521639 0.31270837463045098 0 -0.23376922134242761 0.30128166418616659 0 -0.21903283798521639 0.31270837463045098 0 -0.23376922134242761 0.30128166418616659 0 -0.22526417232730719 0.28353326415589208 0 -0.21903283798521639 0.31270837463045098 0 -0.22526417232730719 0.28353326415589208 0 -0.23376922134242761 0.30128166418616659 0 -0.22526417232730719 0.28353326415589208 0 -0.24163358300240251 0.28930517342151751 0 -0.22526417232730719 0.28353326415589208 0 -0.24163358300240251 0.28930517342151751 0 -0.24558079483977169 0.27374289218359499 0 -0.2352763000549028 0.31680824933994012 0 -0.23376922134242761 0.30128166418616659 0 -0.2487026013327101 0.30432428835627789 0 -0.23376922134242761 0.30128166418616659 0 -0.24163358300240251 0.28930517342151751 0 -0.2487026013327101 0.30432428835627789 0 -0.26292185998712631 0.25941996831728192 0 -0.24269823368249191 0.25990187884213117 0 -0.23848877085535369 0.2463302843583732 0 -0.24269823368249191 0.25990187884213117 0 -0.2362596768797427 0.26788404721573789 0 -0.2314955066694 0.25435815368133358 0 -0.2314955066694 0.25435815368133358 0 -0.23848877085535369 0.2463302843583732 0 -0.24269823368249191 0.25990187884213117 0 -0.2314955066694 0.25435815368133358 0 -0.23848877085535369 0.2463302843583732 0 -0.22526417232730719 0.28353326415589208 0 -0.24558079483977169 0.27374289218359499 0 -0.2362596768797427 0.26788404721573789 0 -0.24269823368249191 0.25990187884213117 0 -0.24558079483977169 0.27374289218359499 0 -0.2362596768797427 0.26788404721573789 0 -0.22526417232730719 0.28353326415589208 0 -0.2362596768797427 0.26788404721573789 0 -0.2314955066694 0.25435815368133358 0 -0.22526417232730719 0.28353326415589208 0 -0.22152769387123111 0.2658006355398313 0 -0.2314955066694 0.25435815368133358 0 -0.22526417232730719 0.28353326415589208 0 -0.2314955066694 0.25435815368133358 0 -0.22526417232730719 0.28353326415589208 0 -0.22152769387123111 0.2658006355398313 0 -0.21099460664212069 0.27199400174057092 0 -0.22152769387123111 0.2658006355398313 0 -0.2314955066694 0.25435815368133358 0 -0.21988544593222009 0.25554112322436839 0 -0.22152769387123111 0.2658006355398313 0 -0.2314955066694 0.25435815368133358 0 -0.2314955066694 0.25435815368133358 0 -0.23314897563164741 0.24661661118151479 0 -0.2314955066694 0.25435815368133358 0 -0.21988544593222009 0.25554112322436839 0 -0.21969346928946179 0.24779007988428181 0 -0.21988544593222009 0.25554112322436839 0 -0.20261199663408169 0.25251976098724788 0 -0.21969346928946179 0.24779007988428181 0 -0.22152769387123111 0.2658006355398313 0 -0.21099460664212069 0.27199400174057092 0 -0.20261199663408169 0.25251976098724788 0 -0.22152769387123111 0.2658006355398313 0 -0.21988544593222009 0.25554112322436839 0 -0.20261199663408169 0.25251976098724788 0 -0.20669342317157871 0.28508790648840132 0 -0.22526417232730719 0.28353326415589208 0 -0.21099460664212069 0.27199400174057092 0 -0.21099460664212069 0.27199400174057092 0 -0.19887574720640441 0.27302844153148192 0 -0.20261199663408169 0.25251976098724788 0 -0.20669342317157871 0.28508790648840132 0 -0.21099460664212069 0.27199400174057092 0 -0.19887574720640441 0.27302844153148192 0 -0.19109355721209739 0.28490557629901031 0 -0.19887574720640441 0.27302844153148192 0 -0.1797017890722318 0.26652180148741711 0 -0.19109355721209739 0.28490557629901031 0 -0.20669342317157871 0.28508790648840132 0 -0.19887574720640441 0.27302844153148192 0 -0.19887574720640441 0.27302844153148192 0 -0.20261199663408169 0.25251976098724788 0 -0.1797017890722318 0.26652180148741711 0 -0.20261199663408169 0.25251976098724788 0 -0.1797017890722318 0.26652180148741711 0 -0.18065622936835921 0.24352779683045819 0 -0.15631560818178461 0.25831279381537031 0 -0.1797017890722318 0.26652180148741711 0 -0.18065622936835921 0.24352779683045819 0 -0.15631560818178461 0.25831279381537031 0 -0.16821342808595929 0.27661861701577978 0 -0.1797017890722318 0.26652180148741711 0 -0.15631560818178461 0.25831279381537031 0 -0.16821342808595929 0.27661861701577978 0 -0.15393075426093439 0.28208975495707161 0 -0.16821342808595929 0.27661861701577978 0 -0.1797017890722318 0.26652180148741711 0 -0.17670482820241909 0.28933963293538639 0 -0.19109355721209739 0.28490557629901031 0 -0.1797017890722318 0.26652180148741711 0 -0.17670482820241909 0.28933963293538639 0 -0.19109355721209739 0.28490557629901031 0 -0.17670482820241909 0.28933963293538639 0 -0.1863584632691615 0.29884682916076788 0 -0.17670482820241909 0.28933963293538639 0 -0.1863584632691615 0.29884682916076788 0 -0.1715475287979065 0.30005226799520851 0 -0.18020165371944799 0.31298263160087131 0 -0.1863584632691615 0.29884682916076788 0 -0.1715475287979065 0.30005226799520851 0 -0.1715475287979065 0.30005226799520851 0 -0.16438848793746069 0.29079339780044378 0 -0.1515459003400797 0.30586671609877258 0 -0.18020165371944799 0.31298263160087131 0 -0.1515459003400797 0.30586671609877258 0 -0.18020165371944799 0.31298263160087131 0 -0.1715475287979065 0.30005226799520851 0 -0.1515459003400797 0.30586671609877258 0 -0.16438848793746069 0.29079339780044378 0 -0.15393075426093439 0.28208975495707161 0 -0.1515459003400797 0.30586671609877258 0 -0.16821342808595929 0.27661861701577978 0 -0.17670482820241909 0.28933963293538639 0 -0.16438848793746069 0.29079339780044378 0 -0.17670482820241909 0.28933963293538639 0 -0.1715475287979065 0.30005226799520851 0 -0.16438848793746069 0.29079339780044378 0 -0.16821342808595929 0.27661861701577978 0 -0.16438848793746069 0.29079339780044378 0 -0.15393075426093439 0.28208975495707161 0 -0.15393075426093439 0.28208975495707161 0 -0.1515459003400797 0.30586671609877258 0 -0.15393075426093439 0.28208975495707161 0 -0.1515459003400797 0.30586671609877258 0 -0.13730891398400591 0.2833460588641854 0 -0.13926053190821441 0.31553127617117332 0 -0.1515459003400797 0.30586671609877258 0 -0.12822800484964031 0.30007631960142489 0 -0.1515459003400797 0.30586671609877258 0 -0.12822800484964031 0.30007631960142489 0 -0.1515459003400797 0.30586671609877258 0 -0.12822800484964031 0.30007631960142489 0 -0.1282700579439178 0.29339776164586689 0 -0.12822800484964031 0.30007631960142489 0 -0.12335304491330509 0.2988657493356997 0 -0.12822800484964031 0.30007631960142489 0 -0.1282700579439178 0.29339776164586689 0 -0.12335304491330509 0.2988657493356997 0 -0.1515459003400797 0.30586671609877258 0 -0.13730891398400591 0.2833460588641854 0 -0.1282700579439178 0.29339776164586689 0 -0.12822800484964031 0.30007631960142489 0 -0.1282700579439178 0.29339776164586689 0 -0.1282700579439178 0.29339776164586689 0 -0.12335304491330509 0.2988657493356997 0 -0.13730891398400591 0.2833460588641854 0 -0.1282700579439178 0.29339776164586689 0 -0.13730891398400591 0.2833460588641854 0 -0.1282700579439178 0.29339776164586689 0 -0.12843735108345999 0.26682951625969958 0 -0.13730891398400591 0.2833460588641854 0 -0.12843735108345999 0.26682951625969958 0 -0.14318705219948599 0.26937954435820488 0 -0.1282700579439178 0.29339776164586689 0 -0.12843735108345999 0.26682951625969958 0 -0.1365805039239788 0.25711754121745489 0 -0.12083866886468569 0.25776802945084082 0 -0.12720947456823251 0.2476316789285182 0 -0.12843735108345999 0.26682951625969958 0 -0.1365805039239788 0.25711754121745489 0 -0.12083866886468569 0.25776802945084082 0 -0.12843735108345999 0.26682951625969958 0 -0.1365805039239788 0.25711754121745489 0 -0.14318705219948599 0.26937954435820488 0 -0.15631560818178461 0.25831279381537031 0 -0.1365805039239788 0.25711754121745489 0 -0.14318705219948599 0.26937954435820488 0 -0.15631560818178461 0.25831279381537031 0 -0.1365805039239788 0.25711754121745489 0 -0.14223809415634681 0.24329665536152459 0 -0.15631560818178461 0.25831279381537031 0 -0.15393075426093439 0.28208975495707161 0 -0.15393075426093439 0.28208975495707161 0 -0.13730891398400591 0.2833460588641854 0 -0.14318705219948599 0.26937954435820488 0 -0.15631560818178461 0.25831279381537031 0 -0.15393075426093439 0.28208975495707161 0 -0.14318705219948599 0.26937954435820488 0 -0.1038052806872328 0.26976360673361532 0 -0.11567068825435881 0.28127124848414381 0 -0.1030942876579448 0.2814087192697739 0 -0.1038052806872328 0.26976360673361532 0 -0.1030942876579448 0.2814087192697739 0 -0.091525965469198958 0.27339842518110608 0 -0.1038052806872328 0.26976360673361532 0 -0.1022381897011586 0.25780264773575212 0 -0.091525965469198958 0.27339842518110608 0 -0.1038052806872328 0.26976360673361532 0 -0.1022381897011586 0.25780264773575212 0 -0.11597482135588109 0.2686762988528888 0 -0.1022381897011586 0.25780264773575212 0 -0.12083866886468569 0.25776802945084082 0 -0.1147333885237303 0.24788528680780031 0 -0.1022381897011586 0.25780264773575212 0 -0.12083866886468569 0.25776802945084082 0 -0.11597482135588109 0.2686762988528888 0 -0.12083866886468569 0.25776802945084082 0 -0.12720947456823251 0.2476316789285182 0 -0.1147333885237303 0.24788528680780031 0 -0.12843735108345999 0.26682951625969958 0 -0.12083866886468569 0.25776802945084082 0 -0.11597482135588109 0.2686762988528888 0 -0.1282700579439178 0.29339776164586689 0 -0.12843735108345999 0.26682951625969958 0 -0.11567068825435881 0.28127124848414381 0 -0.12843735108345999 0.26682951625969958 0 -0.11597482135588109 0.2686762988528888 0 -0.11567068825435881 0.28127124848414381 0 -0.1038052806872328 0.26976360673361532 0 -0.11597482135588109 0.2686762988528888 0 -0.11567068825435881 0.28127124848414381 0 -0.12335304491330509 0.2988657493356997 0 -0.10365198470618869 0.29397350037334907 0 -0.1282700579439178 0.29339776164586689 0 -0.11567068825435881 0.28127124848414381 0 -0.11921367050442951 0.29019870144624821 0 -0.11055522303683619 0.28846815812306531 0 -0.12335304491330509 0.2988657493356997 0 -0.10365198470618869 0.29397350037334907 0 -0.11921367050442951 0.29019870144624821 0 -0.11055522303683619 0.28846815812306531 0 -0.12335304491330509 0.2988657493356997 0 -0.1282700579439178 0.29339776164586689 0 -0.11921367050442951 0.29019870144624821 0 -0.12335304491330509 0.2988657493356997 0 -0.11567068825435881 0.28127124848414381 0 -0.11055522303683619 0.28846815812306531 0 -0.1030942876579448 0.2814087192697739 0 -0.11567068825435881 0.28127124848414381 0 -0.11921367050442951 0.29019870144624821 0 -0.11055522303683619 0.28846815812306531 0 -0.12335304491330509 0.2988657493356997 0 -0.10252860487176139 0.30560832946388589 0 -0.10365198470618869 0.29397350037334907 0 -0.12335304491330509 0.2988657493356997 0 -0.10796549963493129 0.31597754213247659 0 -0.12335304491330509 0.2988657493356997 0 -0.10252860487176139 0.30560832946388589 0 -0.10796549963493129 0.31597754213247659 0 -0.12335304491330509 0.2988657493356997 0 -0.10796549963493129 0.31597754213247659 0 -0.1223272277487793 0.31341771335827351 0 -0.12822800484964031 0.30007631960142489 0 -0.12335304491330509 0.2988657493356997 0 -0.1223272277487793 0.31341771335827351 0 -0.10252860487176139 0.30560832946388589 0 -0.086007563820818811 0.30899778903531722 0 -0.094905767114372347 0.31693358757448908 0 -0.10252860487176139 0.30560832946388589 0 -0.10796549963493129 0.31597754213247659 0 -0.10252860487176139 0.30560832946388589 0 -0.10365198470618869 0.29397350037334907 0 -0.092517455567889553 0.29877007359115249 0 -0.1030942876579448 0.2814087192697739 0 -0.10365198470618869 0.29397350037334907 0 -0.083950924499072294 0.28908125141099872 0 -0.10365198470618869 0.29397350037334907 0 -0.083950924499072294 0.28908125141099872 0 -0.11055522303683619 0.28846815812306531 0 -0.1030942876579448 0.2814087192697739 0 -0.10365198470618869 0.29397350037334907 0 -0.10365198470618869 0.29397350037334907 0 -0.083950924499072294 0.28908125141099872 0 -0.092517455567889553 0.29877007359115249 0 -0.083950924499072294 0.28908125141099872 0 -0.086007563820818811 0.30899778903531722 0 -0.07288919499827276 0.3019718244516913 0 -0.10252860487176139 0.30560832946388589 0 -0.086007563820818811 0.30899778903531722 0 -0.092517455567889553 0.29877007359115249 0 -0.083950924499072294 0.28908125141099872 0 -0.086007563820818811 0.30899778903531722 0 -0.092517455567889553 0.29877007359115249 0 -0.086007563820818811 0.30899778903531722 0 -0.07288919499827276 0.3019718244516913 0 -0.070536132068810639 0.31578840665344832 0 -0.07288919499827276 0.3019718244516913 0 -0.063405367888896266 0.30450188298560787 0 -0.061550611810425308 0.29253695808539859 0 -0.07288919499827276 0.3019718244516913 0 -0.063405367888896266 0.30450188298560787 0 -0.070536132068810639 0.31578840665344832 0 -0.063405367888896266 0.30450188298560787 0 -0.058240181608654011 0.31192838165565751 0 -0.070536132068810639 0.31578840665344832 0 -0.083950924499072294 0.28908125141099872 0 -0.060897111261637778 0.28160566717184521 0 -0.061550611810425308 0.29253695808539859 0 -0.083950924499072294 0.28908125141099872 0 -0.07288919499827276 0.3019718244516913 0 -0.061550611810425308 0.29253695808539859 0 -0.083950924499072294 0.28908125141099872 0 -0.076243270860186715 0.26411749629404963 0 -0.060897111261637778 0.28160566717184521 0 -0.076243270860186715 0.26411749629404963 0 -0.060897111261637778 0.28160566717184521 0 -0.076243270860186715 0.26411749629404963 0 -0.055862192927506119 0.26333603876076322 0 -0.060897111261637778 0.28160566717184521 0 -0.083950924499072294 0.28908125141099872 0 -0.091525965469198958 0.27339842518110608 0 -0.076243270860186715 0.26411749629404963 0 -0.1030942876579448 0.2814087192697739 0 -0.083950924499072294 0.28908125141099872 0 -0.091525965469198958 0.27339842518110608 0 -0.1022381897011586 0.25780264773575212 0 -0.091525965469198958 0.27339842518110608 0 -0.076243270860186715 0.26411749629404963 0 -0.076243270860186715 0.26411749629404963 0 -0.091589430458735632 0.24662932541625401 0 -0.076243270860186715 0.26411749629404963 0 -0.074440127216583662 0.24846193142452569 0 -0.091589430458735632 0.24662932541625401 0 -0.1022381897011586 0.25780264773575212 0 -0.076243270860186715 0.26411749629404963 0 -0.091589430458735632 0.24662932541625401 0 -0.076243270860186715 0.26411749629404963 0 -0.055862192927506119 0.26333603876076322 0 -0.074440127216583662 0.24846193142452569 0 -0.055862192927506119 0.26333603876076322 0 -0.074440127216583662 0.24846193142452569 0 -0.05167756311802927 0.24613586928495221 0 -0.055862192927506119 0.26333603876076322 0 -0.041815778049338052 0.28033882128805893 0 -0.060897111261637778 0.28160566717184521 0 -0.041815778049338052 0.28033882128805893 0 -0.02842585240662095 0.25929202651974598 0 -0.02478038629865098 0.28441088738513731 0 -0.055862192927506119 0.26333603876076322 0 -0.041815778049338052 0.28033882128805893 0 -0.02842585240662095 0.25929202651974598 0 -0.055862192927506119 0.26333603876076322 0 -0.02842585240662095 0.25929202651974598 0 -0.05167756311802927 0.24613586928495221 0 -0.02842585240662095 0.25929202651974598 0 -0.05167756311802927 0.24613586928495221 0 -0.02842585240662095 0.25929202651974598 0 -0.0051741416952126428 0.27244818375453972 0 -0.02478038629865098 0.28441088738513731 0 -0.02842585240662095 0.25929202651974598 0 -0.0051741416952126428 0.27244818375453972 0 -0.02842585240662095 0.25929202651974598 0 -0.0051741416952126428 0.27244818375453972 0 -0.001711322607177821 0.2476415137308719 0 -0.016508362222874901 0.31323997377024793 0 0.0091093105619211717 0.31104445313616919 0 -0.0093909515200206062 0.30166555970258729 0 -0.016508362222874901 0.31323997377024793 0 0.0091093105619211717 0.31104445313616919 0 -0.0093909515200206062 0.30166555970258729 0 -0.019391047432941681 0.30593924188343569 0 -0.016508362222874901 0.31323997377024793 0 -0.0051741416952126428 0.27244818375453972 0 -0.011155484283122611 0.28836543748723698 0 0.001037681847786531 0.29259039198356668 0 -0.0093909515200206062 0.30166555970258729 0 -0.011155484283122611 0.28836543748723698 0 0.001037681847786531 0.29259039198356668 0 -0.0051741416952126428 0.27244818375453972 0 -0.011155484283122611 0.28836543748723698 0 -0.02478038629865098 0.28441088738513731 0 -0.0093909515200206062 0.30166555970258729 0 -0.011155484283122611 0.28836543748723698 0 -0.019889460268893221 0.29816039707943592 0 -0.011155484283122611 0.28836543748723698 0 -0.02478038629865098 0.28441088738513731 0 -0.019889460268893221 0.29816039707943592 0 -0.02478038629865098 0.28441088738513731 0 -0.029635784133938019 0.2970907351327654 0 -0.036616064406959602 0.29231306164612292 0 -0.02478038629865098 0.28441088738513731 0 -0.029635784133938019 0.2970907351327654 0 -0.019889460268893221 0.29816039707943592 0 -0.027559628757618759 0.30471675540162863 0 -0.029635784133938019 0.2970907351327654 0 -0.019889460268893221 0.29816039707943592 0 -0.027559628757618759 0.30471675540162863 0 -0.019889460268893221 0.29816039707943592 0 -0.019391047432941681 0.30593924188343569 0 -0.0093909515200206062 0.30166555970258729 0 -0.019889460268893221 0.29816039707943592 0 -0.019391047432941681 0.30593924188343569 0 -0.019391047432941681 0.30593924188343569 0 -0.023606834395300889 0.31191352346327877 0 -0.016508362222874901 0.31323997377024793 0 -0.027559628757618759 0.30471675540162863 0 -0.023606834395300889 0.31191352346327877 0 -0.035380857235314242 0.31102296580774108 0 -0.027559628757618759 0.30471675540162863 0 -0.019391047432941681 0.30593924188343569 0 -0.023606834395300889 0.31191352346327877 0 -0.027559628757618759 0.30471675540162863 0 -0.035380857235314242 0.31102296580774108 0 -0.037905441757325589 0.30352020616768272 0 -0.029635784133938019 0.2970907351327654 0 -0.037905441757325589 0.30352020616768272 0 -0.036616064406959602 0.29231306164612292 0 -0.027559628757618759 0.30471675540162863 0 -0.029635784133938019 0.2970907351327654 0 -0.037905441757325589 0.30352020616768272 0 -0.037905441757325589 0.30352020616768272 0 -0.045550951663088847 0.29909383804964079 0 -0.036616064406959602 0.29231306164612292 0 -0.035380857235314242 0.31102296580774108 0 -0.037905441757325589 0.30352020616768272 0 -0.046658416926179627 0.31452115879755133 0 -0.037905441757325589 0.30352020616768272 0 -0.045550951663088847 0.29909383804964079 0 -0.046658416926179627 0.31452115879755133 0 -0.041815778049338052 0.28033882128805893 0 -0.02478038629865098 0.28441088738513731 0 -0.036616064406959602 0.29231306164612292 0 -0.041815778049338052 0.28033882128805893 0 -0.045550951663088847 0.29909383804964079 0 -0.036616064406959602 0.29231306164612292 0 -0.045550951663088847 0.29909383804964079 0 -0.060897111261637778 0.28160566717184521 0 -0.061550611810425308 0.29253695808539859 0 -0.045550951663088847 0.29909383804964079 0 -0.060897111261637778 0.28160566717184521 0 -0.041815778049338052 0.28033882128805893 0 -0.045550951663088847 0.29909383804964079 0 -0.060897111261637778 0.28160566717184521 0 -0.045550951663088847 0.29909383804964079 0 -0.061550611810425308 0.29253695808539859 0 -0.053810718958318647 0.3002838440818435 0 -0.053810718958318647 0.3002838440818435 0 -0.058240181608654011 0.31192838165565751 0 -0.046658416926179627 0.31452115879755133 0 -0.053810718958318647 0.3002838440818435 0 -0.046658416926179627 0.31452115879755133 0 -0.045550951663088847 0.29909383804964079 0 -0.053810718958318647 0.3002838440818435 0 -0.046658416926179627 0.31452115879755133 0 -0.063405367888896266 0.30450188298560787 0 -0.061550611810425308 0.29253695808539859 0 -0.053810718958318647 0.3002838440818435 0 -0.063405367888896266 0.30450188298560787 0 -0.053810718958318647 0.3002838440818435 0 -0.058240181608654011 0.31192838165565751 0 -0.058240181608654011 0.31192838165565751 0 -0.057794897297724447 0.32559378167215092 0 -0.070536132068810639 0.31578840665344832 0 -0.057794897297724447 0.32559378167215092 0 -0.039506114894040961 0.32875847351325932 0 -0.046658416926179627 0.31452115879755133 0 -0.058240181608654011 0.31192838165565751 0 -0.057794897297724447 0.32559378167215092 0 -0.046658416926179627 0.31452115879755133 0 -0.039506114894040961 0.32875847351325932 0 -0.057885371155645578 0.34823090521902089 0 -0.057794897297724447 0.32559378167215092 0 -0.039506114894040961 0.32875847351325932 0 -0.057885371155645578 0.34823090521902089 0 -0.039506114894040961 0.32875847351325932 0 -0.02955504493233032 0.34856699308727451 0 -0.057885371155645578 0.34823090521902089 0 -0.039506114894040961 0.32875847351325932 0 -0.02955504493233032 0.34856699308727451 0 -0.023606834395300889 0.31191352346327877 0 -0.035380857235314242 0.31102296580774108 0 -0.039506114894040961 0.32875847351325932 0 -0.023606834395300889 0.31191352346327877 0 -0.039506114894040961 0.32875847351325932 0 -0.035380857235314242 0.31102296580774108 0 -0.039506114894040961 0.32875847351325932 0 -0.046658416926179627 0.31452115879755133 0 -0.039506114894040961 0.32875847351325932 0 -0.046658416926179627 0.31452115879755133 0 -0.023606834395300889 0.31191352346327877 0 -0.039506114894040961 0.32875847351325932 0 -0.022724245328663031 0.32127513496348092 0 -0.039506114894040961 0.32875847351325932 0 -0.022724245328663031 0.32127513496348092 0 -0.022898701036161141 0.33009803359622258 0 -0.016508362222874901 0.31323997377024793 0 -0.022724245328663031 0.32127513496348092 0 -0.01039529281254236 0.32275756492607738 0 -0.023606834395300889 0.31191352346327877 0 -0.016508362222874901 0.31323997377024793 0 -0.022724245328663031 0.32127513496348092 0 -0.022724245328663031 0.32127513496348092 0 -0.022898701036161141 0.33009803359622258 0 -0.01039529281254236 0.32275756492607738 0 -0.039506114894040961 0.32875847351325932 0 -0.022898701036161141 0.33009803359622258 0 -0.02955504493233032 0.34856699308727451 0 -0.022898701036161141 0.33009803359622258 0 -0.01007826550388795 0.33688784853290887 0 -0.02955504493233032 0.34856699308727451 0 -0.022898701036161141 0.33009803359622258 0 -0.01007826550388795 0.33688784853290887 0 -0.01039529281254236 0.32275756492607738 0 -0.01007826550388795 0.33688784853290887 0 -0.0088407377264510274 0.35099551144825197 0 0.007240156443205031 0.34158786810032932 0 -0.01007826550388795 0.33688784853290887 0 -0.01039529281254236 0.32275756492607738 0 0.0032889550775795991 0.32677985135124687 0 -0.016508362222874901 0.31323997377024793 0 -0.01039529281254236 0.32275756492607738 0 0.0091093105619211717 0.31104445313616919 0 -0.0088407377264510274 0.35099551144825197 0 -0.019603974970620011 0.36837551266128987 0 0.0068589959509591644 0.36406818319845519 0 -0.019603974970620011 0.36837551266128987 0 -0.0096529050089097235 0.38818403223530529 0 0.0068589959509591644 0.36406818319845519 0 -0.02955504493233032 0.34856699308727451 0 -0.019603974970620011 0.36837551266128987 0 -0.040736113312407507 0.36068185666849872 0 -0.01007826550388795 0.33688784853290887 0 -0.0088407377264510274 0.35099551144825197 0 -0.02955504493233032 0.34856699308727451 0 -0.02955504493233032 0.34856699308727451 0 -0.019603974970620011 0.36837551266128987 0 -0.0088407377264510274 0.35099551144825197 0 -0.02955504493233032 0.34856699308727451 0 -0.019603974970620011 0.36837551266128987 0 -0.019603974970620011 0.36837551266128987 0 -0.037619360597344817 0.37373435495151042 0 -0.040736113312407507 0.36068185666849872 0 -0.037619360597344817 0.37373435495151042 0 -0.040736113312407507 0.36068185666849872 0 -0.054976248787681863 0.3690562189796166 0 -0.02955504493233032 0.34856699308727451 0 -0.040736113312407507 0.36068185666849872 0 -0.057885371155645578 0.34823090521902089 0 -0.040736113312407507 0.36068185666849872 0 -0.057885371155645578 0.34823090521902089 0 -0.054976248787681863 0.3690562189796166 0 -0.057885371155645578 0.34823090521902089 0 -0.054976248787681863 0.3690562189796166 0 -0.076264627417249348 0.36770333692478319 0 -0.054976248787681863 0.3690562189796166 0 -0.076264627417249348 0.36770333692478319 0 -0.066378383953971429 0.37759245561974392 0 -0.087165737735280746 0.37091248315619679 0 -0.084769740868877466 0.35893191763644489 0 -0.096067542489280552 0.35469871762802818 0 -0.076264627417249348 0.36770333692478319 0 -0.087165737735280746 0.37091248315619679 0 -0.084769740868877466 0.35893191763644489 0 -0.076264627417249348 0.36770333692478319 0 -0.079045716816760092 0.34813792394515208 0 -0.084769740868877466 0.35893191763644489 0 -0.079045716816760092 0.34813792394515208 0 -0.084769740868877466 0.35893191763644489 0 -0.096067542489280552 0.35469871762802818 0 -0.079045716816760092 0.34813792394515208 0 -0.093505608225845721 0.33205773303881442 0 -0.096067542489280552 0.35469871762802818 0 -0.057885371155645578 0.34823090521902089 0 -0.076264627417249348 0.36770333692478319 0 -0.057885371155645578 0.34823090521902089 0 -0.076264627417249348 0.36770333692478319 0 -0.079045716816760092 0.34813792394515208 0 -0.057885371155645578 0.34823090521902089 0 -0.079045716816760092 0.34813792394515208 0 -0.072995608011735144 0.33292247019242027 0 -0.057794897297724447 0.32559378167215092 0 -0.057885371155645578 0.34823090521902089 0 -0.072995608011735144 0.33292247019242027 0 -0.057794897297724447 0.32559378167215092 0 -0.072995608011735144 0.33292247019242027 0 -0.070536132068810639 0.31578840665344832 0 -0.072995608011735144 0.33292247019242027 0 -0.070536132068810639 0.31578840665344832 0 -0.083443014595206047 0.3215542950615502 0 -0.086007563820818811 0.30899778903531722 0 -0.070536132068810639 0.31578840665344832 0 -0.083443014595206047 0.3215542950615502 0 -0.083443014595206047 0.3215542950615502 0 -0.093505608225845721 0.33205773303881442 0 -0.094905767114372347 0.31693358757448908 0 -0.086007563820818811 0.30899778903531722 0 -0.083443014595206047 0.3215542950615502 0 -0.094905767114372347 0.31693358757448908 0 -0.079045716816760092 0.34813792394515208 0 -0.093505608225845721 0.33205773303881442 0 -0.079045716816760092 0.34813792394515208 0 -0.072995608011735144 0.33292247019242027 0 -0.093505608225845721 0.33205773303881442 0 -0.072995608011735144 0.33292247019242027 0 -0.083443014595206047 0.3215542950615502 0 -0.093505608225845721 0.33205773303881442 0 -0.093505608225845721 0.33205773303881442 0 -0.1062580728291832 0.32898368705895892 0 -0.1098050759801192 0.34830437111207768 0 -0.093505608225845721 0.33205773303881442 0 -0.094905767114372347 0.31693358757448908 0 -0.10796549963493129 0.31597754213247659 0 -0.093505608225845721 0.33205773303881442 0 -0.10796549963493129 0.31597754213247659 0 -0.093505608225845721 0.33205773303881442 0 -0.1062580728291832 0.32898368705895892 0 -0.10796549963493129 0.31597754213247659 0 -0.10252860487176139 0.30560832946388589 0 -0.094905767114372347 0.31693358757448908 0 -0.10796549963493129 0.31597754213247659 0 -0.10796549963493129 0.31597754213247659 0 -0.1223272277487793 0.31341771335827351 0 -0.1179270600887002 0.3349761697233371 0 -0.1062580728291832 0.32898368705895892 0 -0.10796549963493129 0.31597754213247659 0 -0.1179270600887002 0.3349761697233371 0 -0.10796549963493129 0.31597754213247659 0 -0.1179270600887002 0.3349761697233371 0 -0.12805831269605539 0.32702555845781112 0 -0.1223272277487793 0.31341771335827351 0 -0.1179270600887002 0.3349761697233371 0 -0.1062580728291832 0.32898368705895892 0 -0.1179270600887002 0.3349761697233371 0 -0.1098050759801192 0.34830437111207768 0 -0.12788862054246969 0.35397479731419712 0 -0.12805831269605539 0.32702555845781112 0 -0.1179270600887002 0.3349761697233371 0 -0.12788862054246969 0.35397479731419712 0 -0.1179270600887002 0.3349761697233371 0 -0.12788862054246969 0.35397479731419712 0 -0.1179270600887002 0.3349761697233371 0 -0.1098050759801192 0.34830437111207768 0 -0.12788862054246969 0.35397479731419712 0 -0.1098050759801192 0.34830437111207768 0 -0.12008441417418871 0.36271820918391012 0 -0.12778444596459629 0.37051902474349302 0 -0.12008441417418871 0.36271820918391012 0 -0.106904213511166 0.37072128383729858 0 -0.12778444596459629 0.37051902474349302 0 -0.12566660637393731 0.37140256080148998 0 -0.106904213511166 0.37072128383729858 0 -0.12778444596459629 0.37051902474349302 0 -0.106904213511166 0.37072128383729858 0 -0.1098050759801192 0.34830437111207768 0 -0.12008441417418871 0.36271820918391012 0 -0.106904213511166 0.37072128383729858 0 -0.087165737735280746 0.37091248315619679 0 -0.106904213511166 0.37072128383729858 0 -0.096067542489280552 0.35469871762802818 0 -0.087165737735280746 0.37091248315619679 0 -0.106904213511166 0.37072128383729858 0 -0.093505608225845721 0.33205773303881442 0 -0.1098050759801192 0.34830437111207768 0 -0.096067542489280552 0.35469871762802818 0 -0.1098050759801192 0.34830437111207768 0 -0.106904213511166 0.37072128383729858 0 -0.096067542489280552 0.35469871762802818 0 -0.094643883678853 0.38717576863054548 0 -0.1159542463125542 0.39519427677564523 0 -0.1130231399404566 0.40664820033630772 0 -0.097716603671081537 0.40563857317680602 0 -0.094643883678853 0.38717576863054548 0 -0.1130231399404566 0.40664820033630772 0 -0.094643883678853 0.38717576863054548 0 -0.1130231399404566 0.40664820033630772 0 -0.087165737735280746 0.37091248315619679 0 -0.106904213511166 0.37072128383729858 0 -0.094643883678853 0.38717576863054548 0 -0.106904213511166 0.37072128383729858 0 -0.094643883678853 0.38717576863054548 0 -0.1141618636933608 0.3835788411898638 0 -0.094643883678853 0.38717576863054548 0 -0.1141618636933608 0.3835788411898638 0 -0.1159542463125542 0.39519427677564523 0 -0.12566660637393731 0.37140256080148998 0 -0.106904213511166 0.37072128383729858 0 -0.1141618636933608 0.3835788411898638 0 -0.1276403685902934 0.39340031590433988 0 -0.12566660637393731 0.37140256080148998 0 -0.1141618636933608 0.3835788411898638 0 -0.1276403685902934 0.39340031590433988 0 -0.1141618636933608 0.3835788411898638 0 -0.1159542463125542 0.39519427677564523 0 -0.1276403685902934 0.39340031590433988 0 -0.1159542463125542 0.39519427677564523 0 -0.12007515546669791 0.40585573689239302 0 -0.1159542463125542 0.39519427677564523 0 -0.12007515546669791 0.40585573689239302 0 -0.1130231399404566 0.40664820033630772 0 -0.12749629121599021 0.4162816070651868 0 -0.12007515546669791 0.40585573689239302 0 -0.1162617312741952 0.41775428438048562 0 -0.12749629121599021 0.4162816070651868 0 -0.1219308753491178 0.42128676145898958 0 -0.1162617312741952 0.41775428438048562 0 -0.12749629121599021 0.4162816070651868 0 -0.1162617312741952 0.41775428438048562 0 -0.1219308753491178 0.42128676145898958 0 -0.1162617312741952 0.41775428438048562 0 -0.1156364406660811 0.42443751247834161 0 -0.1162617312741952 0.41775428438048562 0 -0.1156364406660811 0.42443751247834161 0 -0.10900857954512121 0.41642272779807088 0 -0.1162617312741952 0.41775428438048562 0 -0.1130231399404566 0.40664820033630772 0 -0.10900857954512121 0.41642272779807088 0 -0.12007515546669791 0.40585573689239302 0 -0.1162617312741952 0.41775428438048562 0 -0.1130231399404566 0.40664820033630772 0 -0.10900857954512121 0.41642272779807088 0 -0.11159554241864079 0.4385712793382659 0 -0.1156364406660811 0.42443751247834161 0 -0.11991416797163031 0.44143571275283788 0 -0.1237634657142843 0.43059473016910937 0 -0.1156364406660811 0.42443751247834161 0 -0.11991416797163031 0.44143571275283788 0 -0.1156364406660811 0.42443751247834161 0 -0.11159554241864079 0.4385712793382659 0 -0.11991416797163031 0.44143571275283788 0 -0.1156364406660811 0.42443751247834161 0 -0.10900857954512121 0.41642272779807088 0 -0.11159554241864079 0.4385712793382659 0 -0.1291728855482859 0.43635421317304851 0 -0.1237634657142843 0.43059473016910937 0 -0.11991416797163031 0.44143571275283788 0 -0.1237634657142843 0.43059473016910937 0 -0.12389896432104849 0.42524252526554379 0 -0.1156364406660811 0.42443751247834161 0 -0.1219308753491178 0.42128676145898958 0 -0.12389896432104849 0.42524252526554379 0 -0.1156364406660811 0.42443751247834161 0 -0.12746200712738129 0.42172634963799549 0 -0.1219308753491178 0.42128676145898958 0 -0.12389896432104849 0.42524252526554379 0 -0.1024056242805565 0.42782342752106678 0 -0.10900857954512121 0.41642272779807088 0 -0.11159554241864079 0.4385712793382659 0 -0.1024056242805565 0.42782342752106678 0 -0.1001741245113338 0.43765999024488328 0 -0.11159554241864079 0.4385712793382659 0 -0.1024056242805565 0.42782342752106678 0 -0.094126995421277518 0.42938626002839753 0 -0.095775107618496808 0.41821081250062642 0 -0.1024056242805565 0.42782342752106678 0 -0.094126995421277518 0.42938626002839753 0 -0.1001741245113338 0.43765999024488328 0 -0.097716603671081537 0.40563857317680602 0 -0.1130231399404566 0.40664820033630772 0 -0.10900857954512121 0.41642272779807088 0 -0.1024056242805565 0.42782342752106678 0 -0.10900857954512121 0.41642272779807088 0 -0.095775107618496808 0.41821081250062642 0 -0.097716603671081537 0.40563857317680602 0 -0.10900857954512121 0.41642272779807088 0 -0.095775107618496808 0.41821081250062642 0 -0.097716603671081537 0.40563857317680602 0 -0.095775107618496808 0.41821081250062642 0 -0.087697339318605572 0.40953993757738599 0 -0.095775107618496808 0.41821081250062642 0 -0.087697339318605572 0.40953993757738599 0 -0.07951471775013895 0.42453254112731531 0 -0.087697339318605572 0.40953993757738599 0 -0.07951471775013895 0.42453254112731531 0 -0.073604534970322849 0.40701203209593861 0 -0.094126995421277518 0.42938626002839753 0 -0.07951471775013895 0.42453254112731531 0 -0.085520174312622821 0.44418930082328523 0 -0.094126995421277518 0.42938626002839753 0 -0.095775107618496808 0.41821081250062642 0 -0.07951471775013895 0.42453254112731531 0 -0.07951471775013895 0.42453254112731531 0 -0.072340943524563273 0.44222047918578489 0 -0.085520174312622821 0.44418930082328523 0 -0.094126995421277518 0.42938626002839753 0 -0.085520174312622821 0.44418930082328523 0 -0.1001741245113338 0.43765999024488328 0 -0.07951471775013895 0.42453254112731531 0 -0.06284692863443353 0.43341159424479092 0 -0.062003518986671953 0.41792637247954961 0 -0.07951471775013895 0.42453254112731531 0 -0.06284692863443353 0.43341159424479092 0 -0.072340943524563273 0.44222047918578489 0 -0.07951471775013895 0.42453254112731531 0 -0.073604534970322849 0.40701203209593861 0 -0.062003518986671953 0.41792637247954961 0 -0.073604534970322849 0.40701203209593861 0 -0.059362270387393307 0.40281708093337182 0 -0.062003518986671953 0.41792637247954961 0 -0.073604534970322849 0.40701203209593861 0 -0.068794141593880004 0.39164312870033191 0 -0.059362270387393307 0.40281708093337182 0 -0.068794141593880004 0.39164312870033191 0 -0.083420625819763852 0.39749250075127068 0 -0.078067251685840236 0.38394556432661642 0 -0.073604534970322849 0.40701203209593861 0 -0.068794141593880004 0.39164312870033191 0 -0.083420625819763852 0.39749250075127068 0 -0.087697339318605572 0.40953993757738599 0 -0.073604534970322849 0.40701203209593861 0 -0.083420625819763852 0.39749250075127068 0 -0.097716603671081537 0.40563857317680602 0 -0.094643883678853 0.38717576863054548 0 -0.083420625819763852 0.39749250075127068 0 -0.097716603671081537 0.40563857317680602 0 -0.087697339318605572 0.40953993757738599 0 -0.083420625819763852 0.39749250075127068 0 -0.076264627417249348 0.36770333692478319 0 -0.094643883678853 0.38717576863054548 0 -0.076264627417249348 0.36770333692478319 0 -0.094643883678853 0.38717576863054548 0 -0.078067251685840236 0.38394556432661642 0 -0.076264627417249348 0.36770333692478319 0 -0.087165737735280746 0.37091248315619679 0 -0.094643883678853 0.38717576863054548 0 -0.094643883678853 0.38717576863054548 0 -0.083420625819763852 0.39749250075127068 0 -0.078067251685840236 0.38394556432661642 0 -0.076264627417249348 0.36770333692478319 0 -0.078067251685840236 0.38394556432661642 0 -0.066378383953971429 0.37759245561974392 0 -0.068794141593880004 0.39164312870033191 0 -0.078067251685840236 0.38394556432661642 0 -0.066378383953971429 0.37759245561974392 0 -0.068794141593880004 0.39164312870033191 0 -0.066378383953971429 0.37759245561974392 0 -0.048621967716027441 0.38827344710163481 0 -0.054976248787681863 0.3690562189796166 0 -0.066378383953971429 0.37759245561974392 0 -0.048621967716027441 0.38827344710163481 0 -0.037619360597344817 0.37373435495151042 0 -0.054976248787681863 0.3690562189796166 0 -0.048621967716027441 0.38827344710163481 0 -0.068794141593880004 0.39164312870033191 0 -0.048621967716027441 0.38827344710163481 0 -0.059362270387393307 0.40281708093337182 0 -0.048621967716027441 0.38827344710163481 0 -0.059362270387393307 0.40281708093337182 0 -0.042814596361786993 0.41138552242299242 0 -0.048621967716027441 0.38827344710163481 0 -0.02901585043820647 0.3970441993482085 0 -0.042814596361786993 0.41138552242299242 0 -0.037619360597344817 0.37373435495151042 0 -0.048621967716027441 0.38827344710163481 0 -0.028902811746221689 0.38312230925958979 0 -0.048621967716027441 0.38827344710163481 0 -0.028902811746221689 0.38312230925958979 0 -0.02901585043820647 0.3970441993482085 0 -0.019603974970620011 0.36837551266128987 0 -0.028902811746221689 0.38312230925958979 0 -0.0096529050089097235 0.38818403223530529 0 -0.028902811746221689 0.38312230925958979 0 -0.02901585043820647 0.3970441993482085 0 -0.0096529050089097235 0.38818403223530529 0 -0.019603974970620011 0.36837551266128987 0 -0.037619360597344817 0.37373435495151042 0 -0.028902811746221689 0.38312230925958979 0 -0.02901585043820647 0.3970441993482085 0 -0.020981061607516879 0.40974347320864762 0 -0.042814596361786993 0.41138552242299242 0 -0.02901585043820647 0.3970441993482085 0 -0.0096529050089097235 0.38818403223530529 0 -0.020981061607516879 0.40974347320864762 0 -0.0096529050089097235 0.38818403223530529 0 -0.0019836062933307631 0.40838514229695472 0 -0.020981061607516879 0.40974347320864762 0 -0.019603974970620011 0.36837551266128987 0 -0.0096529050089097235 0.38818403223530529 0 -0.0118606258758429 0.42454297902743271 0 -0.0020380957693487771 0.43413130746409151 0 -0.015998446965530051 0.44299050125080308 0 -0.0118606258758429 0.42454297902743271 0 -0.0020380957693487771 0.43413130746409151 0 0.0078873893814910175 0.42460208048856352 0 -0.0118606258758429 0.42454297902743271 0 -0.0019836062933307631 0.40838514229695472 0 0.0078873893814910175 0.42460208048856352 0 -0.0118606258758429 0.42454297902743271 0 -0.0019836062933307631 0.40838514229695472 0 -0.020981061607516879 0.40974347320864762 0 -0.0118606258758429 0.42454297902743271 0 -0.020981061607516879 0.40974347320864762 0 -0.030092035820685741 0.42901327122244909 0 -0.0118606258758429 0.42454297902743271 0 -0.030092035820685741 0.42901327122244909 0 -0.015998446965530051 0.44299050125080308 0 -0.030092035820685741 0.42901327122244909 0 -0.048521169320727447 0.43323344519269541 0 -0.036470349602755373 0.44702881179830928 0 -0.030092035820685741 0.42901327122244909 0 -0.042814596361786993 0.41138552242299242 0 -0.048521169320727447 0.43323344519269541 0 -0.020981061607516879 0.40974347320864762 0 -0.030092035820685741 0.42901327122244909 0 -0.042814596361786993 0.41138552242299242 0 -0.042814596361786993 0.41138552242299242 0 -0.062003518986671953 0.41792637247954961 0 -0.048521169320727447 0.43323344519269541 0 -0.059362270387393307 0.40281708093337182 0 -0.042814596361786993 0.41138552242299242 0 -0.062003518986671953 0.41792637247954961 0 -0.06284692863443353 0.43341159424479092 0 -0.062003518986671953 0.41792637247954961 0 -0.048521169320727447 0.43323344519269541 0 -0.048521169320727447 0.43323344519269541 0 -0.056255322966513338 0.45055410925751538 0 -0.036470349602755373 0.44702881179830928 0 -0.06284692863443353 0.43341159424479092 0 -0.048521169320727447 0.43323344519269541 0 -0.056255322966513338 0.45055410925751538 0 -0.056255322966513338 0.45055410925751538 0 -0.05920068126445388 0.47327643355061372 0 -0.071580902834873644 0.45554380137928419 0 -0.056255322966513338 0.45055410925751538 0 -0.04170033724969166 0.46166267046531861 0 -0.05920068126445388 0.47327643355061372 0 -0.04170033724969166 0.46166267046531861 0 -0.036470349602755373 0.44702881179830928 0 -0.02588193374882861 0.46045373319371619 0 -0.04170033724969166 0.46166267046531861 0 -0.02588193374882861 0.46045373319371619 0 -0.033813970422692859 0.47907418302200561 0 -0.056255322966513338 0.45055410925751538 0 -0.04170033724969166 0.46166267046531861 0 -0.036470349602755373 0.44702881179830928 0 -0.030092035820685741 0.42901327122244909 0 -0.036470349602755373 0.44702881179830928 0 -0.015998446965530051 0.44299050125080308 0 -0.036470349602755373 0.44702881179830928 0 -0.015998446965530051 0.44299050125080308 0 -0.02588193374882861 0.46045373319371619 0 -0.015998446965530051 0.44299050125080308 0 -0.02588193374882861 0.46045373319371619 0 -0.0084032224040134704 0.45969352062895152 0 -0.02588193374882861 0.46045373319371619 0 -0.0084032224040134704 0.45969352062895152 0 -0.018905275848288269 0.47227271199690918 0 -0.0084032224040134704 0.45969352062895152 0 -0.0020232555169920458 0.47192666490181739 0 0.0098003185034536526 0.45870499314720981 0 -0.0084032224040134704 0.45969352062895152 0 -0.0020232555169920458 0.47192666490181739 0 -0.018905275848288269 0.47227271199690918 0 -0.015998446965530051 0.44299050125080308 0 -0.0084032224040134704 0.45969352062895152 0 -0.00096271743285814698 0.44760425322899178 0 -0.0020380957693487771 0.43413130746409151 0 -0.015998446965530051 0.44299050125080308 0 -0.00096271743285814698 0.44760425322899178 0 -0.0084272595809318229 0.48487193249339738 0 -0.016632137842203409 0.5 0 0.0089024403028718502 0.5 0 -0.0084272595809318229 0.48487193249339738 0 -0.0020232555169920458 0.47192666490181739 0 -0.018905275848288269 0.47227271199690918 0 -0.0084272595809318229 0.48487193249339738 0 -0.018905275848288269 0.47227271199690918 0 -0.033813970422692859 0.47907418302200561 0 -0.0084272595809318229 0.48487193249339738 0 -0.033813970422692859 0.47907418302200561 0 -0.02588193374882861 0.46045373319371619 0 -0.018905275848288269 0.47227271199690918 0 -0.033813970422692859 0.47907418302200561 0 -0.016632137842203409 0.5 0 -0.042166715987278607 0.5 0 -0.033813970422692859 0.47907418302200561 0 -0.0084272595809318229 0.48487193249339738 0 -0.016632137842203409 0.5 0 -0.033813970422692859 0.47907418302200561 0 -0.033813970422692859 0.47907418302200561 0 -0.05920068126445388 0.47327643355061372 0 -0.04170033724969166 0.46166267046531861 0 -0.033813970422692859 0.47907418302200561 0 -0.05920068126445388 0.47327643355061372 0 -0.042166715987278607 0.5 0 -0.033813970422692859 0.47907418302200561 0 -0.05920068126445388 0.47327643355061372 0 -0.042166715987278607 0.5 0 -0.05920068126445388 0.47327643355061372 0 -0.067701294132353818 0.5 0 -0.05920068126445388 0.47327643355061372 0 -0.067701294132353818 0.5 0 -0.080590129508376226 0.48531354709798458 0 -0.067701294132353818 0.5 0 -0.080590129508376226 0.48531354709798458 0 -0.093235872277429133 0.5 0 -0.080590129508376226 0.48531354709798458 0 -0.093235872277429133 0.5 0 -0.099952337641340899 0.47627794946715879 0 -0.080590129508376226 0.48531354709798458 0 -0.084587392106214895 0.46747868407922177 0 -0.099952337641340899 0.47627794946715879 0 -0.05920068126445388 0.47327643355061372 0 -0.084587392106214895 0.46747868407922177 0 -0.05920068126445388 0.47327643355061372 0 -0.080590129508376226 0.48531354709798458 0 -0.084587392106214895 0.46747868407922177 0 -0.05920068126445388 0.47327643355061372 0 -0.071580902834873644 0.45554380137928419 0 -0.084587392106214895 0.46747868407922177 0 -0.06284692863443353 0.43341159424479092 0 -0.056255322966513338 0.45055410925751538 0 -0.072340943524563273 0.44222047918578489 0 -0.056255322966513338 0.45055410925751538 0 -0.071580902834873644 0.45554380137928419 0 -0.072340943524563273 0.44222047918578489 0 -0.071580902834873644 0.45554380137928419 0 -0.072340943524563273 0.44222047918578489 0 -0.085520174312622821 0.44418930082328523 0 -0.085520174312622821 0.44418930082328523 0 -0.084587392106214895 0.46747868407922177 0 -0.09755534624421569 0.44882233793924731 0 -0.071580902834873644 0.45554380137928419 0 -0.085520174312622821 0.44418930082328523 0 -0.084587392106214895 0.46747868407922177 0 -0.084587392106214895 0.46747868407922177 0 -0.09755534624421569 0.44882233793924731 0 -0.1099741029479754 0.46168093460782772 0 -0.084587392106214895 0.46747868407922177 0 -0.1099741029479754 0.46168093460782772 0 -0.084587392106214895 0.46747868407922177 0 -0.1099741029479754 0.46168093460782772 0 -0.099952337641340899 0.47627794946715879 0 -0.09755534624421569 0.44882233793924731 0 -0.1099741029479754 0.46168093460782772 0 -0.1097415735089122 0.45563448692883352 0 -0.09755534624421569 0.44882233793924731 0 -0.1099741029479754 0.46168093460782772 0 -0.1148891788071954 0.46677008963169458 0 -0.1099741029479754 0.46168093460782772 0 -0.099952337641340899 0.47627794946715879 0 -0.1001741245113338 0.43765999024488328 0 -0.09755534624421569 0.44882233793924731 0 -0.104713520488533 0.44377290180302997 0 -0.085520174312622821 0.44418930082328523 0 -0.1001741245113338 0.43765999024488328 0 -0.09755534624421569 0.44882233793924731 0 -0.09755534624421569 0.44882233793924731 0 -0.104713520488533 0.44377290180302997 0 -0.1095290687799417 0.45003799968972352 0 -0.09755534624421569 0.44882233793924731 0 -0.1095290687799417 0.45003799968972352 0 -0.1097415735089122 0.45563448692883352 0 -0.104713520488533 0.44377290180302997 0 -0.11159554241864079 0.4385712793382659 0 -0.1095290687799417 0.45003799968972352 0 -0.1001741245113338 0.43765999024488328 0 -0.104713520488533 0.44377290180302997 0 -0.11159554241864079 0.4385712793382659 0 -0.11159554241864079 0.4385712793382659 0 -0.1141825052921657 0.4607198308784603 0 -0.11159554241864079 0.4385712793382659 0 -0.1095290687799417 0.45003799968972352 0 -0.1141825052921657 0.4607198308784603 0 -0.11159554241864079 0.4385712793382659 0 -0.1174710277399038 0.44979018399922482 0 -0.1141825052921657 0.4607198308784603 0 -0.1174710277399038 0.44979018399922482 0 -0.11991416797163031 0.44143571275283788 0 -0.1241918952771781 0.45843391302733461 0 -0.1278319557291811 0.44992854849024039 0 -0.11991416797163031 0.44143571275283788 0 -0.1241918952771781 0.45843391302733461 0 -0.11991416797163031 0.44143571275283788 0 -0.1241918952771781 0.45843391302733461 0 -0.11159554241864079 0.4385712793382659 0 -0.1174710277399038 0.44979018399922482 0 -0.11991416797163031 0.44143571275283788 0 -0.1148891788071954 0.46677008963169458 0 -0.1141825052921657 0.4607198308784603 0 -0.1099741029479754 0.46168093460782772 0 -0.1141825052921657 0.4607198308784603 0 -0.1148891788071954 0.46677008963169458 0 -0.1099741029479754 0.46168093460782772 0 -0.1148891788071954 0.46677008963169458 0 -0.1099741029479754 0.46168093460782772 0 -0.1141825052921657 0.4607198308784603 0 -0.1099741029479754 0.46168093460782772 0 -0.1097415735089122 0.45563448692883352 0 -0.1141825052921657 0.4607198308784603 0 -0.1095290687799417 0.45003799968972352 0 -0.1097415735089122 0.45563448692883352 0 -0.1141825052921657 0.4607198308784603 0 -0.1141825052921657 0.4607198308784603 0 -0.1241918952771781 0.45843391302733461 0 -0.1174710277399038 0.44979018399922482 0 -0.1141825052921657 0.4607198308784603 0 -0.1241918952771781 0.45843391302733461 0 -0.1148891788071954 0.46677008963169458 0 -0.1141825052921657 0.4607198308784603 0 -0.1241918952771781 0.45843391302733461 0 -0.1303072579155207 0.48273423687987022 0 -0.1148891788071954 0.46677008963169458 0 -0.1168298146148488 0.48338504481584932 0 -0.1303072579155207 0.48273423687987022 0 -0.1148891788071954 0.46677008963169458 0 -0.1241918952771781 0.45843391302733461 0 -0.1148891788071954 0.46677008963169458 0 -0.1168298146148488 0.48338504481584932 0 -0.099952337641340899 0.47627794946715879 0 -0.1303072579155207 0.48273423687987022 0 -0.1148891788071954 0.46677008963169458 0 -0.1148891788071954 0.46677008963169458 0 -0.1168298146148488 0.48338504481584932 0 -0.093235872277429133 0.5 0 -0.1168298146148488 0.48338504481584932 0 -0.11877045042250441 0.50000000000000377 0 -0.1168298146148488 0.48338504481584932 0 -0.12420164626658579 0.48996772677829548 0 -0.11877045042250441 0.50000000000000377 0 -0.1303072579155207 0.48273423687987022 0 -0.1168298146148488 0.48338504481584932 0 -0.12420164626658579 0.48996772677829548 0 -0.1168298146148488 0.48338504481584932 0 -0.11877045042250441 0.50000000000000377 0 -0.12696377206690171 0.49566061645915188 0 -0.12420164626658579 0.48996772677829548 0 -0.11877045042250441 0.50000000000000377 0 -0.093235872277429133 0.5 0 -0.1168298146148488 0.48338504481584932 0 -0.099952337641340899 0.47627794946715879 0 -0.16502843052514721 0.091105661735544199 0 -0.15889357039200161 0.073234857637620415 0 -0.1494962637003604 0.076182039889827205 0 -0.16978167523366611 0.078838674917164092 0 -0.16502843052514721 0.091105661735544199 0 -0.15889357039200161 0.073234857637620415 0 -0.16502843052514721 0.091105661735544199 0 -0.15889357039200161 0.073234857637620415 0 -0.16978167523366611 0.078838674917164092 0 -0.16502843052514721 0.091105661735544199 0 -0.17737693221508341 0.086583693431048062 0 -0.15889357039200161 0.073234857637620415 0 -0.15812601353405681 0.06585404142263683 0 -0.16834173536496311 0.06767413392306193 0 -0.15812601353405681 0.06585404142263683 0 -0.16834173536496311 0.06767413392306193 0 -0.16354708614562169 0.057984670512417423 0 -0.16978167523366611 0.078838674917164092 0 -0.15889357039200161 0.073234857637620415 0 -0.16834173536496311 0.06767413392306193 0 -0.17926770767113501 0.075595027858545841 0 -0.18861646014301151 0.081942904340023881 0 -0.19451708035959109 0.062720588655179516 0 -0.16978167523366611 0.078838674917164092 0 -0.16834173536496311 0.06767413392306193 0 -0.17926770767113501 0.075595027858545841 0 -0.16834173536496311 0.06767413392306193 0 -0.1799062561622396 0.06388494250067478 0 -0.17109915477629789 0.057353214413818299 0 -0.16834173536496311 0.06767413392306193 0 -0.17926770767113501 0.075595027858545841 0 -0.1799062561622396 0.06388494250067478 0 -0.17926770767113501 0.075595027858545841 0 -0.1799062561622396 0.06388494250067478 0 -0.19451708035959109 0.062720588655179516 0 -0.17926770767113501 0.075595027858545841 0 -0.17737693221508341 0.086583693431048062 0 -0.18861646014301151 0.081942904340023881 0 -0.16978167523366611 0.078838674917164092 0 -0.17926770767113501 0.075595027858545841 0 -0.17737693221508341 0.086583693431048062 0 -0.16502843052514721 0.091105661735544199 0 -0.17737693221508341 0.086583693431048062 0 -0.17673512879618911 0.098217807250643246 0 -0.17737693221508341 0.086583693431048062 0 -0.18649007944292781 0.092923082254624312 0 -0.17673512879618911 0.098217807250643246 0 -0.17737693221508341 0.086583693431048062 0 -0.18649007944292781 0.092923082254624312 0 -0.18861646014301151 0.081942904340023881 0 -0.1842820820067736 0.1019441326301195 0 -0.17621479417177999 0.10806746131693901 0 -0.19768832561619751 0.10856817969827121 0 -0.18649007944292781 0.092923082254624312 0 -0.1842820820067736 0.1019441326301195 0 -0.17673512879618911 0.098217807250643246 0 -0.17621479417177999 0.10806746131693901 0 -0.17673512879618911 0.098217807250643246 0 -0.17116329065829311 0.1089764658334679 0 -0.1842820820067736 0.1019441326301195 0 -0.17621479417177999 0.10806746131693901 0 -0.17673512879618911 0.098217807250643246 0 -0.17621479417177999 0.10806746131693901 0 -0.17116329065829311 0.1089764658334679 0 -0.17621479417177999 0.10806746131693901 0 -0.1729006404340899 0.1140373534199824 0 -0.19768832561619751 0.10856817969827121 0 -0.18743858944622921 0.1235545477349498 0 -0.17418043284876941 0.1177653796556876 0 -0.19827927979835749 0.1105571677176193 0 -0.17418043284876941 0.1177653796556876 0 -0.19827927979835749 0.1105571677176193 0 -0.1729006404340899 0.1140373534199824 0 -0.19768832561619751 0.10856817969827121 0 -0.1729006404340899 0.1140373534199824 0 -0.17418043284876941 0.1177653796556876 0 -0.19768832561619751 0.10856817969827121 0 -0.1729006404340899 0.1140373534199824 0 -0.17116329065829311 0.1089764658334679 0 -0.17621479417177999 0.10806746131693901 0 -0.1729006404340899 0.1140373534199824 0 -0.17116329065829311 0.1089764658334679 0 -0.1729006404340899 0.1140373534199824 0 -0.17418043284876941 0.1177653796556876 0 -0.1729006404340899 0.1140373534199824 0 -0.15848527054054909 0.1224599634487131 0 -0.14930657065203121 0.1192431669314985 0 -0.1729006404340899 0.1140373534199824 0 -0.17116329065829311 0.1089764658334679 0 -0.14930657065203121 0.1192431669314985 0 -0.1729006404340899 0.1140373534199824 0 -0.14930657065203121 0.1192431669314985 0 -0.1729006404340899 0.1140373534199824 0 -0.17418043284876941 0.1177653796556876 0 -0.15848527054054909 0.1224599634487131 0 -0.17116329065829311 0.1089764658334679 0 -0.14454242720243629 0.1137668188542325 0 -0.17418043284876941 0.1177653796556876 0 -0.15848527054054909 0.1224599634487131 0 -0.17418043284876941 0.1177653796556876 0 -0.15848527054054909 0.1224599634487131 0 -0.16788709502575161 0.125526009721731 0 -0.16502843052514721 0.091105661735544199 0 -0.17116329065829311 0.1089764658334679 0 -0.1576098205150791 0.1018742881756351 0 -0.17116329065829311 0.1089764658334679 0 -0.1576098205150791 0.1018742881756351 0 -0.14454242720243629 0.1137668188542325 0 -0.16502843052514721 0.091105661735544199 0 -0.17116329065829311 0.1089764658334679 0 -0.16502843052514721 0.091105661735544199 0 -0.17673512879618911 0.098217807250643246 0 -0.17116329065829311 0.1089764658334679 0 -0.16502843052514721 0.091105661735544199 0 -0.1576098205150791 0.1018742881756351 0 -0.14970513367443999 0.093648206279295682 0 -0.14454242720243629 0.1137668188542325 0 -0.1364575809359673 0.09507073693406809 0 -0.14970513367443999 0.093648206279295682 0 -0.1576098205150791 0.1018742881756351 0 -0.14454242720243629 0.1137668188542325 0 -0.14970513367443999 0.093648206279295682 0 -0.15848527054054909 0.1224599634487131 0 -0.14279010823232821 0.12715454724173611 0 -0.17116329065829311 0.1089764658334679 0 -0.14930657065203121 0.1192431669314985 0 -0.14454242720243629 0.1137668188542325 0 -0.15848527054054909 0.1224599634487131 0 -0.14930657065203121 0.1192431669314985 0 -0.14279010823232821 0.12715454724173611 0 -0.14930657065203121 0.1192431669314985 0 -0.14454242720243629 0.1137668188542325 0 -0.14279010823232821 0.12715454724173611 0 -0.14454242720243629 0.1137668188542325 0 -0.12671048613217031 0.1042115069534076 0 -0.1179215637465796 0.1185571718749982 0 -0.14454242720243629 0.1137668188542325 0 -0.1313747037434983 0.1256878806509408 0 -0.1179215637465796 0.1185571718749982 0 -0.14454242720243629 0.1137668188542325 0 -0.1179215637465796 0.1185571718749982 0 -0.14454242720243629 0.1137668188542325 0 -0.14279010823232821 0.12715454724173611 0 -0.1313747037434983 0.1256878806509408 0 -0.14454242720243629 0.1137668188542325 0 -0.1364575809359673 0.09507073693406809 0 -0.12671048613217031 0.1042115069534076 0 -0.1364575809359673 0.09507073693406809 0 -0.12671048613217031 0.1042115069534076 0 -0.1245320378174069 0.090537581379295282 0 -0.1364575809359673 0.09507073693406809 0 -0.13001417798313589 0.084142673976679933 0 -0.1245320378174069 0.090537581379295282 0 -0.13001417798313589 0.084142673976679933 0 -0.1245320378174069 0.090537581379295282 0 -0.13001417798313589 0.084142673976679933 0 -0.14242721489120311 0.083039430444421539 0 -0.14079750270615621 0.071563943588297985 0 -0.13001417798313589 0.084142673976679933 0 -0.14242721489120311 0.083039430444421539 0 -0.1364575809359673 0.09507073693406809 0 -0.13001417798313589 0.084142673976679933 0 -0.14242721489120311 0.083039430444421539 0 -0.16502843052514721 0.091105661735544199 0 -0.14970513367443999 0.093648206279295682 0 -0.1494962637003604 0.076182039889827205 0 -0.14242721489120311 0.083039430444421539 0 -0.14970513367443999 0.093648206279295682 0 -0.1494962637003604 0.076182039889827205 0 -0.1364575809359673 0.09507073693406809 0 -0.14242721489120311 0.083039430444421539 0 -0.14970513367443999 0.093648206279295682 0 -0.1494962637003604 0.076182039889827205 0 -0.14079750270615621 0.071563943588297985 0 -0.15158082742917689 0.05898521319991646 0 -0.14079750270615621 0.071563943588297985 0 -0.13164275203400999 0.060652308656581569 0 -0.15158082742917689 0.05898521319991646 0 -0.15812601353405681 0.06585404142263683 0 -0.1494962637003604 0.076182039889827205 0 -0.15158082742917689 0.05898521319991646 0 -0.15889357039200161 0.073234857637620415 0 -0.15812601353405681 0.06585404142263683 0 -0.1494962637003604 0.076182039889827205 0 -0.14242721489120311 0.083039430444421539 0 -0.1494962637003604 0.076182039889827205 0 -0.14079750270615621 0.071563943588297985 0 -0.14079750270615621 0.071563943588297985 0 -0.15158082742917689 0.05898521319991646 0 -0.14079750270615621 0.071563943588297985 0 -0.13085902303853009 0.071370017497863758 0 -0.13164275203400999 0.060652308656581569 0 -0.13001417798313589 0.084142673976679933 0 -0.14079750270615621 0.071563943588297985 0 -0.13085902303853009 0.071370017497863758 0 -0.13001417798313589 0.084142673976679933 0 -0.14079750270615621 0.071563943588297985 0 -0.13001417798313589 0.084142673976679933 0 -0.13085902303853009 0.071370017497863758 0 -0.1210395870472234 0.070294910121585841 0 -0.13085902303853009 0.071370017497863758 0 -0.13164275203400999 0.060652308656581569 0 -0.1210395870472234 0.070294910121585841 0 -0.13164275203400999 0.060652308656581569 0 -0.13899501114584251 0.053329276722468233 0 -0.12529493596717259 0.051271360479867543 0 -0.13899501114584251 0.053329276722468233 0 -0.12529493596717259 0.051271360479867543 0 -0.13480280749586659 0.043056735279033892 0 -0.12529493596717259 0.051271360479867543 0 -0.13480280749586659 0.043056735279033892 0 -0.11854076777288031 0.039566415304323428 0 -0.12917208020939011 0.032628214361676608 0 -0.13480280749586659 0.043056735279033892 0 -0.11854076777288031 0.039566415304323428 0 -0.12917208020939011 0.032628214361676608 0 -0.13480280749586659 0.043056735279033892 0 -0.1410037452468246 0.032830474114466671 0 -0.13899501114584251 0.053329276722468233 0 -0.13480280749586659 0.043056735279033892 0 -0.14337660028701349 0.043388035280618908 0 -0.13480280749586659 0.043056735279033892 0 -0.14337660028701349 0.043388035280618908 0 -0.1410037452468246 0.032830474114466671 0 -0.15283699531730011 0.03277217029609894 0 -0.1492444422292335 0.0549515199910268 0 -0.14337660028701349 0.043388035280618908 0 -0.15283699531730011 0.03277217029609894 0 -0.1492444422292335 0.0549515199910268 0 -0.15283699531730011 0.03277217029609894 0 -0.15516750754590231 0.046924654844448563 0 -0.1492444422292335 0.0549515199910268 0 -0.14337660028701349 0.043388035280618908 0 -0.1410037452468246 0.032830474114466671 0 -0.15283699531730011 0.03277217029609894 0 -0.13164275203400999 0.060652308656581569 0 -0.15158082742917689 0.05898521319991646 0 -0.15516750754590231 0.046924654844448563 0 -0.15158082742917689 0.05898521319991646 0 -0.1492444422292335 0.0549515199910268 0 -0.13164275203400999 0.060652308656581569 0 -0.13899501114584251 0.053329276722468233 0 -0.15158082742917689 0.05898521319991646 0 -0.13899501114584251 0.053329276722468233 0 -0.15158082742917689 0.05898521319991646 0 -0.1492444422292335 0.0549515199910268 0 -0.13899501114584251 0.053329276722468233 0 -0.14337660028701349 0.043388035280618908 0 -0.1492444422292335 0.0549515199910268 0 -0.13204674266974001 0.0023344024861769448 0 -0.14014414349949711 0.011872536912483449 0 -0.1497751813872662 0.0074147435616967981 0 -0.13234563100855259 -0.0039657619997244039 0 -0.13204674266974001 0.0023344024861769448 0 -0.1497751813872662 0.0074147435616967981 0 -0.13204674266974001 0.0023344024861769448 0 -0.1310181663381261 0.014950402213768589 0 -0.1225302032672328 0.0148426862870671 0 -0.13204674266974001 0.0023344024861769448 0 -0.1310181663381261 0.014950402213768589 0 -0.14014414349949711 0.011872536912483449 0 -0.1310181663381261 0.014950402213768589 0 -0.14014414349949711 0.011872536912483449 0 -0.13546870744168099 0.021801933317321089 0 -0.1310181663381261 0.014950402213768589 0 -0.1225302032672328 0.0148426862870671 0 -0.12490103481247961 0.023900452065794379 0 -0.1310181663381261 0.014950402213768589 0 -0.13546870744168099 0.021801933317321089 0 -0.12490103481247961 0.023900452065794379 0 -0.12917208020939011 0.032628214361676608 0 -0.13546870744168099 0.021801933317321089 0 -0.12490103481247961 0.023900452065794379 0 -0.12917208020939011 0.032628214361676608 0 -0.1410037452468246 0.032830474114466671 0 -0.13546870744168099 0.021801933317321089 0 -0.15283699531730011 0.03277217029609894 0 -0.15642954840536669 0.01059282060117113 0 -0.15283699531730011 0.03277217029609894 0 -0.14805883133146649 0.01956410613643958 0 -0.15642954840536669 0.01059282060117113 0 -0.1410037452468246 0.032830474114466671 0 -0.13546870744168099 0.021801933317321089 0 -0.14805883133146649 0.01956410613643958 0 -0.1410037452468246 0.032830474114466671 0 -0.15283699531730011 0.03277217029609894 0 -0.14805883133146649 0.01956410613643958 0 -0.14014414349949711 0.011872536912483449 0 -0.13546870744168099 0.021801933317321089 0 -0.14805883133146649 0.01956410613643958 0 -0.13234563100855259 -0.0039657619997244039 0 -0.1497751813872662 0.0074147435616967981 0 -0.16002210149343241 -0.011586529093756881 0 -0.1497751813872662 0.0074147435616967981 0 -0.15642954840536669 0.01059282060117113 0 -0.14014414349949711 0.011872536912483449 0 -0.14805883133146649 0.01956410613643958 0 -0.14923878238253441 0.01276069567604248 0 -0.14014414349949711 0.011872536912483449 0 -0.14923878238253441 0.01276069567604248 0 -0.1497751813872662 0.0074147435616967981 0 -0.14805883133146649 0.01956410613643958 0 -0.14923878238253441 0.01276069567604248 0 -0.15642954840536669 0.01059282060117113 0 -0.14923878238253441 0.01276069567604248 0 -0.1497751813872662 0.0074147435616967981 0 -0.15642954840536669 0.01059282060117113 0 -0.16002210149343241 -0.011586529093756881 0 -0.1646578652215766 0.003337892693202899 0 -0.15642954840536669 0.01059282060117113 0 -0.1646578652215766 0.003337892693202899 0 -0.1682643842241506 0.01253296415588759 0 -0.17391542676335689 0.001812315109509761 0 -0.1646578652215766 0.003337892693202899 0 -0.15642954840536669 0.01059282060117113 0 -0.1682643842241506 0.01253296415588759 0 -0.1653082420611604 0.02390225027689432 0 -0.18243470298662409 0.02299421858159054 0 -0.16700776520789989 0.04098971589075303 0 -0.15283699531730011 0.03277217029609894 0 -0.15642954840536669 0.01059282060117113 0 -0.1653082420611604 0.02390225027689432 0 -0.15642954840536669 0.01059282060117113 0 -0.1682643842241506 0.01253296415588759 0 -0.1653082420611604 0.02390225027689432 0 -0.1682643842241506 0.01253296415588759 0 -0.1653082420611604 0.02390225027689432 0 -0.18243470298662409 0.02299421858159054 0 -0.1815299649543908 0.027341178252014899 0 -0.18243470298662409 0.02299421858159054 0 -0.16700776520789989 0.04098971589075303 0 -0.1815299649543908 0.027341178252014899 0 -0.18243470298662409 0.02299421858159054 0 -0.1945049246246483 0.027774040523902081 0 -0.18243470298662409 0.02299421858159054 0 -0.17391542676335689 0.001812315109509761 0 -0.19786164076534829 0.0049987212724280326 0 -0.1682643842241506 0.01253296415588759 0 -0.18243470298662409 0.02299421858159054 0 -0.17391542676335689 0.001812315109509761 0 -0.1861272887773644 -0.0062487556756454041 0 -0.17391542676335689 0.001812315109509761 0 -0.19786164076534829 0.0049987212724280326 0 -0.17109915477629789 0.057353214413818299 0 -0.16354708614562169 0.057984670512417423 0 -0.16700776520789989 0.04098971589075303 0 -0.15158082742917689 0.05898521319991646 0 -0.16700776520789989 0.04098971589075303 0 -0.15158082742917689 0.05898521319991646 0 -0.16354708614562169 0.057984670512417423 0 -0.16700776520789989 0.04098971589075303 0 -0.15516750754590231 0.046924654844448563 0 -0.15158082742917689 0.05898521319991646 0 -0.16700776520789989 0.04098971589075303 0 -0.16834173536496311 0.06767413392306193 0 -0.17109915477629789 0.057353214413818299 0 -0.16354708614562169 0.057984670512417423 0 -0.17109915477629789 0.057353214413818299 0 -0.16354708614562169 0.057984670512417423 0 -0.15158082742917689 0.05898521319991646 0 -0.16354708614562169 0.057984670512417423 0 -0.15812601353405681 0.06585404142263683 0 -0.15158082742917689 0.05898521319991646 0 -0.16354708614562169 0.057984670512417423 0 -0.15283699531730011 0.03277217029609894 0 -0.15516750754590231 0.046924654844448563 0 -0.16700776520789989 0.04098971589075303 0 -0.15283699531730011 0.03277217029609894 0 -0.1653082420611604 0.02390225027689432 0 -0.16700776520789989 0.04098971589075303 0 -0.17109915477629789 0.057353214413818299 0 -0.16700776520789989 0.04098971589075303 0 -0.17763965763255299 0.04148401014434823 0 -0.18243470298662409 0.02299421858159054 0 -0.16700776520789989 0.04098971589075303 0 -0.17109915477629789 0.057353214413818299 0 -0.17763965763255299 0.04148401014434823 0 -0.19092174559162339 0.040251932020806701 0 -0.1815299649543908 0.027341178252014899 0 -0.16700776520789989 0.04098971589075303 0 -0.17763965763255299 0.04148401014434823 0 -0.1815299649543908 0.027341178252014899 0 -0.19092174559162339 0.040251932020806701 0 -0.1815299649543908 0.027341178252014899 0 -0.17763965763255299 0.04148401014434823 0 -0.19092174559162339 0.040251932020806701 0 -0.17109915477629789 0.057353214413818299 0 -0.1861777374801048 0.055190332609717938 0 -0.19092174559162339 0.040251932020806701 0 -0.1799062561622396 0.06388494250067478 0 -0.17109915477629789 0.057353214413818299 0 -0.1861777374801048 0.055190332609717938 0 -0.17109915477629789 0.057353214413818299 0 -0.1861777374801048 0.055190332609717938 0 -0.1799062561622396 0.06388494250067478 0 -0.1861777374801048 0.055190332609717938 0 -0.19451708035959109 0.062720588655179516 0 -0.1861777374801048 0.055190332609717938 0 -0.20151205050212359 0.054810280891718272 0 -0.1861777374801048 0.055190332609717938 0 -0.20151205050212359 0.054810280891718272 0 -0.19451708035959109 0.062720588655179516 0 -0.20151205050212359 0.054810280891718272 0 -0.20419685410638941 0.058501044080411679 0 -0.19451708035959109 0.062720588655179516 0 -0.20151205050212359 0.054810280891718272 0 -0.20419685410638941 0.058501044080411679 0 -0.1861777374801048 0.055190332609717938 0 -0.20151205050212359 0.054810280891718272 0 -0.20031352622885579 0.053162685789598638 0 -0.20031352622885579 0.053162685789598638 0 -0.19092174559162339 0.040251932020806701 0 -0.20560731264747409 0.052403341589648669 0 -0.20151205050212359 0.054810280891718272 0 -0.20031352622885579 0.053162685789598638 0 -0.20560731264747409 0.052403341589648669 0 -0.20031352622885579 0.053162685789598638 0 -0.20560731264747409 0.052403341589648669 0 -0.20151205050212359 0.054810280891718272 0 -0.20031352622885579 0.053162685789598638 0 -0.1861777374801048 0.055190332609717938 0 -0.20031352622885579 0.053162685789598638 0 -0.19092174559162339 0.040251932020806701 0 -0.1861777374801048 0.055190332609717938 0 -0.20031352622885579 0.053162685789598638 0 -0.19092174559162339 0.040251932020806701 0 -0.20560731264747409 0.052403341589648669 0 -0.1945049246246483 0.027774040523902081 0 -0.1815299649543908 0.027341178252014899 0 -0.19092174559162339 0.040251932020806701 0 -0.1945049246246483 0.027774040523902081 0 -0.20031352622885579 0.053162685789598638 0 -0.19092174559162339 0.040251932020806701 0 -0.20560731264747409 0.052403341589648669 0 -0.22494669563518929 0.049629287795050152 0 -0.2213303955402188 0.036304026634605337 0 -0.20560731264747409 0.052403341589648669 0 -0.2121588808911414 0.024079564013641759 0 -0.2213303955402188 0.036304026634605337 0 -0.20560731264747409 0.052403341589648669 0 -0.1945049246246483 0.027774040523902081 0 -0.2121588808911414 0.024079564013641759 0 -0.20560731264747409 0.052403341589648669 0 -0.2121588808911414 0.024079564013641759 0 -0.20560731264747409 0.052403341589648669 0 -0.22494669563518929 0.049629287795050152 0 -0.218551673480021 0.05997285120544648 0 -0.20967335229902351 0.054127884578312399 0 -0.22494669563518929 0.049629287795050152 0 -0.20560731264747409 0.052403341589648669 0 -0.20967335229902351 0.054127884578312399 0 -0.22494669563518929 0.049629287795050152 0 -0.218551673480021 0.05997285120544648 0 -0.20419685410638941 0.058501044080411679 0 -0.20967335229902351 0.054127884578312399 0 -0.20151205050212359 0.054810280891718272 0 -0.20419685410638941 0.058501044080411679 0 -0.20512035083694391 0.054508577694431751 0 -0.20419685410638941 0.058501044080411679 0 -0.20512035083694391 0.054508577694431751 0 -0.20967335229902351 0.054127884578312399 0 -0.20419685410638941 0.058501044080411679 0 -0.20512035083694391 0.054508577694431751 0 -0.20151205050212359 0.054810280891718272 0 -0.20512035083694391 0.054508577694431751 0 -0.20151205050212359 0.054810280891718272 0 -0.20512035083694391 0.054508577694431751 0 -0.20560731264747409 0.052403341589648669 0 -0.20512035083694391 0.054508577694431751 0 -0.20560731264747409 0.052403341589648669 0 -0.20967335229902351 0.054127884578312399 0 -0.20512035083694391 0.054508577694431751 0 -0.20560731264747409 0.052403341589648669 0 -0.20512035083694391 0.054508577694431751 0 -0.20967335229902351 0.054127884578312399 0 -0.18243470298662409 0.02299421858159054 0 -0.19786164076534829 0.0049987212724280326 0 -0.18243470298662409 0.02299421858159054 0 -0.19786164076534829 0.0049987212724280326 0 -0.1945049246246483 0.027774040523902081 0 -0.19786164076534829 0.0049987212724280326 0 -0.1945049246246483 0.027774040523902081 0 -0.2121588808911414 0.024079564013641759 0 -0.21871044913480961 -0.0042442135623651043 0 -0.2121588808911414 0.024079564013641759 0 -0.21871044913480961 -0.0042442135623651043 0 -0.19786164076534829 0.0049987212724280326 0 -0.2121588808911414 0.024079564013641759 0 -0.21871044913480961 -0.0042442135623651043 0 -0.2121588808911414 0.024079564013641759 0 -0.2218097566737828 0.00075901962222443137 0 -0.2218097566737828 0.00075901962222443137 0 -0.2302017538960838 0.01963249780569927 0 -0.2395998062585549 3.2132456287619487e-05 0 -0.2121588808911414 0.024079564013641759 0 -0.2218097566737828 0.00075901962222443137 0 -0.2302017538960838 0.01963249780569927 0 -0.2302017538960838 0.01963249780569927 0 -0.2213303955402188 0.036304026634605337 0 -0.23373733463120541 0.035775441968986757 0 -0.2121588808911414 0.024079564013641759 0 -0.2302017538960838 0.01963249780569927 0 -0.2213303955402188 0.036304026634605337 0 -0.2302017538960838 0.01963249780569927 0 -0.23946478990517481 0.026512976015281811 0 -0.23373733463120541 0.035775441968986757 0 -0.23946478990517481 0.026512976015281811 0 -0.24509883809478239 0.01481825845038178 0 -0.2488212329986276 0.035825705836059457 0 -0.2302017538960838 0.01963249780569927 0 -0.23946478990517481 0.026512976015281811 0 -0.24509883809478239 0.01481825845038178 0 -0.2302017538960838 0.01963249780569927 0 -0.24509883809478239 0.01481825845038178 0 -0.2395998062585549 3.2132456287619487e-05 0 -0.25951563859444499 0.0085172264464785548 0 -0.24509883809478239 0.01481825845038178 0 -0.2395998062585549 3.2132456287619487e-05 0 -0.25951563859444499 0.0085172264464785548 0 -0.2395998062585549 3.2132456287619487e-05 0 -0.218551673480021 0.05997285120544648 0 -0.22494669563518929 0.049629287795050152 0 -0.2381268274028103 0.063134185225640488 0 -0.22494669563518929 0.049629287795050152 0 -0.23373733463120541 0.035775441968986757 0 -0.2444732076528876 0.046928516504279913 0 -0.22494669563518929 0.049629287795050152 0 -0.2213303955402188 0.036304026634605337 0 -0.23373733463120541 0.035775441968986757 0 -0.23946478990517481 0.026512976015281811 0 -0.23373733463120541 0.035775441968986757 0 -0.2488212329986276 0.035825705836059457 0 -0.23373733463120541 0.035775441968986757 0 -0.2488212329986276 0.035825705836059457 0 -0.2444732076528876 0.046928516504279913 0 -0.2488212329986276 0.035825705836059457 0 -0.2444732076528876 0.046928516504279913 0 -0.2444732076528876 0.046928516504279913 0 -0.2381268274028103 0.063134185225640488 0 -0.22494669563518929 0.049629287795050152 0 -0.2444732076528876 0.046928516504279913 0 -0.2381268274028103 0.063134185225640488 0 -0.22494669563518929 0.049629287795050152 0 -0.2444732076528876 0.046928516504279913 0 -0.26243605140907061 0.056968836332360717 0 -0.2444732076528876 0.046928516504279913 0 -0.2381268274028103 0.063134185225640488 0 -0.25324543335959387 0.075417011431584843 0 -0.2381268274028103 0.063134185225640488 0 -0.24163367719149401 0.083560882577462109 0 -0.2381268274028103 0.063134185225640488 0 -0.24163367719149401 0.083560882577462109 0 -0.2274324218069935 0.090442664615221435 0 -0.25523928785414762 0.089221309932465798 0 -0.2450665584409219 0.09255505516060239 0 -0.24163367719149401 0.083560882577462109 0 -0.25523928785414762 0.089221309932465798 0 -0.25324543335959387 0.075417011431584843 0 -0.24163367719149401 0.083560882577462109 0 -0.2450665584409219 0.09255505516060239 0 -0.24163367719149401 0.083560882577462109 0 -0.2379837756591974 0.093190666623446314 0 -0.24163367719149401 0.083560882577462109 0 -0.2379837756591974 0.093190666623446314 0 -0.2274324218069935 0.090442664615221435 0 -0.2274324218069935 0.090442664615221435 0 -0.21581463795669059 0.074471854347817182 0 -0.2381268274028103 0.063134185225640488 0 -0.2274324218069935 0.090442664615221435 0 -0.218551673480021 0.05997285120544648 0 -0.2381268274028103 0.063134185225640488 0 -0.21581463795669059 0.074471854347817182 0 -0.2381268274028103 0.063134185225640488 0 -0.2274324218069935 0.090442664615221435 0 -0.21581463795669059 0.074471854347817182 0 -0.20419685410638941 0.058501044080411679 0 -0.21581463795669059 0.074471854347817182 0 -0.218551673480021 0.05997285120544648 0 -0.20419685410638941 0.058501044080411679 0 -0.21581463795669059 0.074471854347817182 0 -0.20419685410638941 0.058501044080411679 0 -0.21581463795669059 0.074471854347817182 0 -0.1992657844723425 0.079819072731278737 0 -0.21581463795669059 0.074471854347817182 0 -0.21101740313492631 0.091312972534564801 0 -0.1992657844723425 0.079819072731278737 0 -0.2274324218069935 0.090442664615221435 0 -0.21581463795669059 0.074471854347817182 0 -0.21101740313492631 0.091312972534564801 0 -0.21101740313492631 0.091312972534564801 0 -0.1992657844723425 0.079819072731278737 0 -0.19796013121300821 0.091676505623482826 0 -0.18649007944292781 0.092923082254624312 0 -0.19796013121300821 0.091676505623482826 0 -0.18861646014301151 0.081942904340023881 0 -0.1992657844723425 0.079819072731278737 0 -0.19796013121300821 0.091676505623482826 0 -0.18861646014301151 0.081942904340023881 0 -0.20419685410638941 0.058501044080411679 0 -0.1992657844723425 0.079819072731278737 0 -0.1992657844723425 0.079819072731278737 0 -0.18861646014301151 0.081942904340023881 0 -0.19451708035959109 0.062720588655179516 0 -0.20419685410638941 0.058501044080411679 0 -0.1992657844723425 0.079819072731278737 0 -0.19451708035959109 0.062720588655179516 0 -0.19827927979835749 0.1105571677176193 0 -0.21407019768867361 0.12456349710700559 0 -0.19701794414624649 0.13037187800738179 0 -0.17418043284876941 0.1177653796556876 0 -0.19827927979835749 0.1105571677176193 0 -0.19768832561619751 0.10856817969827121 0 -0.18743858944622921 0.1235545477349498 0 -0.19827927979835749 0.1105571677176193 0 -0.19701794414624649 0.13037187800738179 0 -0.21101740313492631 0.091312972534564801 0 -0.19796013121300821 0.091676505623482826 0 -0.19768832561619751 0.10856817969827121 0 -0.18649007944292781 0.092923082254624312 0 -0.1842820820067736 0.1019441326301195 0 -0.19768832561619751 0.10856817969827121 0 -0.18649007944292781 0.092923082254624312 0 -0.19796013121300821 0.091676505623482826 0 -0.19768832561619751 0.10856817969827121 0 -0.21101740313492631 0.091312972534564801 0 -0.19768832561619751 0.10856817969827121 0 -0.22247601079830351 0.1030990059765536 0 -0.19768832561619751 0.10856817969827121 0 -0.22247601079830351 0.1030990059765536 0 -0.19827927979835749 0.1105571677176193 0 -0.22247601079830351 0.1030990059765536 0 -0.19827927979835749 0.1105571677176193 0 -0.19768832561619751 0.10856817969827121 0 -0.22247601079830351 0.1030990059765536 0 -0.19827927979835749 0.1105571677176193 0 -0.21407019768867361 0.12456349710700559 0 -0.22247601079830351 0.1030990059765536 0 -0.21407019768867361 0.12456349710700559 0 -0.22247601079830351 0.1030990059765536 0 -0.23104917191390931 0.1133330576188583 0 -0.22849382607241969 0.12406878775072 0 -0.22247601079830351 0.1030990059765536 0 -0.21407019768867361 0.12456349710700559 0 -0.22849382607241969 0.12406878775072 0 -0.22247601079830351 0.1030990059765536 0 -0.23104917191390931 0.1133330576188583 0 -0.23056729770126291 0.10753334680354561 0 -0.2364349290579589 0.1157760727659366 0 -0.23104917191390931 0.1133330576188583 0 -0.22849382607241969 0.12406878775072 0 -0.2364349290579589 0.1157760727659366 0 -0.2274324218069935 0.090442664615221435 0 -0.21101740313492631 0.091312972534564801 0 -0.22247601079830351 0.1030990059765536 0 -0.2274324218069935 0.090442664615221435 0 -0.22528820833991189 0.1024785205709321 0 -0.22247601079830351 0.1030990059765536 0 -0.2274324218069935 0.090442664615221435 0 -0.22247601079830351 0.1030990059765536 0 -0.22528820833991189 0.1024785205709321 0 -0.22247601079830351 0.1030990059765536 0 -0.23056729770126291 0.10753334680354561 0 -0.22528820833991189 0.1024785205709321 0 -0.22247601079830351 0.1030990059765536 0 -0.22528820833991189 0.1024785205709321 0 -0.23056729770126291 0.10753334680354561 0 -0.23468031104368489 0.1004062398830937 0 -0.23104917191390931 0.1133330576188583 0 -0.22247601079830351 0.1030990059765536 0 -0.23056729770126291 0.10753334680354561 0 -0.23056729770126291 0.10753334680354561 0 -0.23468031104368489 0.1004062398830937 0 -0.2364349290579589 0.1157760727659366 0 -0.2274324218069935 0.090442664615221435 0 -0.22528820833991189 0.1024785205709321 0 -0.23468031104368489 0.1004062398830937 0 -0.22528820833991189 0.1024785205709321 0 -0.23468031104368489 0.1004062398830937 0 -0.2274324218069935 0.090442664615221435 0 -0.23468031104368489 0.1004062398830937 0 -0.2379837756591974 0.093190666623446314 0 -0.2274324218069935 0.090442664615221435 0 -0.23468031104368489 0.1004062398830937 0 -0.23468031104368489 0.1004062398830937 0 -0.24730766349430119 0.11776489044562111 0 -0.23468031104368489 0.1004062398830937 0 -0.2459334671226438 0.1063135222388453 0 -0.24730766349430119 0.11776489044562111 0 -0.2450665584409219 0.09255505516060239 0 -0.2379837756591974 0.093190666623446314 0 -0.24110590981289179 0.098988490880853222 0 -0.2379837756591974 0.093190666623446314 0 -0.23468031104368489 0.1004062398830937 0 -0.24110590981289179 0.098988490880853222 0 -0.23468031104368489 0.1004062398830937 0 -0.24110590981289179 0.098988490880853222 0 -0.23468031104368489 0.1004062398830937 0 -0.24110590981289179 0.098988490880853222 0 -0.2459334671226438 0.1063135222388453 0 -0.25177912818774689 0.1056966606388251 0 -0.2459334671226438 0.1063135222388453 0 -0.24997009747084009 0.1096221427284915 0 -0.25121874698990321 0.099274658180543388 0 -0.25177912818774689 0.1056966606388251 0 -0.2459334671226438 0.1063135222388453 0 -0.25121874698990321 0.099274658180543388 0 -0.2450665584409219 0.09255505516060239 0 -0.24110590981289179 0.098988490880853222 0 -0.25121874698990321 0.099274658180543388 0 -0.24110590981289179 0.098988490880853222 0 -0.2459334671226438 0.1063135222388453 0 -0.23468031104368489 0.1004062398830937 0 -0.2364349290579589 0.1157760727659366 0 -0.24730766349430119 0.11776489044562111 0 -0.2364349290579589 0.1157760727659366 0 -0.24730766349430119 0.11776489044562111 0 -0.23929752475520391 0.12597278433532119 0 -0.22849382607241969 0.12406878775072 0 -0.2364349290579589 0.1157760727659366 0 -0.23929752475520391 0.12597278433532119 0 -0.2459334671226438 0.1063135222388453 0 -0.24997009747084009 0.1096221427284915 0 -0.24730766349430119 0.11776489044562111 0 -0.25021589487386009 0.1217627967739804 0 -0.24730766349430119 0.11776489044562111 0 -0.25021589487386009 0.1217627967739804 0 -0.24730766349430119 0.11776489044562111 0 -0.23929752475520391 0.12597278433532119 0 -0.24730766349430119 0.11776489044562111 0 -0.23929752475520391 0.12597278433532119 0 -0.2485103830577845 0.13360273470286391 0 -0.23750686347857691 0.13751198901236769 0 -0.24694467916077331 0.14978784711936979 0 -0.25021589487386009 0.1217627967739804 0 -0.2485103830577845 0.13360273470286391 0 -0.23929752475520391 0.12597278433532119 0 -0.2485103830577845 0.13360273470286391 0 -0.23750686347857691 0.13751198901236769 0 -0.23929752475520391 0.12597278433532119 0 -0.23750686347857691 0.13751198901236769 0 -0.23929752475520391 0.12597278433532119 0 -0.22737396137382129 0.13203122841814041 0 -0.23750686347857691 0.13751198901236769 0 -0.22737396137382129 0.13203122841814041 0 -0.21750139487423231 0.14803908388528769 0 -0.22849382607241969 0.12406878775072 0 -0.23929752475520391 0.12597278433532119 0 -0.22737396137382129 0.13203122841814041 0 -0.21407019768867361 0.12456349710700559 0 -0.22737396137382129 0.13203122841814041 0 -0.21750139487423231 0.14803908388528769 0 -0.21407019768867361 0.12456349710700559 0 -0.22849382607241969 0.12406878775072 0 -0.22737396137382129 0.13203122841814041 0 -0.24694467916077331 0.14978784711936979 0 -0.21750139487423231 0.14803908388528769 0 -0.23750686347857691 0.13751198901236769 0 -0.24694467916077331 0.14978784711936979 0 -0.21750139487423231 0.14803908388528769 0 -0.24694467916077331 0.14978784711936979 0 -0.23046311674237241 0.15967266740455319 0 -0.21750139487423231 0.14803908388528769 0 -0.23046311674237241 0.15967266740455319 0 -0.2190598239414937 0.1584584065868555 0 -0.21750139487423231 0.14803908388528769 0 -0.24694467916077331 0.14978784711936979 0 -0.2451331807401034 0.16958755419389371 0 -0.23046311674237241 0.15967266740455319 0 -0.2451331807401034 0.16958755419389371 0 -0.2294820105555605 0.1728016827233653 0 -0.23046311674237241 0.15967266740455319 0 -0.25827636085937339 0.1830925944401752 0 -0.23537599845410659 0.18911957598237969 0 -0.2451331807401034 0.16958755419389371 0 -0.2294820105555605 0.1728016827233653 0 -0.23537599845410659 0.18911957598237969 0 -0.25827636085937339 0.1830925944401752 0 -0.2451331807401034 0.16958755419389371 0 -0.23537599845410659 0.18911957598237969 0 -0.2294820105555605 0.1728016827233653 0 -0.21740851377150849 0.17935426822631059 0 -0.23537599845410659 0.18911957598237969 0 -0.2294820105555605 0.1728016827233653 0 -0.21699640666675049 0.16758356222550039 0 -0.21740851377150849 0.17935426822631059 0 -0.2294820105555605 0.1728016827233653 0 -0.23046311674237241 0.15967266740455319 0 -0.21699640666675049 0.16758356222550039 0 -0.23046311674237241 0.15967266740455319 0 -0.2190598239414937 0.1584584065868555 0 -0.21699640666675049 0.16758356222550039 0 -0.2190598239414937 0.1584584065868555 0 -0.2112783774826196 0.15853831283208089 0 -0.21699640666675049 0.16758356222550039 0 -0.2112783774826196 0.15853831283208089 0 -0.21699640666675049 0.16758356222550039 0 -0.20751834368149269 0.16886256348150491 0 -0.20751834368149269 0.16886256348150491 0 -0.20550333234091431 0.16004287362749581 0 -0.19745433957013861 0.16699257976192969 0 -0.2112783774826196 0.15853831283208089 0 -0.20751834368149269 0.16886256348150491 0 -0.20550333234091431 0.16004287362749581 0 -0.21740851377150849 0.17935426822631059 0 -0.20243250900221771 0.18062712506307471 0 -0.2124756360488404 0.19514655752458579 0 -0.21699640666675049 0.16758356222550039 0 -0.20751834368149269 0.16886256348150491 0 -0.21740851377150849 0.17935426822631059 0 -0.20751834368149269 0.16886256348150491 0 -0.21740851377150849 0.17935426822631059 0 -0.20243250900221771 0.18062712506307471 0 -0.20751834368149269 0.16886256348150491 0 -0.20243250900221771 0.18062712506307471 0 -0.19745433957013861 0.16699257976192969 0 -0.20243250900221771 0.18062712506307471 0 -0.19238938195559921 0.16610769260156069 0 -0.20243250900221771 0.18062712506307471 0 -0.18993008494223521 0.17800772639442761 0 -0.19238938195559921 0.16610769260156069 0 -0.20243250900221771 0.18062712506307471 0 -0.18993008494223521 0.17800772639442761 0 -0.19024758067470329 0.19121203373587789 0 -0.18993008494223521 0.17800772639442761 0 -0.19024758067470329 0.19121203373587789 0 -0.18310718790045599 0.18563769824975901 0 -0.20550333234091431 0.16004287362749581 0 -0.19745433957013861 0.16699257976192969 0 -0.20576226862940611 0.14577803843446771 0 -0.19745433957013861 0.16699257976192969 0 -0.20576226862940611 0.14577803843446771 0 -0.19745433957013861 0.16699257976192969 0 -0.1967210575763623 0.15625181114247519 0 -0.20576226862940611 0.14577803843446771 0 -0.19745433957013861 0.16699257976192969 0 -0.19386415707303581 0.16231913666991901 0 -0.1967210575763623 0.15625181114247519 0 -0.20243250900221771 0.18062712506307471 0 -0.19745433957013861 0.16699257976192969 0 -0.19238938195559921 0.16610769260156069 0 -0.19745433957013861 0.16699257976192969 0 -0.19238938195559921 0.16610769260156069 0 -0.19386415707303581 0.16231913666991901 0 -0.18993008494223521 0.17800772639442761 0 -0.19238938195559921 0.16610769260156069 0 -0.18550133011161499 0.17125134579025111 0 -0.19238938195559921 0.16610769260156069 0 -0.18654084109849109 0.1653155360607832 0 -0.18550133011161499 0.17125134579025111 0 -0.19238938195559921 0.16610769260156069 0 -0.1889997655351682 0.16022061057238851 0 -0.18654084109849109 0.1653155360607832 0 -0.1889997655351682 0.16022061057238851 0 -0.1967210575763623 0.15625181114247519 0 -0.18637296913431731 0.15328215146253341 0 -0.19238938195559921 0.16610769260156069 0 -0.1889997655351682 0.16022061057238851 0 -0.19386415707303581 0.16231913666991901 0 -0.1889997655351682 0.16022061057238851 0 -0.19386415707303581 0.16231913666991901 0 -0.1967210575763623 0.15625181114247519 0 -0.1967210575763623 0.15625181114247519 0 -0.1932301880955751 0.14424152892119371 0 -0.18637296913431731 0.15328215146253341 0 -0.1967210575763623 0.15625181114247519 0 -0.1932301880955751 0.14424152892119371 0 -0.20576226862940611 0.14577803843446771 0 -0.18743858944622921 0.1235545477349498 0 -0.19701794414624649 0.13037187800738179 0 -0.18027670099154339 0.1355237655591105 0 -0.1932301880955751 0.14424152892119371 0 -0.19701794414624649 0.13037187800738179 0 -0.18027670099154339 0.1355237655591105 0 -0.1932301880955751 0.14424152892119371 0 -0.19701794414624649 0.13037187800738179 0 -0.20576226862940611 0.14577803843446771 0 -0.21407019768867361 0.12456349710700559 0 -0.19701794414624649 0.13037187800738179 0 -0.20576226862940611 0.14577803843446771 0 -0.21407019768867361 0.12456349710700559 0 -0.20576226862940611 0.14577803843446771 0 -0.21407019768867361 0.12456349710700559 0 -0.21750139487423231 0.14803908388528769 0 -0.20576226862940611 0.14577803843446771 0 -0.2112783774826196 0.15853831283208089 0 -0.21750139487423231 0.14803908388528769 0 -0.20576226862940611 0.14577803843446771 0 -0.2190598239414937 0.1584584065868555 0 -0.2112783774826196 0.15853831283208089 0 -0.21750139487423231 0.14803908388528769 0 -0.2112783774826196 0.15853831283208089 0 -0.20550333234091431 0.16004287362749581 0 -0.20576226862940611 0.14577803843446771 0 -0.21969346928946179 0.24779007988428181 0 -0.23314897563164741 0.24661661118151479 0 -0.21665051319236711 0.23463074487402669 0 -0.23848877085535369 0.2463302843583732 0 -0.23597613069227349 0.22912141846219311 0 -0.21665051319236711 0.23463074487402669 0 -0.23314897563164741 0.24661661118151479 0 -0.23848877085535369 0.2463302843583732 0 -0.21665051319236711 0.23463074487402669 0 -0.23848877085535369 0.2463302843583732 0 -0.21665051319236711 0.23463074487402669 0 -0.2314955066694 0.25435815368133358 0 -0.23314897563164741 0.24661661118151479 0 -0.23848877085535369 0.2463302843583732 0 -0.2314955066694 0.25435815368133358 0 -0.21969346928946179 0.24779007988428181 0 -0.23314897563164741 0.24661661118151479 0 -0.25406663564760762 0.22844778205935701 0 -0.23848877085535369 0.2463302843583732 0 -0.23597613069227349 0.22912141846219311 0 -0.25406663564760762 0.22844778205935701 0 -0.23848877085535369 0.2463302843583732 0 -0.25406663564760762 0.22844778205935701 0 -0.23597613069227349 0.22912141846219311 0 -0.2438763773042594 0.2203788174050223 0 -0.25406663564760762 0.22844778205935701 0 -0.2438763773042594 0.2203788174050223 0 -0.2479927643128377 0.20791230204745789 0 -0.23597613069227349 0.22912141846219311 0 -0.2438763773042594 0.2203788174050223 0 -0.23746997856431859 0.2160337670510811 0 -0.23597613069227349 0.22912141846219311 0 -0.2208528626383707 0.22262716924243761 0 -0.22079399991288029 0.207172485480459 0 -0.23597613069227349 0.22912141846219311 0 -0.2208528626383707 0.22262716924243761 0 -0.21665051319236711 0.23463074487402669 0 -0.23597613069227349 0.22912141846219311 0 -0.22079399991288029 0.207172485480459 0 -0.22079399991288029 0.207172485480459 0 -0.2479927643128377 0.20791230204745789 0 -0.23597613069227349 0.22912141846219311 0 -0.22079399991288029 0.207172485480459 0 -0.23746997856431859 0.2160337670510811 0 -0.22079399991288029 0.207172485480459 0 -0.23746997856431859 0.2160337670510811 0 -0.2479927643128377 0.20791230204745789 0 -0.22079399991288029 0.207172485480459 0 -0.2416772434028289 0.20374817391205191 0 -0.2479927643128377 0.20791230204745789 0 -0.2438763773042594 0.2203788174050223 0 -0.23746997856431859 0.2160337670510811 0 -0.2479927643128377 0.20791230204745789 0 -0.25827636085937339 0.1830925944401752 0 -0.2416772434028289 0.20374817391205191 0 -0.23537599845410659 0.18911957598237969 0 -0.23537599845410659 0.18911957598237969 0 -0.2124756360488404 0.19514655752458579 0 -0.2137099863657986 0.19693106806376551 0 -0.23537599845410659 0.18911957598237969 0 -0.2124756360488404 0.19514655752458579 0 -0.2416772434028289 0.20374817391205191 0 -0.23537599845410659 0.18911957598237969 0 -0.2137099863657986 0.19693106806376551 0 -0.22079399991288029 0.207172485480459 0 -0.2416772434028289 0.20374817391205191 0 -0.2137099863657986 0.19693106806376551 0 -0.2416772434028289 0.20374817391205191 0 -0.2137099863657986 0.19693106806376551 0 -0.21740851377150849 0.17935426822631059 0 -0.23537599845410659 0.18911957598237969 0 -0.2124756360488404 0.19514655752458579 0 -0.22079399991288029 0.207172485480459 0 -0.2137099863657986 0.19693106806376551 0 -0.22079399991288029 0.207172485480459 0 -0.2137099863657986 0.19693106806376551 0 -0.2095489666599816 0.19591680657456079 0 -0.2137099863657986 0.19693106806376551 0 -0.2095489666599816 0.19591680657456079 0 -0.2124756360488404 0.19514655752458579 0 -0.2137099863657986 0.19693106806376551 0 -0.2095489666599816 0.19591680657456079 0 -0.2124756360488404 0.19514655752458579 0 -0.2137099863657986 0.19693106806376551 0 -0.2124756360488404 0.19514655752458579 0 -0.2095489666599816 0.19591680657456079 0 -0.20243250900221771 0.18062712506307471 0 -0.2124756360488404 0.19514655752458579 0 -0.2095489666599816 0.19591680657456079 0 -0.20243250900221771 0.18062712506307471 0 -0.2124756360488404 0.19514655752458579 0 -0.2095489666599816 0.19591680657456079 0 -0.19024758067470329 0.19121203373587789 0 -0.19069489607427981 0.20087887369841201 0 -0.20243250900221771 0.18062712506307471 0 -0.2095489666599816 0.19591680657456079 0 -0.19024758067470329 0.19121203373587789 0 -0.2095489666599816 0.19591680657456079 0 -0.19024758067470329 0.19121203373587789 0 -0.2095489666599816 0.19591680657456079 0 -0.19069489607427981 0.20087887369841201 0 -0.19631741270072911 0.2065067131513611 0 -0.2095489666599816 0.19591680657456079 0 -0.19069489607427981 0.20087887369841201 0 -0.19631741270072911 0.2065067131513611 0 -0.1943841412390552 0.22779454181592931 0 -0.18355811150720711 0.21542921950826141 0 -0.19631741270072911 0.2065067131513611 0 -0.20999080675596191 0.21958402815307149 0 -0.1943841412390552 0.22779454181592931 0 -0.22079399991288029 0.207172485480459 0 -0.2095489666599816 0.19591680657456079 0 -0.19631741270072911 0.2065067131513611 0 -0.22079399991288029 0.207172485480459 0 -0.19631741270072911 0.2065067131513611 0 -0.20999080675596191 0.21958402815307149 0 -0.22079399991288029 0.207172485480459 0 -0.19631741270072911 0.2065067131513611 0 -0.2208528626383707 0.22262716924243761 0 -0.22079399991288029 0.207172485480459 0 -0.20999080675596191 0.21958402815307149 0 -0.20999080675596191 0.21958402815307149 0 -0.1943841412390552 0.22779454181592931 0 -0.21665051319236711 0.23463074487402669 0 -0.2208528626383707 0.22262716924243761 0 -0.20999080675596191 0.21958402815307149 0 -0.21665051319236711 0.23463074487402669 0 -0.20261199663408169 0.25251976098724788 0 -0.1943841412390552 0.22779454181592931 0 -0.18065622936835921 0.24352779683045819 0 -0.20261199663408169 0.25251976098724788 0 -0.18065622936835921 0.24352779683045819 0 -0.20261199663408169 0.25251976098724788 0 -0.21969346928946179 0.24779007988428181 0 -0.21665051319236711 0.23463074487402669 0 -0.20261199663408169 0.25251976098724788 0 -0.1943841412390552 0.22779454181592931 0 -0.21665051319236711 0.23463074487402669 0 -0.1587004621026365 0.23453583267366901 0 -0.18065622936835921 0.24352779683045819 0 -0.15631560818178461 0.25831279381537031 0 -0.1587004621026365 0.23453583267366901 0 -0.18065622936835921 0.24352779683045819 0 -0.15631560818178461 0.25831279381537031 0 -0.1587004621026365 0.23453583267366901 0 -0.1943841412390552 0.22779454181592931 0 -0.18065622936835921 0.24352779683045819 0 -0.17062710580841811 0.22264129222242579 0 -0.1943841412390552 0.22779454181592931 0 -0.17062710580841811 0.22264129222242579 0 -0.18355811150720711 0.21542921950826141 0 -0.1587004621026365 0.23453583267366901 0 -0.16130034722023251 0.20861501342622649 0 -0.1587004621026365 0.23453583267366901 0 -0.18065622936835921 0.24352779683045819 0 -0.17062710580841811 0.22264129222242579 0 -0.1587004621026365 0.23453583267366901 0 -0.17062710580841811 0.22264129222242579 0 -0.16130034722023251 0.20861501342622649 0 -0.17062710580841811 0.22264129222242579 0 -0.16130034722023251 0.20861501342622649 0 -0.1718408254885779 0.20584094082226301 0 -0.16130034722023251 0.20861501342622649 0 -0.1718408254885779 0.20584094082226301 0 -0.16130034722023251 0.20861501342622649 0 -0.16855816298444171 0.20575165117407501 0 -0.1718408254885779 0.20584094082226301 0 -0.16130034722023251 0.20861501342622649 0 -0.16855816298444171 0.20575165117407501 0 -0.17004332996165919 0.19759745274452251 0 -0.16855816298444171 0.20575165117407501 0 -0.1718408254885779 0.20584094082226301 0 -0.19631741270072911 0.2065067131513611 0 -0.1718408254885779 0.20584094082226301 0 -0.17062710580841811 0.22264129222242579 0 -0.1718408254885779 0.20584094082226301 0 -0.18355811150720711 0.21542921950826141 0 -0.19069489607427981 0.20087887369841201 0 -0.19631741270072911 0.2065067131513611 0 -0.1718408254885779 0.20584094082226301 0 -0.19631741270072911 0.2065067131513611 0 -0.1718408254885779 0.20584094082226301 0 -0.18355811150720711 0.21542921950826141 0 -0.19069489607427981 0.20087887369841201 0 -0.1718408254885779 0.20584094082226301 0 -0.1718408254885779 0.20584094082226301 0 -0.18018560067023109 0.1946059379580628 0 -0.17004332996165919 0.19759745274452251 0 -0.19069489607427981 0.20087887369841201 0 -0.1718408254885779 0.20584094082226301 0 -0.18018560067023109 0.1946059379580628 0 -0.19024758067470329 0.19121203373587789 0 -0.19069489607427981 0.20087887369841201 0 -0.18018560067023109 0.1946059379580628 0 -0.19024758067470329 0.19121203373587789 0 -0.18018560067023109 0.1946059379580628 0 -0.18310718790045599 0.18563769824975901 0 -0.18018560067023109 0.1946059379580628 0 -0.17004332996165919 0.19759745274452251 0 -0.17457967813602099 0.18703145567289331 0 -0.18018560067023109 0.1946059379580628 0 -0.18310718790045599 0.18563769824975901 0 -0.17457967813602099 0.18703145567289331 0 -0.16130034722023251 0.20861501342622649 0 -0.17004332996165919 0.19759745274452251 0 -0.16379536527045091 0.18373971741361281 0 -0.17004332996165919 0.19759745274452251 0 -0.17457967813602099 0.18703145567289331 0 -0.16379536527045091 0.18373971741361281 0 -0.16130034722023251 0.20861501342622649 0 -0.16379536527045091 0.18373971741361281 0 -0.16130034722023251 0.20861501342622649 0 -0.14874641532227481 0.1983394846806458 0 -0.16379536527045091 0.18373971741361281 0 -0.16855816298444171 0.20575165117407501 0 -0.1718408254885779 0.20584094082226301 0 -0.17004332996165919 0.19759745274452251 0 -0.14874641532227481 0.1983394846806458 0 -0.16379536527045091 0.18373971741361281 0 -0.14764377825999439 0.18280488393440189 0 -0.14874641532227481 0.1983394846806458 0 -0.1364966776753562 0.1903813821755522 0 -0.14764377825999439 0.18280488393440189 0 -0.1364966776753562 0.1903813821755522 0 -0.12708469945993289 0.19830010169262161 0 -0.13379663172393841 0.2067314648141903 0 -0.14874641532227481 0.1983394846806458 0 -0.1364966776753562 0.1903813821755522 0 -0.13379663172393841 0.2067314648141903 0 -0.1364966776753562 0.1903813821755522 0 -0.12708469945993289 0.19830010169262161 0 -0.11319610668070069 0.18470928522015381 0 -0.12638451069402831 0.2178042611136648 0 -0.14384242895713059 0.21320963726994641 0 -0.13379663172393841 0.2067314648141903 0 -0.12638451069402831 0.2178042611136648 0 -0.14384242895713059 0.21320963726994641 0 -0.12638451069402831 0.2178042611136648 0 -0.14384242895713059 0.21320963726994641 0 -0.13583705364782669 0.2202973031473191 0 -0.12708469945993289 0.19830010169262161 0 -0.13379663172393841 0.2067314648141903 0 -0.1220501153829975 0.20952259766677489 0 -0.12638451069402831 0.2178042611136648 0 -0.12763980304133399 0.22181496851140631 0 -0.1220501153829975 0.20952259766677489 0 -0.13379663172393841 0.2067314648141903 0 -0.12638451069402831 0.2178042611136648 0 -0.1220501153829975 0.20952259766677489 0 -0.16130034722023251 0.20861501342622649 0 -0.14384242895713059 0.21320963726994641 0 -0.1587004621026365 0.23453583267366901 0 -0.16130034722023251 0.20861501342622649 0 -0.14384242895713059 0.21320963726994641 0 -0.16130034722023251 0.20861501342622649 0 -0.14874641532227481 0.1983394846806458 0 -0.14384242895713059 0.21320963726994641 0 -0.14874641532227481 0.1983394846806458 0 -0.13379663172393841 0.2067314648141903 0 -0.14384242895713059 0.21320963726994641 0 -0.1587004621026365 0.23453583267366901 0 -0.14384242895713059 0.21320963726994641 0 -0.14317013257198541 0.22817540059253741 0 -0.1587004621026365 0.23453583267366901 0 -0.14317013257198541 0.22817540059253741 0 -0.14384242895713059 0.21320963726994641 0 -0.14317013257198541 0.22817540059253741 0 -0.13583705364782669 0.2202973031473191 0 -0.14317013257198541 0.22817540059253741 0 -0.13583705364782669 0.2202973031473191 0 -0.12763980304133399 0.22181496851140631 0 -0.12763980304133399 0.22181496851140631 0 -0.1309041240852927 0.2343359101133965 0 -0.1220501153829975 0.20952259766677489 0 -0.14317013257198541 0.22817540059253741 0 -0.12763980304133399 0.22181496851140631 0 -0.1309041240852927 0.2343359101133965 0 -0.1220501153829975 0.20952259766677489 0 -0.12638451069402831 0.2178042611136648 0 -0.13583705364782669 0.2202973031473191 0 -0.12763980304133399 0.22181496851140631 0 -0.14317013257198541 0.22817540059253741 0 -0.12763980304133399 0.22181496851140631 0 -0.1309041240852927 0.2343359101133965 0 -0.14317013257198541 0.22817540059253741 0 -0.1309041240852927 0.2343359101133965 0 -0.14223809415634681 0.24329665536152459 0 -0.1309041240852927 0.2343359101133965 0 -0.12720947456823251 0.2476316789285182 0 -0.14223809415634681 0.24329665536152459 0 -0.1309041240852927 0.2343359101133965 0 -0.12720947456823251 0.2476316789285182 0 -0.1176322251674659 0.237294439172582 0 -0.1365805039239788 0.25711754121745489 0 -0.12720947456823251 0.2476316789285182 0 -0.14223809415634681 0.24329665536152459 0 -0.15631560818178461 0.25831279381537031 0 -0.1587004621026365 0.23453583267366901 0 -0.14223809415634681 0.24329665536152459 0 -0.1587004621026365 0.23453583267366901 0 -0.14317013257198541 0.22817540059253741 0 -0.14223809415634681 0.24329665536152459 0 -0.16878540137089629 0.133989125388386 0 -0.16629038332067361 0.15886442140099949 0 -0.16878540137089629 0.133989125388386 0 -0.16629038332067361 0.15886442140099949 0 -0.1543811468763549 0.1496649690565485 0 -0.16878540137089629 0.133989125388386 0 -0.1763481802102615 0.14893989371571381 0 -0.16629038332067361 0.15886442140099949 0 -0.16878540137089629 0.133989125388386 0 -0.1543811468763549 0.1496649690565485 0 -0.15418515539514399 0.13666731733246049 0 -0.16066843397378289 0.13087516887284209 0 -0.16878540137089629 0.133989125388386 0 -0.15418515539514399 0.13666731733246049 0 -0.15848527054054909 0.1224599634487131 0 -0.16066843397378289 0.13087516887284209 0 -0.16788709502575161 0.125526009721731 0 -0.15848527054054909 0.1224599634487131 0 -0.16066843397378289 0.13087516887284209 0 -0.15418515539514399 0.13666731733246049 0 -0.16066843397378289 0.13087516887284209 0 -0.16788709502575161 0.125526009721731 0 -0.16878540137089629 0.133989125388386 0 -0.18743858944622921 0.1235545477349498 0 -0.17418043284876941 0.1177653796556876 0 -0.18027670099154339 0.1355237655591105 0 -0.17418043284876941 0.1177653796556876 0 -0.18027670099154339 0.1355237655591105 0 -0.17418043284876941 0.1177653796556876 0 -0.16788709502575161 0.125526009721731 0 -0.18027670099154339 0.1355237655591105 0 -0.16878540137089629 0.133989125388386 0 -0.18027670099154339 0.1355237655591105 0 -0.1763481802102615 0.14893989371571381 0 -0.16788709502575161 0.125526009721731 0 -0.16878540137089629 0.133989125388386 0 -0.18027670099154339 0.1355237655591105 0 -0.18027670099154339 0.1355237655591105 0 -0.18637296913431731 0.15328215146253341 0 -0.1932301880955751 0.14424152892119371 0 -0.18027670099154339 0.1355237655591105 0 -0.18637296913431731 0.15328215146253341 0 -0.18027670099154339 0.1355237655591105 0 -0.1763481802102615 0.14893989371571381 0 -0.18637296913431731 0.15328215146253341 0 -0.1763481802102615 0.14893989371571381 0 -0.18637296913431731 0.15328215146253341 0 -0.1800154462338768 0.16304000476753969 0 -0.1889997655351682 0.16022061057238851 0 -0.18637296913431731 0.15328215146253341 0 -0.1800154462338768 0.16304000476753969 0 -0.1800154462338768 0.16304000476753969 0 -0.17772064287848799 0.17552591790394151 0 -0.16629038332067361 0.15886442140099949 0 -0.1889997655351682 0.16022061057238851 0 -0.1800154462338768 0.16304000476753969 0 -0.18654084109849109 0.1653155360607832 0 -0.1800154462338768 0.16304000476753969 0 -0.18654084109849109 0.1653155360607832 0 -0.18550133011161499 0.17125134579025111 0 -0.1800154462338768 0.16304000476753969 0 -0.18550133011161499 0.17125134579025111 0 -0.17772064287848799 0.17552591790394151 0 -0.1763481802102615 0.14893989371571381 0 -0.1800154462338768 0.16304000476753969 0 -0.16629038332067361 0.15886442140099949 0 -0.18993008494223521 0.17800772639442761 0 -0.18310718790045599 0.18563769824975901 0 -0.17772064287848799 0.17552591790394151 0 -0.18993008494223521 0.17800772639442761 0 -0.18550133011161499 0.17125134579025111 0 -0.17772064287848799 0.17552591790394151 0 -0.17772064287848799 0.17552591790394151 0 -0.17457967813602099 0.18703145567289331 0 -0.16379536527045091 0.18373971741361281 0 -0.18310718790045599 0.18563769824975901 0 -0.17772064287848799 0.17552591790394151 0 -0.17457967813602099 0.18703145567289331 0 -0.17772064287848799 0.17552591790394151 0 -0.16379536527045091 0.18373971741361281 0 -0.16629038332067361 0.15886442140099949 0 -0.16379536527045091 0.18373971741361281 0 -0.16629038332067361 0.15886442140099949 0 -0.16379536527045091 0.18373971741361281 0 -0.16629038332067361 0.15886442140099949 0 -0.15293439566544931 0.16930005854812921 0 -0.16629038332067361 0.15886442140099949 0 -0.15293439566544931 0.16930005854812921 0 -0.1543811468763549 0.1496649690565485 0 -0.15293439566544931 0.16930005854812921 0 -0.14080856560044111 0.156569755998995 0 -0.13624603736644059 0.17226377685406929 0 -0.15293439566544931 0.16930005854812921 0 -0.14080856560044111 0.156569755998995 0 -0.1543811468763549 0.1496649690565485 0 -0.16379536527045091 0.18373971741361281 0 -0.15293439566544931 0.16930005854812921 0 -0.14764377825999439 0.18280488393440189 0 -0.15293439566544931 0.16930005854812921 0 -0.14764377825999439 0.18280488393440189 0 -0.13624603736644059 0.17226377685406929 0 -0.1364966776753562 0.1903813821755522 0 -0.14764377825999439 0.18280488393440189 0 -0.13624603736644059 0.17226377685406929 0 -0.1364966776753562 0.1903813821755522 0 -0.13624603736644059 0.17226377685406929 0 -0.11319610668070069 0.18470928522015381 0 -0.14080856560044111 0.156569755998995 0 -0.13624603736644059 0.17226377685406929 0 -0.1219873593224028 0.16108341265669371 0 -0.14080856560044111 0.156569755998995 0 -0.13421437919811879 0.14942746110481089 0 -0.1219873593224028 0.16108341265669371 0 -0.1307786119641062 0.13745754009323391 0 -0.1219873593224028 0.16108341265669371 0 -0.13421437919811879 0.14942746110481089 0 -0.1307786119641062 0.13745754009323391 0 -0.1219873593224028 0.16108341265669371 0 -0.13421437919811879 0.14942746110481089 0 -0.1432829799055253 0.14259913567032101 0 -0.1307786119641062 0.13745754009323391 0 -0.14080856560044111 0.156569755998995 0 -0.13421437919811879 0.14942746110481089 0 -0.1432829799055253 0.14259913567032101 0 -0.14080856560044111 0.156569755998995 0 -0.1432829799055253 0.14259913567032101 0 -0.1543811468763549 0.1496649690565485 0 -0.1432829799055253 0.14259913567032101 0 -0.1543811468763549 0.1496649690565485 0 -0.15418515539514399 0.13666731733246049 0 -0.15848527054054909 0.1224599634487131 0 -0.15418515539514399 0.13666731733246049 0 -0.14279010823232821 0.12715454724173611 0 -0.1432829799055253 0.14259913567032101 0 -0.15418515539514399 0.13666731733246049 0 -0.14279010823232821 0.12715454724173611 0 -0.14279010823232821 0.12715454724173611 0 -0.1307786119641062 0.13745754009323391 0 -0.1313747037434983 0.1256878806509408 0 -0.1432829799055253 0.14259913567032101 0 -0.14279010823232821 0.12715454724173611 0 -0.1307786119641062 0.13745754009323391 0 -0.1307786119641062 0.13745754009323391 0 -0.1313747037434983 0.1256878806509408 0 -0.12125090321159571 0.13123506107875119 0 -0.1313747037434983 0.1256878806509408 0 -0.12125090321159571 0.13123506107875119 0 -0.1179215637465796 0.1185571718749982 0 -0.1307786119641062 0.13745754009323391 0 -0.12125090321159571 0.13123506107875119 0 -0.11700720413314419 0.14243566784503639 0 -0.12125090321159571 0.13123506107875119 0 -0.10917243247065039 0.1320370449295469 0 -0.11700720413314419 0.14243566784503639 0 -0.12125090321159571 0.13123506107875119 0 -0.10917243247065039 0.1320370449295469 0 -0.1179215637465796 0.1185571718749982 0 -0.10917243247065039 0.1320370449295469 0 -0.098791886610763935 0.1443415348414325 0 -0.091300700290723069 0.1233475248957638 0 -0.098791886610763935 0.1443415348414325 0 -0.091300700290723069 0.1233475248957638 0 -0.10917243247065039 0.1320370449295469 0 -0.098791886610763935 0.1443415348414325 0 -0.11700720413314419 0.14243566784503639 0 -0.098791886610763935 0.1443415348414325 0 -0.1120421573316914 0.15375054113717629 0 -0.11700720413314419 0.14243566784503639 0 -0.098791886610763935 0.1443415348414325 0 -0.11700720413314419 0.14243566784503639 0 -0.098791886610763935 0.1443415348414325 0 -0.1059939966457332 0.16452541003079291 0 -0.098791886610763935 0.1443415348414325 0 -0.1120421573316914 0.15375054113717629 0 -0.1059939966457332 0.16452541003079291 0 -0.1120421573316914 0.15375054113717629 0 -0.11700720413314419 0.14243566784503639 0 -0.1219873593224028 0.16108341265669371 0 -0.1307786119641062 0.13745754009323391 0 -0.11700720413314419 0.14243566784503639 0 -0.1219873593224028 0.16108341265669371 0 -0.1120421573316914 0.15375054113717629 0 -0.1219873593224028 0.16108341265669371 0 -0.1059939966457332 0.16452541003079291 0 -0.1219873593224028 0.16108341265669371 0 -0.11319610668070069 0.18470928522015381 0 -0.1059939966457332 0.16452541003079291 0 -0.1219873593224028 0.16108341265669371 0 -0.11319610668070069 0.18470928522015381 0 -0.11319610668070069 0.18470928522015381 0 -0.1059939966457332 0.16452541003079291 0 -0.13624603736644059 0.17226377685406929 0 -0.1219873593224028 0.16108341265669371 0 -0.11319610668070069 0.18470928522015381 0 -0.1001472797949339 0.17888091044305299 0 -0.1059939966457332 0.16452541003079291 0 -0.088540436451686133 0.1740916200774163 0 -0.11319610668070069 0.18470928522015381 0 -0.1001472797949339 0.17888091044305299 0 -0.092240447313121865 0.19384567090255941 0 -0.11319610668070069 0.18470928522015381 0 -0.1001472797949339 0.17888091044305299 0 -0.1059939966457332 0.16452541003079291 0 -0.1059939966457332 0.16452541003079291 0 -0.091172018211901185 0.1600882254503434 0 -0.088540436451686133 0.1740916200774163 0 -0.098791886610763935 0.1443415348414325 0 -0.1059939966457332 0.16452541003079291 0 -0.091172018211901185 0.1600882254503434 0 -0.091172018211901185 0.1600882254503434 0 -0.08166192597756948 0.16321879990867669 0 -0.088540436451686133 0.1740916200774163 0 -0.08166192597756948 0.16321879990867669 0 -0.088540436451686133 0.1740916200774163 0 -0.074060336345789457 0.17038476279792919 0 -0.091172018211901185 0.1600882254503434 0 -0.08166192597756948 0.16321879990867669 0 -0.081513658429544486 0.15423591444771409 0 -0.08166192597756948 0.16321879990867669 0 -0.073023180448926167 0.1572934767699804 0 -0.081513658429544486 0.15423591444771409 0 -0.1001472797949339 0.17888091044305299 0 -0.088540436451686133 0.1740916200774163 0 -0.092240447313121865 0.19384567090255941 0 -0.088540436451686133 0.1740916200774163 0 -0.074060336345789457 0.17038476279792919 0 -0.076393812961543933 0.18855654478380079 0 -0.088540436451686133 0.1740916200774163 0 -0.092240447313121865 0.19384567090255941 0 -0.076393812961543933 0.18855654478380079 0 -0.065384376172853115 0.18024301707024301 0 -0.074060336345789457 0.17038476279792919 0 -0.076393812961543933 0.18855654478380079 0 -0.065384376172853115 0.18024301707024301 0 -0.070012473698793168 0.1532189705683685 0 -0.057664331774833523 0.16501257012838219 0 -0.065384376172853115 0.18024301707024301 0 -0.074060336345789457 0.17038476279792919 0 -0.070012473698793168 0.1532189705683685 0 -0.073023180448926167 0.1572934767699804 0 -0.074060336345789457 0.17038476279792919 0 -0.070012473698793168 0.1532189705683685 0 -0.065384376172853115 0.18024301707024301 0 -0.070012473698793168 0.1532189705683685 0 -0.08166192597756948 0.16321879990867669 0 -0.073023180448926167 0.1572934767699804 0 -0.074060336345789457 0.17038476279792919 0 -0.070012473698793168 0.1532189705683685 0 -0.061127593139391083 0.15384087425451601 0 -0.057664331774833523 0.16501257012838219 0 -0.070012473698793168 0.1532189705683685 0 -0.065988897302193983 0.14777370859462621 0 -0.061127593139391083 0.15384087425451601 0 -0.070012473698793168 0.1532189705683685 0 -0.071035449019754893 0.14724568835274099 0 -0.065988897302193983 0.14777370859462621 0 -0.070012473698793168 0.1532189705683685 0 -0.065988897302193983 0.14777370859462621 0 -0.073023180448926167 0.1572934767699804 0 -0.070012473698793168 0.1532189705683685 0 -0.081513658429544486 0.15423591444771409 0 -0.070012473698793168 0.1532189705683685 0 -0.071035449019754893 0.14724568835274099 0 -0.081513658429544486 0.15423591444771409 0 -0.073023180448926167 0.1572934767699804 0 -0.070012473698793168 0.1532189705683685 0 -0.070012473698793168 0.1532189705683685 0 -0.071035449019754893 0.14724568835274099 0 -0.071035449019754893 0.14724568835274099 0 -0.065988897302193983 0.14777370859462621 0 -0.074613969063149974 0.1263502574508254 0 -0.053028894207596072 0.13023443381156441 0 -0.065988897302193983 0.14777370859462621 0 -0.074613969063149974 0.1263502574508254 0 -0.053028894207596072 0.13023443381156441 0 -0.071035449019754893 0.14724568835274099 0 -0.074613969063149974 0.1263502574508254 0 -0.071035449019754893 0.14724568835274099 0 -0.065988897302193983 0.14777370859462621 0 -0.074613969063149974 0.1263502574508254 0 -0.098791886610763935 0.1443415348414325 0 -0.071035449019754893 0.14724568835274099 0 -0.074613969063149974 0.1263502574508254 0 -0.098791886610763935 0.1443415348414325 0 -0.074613969063149974 0.1263502574508254 0 -0.091300700290723069 0.1233475248957638 0 -0.098791886610763935 0.1443415348414325 0 -0.071035449019754893 0.14724568835274099 0 -0.081513658429544486 0.15423591444771409 0 -0.098791886610763935 0.1443415348414325 0 -0.071035449019754893 0.14724568835274099 0 -0.098791886610763935 0.1443415348414325 0 -0.091172018211901185 0.1600882254503434 0 -0.081513658429544486 0.15423591444771409 0 -0.10693559005728449 0.22914115453845851 0 -0.095738181086679253 0.23162623120235509 0 -0.091589430458735632 0.24662932541625401 0 -0.10693559005728449 0.22914115453845851 0 -0.091589430458735632 0.24662932541625401 0 -0.10676800541436821 0.24272309023594871 0 -0.10693559005728449 0.22914115453845851 0 -0.091589430458735632 0.24662932541625401 0 -0.1022381897011586 0.25780264773575212 0 -0.10676800541436821 0.24272309023594871 0 -0.091589430458735632 0.24662932541625401 0 -0.1022381897011586 0.25780264773575212 0 -0.10676800541436821 0.24272309023594871 0 -0.1147333885237303 0.24788528680780031 0 -0.10676800541436821 0.24272309023594871 0 -0.1147333885237303 0.24788528680780031 0 -0.1176322251674659 0.237294439172582 0 -0.12720947456823251 0.2476316789285182 0 -0.1147333885237303 0.24788528680780031 0 -0.1176322251674659 0.237294439172582 0 -0.10676800541436821 0.24272309023594871 0 -0.1176322251674659 0.237294439172582 0 -0.10693559005728449 0.22914115453845851 0 -0.1176322251674659 0.237294439172582 0 -0.1180668505975784 0.2252186678827876 0 -0.10693559005728449 0.22914115453845851 0 -0.1309041240852927 0.2343359101133965 0 -0.1180668505975784 0.2252186678827876 0 -0.1220501153829975 0.20952259766677489 0 -0.1309041240852927 0.2343359101133965 0 -0.1176322251674659 0.237294439172582 0 -0.1180668505975784 0.2252186678827876 0 -0.1180668505975784 0.2252186678827876 0 -0.10693559005728449 0.22914115453845851 0 -0.1128325840082717 0.21741190946042821 0 -0.095738181086679253 0.23162623120235509 0 -0.1044671438836894 0.20816775821125419 0 -0.10693559005728449 0.22914115453845851 0 -0.095738181086679253 0.23162623120235509 0 -0.1044671438836894 0.20816775821125419 0 -0.10693559005728449 0.22914115453845851 0 -0.1044671438836894 0.20816775821125419 0 -0.1128325840082717 0.21741190946042821 0 -0.1044671438836894 0.20816775821125419 0 -0.092240447313121865 0.19384567090255941 0 -0.090833201356095877 0.21644780253752591 0 -0.095738181086679253 0.23162623120235509 0 -0.1044671438836894 0.20816775821125419 0 -0.090833201356095877 0.21644780253752591 0 -0.1180668505975784 0.2252186678827876 0 -0.1128325840082717 0.21741190946042821 0 -0.1220501153829975 0.20952259766677489 0 -0.1044671438836894 0.20816775821125419 0 -0.1128325840082717 0.21741190946042821 0 -0.1220501153829975 0.20952259766677489 0 -0.12708469945993289 0.19830010169262161 0 -0.11319610668070069 0.18470928522015381 0 -0.1220501153829975 0.20952259766677489 0 -0.11319610668070069 0.18470928522015381 0 -0.1220501153829975 0.20952259766677489 0 -0.11319610668070069 0.18470928522015381 0 -0.1044671438836894 0.20816775821125419 0 -0.1220501153829975 0.20952259766677489 0 -0.11319610668070069 0.18470928522015381 0 -0.1044671438836894 0.20816775821125419 0 -0.092240447313121865 0.19384567090255941 0 -0.11319610668070069 0.18470928522015381 0 -0.1044671438836894 0.20816775821125419 0 -0.092240447313121865 0.19384567090255941 0 -0.076393812961543933 0.18855654478380079 0 -0.074047533410061872 0.21238250781909401 0 -0.063908247046392863 0.199154995542283 0 -0.076393812961543933 0.18855654478380079 0 -0.074047533410061872 0.21238250781909401 0 -0.065384376172853115 0.18024301707024301 0 -0.063908247046392863 0.199154995542283 0 -0.076393812961543933 0.18855654478380079 0 -0.063908247046392863 0.199154995542283 0 -0.074047533410061872 0.21238250781909401 0 -0.052204766413305743 0.210027254784238 0 -0.092240447313121865 0.19384567090255941 0 -0.074047533410061872 0.21238250781909401 0 -0.090833201356095877 0.21644780253752591 0 -0.074047533410061872 0.21238250781909401 0 -0.090833201356095877 0.21644780253752591 0 -0.084970852226219529 0.22672399571570639 0 -0.095738181086679253 0.23162623120235509 0 -0.090833201356095877 0.21644780253752591 0 -0.084970852226219529 0.22672399571570639 0 -0.095738181086679253 0.23162623120235509 0 -0.084970852226219529 0.22672399571570639 0 -0.085009675918636049 0.23726076631331519 0 -0.084970852226219529 0.22672399571570639 0 -0.074929273829437648 0.23297971205015841 0 -0.085009675918636049 0.23726076631331519 0 -0.074047533410061872 0.21238250781909401 0 -0.074929273829437648 0.23297971205015841 0 -0.056796830616990229 0.22805828546528789 0 -0.074047533410061872 0.21238250781909401 0 -0.084970852226219529 0.22672399571570639 0 -0.074929273829437648 0.23297971205015841 0 -0.074929273829437648 0.23297971205015841 0 -0.05167756311802927 0.24613586928495221 0 -0.074929273829437648 0.23297971205015841 0 -0.074440127216583662 0.24846193142452569 0 -0.05167756311802927 0.24613586928495221 0 -0.074929273829437648 0.23297971205015841 0 -0.074440127216583662 0.24846193142452569 0 -0.085009675918636049 0.23726076631331519 0 -0.074440127216583662 0.24846193142452569 0 -0.085009675918636049 0.23726076631331519 0 -0.091589430458735632 0.24662932541625401 0 -0.095738181086679253 0.23162623120235509 0 -0.085009675918636049 0.23726076631331519 0 -0.091589430458735632 0.24662932541625401 0 -0.02842585240662095 0.25929202651974598 0 -0.05167756311802927 0.24613586928495221 0 -0.02411114837135055 0.2406774227239924 0 -0.05167756311802927 0.24613586928495221 0 -0.036739868224219763 0.22575131305786561 0 -0.02411114837135055 0.2406774227239924 0 -0.074929273829437648 0.23297971205015841 0 -0.05167756311802927 0.24613586928495221 0 -0.056796830616990229 0.22805828546528789 0 -0.05167756311802927 0.24613586928495221 0 -0.056796830616990229 0.22805828546528789 0 -0.036739868224219763 0.22575131305786561 0 -0.056796830616990229 0.22805828546528789 0 -0.036739868224219763 0.22575131305786561 0 -0.052204766413305743 0.210027254784238 0 -0.036739868224219763 0.22575131305786561 0 -0.052204766413305743 0.210027254784238 0 -0.02817309211193237 0.202726453561208 0 -0.074047533410061872 0.21238250781909401 0 -0.056796830616990229 0.22805828546528789 0 -0.052204766413305743 0.210027254784238 0 -0.065384376172853115 0.18024301707024301 0 -0.063908247046392863 0.199154995542283 0 -0.048931979649077147 0.18699469789351361 0 -0.063908247046392863 0.199154995542283 0 -0.052204766413305743 0.210027254784238 0 -0.048931979649077147 0.18699469789351361 0 -0.052204766413305743 0.210027254784238 0 -0.02817309211193237 0.202726453561208 0 -0.048931979649077147 0.18699469789351361 0 -0.02817309211193237 0.202726453561208 0 -0.048931979649077147 0.18699469789351361 0 -0.032675461393497737 0.18300450159786669 0 -0.02817309211193237 0.202726453561208 0 -0.032675461393497737 0.18300450159786669 0 -0.01102304468130395 0.17953637950077039 0 -0.02817309211193237 0.202726453561208 0 -0.00028024135755097199 0.1979006243237903 0 -0.01102304468130395 0.17953637950077039 0 -0.02817309211193237 0.202726453561208 0 -0.00028024135755097199 0.1979006243237903 0 -0.0097306680647822538 0.22296462825355501 0 -0.00028024135755097199 0.1979006243237903 0 -0.0097306680647822538 0.22296462825355501 0 -0.036739868224219763 0.22575131305786561 0 -0.02817309211193237 0.202726453561208 0 -0.0097306680647822538 0.22296462825355501 0 -0.036739868224219763 0.22575131305786561 0 -0.0097306680647822538 0.22296462825355501 0 -0.02411114837135055 0.2406774227239924 0 -0.0097306680647822538 0.22296462825355501 0 -0.001711322607177821 0.2476415137308719 0 -0.02411114837135055 0.2406774227239924 0 -0.02842585240662095 0.25929202651974598 0 -0.001711322607177821 0.2476415137308719 0 -0.02411114837135055 0.2406774227239924 0 -0.035700442261292861 0.15094278685874879 0 -0.05084466978174336 0.1493582477266866 0 -0.042332081601366513 0.16755739807709419 0 -0.035700442261292861 0.15094278685874879 0 -0.036410976071479653 0.14155925752222051 0 -0.05084466978174336 0.1493582477266866 0 -0.036410976071479653 0.14155925752222051 0 -0.049395668908401261 0.14012715176531959 0 -0.05084466978174336 0.1493582477266866 0 -0.035700442261292861 0.15094278685874879 0 -0.05084466978174336 0.1493582477266866 0 -0.035700442261292861 0.15094278685874879 0 -0.036410976071479653 0.14155925752222051 0 -0.023734324410322302 0.15019557999602251 0 -0.036410976071479653 0.14155925752222051 0 -0.041195711268572778 0.13236378336219931 0 -0.025963053204229921 0.13751284480690901 0 -0.036410976071479653 0.14155925752222051 0 -0.041195711268572778 0.13236378336219931 0 -0.049395668908401261 0.14012715176531959 0 -0.065988897302193983 0.14777370859462621 0 -0.053028894207596072 0.13023443381156441 0 -0.041195711268572778 0.13236378336219931 0 -0.049395668908401261 0.14012715176531959 0 -0.053028894207596072 0.13023443381156441 0 -0.065988897302193983 0.14777370859462621 0 -0.049395668908401261 0.14012715176531959 0 -0.053028894207596072 0.13023443381156441 0 -0.041195711268572778 0.13236378336219931 0 -0.053028894207596072 0.13023443381156441 0 -0.05084466978174336 0.1493582477266866 0 -0.061127593139391083 0.15384087425451601 0 -0.057664331774833523 0.16501257012838219 0 -0.065988897302193983 0.14777370859462621 0 -0.049395668908401261 0.14012715176531959 0 -0.05084466978174336 0.1493582477266866 0 -0.065988897302193983 0.14777370859462621 0 -0.05084466978174336 0.1493582477266866 0 -0.061127593139391083 0.15384087425451601 0 -0.065988897302193983 0.14777370859462621 0 -0.05084466978174336 0.1493582477266866 0 -0.05084466978174336 0.1493582477266866 0 -0.057664331774833523 0.16501257012838219 0 -0.042332081601366513 0.16755739807709419 0 -0.065384376172853115 0.18024301707024301 0 -0.057664331774833523 0.16501257012838219 0 -0.048931979649077147 0.18699469789351361 0 -0.057664331774833523 0.16501257012838219 0 -0.048931979649077147 0.18699469789351361 0 -0.042332081601366513 0.16755739807709419 0 -0.032675461393497737 0.18300450159786669 0 -0.042332081601366513 0.16755739807709419 0 -0.027057729154672729 0.16585364082544021 0 -0.048931979649077147 0.18699469789351361 0 -0.032675461393497737 0.18300450159786669 0 -0.042332081601366513 0.16755739807709419 0 -0.035700442261292861 0.15094278685874879 0 -0.042332081601366513 0.16755739807709419 0 -0.027057729154672729 0.16585364082544021 0 -0.027057729154672729 0.16585364082544021 0 -0.01203943987003989 0.1582850206737926 0 -0.023734324410322302 0.15019557999602251 0 -0.027057729154672729 0.16585364082544021 0 -0.01102304468130395 0.17953637950077039 0 -0.01203943987003989 0.1582850206737926 0 -0.032675461393497737 0.18300450159786669 0 -0.027057729154672729 0.16585364082544021 0 -0.01102304468130395 0.17953637950077039 0 -0.00028024135755097199 0.1979006243237903 0 -0.01102304468130395 0.17953637950077039 0 0.0091701853496803341 0.17283662039402559 0 -0.01102304468130395 0.17953637950077039 0 0.00075419168641665949 0.1623636528292407 0 0.0091701853496803341 0.17283662039402559 0 -0.01102304468130395 0.17953637950077039 0 -0.01203943987003989 0.1582850206737926 0 0.00075419168641665949 0.1623636528292407 0 -0.01203943987003989 0.1582850206737926 0 0.000912498425950988 0.14941155809899509 0 0.00075419168641665949 0.1623636528292407 0 -0.01203943987003989 0.1582850206737926 0 -0.01188536323591897 0.14420977985878761 0 0.000912498425950988 0.14941155809899509 0 -0.01188536323591897 0.14420977985878761 0 0.0037667378851027802 0.1337295510750334 0 0.000912498425950988 0.14941155809899509 0 -0.01203943987003989 0.1582850206737926 0 -0.01188536323591897 0.14420977985878761 0 -0.023734324410322302 0.15019557999602251 0 -0.035700442261292861 0.15094278685874879 0 -0.027057729154672729 0.16585364082544021 0 -0.023734324410322302 0.15019557999602251 0 -0.01188536323591897 0.14420977985878761 0 -0.023734324410322302 0.15019557999602251 0 -0.025963053204229921 0.13751284480690901 0 -0.036410976071479653 0.14155925752222051 0 -0.023734324410322302 0.15019557999602251 0 -0.025963053204229921 0.13751284480690901 0 -0.041195711268572778 0.13236378336219931 0 -0.025963053204229921 0.13751284480690901 0 -0.02620201966438547 0.12438092367532461 0 -0.01188536323591897 0.14420977985878761 0 -0.025963053204229921 0.13751284480690901 0 -0.013024073791010331 0.12994926867596229 0 -0.025963053204229921 0.13751284480690901 0 -0.013024073791010331 0.12994926867596229 0 -0.02620201966438547 0.12438092367532461 0 -0.01188536323591897 0.14420977985878761 0 -0.013024073791010331 0.12994926867596229 0 0.0037667378851027802 0.1337295510750334 0 -0.013024073791010331 0.12994926867596229 0 -0.0013247525459362129 0.11990672198295289 0 0.0037667378851027802 0.1337295510750334 0 -0.0013247525459362129 0.11990672198295289 0 -0.01455145657243366 0.1145168950868658 0 0.001589205702606383 0.1054252565709831 0 -0.013024073791010331 0.12994926867596229 0 -0.0013247525459362129 0.11990672198295289 0 -0.01455145657243366 0.1145168950868658 0 -0.01455145657243366 0.1145168950868658 0 -0.01117015451292022 0.099174108877392697 0 0.001589205702606383 0.1054252565709831 0 -0.01117015451292022 0.099174108877392697 0 -0.0014784298921727791 0.087882785625659612 0 0.001589205702606383 0.1054252565709831 0 -0.01952271276376397 0.084889219077809358 0 -0.036275803485680623 0.1075618264446863 0 -0.01117015451292022 0.099174108877392697 0 -0.01952271276376397 0.084889219077809358 0 -0.036275803485680623 0.1075618264446863 0 -0.01455145657243366 0.1145168950868658 0 -0.01117015451292022 0.099174108877392697 0 -0.036275803485680623 0.1075618264446863 0 -0.01455145657243366 0.1145168950868658 0 -0.02620201966438547 0.12438092367532461 0 -0.036275803485680623 0.1075618264446863 0 -0.013024073791010331 0.12994926867596229 0 -0.01455145657243366 0.1145168950868658 0 -0.02620201966438547 0.12438092367532461 0 -0.01117015451292022 0.099174108877392697 0 -0.0014784298921727791 0.087882785625659612 0 -0.01952271276376397 0.084889219077809358 0 -0.01156628242006226 0.063556581462986234 0 -0.0014784298921727791 0.087882785625659612 0 -0.01952271276376397 0.084889219077809358 0 -0.01952271276376397 0.084889219077809358 0 -0.035034599060641623 0.086432088675274688 0 -0.036275803485680623 0.1075618264446863 0 -0.01952271276376397 0.084889219077809358 0 -0.028335217133297109 0.070648383185923536 0 -0.035034599060641623 0.086432088675274688 0 -0.01156628242006226 0.063556581462986234 0 -0.01952271276376397 0.084889219077809358 0 -0.028335217133297109 0.070648383185923536 0 -0.043944392298795473 0.075662504139200365 0 -0.053289593715083003 0.064665875617441027 0 -0.03755686348382286 0.050349460554755171 0 -0.028335217133297109 0.070648383185923536 0 -0.043944392298795473 0.075662504139200365 0 -0.035034599060641623 0.086432088675274688 0 -0.028335217133297109 0.070648383185923536 0 -0.043944392298795473 0.075662504139200365 0 -0.03755686348382286 0.050349460554755171 0 -0.043944392298795473 0.075662504139200365 0 -0.035034599060641623 0.086432088675274688 0 -0.047094869621670962 0.093398510528753767 0 -0.043944392298795473 0.075662504139200365 0 -0.047094869621670962 0.093398510528753767 0 -0.055567080045509601 0.085606102261796546 0 -0.043944392298795473 0.075662504139200365 0 -0.055567080045509601 0.085606102261796546 0 -0.061810176307962462 0.076269286594681893 0 -0.047094869621670962 0.093398510528753767 0 -0.055567080045509601 0.085606102261796546 0 -0.058003258623138328 0.096722195819425205 0 -0.055567080045509601 0.085606102261796546 0 -0.058003258623138328 0.096722195819425205 0 -0.065863055217670205 0.089844285258610976 0 -0.055567080045509601 0.085606102261796546 0 -0.061810176307962462 0.076269286594681893 0 -0.065863055217670205 0.089844285258610976 0 -0.043944392298795473 0.075662504139200365 0 -0.061810176307962462 0.076269286594681893 0 -0.053289593715083003 0.064665875617441027 0 -0.061810176307962462 0.076269286594681893 0 -0.053289593715083003 0.064665875617441027 0 -0.067382894371232849 0.062245928899374178 0 -0.053028894207596072 0.13023443381156441 0 -0.036275803485680623 0.1075618264446863 0 -0.041195711268572778 0.13236378336219931 0 -0.02620201966438547 0.12438092367532461 0 -0.036275803485680623 0.1075618264446863 0 -0.041195711268572778 0.13236378336219931 0 -0.053028894207596072 0.13023443381156441 0 -0.036275803485680623 0.1075618264446863 0 -0.035034599060641623 0.086432088675274688 0 -0.047094869621670962 0.093398510528753767 0 -0.036275803485680623 0.1075618264446863 0 -0.047094869621670962 0.093398510528753767 0 -0.036275803485680623 0.1075618264446863 0 -0.054179192426297901 0.1083997560317751 0 -0.054179192426297901 0.1083997560317751 0 -0.063897580708697041 0.1178132624232992 0 -0.066581026060980097 0.1019588472207375 0 -0.047094869621670962 0.093398510528753767 0 -0.054179192426297901 0.1083997560317751 0 -0.058003258623138328 0.096722195819425205 0 -0.054179192426297901 0.1083997560317751 0 -0.058003258623138328 0.096722195819425205 0 -0.066581026060980097 0.1019588472207375 0 -0.053028894207596072 0.13023443381156441 0 -0.036275803485680623 0.1075618264446863 0 -0.054179192426297901 0.1083997560317751 0 -0.053028894207596072 0.13023443381156441 0 -0.054179192426297901 0.1083997560317751 0 -0.063897580708697041 0.1178132624232992 0 -0.074613969063149974 0.1263502574508254 0 -0.053028894207596072 0.13023443381156441 0 -0.063897580708697041 0.1178132624232992 0 -0.074613969063149974 0.1263502574508254 0 -0.063897580708697041 0.1178132624232992 0 -0.077855892745524818 0.107420255250797 0 -0.074613969063149974 0.1263502574508254 0 -0.077855892745524818 0.107420255250797 0 -0.074613969063149974 0.1263502574508254 0 -0.091300700290723069 0.1233475248957638 0 -0.074613969063149974 0.1263502574508254 0 -0.088737468616287313 0.1161640817177176 0 -0.077855892745524818 0.107420255250797 0 -0.074613969063149974 0.1263502574508254 0 -0.088737468616287313 0.1161640817177176 0 -0.091300700290723069 0.1233475248957638 0 -0.088737468616287313 0.1161640817177176 0 -0.088142197574951828 0.10518441933226561 0 -0.077855892745524818 0.107420255250797 0 -0.088737468616287313 0.1161640817177176 0 -0.091300700290723069 0.1233475248957638 0 -0.098991793020111754 0.1106289498477145 0 -0.088737468616287313 0.1161640817177176 0 -0.088142197574951828 0.10518441933226561 0 -0.098991793020111754 0.1106289498477145 0 -0.088737468616287313 0.1161640817177176 0 -0.091300700290723069 0.1233475248957638 0 -0.088142197574951828 0.10518441933226561 0 -0.077855892745524818 0.107420255250797 0 -0.081097816427898886 0.088490253050768353 0 -0.077855892745524818 0.107420255250797 0 -0.081097816427898886 0.088490253050768353 0 -0.088142197574951828 0.10518441933226561 0 -0.081097816427898886 0.088490253050768353 0 -0.096460219427137645 0.099036577761655059 0 -0.077855892745524818 0.107420255250797 0 -0.066581026060980097 0.1019588472207375 0 -0.081097816427898886 0.088490253050768353 0 -0.063897580708697041 0.1178132624232992 0 -0.077855892745524818 0.107420255250797 0 -0.066581026060980097 0.1019588472207375 0 -0.058003258623138328 0.096722195819425205 0 -0.066581026060980097 0.1019588472207375 0 -0.065863055217670205 0.089844285258610976 0 -0.061810176307962462 0.076269286594681893 0 -0.065863055217670205 0.089844285258610976 0 -0.071218344194879671 0.087349518152223998 0 -0.076482473256357847 0.081522006647854653 0 -0.071218344194879671 0.087349518152223998 0 -0.07572712895768656 0.073815849772609535 0 -0.076482473256357847 0.081522006647854653 0 -0.07572712895768656 0.073815849772609535 0 -0.080648009784800079 0.080984731264281143 0 -0.076482473256357847 0.081522006647854653 0 -0.071218344194879671 0.087349518152223998 0 -0.0781627246678957 0.085053016787479674 0 -0.071218344194879671 0.087349518152223998 0 -0.081097816427898886 0.088490253050768353 0 -0.0781627246678957 0.085053016787479674 0 -0.065863055217670205 0.089844285258610976 0 -0.071218344194879671 0.087349518152223998 0 -0.081097816427898886 0.088490253050768353 0 -0.065863055217670205 0.089844285258610976 0 -0.081097816427898886 0.088490253050768353 0 -0.066581026060980097 0.1019588472207375 0 -0.065863055217670205 0.089844285258610976 0 -0.081097816427898886 0.088490253050768353 0 -0.061810176307962462 0.076269286594681893 0 -0.071218344194879671 0.087349518152223998 0 -0.067382894371232849 0.062245928899374178 0 -0.071218344194879671 0.087349518152223998 0 -0.067382894371232849 0.062245928899374178 0 -0.071218344194879671 0.087349518152223998 0 -0.07572712895768656 0.073815849772609535 0 -0.067382894371232849 0.062245928899374178 0 -0.07572712895768656 0.073815849772609535 0 -0.081962106443321303 0.068337064486833618 0 -0.067382894371232849 0.062245928899374178 0 -0.081962106443321303 0.068337064486833618 0 -0.078749749295322274 0.057761267235313302 0 -0.067382894371232849 0.062245928899374178 0 -0.081962106443321303 0.068337064486833618 0 -0.092046366210314354 0.068867750512680265 0 -0.078749749295322274 0.057761267235313302 0 -0.07572712895768656 0.073815849772609535 0 -0.085690958892718883 0.077292237038543141 0 -0.080648009784800079 0.080984731264281143 0 -0.07572712895768656 0.073815849772609535 0 -0.081962106443321303 0.068337064486833618 0 -0.085690958892718883 0.077292237038543141 0 -0.085690958892718883 0.077292237038543141 0 -0.092046366210314354 0.068867750512680265 0 -0.094710587494239884 0.07863893778959255 0 -0.081962106443321303 0.068337064486833618 0 -0.085690958892718883 0.077292237038543141 0 -0.092046366210314354 0.068867750512680265 0 -0.081097816427898886 0.088490253050768353 0 -0.1055559972055172 0.086316463513723282 0 -0.081097816427898886 0.088490253050768353 0 -0.081366979675541712 0.086918574822270223 0 -0.0781627246678957 0.085053016787479674 0 -0.081097816427898886 0.088490253050768353 0 -0.081366979675541712 0.086918574822270223 0 -0.085690958892718883 0.077292237038543141 0 -0.081366979675541712 0.086918574822270223 0 -0.080648009784800079 0.080984731264281143 0 -0.076482473256357847 0.081522006647854653 0 -0.0781627246678957 0.085053016787479674 0 -0.080648009784800079 0.080984731264281143 0 -0.081097816427898886 0.088490253050768353 0 -0.081366979675541712 0.086918574822270223 0 -0.094710587494239884 0.07863893778959255 0 -0.081366979675541712 0.086918574822270223 0 -0.0781627246678957 0.085053016787479674 0 -0.080648009784800079 0.080984731264281143 0 -0.085690958892718883 0.077292237038543141 0 -0.081366979675541712 0.086918574822270223 0 -0.094710587494239884 0.07863893778959255 0 -0.094710587494239884 0.07863893778959255 0 -0.1055559972055172 0.086316463513723282 0 -0.1107575172713377 0.076442931492724103 0 -0.081097816427898886 0.088490253050768353 0 -0.1055559972055172 0.086316463513723282 0 -0.096460219427137645 0.099036577761655059 0 -0.081097816427898886 0.088490253050768353 0 -0.094710587494239884 0.07863893778959255 0 -0.1055559972055172 0.086316463513723282 0 -0.094710587494239884 0.07863893778959255 0 -0.10645847677635011 0.066144354096438415 0 -0.1107575172713377 0.076442931492724103 0 -0.092046366210314354 0.068867750512680265 0 -0.10645847677635011 0.066144354096438415 0 -0.098287786268152988 0.059233928379564191 0 -0.092046366210314354 0.068867750512680265 0 -0.094710587494239884 0.07863893778959255 0 -0.10645847677635011 0.066144354096438415 0 -0.13001417798313589 0.084142673976679933 0 -0.1107575172713377 0.076442931492724103 0 -0.1210395870472234 0.070294910121585841 0 -0.10645847677635011 0.066144354096438415 0 -0.1210395870472234 0.070294910121585841 0 -0.1174806644222971 0.060162268591940328 0 -0.10645847677635011 0.066144354096438415 0 -0.1107575172713377 0.076442931492724103 0 -0.1210395870472234 0.070294910121585841 0 -0.13164275203400999 0.060652308656581569 0 -0.1210395870472234 0.070294910121585841 0 -0.1174806644222971 0.060162268591940328 0 -0.13001417798313589 0.084142673976679933 0 -0.1055559972055172 0.086316463513723282 0 -0.1245320378174069 0.090537581379295282 0 -0.1055559972055172 0.086316463513723282 0 -0.1245320378174069 0.090537581379295282 0 -0.1115725396658698 0.1016693637220024 0 -0.13001417798313589 0.084142673976679933 0 -0.1055559972055172 0.086316463513723282 0 -0.1107575172713377 0.076442931492724103 0 -0.13001417798313589 0.084142673976679933 0 -0.1055559972055172 0.086316463513723282 0 -0.12671048613217031 0.1042115069534076 0 -0.1115725396658698 0.1016693637220024 0 -0.1179215637465796 0.1185571718749982 0 -0.12671048613217031 0.1042115069534076 0 -0.1245320378174069 0.090537581379295282 0 -0.1115725396658698 0.1016693637220024 0 -0.1115725396658698 0.1016693637220024 0 -0.1179215637465796 0.1185571718749982 0 -0.098991793020111754 0.1106289498477145 0 -0.10917243247065039 0.1320370449295469 0 -0.091300700290723069 0.1233475248957638 0 -0.1179215637465796 0.1185571718749982 0 -0.091300700290723069 0.1233475248957638 0 -0.1179215637465796 0.1185571718749982 0 -0.098991793020111754 0.1106289498477145 0 -0.091300700290723069 0.1233475248957638 0 -0.1179215637465796 0.1185571718749982 0 -0.088142197574951828 0.10518441933226561 0 -0.098991793020111754 0.1106289498477145 0 -0.096460219427137645 0.099036577761655059 0 -0.1055559972055172 0.086316463513723282 0 -0.1115725396658698 0.1016693637220024 0 -0.096460219427137645 0.099036577761655059 0 -0.1115725396658698 0.1016693637220024 0 -0.098991793020111754 0.1106289498477145 0 -0.096460219427137645 0.099036577761655059 0 -0.10109586067746899 0.03073951670516217 0 -0.10755279369274939 0.014781009388329479 0 -0.083058844715760097 0.027227616290484549 0 -0.10755279369274939 0.014781009388329479 0 -0.083058844715760097 0.027227616290484549 0 -0.10109586067746899 0.03073951670516217 0 -0.10755279369274939 0.014781009388329479 0 -0.1156247653715033 0.027095628998703599 0 -0.095336274017079642 0.0062248325735965336 0 -0.10755279369274939 0.014781009388329479 0 -0.11384095251281599 0.001129535286935791 0 -0.095336274017079642 0.0062248325735965336 0 -0.10755279369274939 0.014781009388329479 0 -0.0864609038513134 0.01317969303592084 0 -0.095336274017079642 0.0062248325735965336 0 -0.11384095251281599 0.001129535286935791 0 -0.13204674266974001 0.0023344024861769448 0 -0.10755279369274939 0.014781009388329479 0 -0.11384095251281599 0.001129535286935791 0 -0.13204674266974001 0.0023344024861769448 0 -0.10755279369274939 0.014781009388329479 0 -0.13204674266974001 0.0023344024861769448 0 -0.10755279369274939 0.014781009388329479 0 -0.1225302032672328 0.0148426862870671 0 -0.1225302032672328 0.0148426862870671 0 -0.1156247653715033 0.027095628998703599 0 -0.12490103481247961 0.023900452065794379 0 -0.10755279369274939 0.014781009388329479 0 -0.1225302032672328 0.0148426862870671 0 -0.1156247653715033 0.027095628998703599 0 -0.12917208020939011 0.032628214361676608 0 -0.1156247653715033 0.027095628998703599 0 -0.12490103481247961 0.023900452065794379 0 -0.12917208020939011 0.032628214361676608 0 -0.1156247653715033 0.027095628998703599 0 -0.11854076777288031 0.039566415304323428 0 -0.11854076777288031 0.039566415304323428 0 -0.110307612932139 0.050861158324857797 0 -0.1068255438127873 0.039814658768161072 0 -0.1156247653715033 0.027095628998703599 0 -0.11854076777288031 0.039566415304323428 0 -0.1068255438127873 0.039814658768161072 0 -0.13164275203400999 0.060652308656581569 0 -0.12529493596717259 0.051271360479867543 0 -0.1174806644222971 0.060162268591940328 0 -0.12529493596717259 0.051271360479867543 0 -0.11854076777288031 0.039566415304323428 0 -0.110307612932139 0.050861158324857797 0 -0.12529493596717259 0.051271360479867543 0 -0.1174806644222971 0.060162268591940328 0 -0.110307612932139 0.050861158324857797 0 -0.10645847677635011 0.066144354096438415 0 -0.1174806644222971 0.060162268591940328 0 -0.110307612932139 0.050861158324857797 0 -0.10645847677635011 0.066144354096438415 0 -0.110307612932139 0.050861158324857797 0 -0.094758660746055046 0.046685985193461538 0 -0.10645847677635011 0.066144354096438415 0 -0.098287786268152988 0.059233928379564191 0 -0.094758660746055046 0.046685985193461538 0 -0.10645847677635011 0.066144354096438415 0 -0.094758660746055046 0.046685985193461538 0 -0.10109586067746899 0.03073951670516217 0 -0.1068255438127873 0.039814658768161072 0 -0.094758660746055046 0.046685985193461538 0 -0.10109586067746899 0.03073951670516217 0 -0.1156247653715033 0.027095628998703599 0 -0.1068255438127873 0.039814658768161072 0 -0.110307612932139 0.050861158324857797 0 -0.1068255438127873 0.039814658768161072 0 -0.094758660746055046 0.046685985193461538 0 -0.10109586067746899 0.03073951670516217 0 -0.094758660746055046 0.046685985193461538 0 -0.083058844715760097 0.027227616290484549 0 -0.094758660746055046 0.046685985193461538 0 -0.083270160955179945 0.037038720015447973 0 -0.083058844715760097 0.027227616290484549 0 -0.094758660746055046 0.046685985193461538 0 -0.083058844715760097 0.027227616290484549 0 -0.094758660746055046 0.046685985193461538 0 -0.080263934424650435 0.042918153609931141 0 -0.083270160955179945 0.037038720015447973 0 -0.083270160955179945 0.037038720015447973 0 -0.074999203934254549 0.031323124967914513 0 -0.083058844715760097 0.027227616290484549 0 -0.080263934424650435 0.042918153609931141 0 -0.083270160955179945 0.037038720015447973 0 -0.074999203934254549 0.031323124967914513 0 -0.092046366210314354 0.068867750512680265 0 -0.080263934424650435 0.042918153609931141 0 -0.098287786268152988 0.059233928379564191 0 -0.080263934424650435 0.042918153609931141 0 -0.092046366210314354 0.068867750512680265 0 -0.098287786268152988 0.059233928379564191 0 -0.080263934424650435 0.042918153609931141 0 -0.092046366210314354 0.068867750512680265 0 -0.080263934424650435 0.042918153609931141 0 -0.078749749295322274 0.057761267235313302 0 -0.098287786268152988 0.059233928379564191 0 -0.094758660746055046 0.046685985193461538 0 -0.080263934424650435 0.042918153609931141 0 -0.078749749295322274 0.057761267235313302 0 -0.067382894371232849 0.062245928899374178 0 -0.072093445027092667 0.046437438667747181 0 -0.067382894371232849 0.062245928899374178 0 -0.072093445027092667 0.046437438667747181 0 -0.063547444547583778 0.037142339646524733 0 -0.067382894371232849 0.062245928899374178 0 -0.063547444547583778 0.037142339646524733 0 -0.080263934424650435 0.042918153609931141 0 -0.078749749295322274 0.057761267235313302 0 -0.072093445027092667 0.046437438667747181 0 -0.080263934424650435 0.042918153609931141 0 -0.074999203934254549 0.031323124967914513 0 -0.080263934424650435 0.042918153609931141 0 -0.074999203934254549 0.031323124967914513 0 -0.070167374532124432 0.033778420406115103 0 -0.080263934424650435 0.042918153609931141 0 -0.070167374532124432 0.033778420406115103 0 -0.074999203934254549 0.031323124967914513 0 -0.070167374532124432 0.033778420406115103 0 -0.080263934424650435 0.042918153609931141 0 -0.072093445027092667 0.046437438667747181 0 -0.070167374532124432 0.033778420406115103 0 -0.072093445027092667 0.046437438667747181 0 -0.063547444547583778 0.037142339646524733 0 -0.070167374532124432 0.033778420406115103 0 -0.063547444547583778 0.037142339646524733 0 -0.061888467006876377 0.02628408502801358 0 -0.063547444547583778 0.037142339646524733 0 -0.070167374532124432 0.033778420406115103 0 -0.061888467006876377 0.02628408502801358 0 -0.063547444547583778 0.037142339646524733 0 -0.070167374532124432 0.033778420406115103 0 -0.074999203934254549 0.031323124967914513 0 -0.068180132474324667 0.02715132644548315 0 -0.065593712491839609 0.019554287191981962 0 -0.074999203934254549 0.031323124967914513 0 -0.064187599919179245 0.0075116766041989028 0 -0.070167374532124432 0.033778420406115103 0 -0.068180132474324667 0.02715132644548315 0 -0.061888467006876377 0.02628408502801358 0 -0.074999203934254549 0.031323124967914513 0 -0.065593712491839609 0.019554287191981962 0 -0.064187599919179245 0.0075116766041989028 0 -0.083058844715760097 0.027227616290484549 0 -0.072455239660695892 0.009592393793938947 0 -0.074999203934254549 0.031323124967914513 0 -0.073675222057472414 0.018913702914134242 0 -0.064187599919179245 0.0075116766041989028 0 -0.073675222057472414 0.018913702914134242 0 -0.083058844715760097 0.027227616290484549 0 -0.072455239660695892 0.009592393793938947 0 -0.070167374532124432 0.033778420406115103 0 -0.061888467006876377 0.02628408502801358 0 -0.068180132474324667 0.02715132644548315 0 -0.065593712491839609 0.019554287191981962 0 -0.061888467006876377 0.02628408502801358 0 -0.074999203934254549 0.031323124967914513 0 -0.073675222057472414 0.018913702914134242 0 -0.083058844715760097 0.027227616290484549 0 -0.074999203934254549 0.031323124967914513 0 -0.070167374532124432 0.033778420406115103 0 -0.068180132474324667 0.02715132644548315 0 -0.083058844715760097 0.027227616290484549 0 -0.0864609038513134 0.01317969303592084 0 -0.072455239660695892 0.009592393793938947 0 -0.10755279369274939 0.014781009388329479 0 -0.083058844715760097 0.027227616290484549 0 -0.0864609038513134 0.01317969303592084 0 -0.074999203934254549 0.031323124967914513 0 -0.083058844715760097 0.027227616290484549 0 -0.095336274017079642 0.0062248325735965336 0 -0.0864609038513134 0.01317969303592084 0 -0.083932528361024786 0.0016182416830315149 0 -0.0864609038513134 0.01317969303592084 0 -0.083932528361024786 0.0016182416830315149 0 -0.072455239660695892 0.009592393793938947 0 -0.061851634605631887 -0.008042828702606683 0 -0.072455239660695892 0.009592393793938947 0 -0.061851634605631887 -0.008042828702606683 0 -0.072455239660695892 0.009592393793938947 0 -0.064187599919179245 0.0075116766041989028 0 -0.074156603845683955 -0.003592961947274779 0 -0.083932528361024786 0.0016182416830315149 0 -0.072455239660695892 0.009592393793938947 0 -0.073675222057472414 0.018913702914134242 0 -0.072455239660695892 0.009592393793938947 0 -0.064187599919179245 0.0075116766041989028 0 -0.065593712491839609 0.019554287191981962 0 -0.064187599919179245 0.0075116766041989028 0 -0.058713159124563367 0.0055012229142995736 0 -0.050289743194359457 0.0047188100463112096 0 -0.061888467006876377 0.02628408502801358 0 -0.043253111612289168 0.0094147574275557817 0 -0.058713159124563367 0.0055012229142995736 0 -0.050289743194359457 0.0047188100463112096 0 -0.061888467006876377 0.02628408502801358 0 -0.04821375407982418 -0.0034821883700730779 0 -0.058713159124563367 0.0055012229142995736 0 -0.050289743194359457 0.0047188100463112096 0 -0.04821375407982418 -0.0034821883700730779 0 -0.050289743194359457 0.0047188100463112096 0 -0.043253111612289168 0.0094147574275557817 0 -0.061888467006876377 0.02628408502801358 0 -0.042197560975553612 0.027585150039397151 0 -0.043253111612289168 0.0094147574275557817 0 -0.061888467006876377 0.02628408502801358 0 -0.042197560975553612 0.027585150039397151 0 -0.052845347034255759 0.033221598053778147 0 -0.065593712491839609 0.019554287191981962 0 -0.058713159124563367 0.0055012229142995736 0 -0.061888467006876377 0.02628408502801358 0 -0.058713159124563367 0.0055012229142995736 0 -0.061888467006876377 0.02628408502801358 0 -0.061888467006876377 0.02628408502801358 0 -0.043253111612289168 0.0094147574275557817 0 -0.032893667588675533 0.018150932827947861 0 -0.042197560975553612 0.027585150039397151 0 -0.023936610738927049 0.027646552684349492 0 -0.032893667588675533 0.018150932827947861 0 -0.042197560975553612 0.027585150039397151 0 -0.043253111612289168 0.0094147574275557817 0 -0.032893667588675533 0.018150932827947861 0 -0.043253111612289168 0.0094147574275557817 0 -0.02719131736308238 0.0067143628432696709 0 -0.024617756217701899 -0.0074545701729019538 0 -0.043253111612289168 0.0094147574275557817 0 -0.024617756217701899 -0.0074545701729019538 0 -0.043253111612289168 0.0094147574275557817 0 -0.02719131736308238 0.0067143628432696709 0 -0.067382894371232849 0.062245928899374178 0 -0.063547444547583778 0.037142339646524733 0 -0.055166841240803927 0.053083448573085362 0 -0.053289593715083003 0.064665875617441027 0 -0.055166841240803927 0.053083448573085362 0 -0.03755686348382286 0.050349460554755171 0 -0.053289593715083003 0.064665875617441027 0 -0.067382894371232849 0.062245928899374178 0 -0.055166841240803927 0.053083448573085362 0 -0.063547444547583778 0.037142339646524733 0 -0.055166841240803927 0.053083448573085362 0 -0.03755686348382286 0.050349460554755171 0 -0.063547444547583778 0.037142339646524733 0 -0.052845347034255759 0.033221598053778147 0 -0.03755686348382286 0.050349460554755171 0 -0.063547444547583778 0.037142339646524733 0 -0.03755686348382286 0.050349460554755171 0 -0.063547444547583778 0.037142339646524733 0 -0.061888467006876377 0.02628408502801358 0 -0.052845347034255759 0.033221598053778147 0 -0.042197560975553612 0.027585150039397151 0 -0.03755686348382286 0.050349460554755171 0 -0.023936610738927049 0.027646552684349492 0 -0.042197560975553612 0.027585150039397151 0 -0.052845347034255759 0.033221598053778147 0 -0.03755686348382286 0.050349460554755171 0 -0.01156628242006226 0.063556581462986234 0 -0.03755686348382286 0.050349460554755171 0 -0.01156628242006226 0.063556581462986234 0 -0.03755686348382286 0.050349460554755171 0 -0.01226221823829883 0.042256189127394657 0 -0.01156628242006226 0.063556581462986234 0 -0.028335217133297109 0.070648383185923536 0 -0.03755686348382286 0.050349460554755171 0 -0.03755686348382286 0.050349460554755171 0 -0.01226221823829883 0.042256189127394657 0 -0.023936610738927049 0.027646552684349492 0 -0.01226221823829883 0.042256189127394657 0 -0.023936610738927049 0.027646552684349492 0 -0.009664391728621876 0.025422356762936069 0 -0.01226221823829883 0.042256189127394657 0 -0.009664391728621876 0.025422356762936069 0 0.003443975928265737 0.030441267478972009 0 -0.01226221823829883 0.042256189127394657 0 0.003443975928265737 0.030441267478972009 0 0.0067302831803174364 0.047038727874829052 0 -0.01156628242006226 0.063556581462986234 0 -0.01226221823829883 0.042256189127394657 0 0.0067302831803174364 0.047038727874829052 0 -0.032893667588675533 0.018150932827947861 0 -0.016362809750073169 0.01309239906413022 0 -0.02719131736308238 0.0067143628432696709 0 -0.016345274944772888 -5.9837842431312287e-05 0 -0.016362809750073169 0.01309239906413022 0 -0.02719131736308238 0.0067143628432696709 0 -0.032893667588675533 0.018150932827947861 0 -0.016362809750073169 0.01309239906413022 0 -0.023936610738927049 0.027646552684349492 0 -0.016362809750073169 0.01309239906413022 0 -0.023936610738927049 0.027646552684349492 0 -0.009664391728621876 0.025422356762936069 0 -0.009664391728621876 0.025422356762936069 0 0.00079570415592393744 0.013675375459833959 0 0.003443975928265737 0.030441267478972009 0 -0.016362809750073169 0.01309239906413022 0 -0.009664391728621876 0.025422356762936069 0 0.00079570415592393744 0.013675375459833959 0 -0.016362809750073169 0.01309239906413022 0 -0.0052482603672307157 0.002057095947941197 0 0.00079570415592393744 0.013675375459833959 0 -0.016345274944772888 -5.9837842431312287e-05 0 -0.016362809750073169 0.01309239906413022 0 -0.0052482603672307157 0.002057095947941197 0 -0.0052482603672307157 0.002057095947941197 0 0.00079570415592393744 0.013675375459833959 0 0.015761146306078541 -0.0038236511103695108 0 0.00079570415592393744 0.013675375459833959 0 0.016902242756276342 0.017625040160181599 0 0.015761146306078541 -0.0038236511103695108 0 0.00079570415592393744 0.013675375459833959 0 0.003443975928265737 0.030441267478972009 0 0.016902242756276342 0.017625040160181599 0 0.003443975928265737 0.030441267478972009 0 0.016902242756276342 0.017625040160181599 0 0.021634622046852691 0.033165445268332837 0 0.016902242756276342 0.017625040160181599 0 0.021634622046852691 0.033165445268332837 0 0.037205585448404417 0.016947357795226589 0 0.037205585448404417 0.016947357795226589 0 0.015761146306078541 -0.0038236511103695108 0 0.016902242756276342 0.017625040160181599 0 0.037205585448404417 0.016947357795226589 0 0.015761146306078541 -0.0038236511103695108 0 -0.01156628242006226 0.063556581462986234 0 0.0067302831803174364 0.047038727874829052 0 0.012854970211466331 0.06089627209955159 0 0.0067302831803174364 0.047038727874829052 0 0.012854970211466331 0.06089627209955159 0 0.024768669441457669 0.049849049391762518 0 0.003443975928265737 0.030441267478972009 0 0.0067302831803174364 0.047038727874829052 0 0.021634622046852691 0.033165445268332837 0 0.0067302831803174364 0.047038727874829052 0 0.021634622046852691 0.033165445268332837 0 0.024768669441457669 0.049849049391762518 0 0.021634622046852691 0.033165445268332837 0 0.024768669441457669 0.049849049391762518 0 0.040756975526394568 0.037091228909025283 0 0.012854970211466331 0.06089627209955159 0 0.024768669441457669 0.049849049391762518 0 0.029917882211920571 0.067273299396962943 0 0.024768669441457669 0.049849049391762518 0 0.051184911714795452 0.06140702050966778 0 0.029917882211920571 0.067273299396962943 0 0.024768669441457669 0.049849049391762518 0 0.040756975526394568 0.037091228909025283 0 0.051184911714795452 0.06140702050966778 0 0.040756975526394568 0.037091228909025283 0 0.061112217327982631 0.03507825942732351 0 0.051184911714795452 0.06140702050966778 0 0.061112217327982631 0.03507825942732351 0 0.051184911714795452 0.06140702050966778 0 0.061112217327982631 0.03507825942732351 0 0.051184911714795452 0.06140702050966778 0 0.071467637103591483 0.056186647189533277 0 0.037205585448404417 0.016947357795226589 0 0.015761146306078541 -0.0038236511103695108 0 0.043869542357556447 -0.0077626595509977673 0 0.037205585448404417 0.016947357795226589 0 0.053889019005023207 0.0042927930963859544 0 0.043869542357556447 -0.0077626595509977673 0 0.021634622046852691 0.033165445268332837 0 0.040756975526394568 0.037091228909025283 0 0.037205585448404417 0.016947357795226589 0 0.040756975526394568 0.037091228909025283 0 0.061112217327982631 0.03507825942732351 0 0.037205585448404417 0.016947357795226589 0 0.061112217327982631 0.03507825942732351 0 0.037205585448404417 0.016947357795226589 0 0.063461588480862405 0.01690269280888896 0 0.053889019005023207 0.0042927930963859544 0 0.063461588480862405 0.01690269280888896 0 0.067144851277335119 -0.007206669998643612 0 0.037205585448404417 0.016947357795226589 0 0.053889019005023207 0.0042927930963859544 0 0.063461588480862405 0.01690269280888896 0 0.084556828012583282 0.01000373329485589 0 0.063461588480862405 0.01690269280888896 0 0.084556828012583282 0.01000373329485589 0 0.063461588480862405 0.01690269280888896 0 0.067144851277335119 -0.007206669998643612 0 0.084556828012583282 0.01000373329485589 0 0.1056520675443042 0.003104773780823032 0 0.089186898378300156 -0.01154008688884384 0 0.084556828012583282 0.01000373329485589 0 0.080290792733560393 0.034228591697510191 0 0.1022661843402158 0.030101663748427529 0 0.061112217327982631 0.03507825942732351 0 0.063461588480862405 0.01690269280888896 0 0.080290792733560393 0.034228591697510191 0 0.084556828012583282 0.01000373329485589 0 0.063461588480862405 0.01690269280888896 0 0.080290792733560393 0.034228591697510191 0 0.061112217327982631 0.03507825942732351 0 0.071467637103591483 0.056186647189533277 0 0.080290792733560393 0.034228591697510191 0 0.071467637103591483 0.056186647189533277 0 0.080290792733560393 0.034228591697510191 0 0.098880301136126877 0.057098553716031987 0 0.098880301136126877 0.057098553716031987 0 0.1022661843402158 0.030101663748427529 0 0.098880301136126877 0.057098553716031987 0 0.1163576027375398 0.039123890133197808 0 0.1022661843402158 0.030101663748427529 0 0.080290792733560393 0.034228591697510191 0 0.098880301136126877 0.057098553716031987 0 0.1022661843402158 0.030101663748427529 0 0.1163576027375398 0.039123890133197808 0 0.1145907508986508 0.065964367015261843 0 0.13209279743577931 0.061594098807270473 0 0.098880301136126877 0.057098553716031987 0 0.1163576027375398 0.039123890133197808 0 0.1145907508986508 0.065964367015261843 0 0.1163576027375398 0.039123890133197808 0 0.13209279743577931 0.061594098807270473 0 0.1163576027375398 0.039123890133197808 0 0.11958777769478759 0.018563325633784111 0 0.1022661843402158 0.030101663748427529 0 0.1163576027375398 0.039123890133197808 0 0.11958777769478759 0.018563325633784111 0 0.12756671846366541 0.03035088117771842 0 0.11958777769478759 0.018563325633784111 0 0.1056520675443042 0.003104773780823032 0 0.12420808900298839 -0.002963763179494149 0 0.1056520675443042 0.003104773780823032 0 0.12420808900298839 -0.002963763179494149 0 0.084556828012583282 0.01000373329485589 0 0.1056520675443042 0.003104773780823032 0 0.1022661843402158 0.030101663748427529 0 0.084556828012583282 0.01000373329485589 0 0.1056520675443042 0.003104773780823032 0 0.11958777769478759 0.018563325633784111 0 0.1056520675443042 0.003104773780823032 0 0.1022661843402158 0.030101663748427529 0 0.1056520675443042 0.003104773780823032 0 0.1022661843402158 0.030101663748427529 0 0.10929881565540329 0.09983715869608889 0 0.1020493700245648 0.1157770468116797 0 0.10929881565540329 0.09983715869608889 0 0.1020493700245648 0.1157770468116797 0 0.092108534727949165 0.11109233365124049 0 0.095494417932038028 0.084095443683636278 0 0.092108534727949165 0.11109233365124049 0 0.10929881565540329 0.09983715869608889 0 0.095494417932038028 0.084095443683636278 0 0.092108534727949165 0.11109233365124049 0 0.10001260787420101 0.1202554252213249 0 0.1020493700245648 0.1157770468116797 0 0.1202715569803728 0.1305500157755918 0 0.1020493700245648 0.1157770468116797 0 0.092108534727949165 0.11109233365124049 0 0.10001260787420101 0.1202554252213249 0 0.1020493700245648 0.1157770468116797 0 0.092108534727949165 0.11109233365124049 0 0.10001260787420101 0.1202554252213249 0 0.1020493700245648 0.1157770468116797 0 0.1020493700245648 0.1157770468116797 0 0.11725277824469139 0.1116264242092916 0 0.12532407705565429 0.12651291283451899 0 0.1020493700245648 0.1157770468116797 0 0.1202715569803728 0.1305500157755918 0 0.12532407705565429 0.12651291283451899 0 0.1020493700245648 0.1157770468116797 0 0.12532407705565429 0.12651291283451899 0 0.11725277824469139 0.1116264242092916 0 0.12532407705565429 0.12651291283451899 0 0.1321308772851239 0.1019693471251534 0 0.10929881565540329 0.09983715869608889 0 0.1020493700245648 0.1157770468116797 0 0.11725277824469139 0.1116264242092916 0 0.10929881565540329 0.09983715869608889 0 0.11725277824469139 0.1116264242092916 0 0.1321308772851239 0.1019693471251534 0 0.10929881565540329 0.09983715869608889 0 0.11654826128624179 0.083897270580498076 0 0.1321308772851239 0.1019693471251534 0 0.10929881565540329 0.09983715869608889 0 0.11654826128624179 0.083897270580498076 0 0.11654826128624179 0.083897270580498076 0 0.1145907508986508 0.065964367015261843 0 0.13209279743577931 0.061594098807270473 0 0.098880301136126877 0.057098553716031987 0 0.1145907508986508 0.065964367015261843 0 0.095494417932038028 0.084095443683636278 0 0.11654826128624179 0.083897270580498076 0 0.1145907508986508 0.065964367015261843 0 0.095494417932038028 0.084095443683636278 0 0.098880301136126877 0.057098553716031987 0 0.095494417932038028 0.084095443683636278 0 0.10929881565540329 0.09983715869608889 0 0.11654826128624179 0.083897270580498076 0 0.095494417932038028 0.084095443683636278 0 0.095494417932038028 0.084095443683636278 0 0.082475962220814686 0.092543395134753459 0 0.075420653857357259 0.079564440904793893 0 0.098880301136126877 0.057098553716031987 0 0.095494417932038028 0.084095443683636278 0 0.075420653857357259 0.079564440904793893 0 0.071467637103591483 0.056186647189533277 0 0.098880301136126877 0.057098553716031987 0 0.075420653857357259 0.079564440904793893 0 0.071467637103591483 0.056186647189533277 0 0.075420653857357259 0.079564440904793893 0 0.058453735679924977 0.078424968218498425 0 0.075420653857357259 0.079564440904793893 0 0.070055045223956725 0.091766853971487733 0 0.058453735679924977 0.078424968218498425 0 0.082475962220814686 0.092543395134753459 0 0.075420653857357259 0.079564440904793893 0 0.070055045223956725 0.091766853971487733 0 0.070055045223956725 0.091766853971487733 0 0.074367775296471622 0.1030084266996253 0 0.057812690699040881 0.095372104145816913 0 0.071152571819980207 0.1055901899713326 0 0.074367775296471622 0.1030084266996253 0 0.057812690699040881 0.095372104145816913 0 0.074367775296471622 0.1030084266996253 0 0.057812690699040881 0.095372104145816913 0 0.071152571819980207 0.1055901899713326 0 0.055783725763719171 0.097780506625390853 0 0.071152571819980207 0.1055901899713326 0 0.074367775296471622 0.1030084266996253 0 0.085582589847090412 0.112922807596329 0 0.071152571819980207 0.1055901899713326 0 0.074367775296471622 0.1030084266996253 0 0.082475962220814686 0.092543395134753459 0 0.070055045223956725 0.091766853971487733 0 0.074367775296471622 0.1030084266996253 0 0.095494417932038028 0.084095443683636278 0 0.082475962220814686 0.092543395134753459 0 0.092108534727949165 0.11109233365124049 0 0.082475962220814686 0.092543395134753459 0 0.074367775296471622 0.1030084266996253 0 0.092108534727949165 0.11109233365124049 0 0.074367775296471622 0.1030084266996253 0 0.092108534727949165 0.11109233365124049 0 0.074367775296471622 0.1030084266996253 0 0.092108534727949165 0.11109233365124049 0 0.085582589847090412 0.112922807596329 0 0.071152571819980207 0.1055901899713326 0 0.085582589847090412 0.112922807596329 0 0.10001260787420101 0.1202554252213249 0 0.088728232934725482 0.1234180411018468 0 0.085582589847090412 0.112922807596329 0 0.10001260787420101 0.1202554252213249 0 0.085582589847090412 0.112922807596329 0 0.10001260787420101 0.1202554252213249 0 0.092108534727949165 0.11109233365124049 0 0.085582589847090412 0.112922807596329 0 0.088728232934725482 0.1234180411018468 0 0.085582589847090412 0.112922807596329 0 0.076108991186985275 0.12527834898938731 0 0.059009239543346567 0.1153411153784268 0 0.076108991186985275 0.12527834898938731 0 0.071152571819980207 0.1055901899713326 0 0.085582589847090412 0.112922807596329 0 0.076108991186985275 0.12527834898938731 0 0.071152571819980207 0.1055901899713326 0 0.059009239543346567 0.1153411153784268 0 0.076108991186985275 0.12527834898938731 0 0.071152571819980207 0.1055901899713326 0 0.059009239543346567 0.1153411153784268 0 0.059009239543346567 0.1153411153784268 0 0.043545102968562392 0.118477994144643 0 0.038814925800129442 0.13155686592134411 0 0.059009239543346567 0.1153411153784268 0 0.038814925800129442 0.13155686592134411 0 0.056715148754757749 0.1140079430279699 0 0.059009239543346567 0.1153411153784268 0 0.043545102968562392 0.118477994144643 0 0.056715148754757749 0.1140079430279699 0 0.046801709960410012 0.1064365058254087 0 0.043545102968562392 0.118477994144643 0 0.071152571819980207 0.1055901899713326 0 0.056715148754757749 0.1140079430279699 0 0.059009239543346567 0.1153411153784268 0 0.056715148754757749 0.1140079430279699 0 0.059009239543346567 0.1153411153784268 0 0.071152571819980207 0.1055901899713326 0 0.056715148754757749 0.1140079430279699 0 0.055783725763719171 0.097780506625390853 0 0.056715148754757749 0.1140079430279699 0 0.055783725763719171 0.097780506625390853 0 0.046801709960410012 0.1064365058254087 0 0.055783725763719171 0.097780506625390853 0 0.046801709960410012 0.1064365058254087 0 0.040414879707455567 0.08997082327945434 0 0.071152571819980207 0.1055901899713326 0 0.055783725763719171 0.097780506625390853 0 0.057812690699040881 0.095372104145816913 0 0.055783725763719171 0.097780506625390853 0 0.040414879707455567 0.08997082327945434 0 0.03315012382394044 0.10923808767438969 0 0.040414879707455567 0.08997082327945434 0 0.046801709960410012 0.1064365058254087 0 0.03315012382394044 0.10923808767438969 0 0.040414879707455567 0.08997082327945434 0 0.03315012382394044 0.10923808767438969 0 0.043545102968562392 0.118477994144643 0 0.025885367940426011 0.1285053520693254 0 0.046801709960410012 0.1064365058254087 0 0.03315012382394044 0.10923808767438969 0 0.043545102968562392 0.118477994144643 0 0.051184911714795452 0.06140702050966778 0 0.071467637103591483 0.056186647189533277 0 0.058453735679924977 0.078424968218498425 0 0.051184911714795452 0.06140702050966778 0 0.058453735679924977 0.078424968218498425 0 0.041257606101608529 0.087735781592012146 0 0.057812690699040881 0.095372104145816913 0 0.058453735679924977 0.078424968218498425 0 0.041257606101608529 0.087735781592012146 0 0.070055045223956725 0.091766853971487733 0 0.057812690699040881 0.095372104145816913 0 0.058453735679924977 0.078424968218498425 0 0.055783725763719171 0.097780506625390853 0 0.057812690699040881 0.095372104145816913 0 0.041257606101608529 0.087735781592012146 0 0.057812690699040881 0.095372104145816913 0 0.041257606101608529 0.087735781592012146 0 0.055783725763719171 0.097780506625390853 0 0.041257606101608529 0.087735781592012146 0 0.040414879707455567 0.08997082327945434 0 0.041257606101608529 0.087735781592012146 0 0.040414879707455567 0.08997082327945434 0 0.041257606101608529 0.087735781592012146 0 0.034823169797042627 0.084767785216971286 0 0.041257606101608529 0.087735781592012146 0 0.040414879707455567 0.08997082327945434 0 0.034823169797042627 0.084767785216971286 0 0.051184911714795452 0.06140702050966778 0 0.041257606101608529 0.087735781592012146 0 0.034823169797042627 0.084767785216971286 0 0.051184911714795452 0.06140702050966778 0 0.041257606101608529 0.087735781592012146 0 0.051184911714795452 0.06140702050966778 0 0.034823169797042627 0.084767785216971286 0 0.029917882211920571 0.067273299396962943 0 0.034823169797042627 0.084767785216971286 0 0.029917882211920571 0.067273299396962943 0 0.01442429864369821 0.076763702371217241 0 0.012854970211466331 0.06089627209955159 0 0.029917882211920571 0.067273299396962943 0 0.01442429864369821 0.076763702371217241 0 0.040414879707455567 0.08997082327945434 0 0.01442429864369821 0.076763702371217241 0 0.017375065997405181 0.097487845393569111 0 0.040414879707455567 0.08997082327945434 0 0.034823169797042627 0.084767785216971286 0 0.01442429864369821 0.076763702371217241 0 0.040414879707455567 0.08997082327945434 0 0.01442429864369821 0.076763702371217241 0 -0.0014784298921727791 0.087882785625659612 0 0.01442429864369821 0.076763702371217241 0 0.017375065997405181 0.097487845393569111 0 -0.01156628242006226 0.063556581462986234 0 -0.0014784298921727791 0.087882785625659612 0 0.01442429864369821 0.076763702371217241 0 -0.01156628242006226 0.063556581462986234 0 0.01442429864369821 0.076763702371217241 0 -0.01156628242006226 0.063556581462986234 0 0.012854970211466331 0.06089627209955159 0 0.01442429864369821 0.076763702371217241 0 0.03315012382394044 0.10923808767438969 0 0.025885367940426011 0.1285053520693254 0 0.03315012382394044 0.10923808767438969 0 0.013406958133924099 0.1157154691277089 0 0.025885367940426011 0.1285053520693254 0 0.03315012382394044 0.10923808767438969 0 0.017375065997405181 0.097487845393569111 0 0.013406958133924099 0.1157154691277089 0 0.03315012382394044 0.10923808767438969 0 0.040414879707455567 0.08997082327945434 0 0.017375065997405181 0.097487845393569111 0 0.017375065997405181 0.097487845393569111 0 0.001589205702606383 0.1054252565709831 0 0.013406958133924099 0.1157154691277089 0 -0.0014784298921727791 0.087882785625659612 0 0.017375065997405181 0.097487845393569111 0 0.001589205702606383 0.1054252565709831 0 -0.0013247525459362129 0.11990672198295289 0 0.013406958133924099 0.1157154691277089 0 0.0037667378851027802 0.1337295510750334 0 -0.0013247525459362129 0.11990672198295289 0 0.001589205702606383 0.1054252565709831 0 0.013406958133924099 0.1157154691277089 0 0.0037667378851027802 0.1337295510750334 0 0.025885367940426011 0.1285053520693254 0 0.012268294901789909 0.1424764959204608 0 0.013406958133924099 0.1157154691277089 0 0.0037667378851027802 0.1337295510750334 0 0.025885367940426011 0.1285053520693254 0 0.018620612056911831 0.1477726164642611 0 0.038814925800129442 0.13155686592134411 0 0.025885367940426011 0.1285053520693254 0 0.018620612056911831 0.1477726164642611 0 0.012268294901789909 0.1424764959204608 0 0.025885367940426011 0.1285053520693254 0 0.018620612056911831 0.1477726164642611 0 0.025885367940426011 0.1285053520693254 0 0.018620612056911831 0.1477726164642611 0 0.038814925800129442 0.13155686592134411 0 0.018620612056911831 0.1477726164642611 0 0.02675096128981962 0.16558595729921291 0 0.041269029493763952 0.1519069423218867 0 0.0037667378851027802 0.1337295510750334 0 0.012268294901789909 0.1424764959204608 0 0.000912498425950988 0.14941155809899509 0 0.018620612056911831 0.1477726164642611 0 0.012156258200558139 0.15296340189468899 0 0.018620612056911831 0.1477726164642611 0 0.012156258200558139 0.15296340189468899 0 0.012268294901789909 0.1424764959204608 0 0.012156258200558139 0.15296340189468899 0 0.012268294901789909 0.1424764959204608 0 0.000912498425950988 0.14941155809899509 0 0.012156258200558139 0.15296340189468899 0 0.000912498425950988 0.14941155809899509 0 0.00075419168641665949 0.1623636528292407 0 0.012156258200558139 0.15296340189468899 0 0.00075419168641665949 0.1623636528292407 0 0.0091701853496803341 0.17283662039402559 0 0.018620612056911831 0.1477726164642611 0 0.0091701853496803341 0.17283662039402559 0 0.018620612056911831 0.1477726164642611 0 0.012156258200558139 0.15296340189468899 0 0.0091701853496803341 0.17283662039402559 0 -0.00028024135755097199 0.1979006243237903 0 0.0091701853496803341 0.17283662039402559 0 0.023739093229298441 0.18163789329564911 0 -0.00028024135755097199 0.1979006243237903 0 0.0091701853496803341 0.17283662039402559 0 0.0091701853496803341 0.17283662039402559 0 0.023739093229298441 0.18163789329564911 0 0.02675096128981962 0.16558595729921291 0 0.023739093229298441 0.18163789329564911 0 0.02675096128981962 0.16558595729921291 0 0.041828531431361338 0.1742191471980199 0 0.018620612056911831 0.1477726164642611 0 0.0091701853496803341 0.17283662039402559 0 0.02675096128981962 0.16558595729921291 0 0.02675096128981962 0.16558595729921291 0 0.041828531431361338 0.1742191471980199 0 0.041269029493763952 0.1519069423218867 0 0.023739093229298441 0.18163789329564911 0 0.041828531431361338 0.1742191471980199 0 0.031614205584118177 0.2027771950655364 0 0.041828531431361338 0.1742191471980199 0 0.060658537589543718 0.17703267465467759 0 0.057395811134162027 0.19650639102976941 0 0.041828531431361338 0.1742191471980199 0 0.060658537589543718 0.17703267465467759 0 0.062303300377132428 0.15777810048637139 0 0.041828531431361338 0.1742191471980199 0 0.062303300377132428 0.15777810048637139 0 0.041269029493763952 0.1519069423218867 0 0.062303300377132428 0.15777810048637139 0 0.05859394629115712 0.13721945822522941 0 0.041269029493763952 0.1519069423218867 0 0.059009239543346567 0.1153411153784268 0 0.05859394629115712 0.13721945822522941 0 0.038814925800129442 0.13155686592134411 0 0.05859394629115712 0.13721945822522941 0 0.038814925800129442 0.13155686592134411 0 0.041269029493763952 0.1519069423218867 0 0.043545102968562392 0.118477994144643 0 0.025885367940426011 0.1285053520693254 0 0.038814925800129442 0.13155686592134411 0 0.018620612056911831 0.1477726164642611 0 0.038814925800129442 0.13155686592134411 0 0.041269029493763952 0.1519069423218867 0 -0.001711322607177821 0.2476415137308719 0 0.024455966897590251 0.2469497650613437 0 0.013112990807721671 0.22472294109631019 0 -0.0097306680647822538 0.22296462825355501 0 -0.001711322607177821 0.2476415137308719 0 0.013112990807721671 0.22472294109631019 0 0.024455966897590251 0.2469497650613437 0 0.013112990807721671 0.22472294109631019 0 0.033494874165546577 0.22752897138748451 0 -0.00028024135755097199 0.1979006243237903 0 0.023739093229298441 0.18163789329564911 0 0.031614205584118177 0.2027771950655364 0 -0.00028024135755097199 0.1979006243237903 0 0.013112990807721671 0.22472294109631019 0 0.031614205584118177 0.2027771950655364 0 0.013112990807721671 0.22472294109631019 0 0.031614205584118177 0.2027771950655364 0 0.033494874165546577 0.22752897138748451 0 -0.00028024135755097199 0.1979006243237903 0 -0.0097306680647822538 0.22296462825355501 0 0.013112990807721671 0.22472294109631019 0 0.041828531431361338 0.1742191471980199 0 0.031614205584118177 0.2027771950655364 0 0.057395811134162027 0.19650639102976941 0 0.057395811134162027 0.19650639102976941 0 0.05054052358339764 0.21977083059595101 0 0.06800525532309537 0.21740613223900679 0 0.031614205584118177 0.2027771950655364 0 0.033494874165546577 0.22752897138748451 0 0.05054052358339764 0.21977083059595101 0 0.031614205584118177 0.2027771950655364 0 0.057395811134162027 0.19650639102976941 0 0.05054052358339764 0.21977083059595101 0 0.033494874165546577 0.22752897138748451 0 0.05054052358339764 0.21977083059595101 0 0.047750683954905143 0.2434241251182814 0 0.05054052358339764 0.21977083059595101 0 0.047750683954905143 0.2434241251182814 0 0.072857389447875093 0.23529484166331269 0 0.047750683954905143 0.2434241251182814 0 0.072857389447875093 0.23529484166331269 0 0.062502990013812793 0.26095755865104597 0 0.024455966897590251 0.2469497650613437 0 0.033494874165546577 0.22752897138748451 0 0.047750683954905143 0.2434241251182814 0 0.072857389447875093 0.23529484166331269 0 0.099368800493647116 0.23564238668442589 0 0.085979313092188051 0.25234243848150012 0 0.072857389447875093 0.23529484166331269 0 0.062502990013812793 0.26095755865104597 0 0.085979313092188051 0.25234243848150012 0 0.05054052358339764 0.21977083059595101 0 0.072857389447875093 0.23529484166331269 0 0.06800525532309537 0.21740613223900679 0 0.072857389447875093 0.23529484166331269 0 0.093673962701444319 0.21535483902785449 0 0.06800525532309537 0.21740613223900679 0 0.072857389447875093 0.23529484166331269 0 0.093673962701444319 0.21535483902785449 0 0.099368800493647116 0.23564238668442589 0 0.093673962701444319 0.21535483902785449 0 0.076997780488796727 0.20384104798963379 0 0.091446487440154323 0.19746068708348091 0 0.093673962701444319 0.21535483902785449 0 0.06800525532309537 0.21740613223900679 0 0.076997780488796727 0.20384104798963379 0 0.057395811134162027 0.19650639102976941 0 0.06800525532309537 0.21740613223900679 0 0.076997780488796727 0.20384104798963379 0 0.057395811134162027 0.19650639102976941 0 0.076997780488796727 0.20384104798963379 0 0.078747158199504105 0.1879851978720993 0 0.076997780488796727 0.20384104798963379 0 0.091446487440154323 0.19746068708348091 0 0.078747158199504105 0.1879851978720993 0 0.091446487440154323 0.19746068708348091 0 0.078747158199504105 0.1879851978720993 0 0.097396137693701673 0.17812286200842919 0 0.091446487440154323 0.19746068708348091 0 0.1079663975725943 0.19628520074313249 0 0.097396137693701673 0.17812286200842919 0 0.093673962701444319 0.21535483902785449 0 0.091446487440154323 0.19746068708348091 0 0.1079663975725943 0.19628520074313249 0 0.1079663975725943 0.19628520074313249 0 0.11467576576267249 0.21506550688823739 0 0.1256790613578205 0.19456737876663921 0 0.1079663975725943 0.19628520074313249 0 0.12018786268376069 0.17480187339622599 0 0.1256790613578205 0.19456737876663921 0 0.093673962701444319 0.21535483902785449 0 0.1079663975725943 0.19628520074313249 0 0.11467576576267249 0.21506550688823739 0 0.093673962701444319 0.21535483902785449 0 0.11467576576267249 0.21506550688823739 0 0.099368800493647116 0.23564238668442589 0 0.11467576576267249 0.21506550688823739 0 0.1172255882914653 0.240359016139747 0 0.099368800493647116 0.23564238668442589 0 0.11467576576267249 0.21506550688823739 0 0.1172255882914653 0.240359016139747 0 0.12850052128049691 0.22816313454829451 0 0.099368800493647116 0.23564238668442589 0 0.085979313092188051 0.25234243848150012 0 0.1098365401102865 0.25523401559104458 0 0.1172255882914653 0.240359016139747 0 0.099368800493647116 0.23564238668442589 0 0.1098365401102865 0.25523401559104458 0 0.084785387251344282 0.15373663266801121 0 0.093208742830624858 0.1352155826003463 0 0.074058191345584917 0.14145537625396001 0 0.084785387251344282 0.15373663266801121 0 0.093208742830624858 0.1352155826003463 0 0.088728232934725482 0.1234180411018468 0 0.093208742830624858 0.1352155826003463 0 0.076108991186985275 0.12527834898938731 0 0.093208742830624858 0.1352155826003463 0 0.076108991186985275 0.12527834898938731 0 0.093208742830624858 0.1352155826003463 0 0.076108991186985275 0.12527834898938731 0 0.074058191345584917 0.14145537625396001 0 0.05859394629115712 0.13721945822522941 0 0.076108991186985275 0.12527834898938731 0 0.074058191345584917 0.14145537625396001 0 0.059009239543346567 0.1153411153784268 0 0.05859394629115712 0.13721945822522941 0 0.076108991186985275 0.12527834898938731 0 0.062303300377132428 0.15777810048637139 0 0.05859394629115712 0.13721945822522941 0 0.074058191345584917 0.14145537625396001 0 0.062303300377132428 0.15777810048637139 0 0.084785387251344282 0.15373663266801121 0 0.074058191345584917 0.14145537625396001 0 0.060658537589543718 0.17703267465467759 0 0.062303300377132428 0.15777810048637139 0 0.076362031672063485 0.1722576827356759 0 0.062303300377132428 0.15777810048637139 0 0.084785387251344282 0.15373663266801121 0 0.076362031672063485 0.1722576827356759 0 0.060658537589543718 0.17703267465467759 0 0.057395811134162027 0.19650639102976941 0 0.078747158199504105 0.1879851978720993 0 0.060658537589543718 0.17703267465467759 0 0.078747158199504105 0.1879851978720993 0 0.076362031672063485 0.1722576827356759 0 0.078747158199504105 0.1879851978720993 0 0.076362031672063485 0.1722576827356759 0 0.097396137693701673 0.17812286200842919 0 0.084785387251344282 0.15373663266801121 0 0.091119054899049631 0.16530177332964191 0 0.10375742370438081 0.15723343922268929 0 0.084785387251344282 0.15373663266801121 0 0.076362031672063485 0.1722576827356759 0 0.076362031672063485 0.1722576827356759 0 0.091119054899049631 0.16530177332964191 0 0.097396137693701673 0.17812286200842919 0 0.084785387251344282 0.15373663266801121 0 0.076362031672063485 0.1722576827356759 0 0.091119054899049631 0.16530177332964191 0 0.10375742370438081 0.15723343922268929 0 0.097396137693701673 0.17812286200842919 0 0.12018786268376069 0.17480187339622599 0 0.091119054899049631 0.16530177332964191 0 0.10375742370438081 0.15723343922268929 0 0.097396137693701673 0.17812286200842919 0 0.1079663975725943 0.19628520074313249 0 0.097396137693701673 0.17812286200842919 0 0.12018786268376069 0.17480187339622599 0 0.10375742370438081 0.15723343922268929 0 0.12018786268376069 0.17480187339622599 0 0.11923029592746499 0.15033757135387951 0 0.10375742370438081 0.15723343922268929 0 0.11923029592746499 0.15033757135387951 0 0.093208742830624858 0.1352155826003463 0 0.10375742370438081 0.15723343922268929 0 0.11923029592746499 0.15033757135387951 0 0.093208742830624858 0.1352155826003463 0 0.11923029592746499 0.15033757135387951 0 0.084785387251344282 0.15373663266801121 0 0.093208742830624858 0.1352155826003463 0 0.10375742370438081 0.15723343922268929 0 0.093208742830624858 0.1352155826003463 0 0.11923029592746499 0.15033757135387951 0 0.1081808009031658 0.13408964873778501 0 0.10001260787420101 0.1202554252213249 0 0.093208742830624858 0.1352155826003463 0 0.10001260787420101 0.1202554252213249 0 0.088728232934725482 0.1234180411018468 0 0.093208742830624858 0.1352155826003463 0 0.10001260787420101 0.1202554252213249 0 0.093208742830624858 0.1352155826003463 0 0.1081808009031658 0.13408964873778501 0 0.11923029592746499 0.15033757135387951 0 0.1081808009031658 0.13408964873778501 0 0.1202715569803728 0.1305500157755918 0 0.10001260787420101 0.1202554252213249 0 0.1202715569803728 0.1305500157755918 0 0.10001260787420101 0.1202554252213249 0 0.1081808009031658 0.13408964873778501 0 0.1202715569803728 0.1305500157755918 0 0.1202715569803728 0.1305500157755918 0 0.14053050608654591 0.14084460632985649 0 0.12532407705565429 0.12651291283451899 0 0.1485987840867446 0.13724877885735659 0 0.14778422405409941 0.1200572911566926 0 0.1202715569803728 0.1305500157755918 0 0.12532407705565429 0.12651291283451899 0 0.14053050608654591 0.14084460632985649 0 0.12532407705565429 0.12651291283451899 0 0.1485987840867446 0.13724877885735659 0 0.14053050608654591 0.14084460632985649 0 0.11923029592746499 0.15033757135387951 0 0.1202715569803728 0.1305500157755918 0 0.14053050608654591 0.14084460632985649 0 0.12532407705565429 0.12651291283451899 0 0.1485987840867446 0.13724877885735659 0 0.1485987840867446 0.13724877885735659 0 0.1693041950107167 0.1280209008110165 0 0.14778422405409941 0.1200572911566926 0 0.1485987840867446 0.13724877885735659 0 0.14053050608654591 0.14084460632985649 0 0.15567509236607949 0.1485403320086453 0 0.14418134198094601 0.15240959034439741 0 0.15385967101393949 0.15655911475965761 0 0.1485987840867446 0.13724877885735659 0 0.15567509236607949 0.1485403320086453 0 0.14053050608654591 0.14084460632985649 0 0.15567509236607949 0.1485403320086453 0 0.14053050608654591 0.14084460632985649 0 0.15567509236607949 0.1485403320086453 0 0.14418134198094601 0.15240959034439741 0 0.14053050608654591 0.14084460632985649 0 0.11923029592746499 0.15033757135387951 0 0.14418134198094601 0.15240959034439741 0 0.14364408243704629 0.16452523354511239 0 0.11923029592746499 0.15033757135387951 0 0.14053050608654591 0.14084460632985649 0 0.11923029592746499 0.15033757135387951 0 0.14418134198094601 0.15240959034439741 0 0.14053050608654591 0.14084460632985649 0 0.12018786268376069 0.17480187339622599 0 0.11923029592746499 0.15033757135387951 0 0.14364408243704629 0.16452523354511239 0 0.11923029592746499 0.15033757135387951 0 0.14364408243704629 0.16452523354511239 0 0.12018786268376069 0.17480187339622599 0 0.1432567069679701 0.18510845942500451 0 0.14364408243704629 0.16452523354511239 0 0.12018786268376069 0.17480187339622599 0 0.1432567069679701 0.18510845942500451 0 0.1256790613578205 0.19456737876663921 0 0.1432567069679701 0.18510845942500451 0 0.14364408243704629 0.16452523354511239 0 0.16805786894662961 0.178712895736342 0 0.14364408243704629 0.16452523354511239 0 0.15385967101393949 0.15655911475965761 0 0.16428356389809021 0.1626346464006832 0 0.14364408243704629 0.16452523354511239 0 0.16805786894662961 0.178712895736342 0 0.14418134198094601 0.15240959034439741 0 0.14364408243704629 0.16452523354511239 0 0.15385967101393949 0.15655911475965761 0 0.14364408243704629 0.16452523354511239 0 0.16428356389809021 0.1626346464006832 0 0.16805786894662961 0.178712895736342 0 0.15385967101393949 0.15655911475965761 0 0.16428356389809021 0.1626346464006832 0 0.16151427438753529 0.1546857714994497 0 0.16428356389809021 0.1626346464006832 0 0.16805786894662961 0.178712895736342 0 0.17862598545672281 0.1607831837711097 0 0.16428356389809021 0.1626346464006832 0 0.17862598545672281 0.1607831837711097 0 0.16890420443593471 0.15382998529937331 0 0.16428356389809021 0.1626346464006832 0 0.16151427438753529 0.1546857714994497 0 0.16890420443593471 0.15382998529937331 0 0.1432567069679701 0.18510845942500451 0 0.16805786894662961 0.178712895736342 0 0.15938016315480519 0.19509295521855419 0 0.16805786894662961 0.178712895736342 0 0.19247165545621289 0.19290055792757169 0 0.19692186442139961 0.17248994205979129 0 0.16805786894662961 0.178712895736342 0 0.19247165545621289 0.19290055792757169 0 0.16805786894662961 0.178712895736342 0 0.17862598545672281 0.1607831837711097 0 0.19692186442139961 0.17248994205979129 0 0.17862598545672281 0.1607831837711097 0 0.1777863351820119 0.14884120606595461 0 0.19403004866561829 0.15002527330455359 0 0.1777863351820119 0.14884120606595461 0 0.1791058667746841 0.1369586492912617 0 0.19403004866561829 0.15002527330455359 0 0.17862598545672281 0.1607831837711097 0 0.1777863351820119 0.14884120606595461 0 0.16890420443593471 0.15382998529937331 0 0.1791058667746841 0.1369586492912617 0 0.16707350063953449 0.1463566940332082 0 0.1777863351820119 0.14884120606595461 0 0.1791058667746841 0.1369586492912617 0 0.16707350063953449 0.1463566940332082 0 0.1791058667746841 0.1369586492912617 0 0.1693041950107167 0.1280209008110165 0 0.1911382329098345 0.1275606045493162 0 0.1791058667746841 0.1369586492912617 0 0.1911382329098345 0.1275606045493162 0 0.1791058667746841 0.1369586492912617 0 0.16703210457882539 0.13824851916792741 0 0.16707350063953449 0.1463566940332082 0 0.1485987840867446 0.13724877885735659 0 0.16703210457882539 0.13824851916792741 0 0.1693041950107167 0.1280209008110165 0 0.1485987840867446 0.13724877885735659 0 0.16703210457882539 0.13824851916792741 0 0.1651887789857423 0.1449012043988411 0 0.1791058667746841 0.1369586492912617 0 0.16703210457882539 0.13824851916792741 0 0.1693041950107167 0.1280209008110165 0 0.1485987840867446 0.13724877885735659 0 0.1693041950107167 0.1280209008110165 0 0.15567509236607949 0.1485403320086453 0 0.16414156705171351 0.1496784100258344 0 0.1651887789857423 0.1449012043988411 0 0.1485987840867446 0.13724877885735659 0 0.1651887789857423 0.1449012043988411 0 0.1485987840867446 0.13724877885735659 0 0.15567509236607949 0.1485403320086453 0 0.1651887789857423 0.1449012043988411 0 0.15567509236607949 0.1485403320086453 0 0.16151427438753529 0.1546857714994497 0 0.16414156705171351 0.1496784100258344 0 0.15567509236607949 0.1485403320086453 0 0.15385967101393949 0.15655911475965761 0 0.16151427438753529 0.1546857714994497 0 0.16414156705171351 0.1496784100258344 0 0.16890420443593471 0.15382998529937331 0 0.16707350063953449 0.1463566940332082 0 0.1777863351820119 0.14884120606595461 0 0.16890420443593471 0.15382998529937331 0 0.16707350063953449 0.1463566940332082 0 0.16151427438753529 0.1546857714994497 0 0.16414156705171351 0.1496784100258344 0 0.16890420443593471 0.15382998529937331 0 0.16703210457882539 0.13824851916792741 0 0.16707350063953449 0.1463566940332082 0 0.1651887789857423 0.1449012043988411 0 0.16414156705171351 0.1496784100258344 0 0.16707350063953449 0.1463566940332082 0 0.1651887789857423 0.1449012043988411 0 0.1380396634466351 0.24024876031326919 0 0.15789362260467041 0.23593912242974599 0 0.14985317479105889 0.25641055026691512 0 0.1172255882914653 0.240359016139747 0 0.1380396634466351 0.24024876031326919 0 0.12850052128049691 0.22816313454829451 0 0.1172255882914653 0.240359016139747 0 0.1380396634466351 0.24024876031326919 0 0.12954986313609879 0.25966003259786019 0 0.1380396634466351 0.24024876031326919 0 0.12850052128049691 0.22816313454829451 0 0.14677959469473079 0.22420447983408379 0 0.1380396634466351 0.24024876031326919 0 0.14677959469473079 0.22420447983408379 0 0.15789362260467041 0.23593912242974599 0 0.14677959469473079 0.22420447983408379 0 0.14259120322775831 0.20295041988715309 0 0.1668729629140934 0.21372096199195581 0 0.11467576576267249 0.21506550688823739 0 0.1256790613578205 0.19456737876663921 0 0.14259120322775831 0.20295041988715309 0 0.12850052128049691 0.22816313454829451 0 0.14677959469473079 0.22420447983408379 0 0.14259120322775831 0.20295041988715309 0 0.11467576576267249 0.21506550688823739 0 0.12850052128049691 0.22816313454829451 0 0.14259120322775831 0.20295041988715309 0 0.1432567069679701 0.18510845942500451 0 0.1256790613578205 0.19456737876663921 0 0.14259120322775831 0.20295041988715309 0 0.1432567069679701 0.18510845942500451 0 0.14259120322775831 0.20295041988715309 0 0.15938016315480519 0.19509295521855419 0 0.16805786894662961 0.178712895736342 0 0.15938016315480519 0.19509295521855419 0 0.19247165545621289 0.19290055792757169 0 0.15938016315480519 0.19509295521855419 0 0.1668729629140934 0.21372096199195581 0 0.19247165545621289 0.19290055792757169 0 0.1668729629140934 0.21372096199195581 0 0.19367076920468329 0.21780787625795731 0 0.19247165545621289 0.19290055792757169 0 0.14259120322775831 0.20295041988715309 0 0.15938016315480519 0.19509295521855419 0 0.1668729629140934 0.21372096199195581 0 0.1668729629140934 0.21372096199195581 0 0.17798126184684721 0.23334105661034699 0 0.15789362260467041 0.23593912242974599 0 0.14677959469473079 0.22420447983408379 0 0.1668729629140934 0.21372096199195581 0 0.15789362260467041 0.23593912242974599 0 0.1668729629140934 0.21372096199195581 0 0.17798126184684721 0.23334105661034699 0 0.19367076920468329 0.21780787625795731 0 0.17798126184684721 0.23334105661034699 0 0.19631113481602469 0.24161166483964239 0 0.1751578196947641 0.25762565753243361 0 0.17798126184684721 0.23334105661034699 0 0.15789362260467041 0.23593912242974599 0 0.1751578196947641 0.25762565753243361 0 0.15789362260467041 0.23593912242974599 0 0.14985317479105889 0.25641055026691512 0 0.1751578196947641 0.25762565753243361 0 0.19631113481602469 0.24161166483964239 0 0.2194422312111613 0.23258133671058789 0 0.21922140051195271 0.25973847567324782 0 0.17798126184684721 0.23334105661034699 0 0.19631113481602469 0.24161166483964239 0 0.19367076920468329 0.21780787625795731 0 0.21688544196579629 0.2070882201188014 0 0.19367076920468329 0.21780787625795731 0 0.2194422312111613 0.23258133671058789 0 0.19631113481602469 0.24161166483964239 0 0.19367076920468329 0.21780787625795731 0 0.2194422312111613 0.23258133671058789 0 0.21688544196579629 0.2070882201188014 0 0.19367076920468329 0.21780787625795731 0 0.19247165545621289 0.19290055792757169 0 0.21688544196579629 0.2070882201188014 0 0.19247165545621289 0.19290055792757169 0 0.21688544196579629 0.2070882201188014 0 0.19247165545621289 0.19290055792757169 0 0.21439563653319621 0.1811185543715122 0 0.21688544196579629 0.2070882201188014 0 0.230384311991505 0.19011006447239229 0 0.21439563653319621 0.1811185543715122 0 0.21688544196579629 0.2070882201188014 0 0.230384311991505 0.19011006447239229 0 0.2421304067638739 0.2033168939570765 0 0.2421304067638739 0.2033168939570765 0 0.24296158505236981 0.18535790560412049 0 0.230384311991505 0.19011006447239229 0 0.2421304067638739 0.2033168939570765 0 0.24296158505236981 0.18535790560412049 0 0.2421304067638739 0.2033168939570765 0 0.24296158505236981 0.18535790560412049 0 0.25516797988164652 0.19677723396004301 0 0.2421304067638739 0.2033168939570765 0 0.2412992284753788 0.22127588231003251 0 0.25972824514266152 0.21313008597689859 0 0.2421304067638739 0.2033168939570765 0 0.2412992284753788 0.22127588231003251 0 0.21688544196579629 0.2070882201188014 0 0.2412992284753788 0.22127588231003251 0 0.21688544196579629 0.2070882201188014 0 0.2421304067638739 0.2033168939570765 0 0.2412992284753788 0.22127588231003251 0 0.21688544196579629 0.2070882201188014 0 0.2194422312111613 0.23258133671058789 0 0.2412992284753788 0.22127588231003251 0 0.2194422312111613 0.23258133671058789 0 0.2412992284753788 0.22127588231003251 0 0.2401615503470183 0.2458573091102893 0 0.2412992284753788 0.22127588231003251 0 0.2401615503470183 0.2458573091102893 0 0.26286204550881048 0.23380675144995419 0 0.2412992284753788 0.22127588231003251 0 0.2401615503470183 0.2458573091102893 0 0.2194422312111613 0.23258133671058789 0 0.2401615503470183 0.2458573091102893 0 0.21922140051195271 0.25973847567324782 0 0.21084192174534019 0.1418589082859032 0 0.2084325260884517 0.1615720397530096 0 0.22239494097946061 0.15144630142208221 0 0.21084192174534019 0.1418589082859032 0 0.19403004866561829 0.15002527330455359 0 0.2084325260884517 0.1615720397530096 0 0.21084192174534019 0.1418589082859032 0 0.21574373035682529 0.12509643088899869 0 0.20334256149634311 0.1322614040574642 0 0.21084192174534019 0.1418589082859032 0 0.21574373035682529 0.12509643088899869 0 0.22535993337429511 0.1363728779493312 0 0.20334256149634311 0.1322614040574642 0 0.1911382329098345 0.1275606045493162 0 0.19403004866561829 0.15002527330455359 0 0.1791058667746841 0.1369586492912617 0 0.1911382329098345 0.1275606045493162 0 0.19403004866561829 0.15002527330455359 0 0.1911382329098345 0.1275606045493162 0 0.19403004866561829 0.15002527330455359 0 0.20334256149634311 0.1322614040574642 0 0.1911382329098345 0.1275606045493162 0 0.2049588738040978 0.1167658032585502 0 0.21084192174534019 0.1418589082859032 0 0.20334256149634311 0.1322614040574642 0 0.19403004866561829 0.15002527330455359 0 0.19403004866561829 0.15002527330455359 0 0.19692186442139961 0.17248994205979129 0 0.19403004866561829 0.15002527330455359 0 0.19692186442139961 0.17248994205979129 0 0.2084325260884517 0.1615720397530096 0 0.17862598545672281 0.1607831837711097 0 0.19403004866561829 0.15002527330455359 0 0.19692186442139961 0.17248994205979129 0 0.19247165545621289 0.19290055792757169 0 0.19692186442139961 0.17248994205979129 0 0.21439563653319621 0.1811185543715122 0 0.21439563653319621 0.1811185543715122 0 0.2084325260884517 0.1615720397530096 0 0.22227626998422881 0.16643539740272839 0 0.19692186442139961 0.17248994205979129 0 0.21439563653319621 0.1811185543715122 0 0.2084325260884517 0.1615720397530096 0 0.2084325260884517 0.1615720397530096 0 0.22227626998422881 0.16643539740272839 0 0.22239494097946061 0.15144630142208221 0 0.22227626998422881 0.16643539740272839 0 0.23232634337123659 0.1599549702032533 0 0.22239494097946061 0.15144630142208221 0 0.22227626998422881 0.16643539740272839 0 0.23232634337123659 0.1599549702032533 0 0.23399268864119549 0.1739628288570132 0 0.230384311991505 0.19011006447239229 0 0.21439563653319621 0.1811185543715122 0 0.23399268864119549 0.1739628288570132 0 0.21439563653319621 0.1811185543715122 0 0.22227626998422881 0.16643539740272839 0 0.23399268864119549 0.1739628288570132 0 0.24296158505236981 0.18535790560412049 0 0.245332083239199 0.16387733992730119 0 0.2586352776645402 0.18376471114627199 0 0.23399268864119549 0.1739628288570132 0 0.24296158505236981 0.18535790560412049 0 0.245332083239199 0.16387733992730119 0 0.230384311991505 0.19011006447239229 0 0.23399268864119549 0.1739628288570132 0 0.24296158505236981 0.18535790560412049 0 0.23232634337123659 0.1599549702032533 0 0.23399268864119549 0.1739628288570132 0 0.245332083239199 0.16387733992730119 0 0.23232634337123659 0.1599549702032533 0 0.245332083239199 0.16387733992730119 0 0.23607993301100641 0.14434706395370389 0 0.245332083239199 0.16387733992730119 0 0.23607993301100641 0.14434706395370389 0 0.25126119266682923 0.14355190786909219 0 0.23232634337123659 0.1599549702032533 0 0.23607993301100641 0.14434706395370389 0 0.22239494097946061 0.15144630142208221 0 0.23607993301100641 0.14434706395370389 0 0.22239494097946061 0.15144630142208221 0 0.22535993337429511 0.1363728779493312 0 0.21084192174534019 0.1418589082859032 0 0.22239494097946061 0.15144630142208221 0 0.22535993337429511 0.1363728779493312 0 0.21574373035682529 0.12509643088899869 0 0.22535993337429511 0.1363728779493312 0 0.23027938041756979 0.12297410344580351 0 0.23607993301100641 0.14434706395370389 0 0.22535993337429511 0.1363728779493312 0 0.2395889632723294 0.13253728848937851 0 0.22535993337429511 0.1363728779493312 0 0.2395889632723294 0.13253728848937851 0 0.23027938041756979 0.12297410344580351 0 0.23607993301100641 0.14434706395370389 0 0.2395889632723294 0.13253728848937851 0 0.25126119266682923 0.14355190786909219 0 0.2395889632723294 0.13253728848937851 0 0.25025677146151371 0.12896077062257741 0 0.25126119266682923 0.14355190786909219 0 0.2395889632723294 0.13253728848937851 0 0.24429656870276231 0.1190170070957627 0 0.25025677146151371 0.12896077062257741 0 0.24429656870276231 0.1190170070957627 0 0.23673036290680211 0.1106651557815095 0 0.25023704899119109 0.1052469062197824 0 0.2395889632723294 0.13253728848937851 0 0.24429656870276231 0.1190170070957627 0 0.23027938041756979 0.12297410344580351 0 0.24429656870276231 0.1190170070957627 0 0.23673036290680211 0.1106651557815095 0 0.23027938041756979 0.12297410344580351 0 0.2400432199128654 0.096494306274414576 0 0.25023704899119109 0.1052469062197824 0 0.23673036290680211 0.1106651557815095 0 0.2400432199128654 0.096494306274414576 0 0.25023704899119109 0.1052469062197824 0 0.23673036290680211 0.1106651557815095 0 0.2400432199128654 0.096494306274414576 0 0.21877951469836179 0.10597100196778519 0 0.2400432199128654 0.096494306274414576 0 0.21877951469836179 0.10597100196778519 0 0.2400432199128654 0.096494306274414576 0 0.23344973231042451 0.094512627119175796 0 0.21877951469836179 0.10597100196778519 0 0.23344973231042451 0.094512627119175796 0 0.21877951469836179 0.10597100196778519 0 0.2189498167239759 0.092178970198694338 0 0.23344973231042451 0.094512627119175796 0 0.21877951469836179 0.10597100196778519 0 0.23673036290680211 0.1106651557815095 0 0.21877951469836179 0.10597100196778519 0 0.23027938041756979 0.12297410344580351 0 0.21574373035682529 0.12509643088899869 0 0.21877951469836179 0.10597100196778519 0 0.23027938041756979 0.12297410344580351 0 0.21574373035682529 0.12509643088899869 0 0.21877951469836179 0.10597100196778519 0 0.2049588738040978 0.1167658032585502 0 0.21574373035682529 0.12509643088899869 0 0.20334256149634311 0.1322614040574642 0 0.2049588738040978 0.1167658032585502 0 0.21877951469836179 0.10597100196778519 0 0.2049588738040978 0.1167658032585502 0 0.20439456031652589 0.1123820123662321 0 0.21877951469836179 0.10597100196778519 0 0.2049588738040978 0.1167658032585502 0 0.21877951469836179 0.10597100196778519 0 0.20439456031652589 0.1123820123662321 0 0.21877951469836179 0.10597100196778519 0 0.20439456031652589 0.1123820123662321 0 0.20353231393762189 0.094781480956417641 0 0.21877951469836179 0.10597100196778519 0 0.20353231393762189 0.094781480956417641 0 0.2189498167239759 0.092178970198694338 0 0.187485411611028 0.099184170007879741 0 0.19000960593468971 0.1187930227646783 0 0.20439456031652589 0.1123820123662321 0 0.20353231393762189 0.094781480956417641 0 0.187485411611028 0.099184170007879741 0 0.20439456031652589 0.1123820123662321 0 0.187485411611028 0.099184170007879741 0 0.19000960593468971 0.1187930227646783 0 0.1911382329098345 0.1275606045493162 0 0.19000960593468971 0.1187930227646783 0 0.1911382329098345 0.1275606045493162 0 0.2049588738040978 0.1167658032585502 0 0.1911382329098345 0.1275606045493162 0 0.2049588738040978 0.1167658032585502 0 0.19000960593468971 0.1187930227646783 0 0.20439456031652589 0.1123820123662321 0 0.19000960593468971 0.1187930227646783 0 0.2049588738040978 0.1167658032585502 0 0.20439456031652589 0.1123820123662321 0 0.19000960593468971 0.1187930227646783 0 0.20143150960957279 0.063341616456445204 0 0.18496121728736661 0.079575317251081246 0 0.179529243056992 0.063854403030979917 0 0.20143150960957279 0.063341616456445204 0 0.20552808871173781 0.080303765584130271 0 0.18496121728736661 0.079575317251081246 0 0.20353231393762189 0.094781480956417641 0 0.20552808871173781 0.080303765584130271 0 0.18496121728736661 0.079575317251081246 0 0.20353231393762189 0.094781480956417641 0 0.187485411611028 0.099184170007879741 0 0.18496121728736661 0.079575317251081246 0 0.20353231393762189 0.094781480956417641 0 0.20552808871173781 0.080303765584130271 0 0.2189498167239759 0.092178970198694338 0 0.20552808871173781 0.080303765584130271 0 0.2189498167239759 0.092178970198694338 0 0.22073736476121891 0.079917961365430015 0 0.20143150960957279 0.063341616456445204 0 0.22073736476121891 0.079917961365430015 0 0.20143150960957279 0.063341616456445204 0 0.20552808871173781 0.080303765584130271 0 0.22073736476121891 0.079917961365430015 0 0.20143150960957279 0.063341616456445204 0 0.22073736476121891 0.079917961365430015 0 0.22146227083888501 0.055280219122894242 0 0.22073736476121891 0.079917961365430015 0 0.24236200917689829 0.071146248962842704 0 0.22146227083888501 0.055280219122894242 0 0.2400432199128654 0.096494306274414576 0 0.23344973231042451 0.094512627119175796 0 0.22073736476121891 0.079917961365430015 0 0.2400432199128654 0.096494306274414576 0 0.22073736476121891 0.079917961365430015 0 0.23344973231042451 0.094512627119175796 0 0.2189498167239759 0.092178970198694338 0 0.22073736476121891 0.079917961365430015 0 0.2400432199128654 0.096494306274414576 0 0.22073736476121891 0.079917961365430015 0 0.24236200917689829 0.071146248962842704 0 0.2400432199128654 0.096494306274414576 0 0.24236200917689829 0.071146248962842704 0 0.26301159695607512 0.086257881455061719 0 0.24236200917689829 0.071146248962842704 0 0.242793264139128 0.046571216962303708 0 0.22146227083888501 0.055280219122894242 0 0.242793264139128 0.046571216962303708 0 0.22519282482911679 0.037679600003528053 0 0.23825647195069499 0.02590580448818797 0 0.242793264139128 0.046571216962303708 0 0.23825647195069499 0.02590580448818797 0 0.25145097858043691 0.033250747220101663 0 0.242793264139128 0.046571216962303708 0 0.22519282482911679 0.037679600003528053 0 0.22146227083888501 0.055280219122894242 0 0.22519282482911679 0.037679600003528053 0 0.22146227083888501 0.055280219122894242 0 0.21262659764282321 0.04146782799736428 0 0.22519282482911679 0.037679600003528053 0 0.2210947953560248 0.025106256079717681 0 0.21214946999163881 0.031242496166102168 0 0.24919497150951991 0.0083708591586718235 0 0.23825647195069499 0.02590580448818797 0 0.22681017395631881 0.01128963505630334 0 0.24919497150951991 0.0083708591586718235 0 0.22681017395631881 0.01128963505630334 0 0.2437956037903577 0.0081593705510081757 0 0.24919497150951991 0.0083708591586718235 0 0.22681017395631881 0.01128963505630334 0 0.2437956037903577 0.0081593705510081757 0 0.24919497150951991 0.0083708591586718235 0 0.2443368381618172 -0.0014217291461706941 0 0.24919497150951991 0.0083708591586718235 0 0.23825647195069499 0.02590580448818797 0 0.25231904427849411 0.021983750114194719 0 0.23825647195069499 0.02590580448818797 0 0.25231904427849411 0.021983750114194719 0 0.25145097858043691 0.033250747220101663 0 0.23825647195069499 0.02590580448818797 0 0.2210947953560248 0.025106256079717681 0 0.22681017395631881 0.01128963505630334 0 0.22519282482911679 0.037679600003528053 0 0.23825647195069499 0.02590580448818797 0 0.2210947953560248 0.025106256079717681 0 0.2210947953560248 0.025106256079717681 0 0.22681017395631881 0.01128963505630334 0 0.21080218108549159 0.021237586048871122 0 0.2437956037903577 0.0081593705510081757 0 0.22681017395631881 0.01128963505630334 0 0.2238187354208786 -0.01032781909156914 0 0.22681017395631881 0.01128963505630334 0 0.20442634121126069 0.014215810300686631 0 0.21080218108549159 0.021237586048871122 0 0.22681017395631881 0.01128963505630334 0 0.2041377938698247 0.0071157717978486829 0 0.20442634121126069 0.014215810300686631 0 0.22681017395631881 0.01128963505630334 0 0.20442634121126069 0.014215810300686631 0 0.22681017395631881 0.01128963505630334 0 0.2041377938698247 0.0071157717978486829 0 0.2238187354208786 -0.01032781909156914 0 0.2041377938698247 0.0071157717978486829 0 0.20442634121126069 0.014215810300686631 0 0.21080218108549159 0.021237586048871122 0 0.2017802351407039 0.026665045772209631 0 0.20105427380801241 0.02006988834363594 0 0.20442634121126069 0.014215810300686631 0 0.21080218108549159 0.021237586048871122 0 0.20105427380801241 0.02006988834363594 0 0.2210947953560248 0.025106256079717681 0 0.21080218108549159 0.021237586048871122 0 0.21214946999163881 0.031242496166102168 0 0.21080218108549159 0.021237586048871122 0 0.21214946999163881 0.031242496166102168 0 0.2017802351407039 0.026665045772209631 0 0.21214946999163881 0.031242496166102168 0 0.2017802351407039 0.026665045772209631 0 0.2014001858956723 0.035298661094922273 0 0.2017802351407039 0.026665045772209631 0 0.1942365905127498 0.03047998427761096 0 0.2014001858956723 0.035298661094922273 0 0.2017802351407039 0.026665045772209631 0 0.19429398509653761 0.02368009568639259 0 0.20105427380801241 0.02006988834363594 0 0.2017802351407039 0.026665045772209631 0 0.1942365905127498 0.03047998427761096 0 0.19429398509653761 0.02368009568639259 0 0.1881222178597379 0.02581403966026246 0 0.19429398509653761 0.02368009568639259 0 0.18581884225355971 0.023352205237187441 0 0.1942365905127498 0.03047998427761096 0 0.1881222178597379 0.02581403966026246 0 0.18959641253537099 0.031962186398538213 0 0.1942365905127498 0.03047998427761096 0 0.1881222178597379 0.02581403966026246 0 0.19429398509653761 0.02368009568639259 0 0.19429398509653761 0.02368009568639259 0 0.1947054961292275 0.015475795758459591 0 0.18581884225355971 0.023352205237187441 0 0.1947054961292275 0.015475795758459591 0 0.18581884225355971 0.023352205237187441 0 0.19429398509653761 0.02368009568639259 0 0.20105427380801241 0.02006988834363594 0 0.1947054961292275 0.015475795758459591 0 0.20442634121126069 0.014215810300686631 0 0.20105427380801241 0.02006988834363594 0 0.1947054961292275 0.015475795758459591 0 0.20442634121126069 0.014215810300686631 0 0.1947054961292275 0.015475795758459591 0 0.2041377938698247 0.0071157717978486829 0 0.1947054961292275 0.015475795758459591 0 0.1947445826830477 0.0025945221424396271 0 0.2041377938698247 0.0071157717978486829 0 0.20442634121126069 0.014215810300686631 0 0.1947054961292275 0.015475795758459591 0 0.2041377938698247 0.0071157717978486829 0 0.1947054961292275 0.015475795758459591 0 0.1947054961292275 0.015475795758459591 0 0.1947445826830477 0.0025945221424396271 0 0.186432714383994 0.0070262045413187306 0 0.1947445826830477 0.0025945221424396271 0 0.186432714383994 0.0070262045413187306 0 0.18535099892293991 -0.0051935449981599657 0 0.22146227083888501 0.055280219122894242 0 0.21262659764282321 0.04146782799736428 0 0.20177369087734609 0.04665734712050338 0 0.20143150960957279 0.063341616456445204 0 0.22146227083888501 0.055280219122894242 0 0.20177369087734609 0.04665734712050338 0 0.22519282482911679 0.037679600003528053 0 0.21214946999163881 0.031242496166102168 0 0.21262659764282321 0.04146782799736428 0 0.21214946999163881 0.031242496166102168 0 0.21262659764282321 0.04146782799736428 0 0.2014001858956723 0.035298661094922273 0 0.21262659764282321 0.04146782799736428 0 0.20177369087734609 0.04665734712050338 0 0.2014001858956723 0.035298661094922273 0 0.20177369087734609 0.04665734712050338 0 0.2014001858956723 0.035298661094922273 0 0.1915959268191969 0.037790486503933927 0 0.20177369087734609 0.04665734712050338 0 0.1915959268191969 0.037790486503933927 0 0.18212565445792669 0.046765271547460373 0 0.1942365905127498 0.03047998427761096 0 0.2014001858956723 0.035298661094922273 0 0.1915959268191969 0.037790486503933927 0 0.1942365905127498 0.03047998427761096 0 0.1915959268191969 0.037790486503933927 0 0.18959641253537099 0.031962186398538213 0 0.1915959268191969 0.037790486503933927 0 0.18959641253537099 0.031962186398538213 0 0.1844309149497993 0.033764235152345487 0 0.20143150960957279 0.063341616456445204 0 0.18212565445792669 0.046765271547460373 0 0.179529243056992 0.063854403030979917 0 0.20143150960957279 0.063341616456445204 0 0.20177369087734609 0.04665734712050338 0 0.18212565445792669 0.046765271547460373 0 0.20143150960957279 0.063341616456445204 0 0.18212565445792669 0.046765271547460373 0 0.18212565445792669 0.046765271547460373 0 0.1582325005140863 0.056573861674522503 0 0.179529243056992 0.063854403030979917 0 0.1915959268191969 0.037790486503933927 0 0.18212565445792669 0.046765271547460373 0 0.1844309149497993 0.033764235152345487 0 0.1844309149497993 0.033764235152345487 0 0.17063590687791391 0.03689997330983083 0 0.18581884225355971 0.023352205237187441 0 0.18212565445792669 0.046765271547460373 0 0.17063590687791391 0.03689997330983083 0 0.18212565445792669 0.046765271547460373 0 0.1844309149497993 0.033764235152345487 0 0.17063590687791391 0.03689997330983083 0 0.18212565445792669 0.046765271547460373 0 0.17063590687791391 0.03689997330983083 0 0.1582325005140863 0.056573861674522503 0 0.17063590687791391 0.03689997330983083 0 0.1582325005140863 0.056573861674522503 0 0.16281979930628049 0.030188926638475541 0 0.17063590687791391 0.03689997330983083 0 0.16281979930628049 0.030188926638475541 0 0.17713446895202581 0.0027071555325514931 0 0.180216980166478 0.017364967687936349 0 0.1597115953628577 -0.004551068078293679 0 0.17713446895202581 0.0027071555325514931 0 0.186432714383994 0.0070262045413187306 0 0.18535099892293991 -0.0051935449981599657 0 0.17713446895202581 0.0027071555325514931 0 0.186432714383994 0.0070262045413187306 0 0.180216980166478 0.017364967687936349 0 0.1947054961292275 0.015475795758459591 0 0.186432714383994 0.0070262045413187306 0 0.180216980166478 0.017364967687936349 0 0.180216980166478 0.017364967687936349 0 0.17310890739457749 0.025336066402616531 0 0.16572663112149269 0.019254378634819089 0 0.180216980166478 0.017364967687936349 0 0.16572663112149269 0.019254378634819089 0 0.1947054961292275 0.015475795758459591 0 0.180216980166478 0.017364967687936349 0 0.18581884225355971 0.023352205237187441 0 0.180216980166478 0.017364967687936349 0 0.18581884225355971 0.023352205237187441 0 0.17310890739457749 0.025336066402616531 0 0.1947054961292275 0.015475795758459591 0 0.180216980166478 0.017364967687936349 0 0.180216980166478 0.017364967687936349 0 0.18581884225355971 0.023352205237187441 0 0.1881222178597379 0.02581403966026246 0 0.1844309149497993 0.033764235152345487 0 0.18581884225355971 0.023352205237187441 0 0.1881222178597379 0.02581403966026246 0 0.18959641253537099 0.031962186398538213 0 0.1844309149497993 0.033764235152345487 0 0.1881222178597379 0.02581403966026246 0 0.18581884225355971 0.023352205237187441 0 0.17063590687791391 0.03689997330983083 0 0.18581884225355971 0.023352205237187441 0 0.17310890739457749 0.025336066402616531 0 0.17063590687791391 0.03689997330983083 0 0.18581884225355971 0.023352205237187441 0 0.16281979930628049 0.030188926638475541 0 0.16572663112149269 0.019254378634819089 0 0.14351394415463439 0.01361258172949073 0 0.17310890739457749 0.025336066402616531 0 0.16281979930628049 0.030188926638475541 0 0.16572663112149269 0.019254378634819089 0 0.17063590687791391 0.03689997330983083 0 0.17310890739457749 0.025336066402616531 0 0.16281979930628049 0.030188926638475541 0 0.16572663112149269 0.019254378634819089 0 0.15185178981994291 0.0051732104260197066 0 0.1597115953628577 -0.004551068078293679 0 0.180216980166478 0.017364967687936349 0 0.1597115953628577 -0.004551068078293679 0 0.180216980166478 0.017364967687936349 0 0.16572663112149269 0.019254378634819089 0 0.1597115953628577 -0.004551068078293679 0 0.16572663112149269 0.019254378634819089 0 0.15185178981994291 0.0051732104260197066 0 0.14351394415463439 0.01361258172949073 0 0.15185178981994291 0.0051732104260197066 0 0.14351394415463439 0.01361258172949073 0 0.1384549886407869 -0.0076230505819373006 0 0.16281979930628049 0.030188926638475541 0 0.14351394415463439 0.01361258172949073 0 0.1400225675035067 0.03855476684627563 0 0.16281979930628049 0.030188926638475541 0 0.14351394415463439 0.01361258172949073 0 0.11958777769478759 0.018563325633784111 0 0.14351394415463439 0.01361258172949073 0 0.12756671846366541 0.03035088117771842 0 0.14351394415463439 0.01361258172949073 0 0.12756671846366541 0.03035088117771842 0 0.1400225675035067 0.03855476684627563 0 0.11958777769478759 0.018563325633784111 0 0.14351394415463439 0.01361258172949073 0 0.12420808900298839 -0.002963763179494149 0 0.14351394415463439 0.01361258172949073 0 0.12420808900298839 -0.002963763179494149 0 0.14351394415463439 0.01361258172949073 0 0.12420808900298839 -0.002963763179494149 0 0.1384549886407869 -0.0076230505819373006 0 0.1582325005140863 0.056573861674522503 0 0.1400225675035067 0.03855476684627563 0 0.13209279743577931 0.061594098807270473 0 0.1582325005140863 0.056573861674522503 0 0.16281979930628049 0.030188926638475541 0 0.1400225675035067 0.03855476684627563 0 0.1163576027375398 0.039123890133197808 0 0.1400225675035067 0.03855476684627563 0 0.13209279743577931 0.061594098807270473 0 0.1163576027375398 0.039123890133197808 0 0.12756671846366541 0.03035088117771842 0 0.1400225675035067 0.03855476684627563 0 0.13209279743577931 0.061594098807270473 0 0.14782799213401879 0.084064307481343165 0 0.11654826128624179 0.083897270580498076 0 0.14782799213401879 0.084064307481343165 0 0.1321308772851239 0.1019693471251534 0 0.11654826128624179 0.083897270580498076 0 0.13209279743577931 0.061594098807270473 0 0.14782799213401879 0.084064307481343165 0 0.1582325005140863 0.056573861674522503 0 0.13209279743577931 0.061594098807270473 0 0.14782799213401879 0.084064307481343165 0 0.14782799213401879 0.084064307481343165 0 0.1321308772851239 0.1019693471251534 0 0.1635631868322581 0.1065345161554157 0 0.1321308772851239 0.1019693471251534 0 0.14778422405409941 0.1200572911566926 0 0.1635631868322581 0.1065345161554157 0 0.12532407705565429 0.12651291283451899 0 0.1321308772851239 0.1019693471251534 0 0.14778422405409941 0.1200572911566926 0 0.14782799213401879 0.084064307481343165 0 0.1635631868322581 0.1065345161554157 0 0.14782799213401879 0.084064307481343165 0 0.1635631868322581 0.1065345161554157 0 0.17194721478388711 0.091217467140699587 0 0.1635631868322581 0.1065345161554157 0 0.17783903473979121 0.11039281460218379 0 0.17194721478388711 0.091217467140699587 0 0.1693041950107167 0.1280209008110165 0 0.14778422405409941 0.1200572911566926 0 0.1635631868322581 0.1065345161554157 0 0.1693041950107167 0.1280209008110165 0 0.1635631868322581 0.1065345161554157 0 0.17783903473979121 0.11039281460218379 0 0.1693041950107167 0.1280209008110165 0 0.19000960593468971 0.1187930227646783 0 0.187485411611028 0.099184170007879741 0 0.19000960593468971 0.1187930227646783 0 0.17783903473979121 0.11039281460218379 0 0.1693041950107167 0.1280209008110165 0 0.19000960593468971 0.1187930227646783 0 0.17783903473979121 0.11039281460218379 0 0.1693041950107167 0.1280209008110165 0 0.1911382329098345 0.1275606045493162 0 0.19000960593468971 0.1187930227646783 0 0.187485411611028 0.099184170007879741 0 0.17783903473979121 0.11039281460218379 0 0.17194721478388711 0.091217467140699587 0 0.17194721478388711 0.091217467140699587 0 0.18496121728736661 0.079575317251081246 0 0.16803189759023829 0.073937791844077755 0 0.187485411611028 0.099184170007879741 0 0.17194721478388711 0.091217467140699587 0 0.18496121728736661 0.079575317251081246 0 0.187485411611028 0.099184170007879741 0 0.18496121728736661 0.079575317251081246 0 0.18496121728736661 0.079575317251081246 0 0.179529243056992 0.063854403030979917 0 0.16803189759023829 0.073937791844077755 0 0.1582325005140863 0.056573861674522503 0 0.14782799213401879 0.084064307481343165 0 0.16803189759023829 0.073937791844077755 0 0.1582325005140863 0.056573861674522503 0 0.179529243056992 0.063854403030979917 0 0.16803189759023829 0.073937791844077755 0 0.14782799213401879 0.084064307481343165 0 0.17194721478388711 0.091217467140699587 0 0.16803189759023829 0.073937791844077755 0 0.10074152611426709 0.48473563909564488 0 0.094710535320039729 0.49534829719987478 0 0.089212923375540043 0.47317073633820511 0 0.1041214538396991 0.47063826165398259 0 0.10074152611426709 0.48473563909564488 0 0.1181521448807476 0.47910587189452208 0 0.1041214538396991 0.47063826165398259 0 0.10074152611426709 0.48473563909564488 0 0.089212923375540043 0.47317073633820511 0 0.10074152611426709 0.48473563909564488 0 0.089212923375540043 0.47317073633820511 0 0.094962145043601509 0.5 0 0.1122701288529946 0.49630054185308431 0 0.1159579751080806 0.500000000000004 0 0.10074152611426709 0.48473563909564488 0 0.094710535320039729 0.49534829719987478 0 0.1122701288529946 0.49630054185308431 0 0.094962145043601509 0.5 0 0.094710535320039729 0.49534829719987478 0 0.1122701288529946 0.49630054185308431 0 0.094710535320039729 0.49534829719987478 0 0.1122701288529946 0.49630054185308431 0 0.10074152611426709 0.48473563909564488 0 0.1122701288529946 0.49630054185308431 0 0.1122701288529946 0.49630054185308431 0 0.1181521448807476 0.47910587189452208 0 0.13354287728216829 0.49745414833678719 0 0.10074152611426709 0.48473563909564488 0 0.1122701288529946 0.49630054185308431 0 0.1181521448807476 0.47910587189452208 0 0.1122701288529946 0.49630054185308431 0 0.1159579751080806 0.500000000000004 0 0.13354287728216829 0.49745414833678719 0 0.1122701288529946 0.49630054185308431 0 0.13354287728216829 0.49745414833678719 0 0.1122701288529946 0.49630054185308431 0 0.1159579751080806 0.500000000000004 0 0.1041214538396991 0.47063826165398259 0 0.1181521448807476 0.47910587189452208 0 0.1145189907573687 0.45843860172183282 0 0.1145189907573687 0.45843860172183282 0 0.1268369380096746 0.44485403652946842 0 0.13203429693280841 0.46485456583424678 0 0.1181521448807476 0.47910587189452208 0 0.1145189907573687 0.45843860172183282 0 0.13203429693280841 0.46485456583424678 0 0.1145189907573687 0.45843860172183282 0 0.1067504447656009 0.44231018210120582 0 0.1268369380096746 0.44485403652946842 0 0.1145189907573687 0.45843860172183282 0 0.1067504447656009 0.44231018210120582 0 0.097981684070573297 0.45774045921970707 0 0.1067504447656009 0.44231018210120582 0 0.097981684070573297 0.45774045921970707 0 0.1067504447656009 0.44231018210120582 0 0.097981684070573297 0.45774045921970707 0 0.091252082873025414 0.44911161823872131 0 0.1067504447656009 0.44231018210120582 0 0.091252082873025414 0.44911161823872131 0 0.093211119126496073 0.43513101814704869 0 0.1041214538396991 0.47063826165398259 0 0.1145189907573687 0.45843860172183282 0 0.097981684070573297 0.45774045921970707 0 0.1041214538396991 0.47063826165398259 0 0.097981684070573297 0.45774045921970707 0 0.089212923375540043 0.47317073633820511 0 0.097981684070573297 0.45774045921970707 0 0.089212923375540043 0.47317073633820511 0 0.087474718394838641 0.46117945267477678 0 0.079907136741490414 0.45489790326079421 0 0.071454990992377065 0.45535688969618943 0 0.087474718394838641 0.46117945267477678 0 0.071454990992377065 0.45535688969618943 0 0.089212923375540043 0.47317073633820511 0 0.071454990992377065 0.45535688969618943 0 0.089212923375540043 0.47317073633820511 0 0.097981684070573297 0.45774045921970707 0 0.087474718394838641 0.46117945267477678 0 0.089212923375540043 0.47317073633820511 0 0.097981684070573297 0.45774045921970707 0 0.087474718394838641 0.46117945267477678 0 0.091252082873025414 0.44911161823872131 0 0.087474718394838641 0.46117945267477678 0 0.079907136741490414 0.45489790326079421 0 0.091252082873025414 0.44911161823872131 0 0.091252082873025414 0.44911161823872131 0 0.081654963542222819 0.44231133756621999 0 0.093211119126496073 0.43513101814704869 0 0.079907136741490414 0.45489790326079421 0 0.091252082873025414 0.44911161823872131 0 0.081654963542222819 0.44231133756621999 0 0.081654963542222819 0.44231133756621999 0 0.071325881730069873 0.44567706267011808 0 0.063081548685676073 0.43142091244588798 0 0.079907136741490414 0.45489790326079421 0 0.071325881730069873 0.44567706267011808 0 0.071454990992377065 0.45535688969618943 0 0.079907136741490414 0.45489790326079421 0 0.081654963542222819 0.44231133756621999 0 0.071325881730069873 0.44567706267011808 0 0.071454990992377065 0.45535688969618943 0 0.06053076868858305 0.44439827038149959 0 0.071454990992377065 0.45535688969618943 0 0.055839364873215183 0.45620488271259529 0 0.06053076868858305 0.44439827038149959 0 0.071325881730069873 0.44567706267011808 0 0.071454990992377065 0.45535688969618943 0 0.06053076868858305 0.44439827038149959 0 0.071325881730069873 0.44567706267011808 0 0.06053076868858305 0.44439827038149959 0 0.063081548685676073 0.43142091244588798 0 0.071454990992377065 0.45535688969618943 0 0.067786176320652494 0.46878053199386682 0 0.089212923375540043 0.47317073633820511 0 0.079907136741490414 0.45489790326079421 0 0.071454990992377065 0.45535688969618943 0 0.071454990992377065 0.45535688969618943 0 0.067786176320652494 0.46878053199386682 0 0.055839364873215183 0.45620488271259529 0 0.071454990992377065 0.45535688969618943 0 0.055839364873215183 0.45620488271259529 0 0.067786176320652494 0.46878053199386682 0 0.063506183659477022 0.47773244738796838 0 0.075188830376506796 0.48052306335420197 0 0.067786176320652494 0.46878053199386682 0 0.075188830376506796 0.48052306335420197 0 0.089212923375540043 0.47317073633820511 0 0.063506183659477022 0.47773244738796838 0 0.075188830376506796 0.48052306335420197 0 0.070537868371486553 0.48735856372700997 0 0.075188830376506796 0.48052306335420197 0 0.089212923375540043 0.47317073633820511 0 0.077150941787085051 0.4943960525466623 0 0.089212923375540043 0.47317073633820511 0 0.077150941787085051 0.4943960525466623 0 0.094710535320039729 0.49534829719987478 0 0.077150941787085051 0.4943960525466623 0 0.094962145043601509 0.5 0 0.094710535320039729 0.49534829719987478 0 0.077150941787085051 0.4943960525466623 0 0.094962145043601509 0.5 0 0.077150941787085051 0.4943960525466623 0 0.073966314979122372 0.50000000000000178 0 0.094710535320039729 0.49534829719987478 0 0.089212923375540043 0.47317073633820511 0 0.077150941787085051 0.4943960525466623 0 0.077150941787085051 0.4943960525466623 0 0.074494688974149015 0.49425200578761191 0 0.073966314979122372 0.50000000000000178 0 0.073966314979122372 0.50000000000000178 0 0.054274455960656942 0.5 0 0.062348697060215487 0.48988924955860591 0 0.077150941787085051 0.4943960525466623 0 0.073966314979122372 0.50000000000000178 0 0.077150941787085051 0.4943960525466623 0 0.074494688974149015 0.49425200578761191 0 0.075188830376506796 0.48052306335420197 0 0.077150941787085051 0.4943960525466623 0 0.070537868371486553 0.48735856372700997 0 0.077150941787085051 0.4943960525466623 0 0.074494688974149015 0.49425200578761191 0 0.070537868371486553 0.48735856372700997 0 0.063506183659477022 0.47773244738796838 0 0.070537868371486553 0.48735856372700997 0 0.062348697060215487 0.48988924955860591 0 0.074494688974149015 0.49425200578761191 0 0.070537868371486553 0.48735856372700997 0 0.062348697060215487 0.48988924955860591 0 0.074494688974149015 0.49425200578761191 0 0.073966314979122372 0.50000000000000178 0 0.062348697060215487 0.48988924955860591 0 0.062348697060215487 0.48988924955860591 0 0.052801595697150809 0.48093842282535171 0 0.046214806336390128 0.48988881486989061 0 0.054274455960656942 0.5 0 0.062348697060215487 0.48988924955860591 0 0.046214806336390128 0.48988881486989061 0 0.067786176320652494 0.46878053199386682 0 0.063506183659477022 0.47773244738796838 0 0.051514764646800132 0.46969517247403908 0 0.063506183659477022 0.47773244738796838 0 0.052801595697150809 0.48093842282535171 0 0.051514764646800132 0.46969517247403908 0 0.063506183659477022 0.47773244738796838 0 0.062348697060215487 0.48988924955860591 0 0.052801595697150809 0.48093842282535171 0 0.052801595697150809 0.48093842282535171 0 0.051514764646800132 0.46969517247403908 0 0.037403167848122892 0.47852643786450078 0 0.031220438929435219 0.47885823283273449 0 0.037403167848122892 0.47852643786450078 0 0.02800385941092073 0.45771646566546781 0 0.052801595697150809 0.48093842282535171 0 0.037403167848122892 0.47852643786450078 0 0.046214806336390128 0.48988881486989061 0 0.054274455960656942 0.5 0 0.034437018447947103 0.50000000000000178 0 0.046214806336390128 0.48988881486989061 0 0.031220438929435219 0.47885823283273449 0 0.034437018447947103 0.50000000000000178 0 0.031220438929435219 0.47885823283273449 0 0.037403167848122892 0.47852643786450078 0 0.034437018447947103 0.50000000000000178 0 0.037403167848122892 0.47852643786450078 0 0.034437018447947103 0.50000000000000178 0 0.037403167848122892 0.47852643786450078 0 0.034437018447947103 0.50000000000000178 0 0.046214806336390128 0.48988881486989061 0 0.031220438929435219 0.47885823283273449 0 0.034437018447947103 0.50000000000000178 0 0.021378199909727901 0.4894495320943788 0 0.034437018447947103 0.50000000000000178 0 0.021378199909727901 0.4894495320943788 0 0.0089024403028718502 0.5 0 0.031220438929435219 0.47885823283273449 0 0.010952901958657699 0.47893989554477873 0 0.019450282488670159 0.46830560644301839 0 0.031220438929435219 0.47885823283273449 0 0.021378199909727901 0.4894495320943788 0 0.010952901958657699 0.47893989554477873 0 -0.0084272595809318229 0.48487193249339738 0 -0.0020232555169920458 0.47192666490181739 0 0.010952901958657699 0.47893989554477873 0 -0.0020232555169920458 0.47192666490181739 0 0.010952901958657699 0.47893989554477873 0 0.0098003185034536526 0.45870499314720981 0 0.021378199909727901 0.4894495320943788 0 0.010952901958657699 0.47893989554477873 0 0.0089024403028718502 0.5 0 -0.0084272595809318229 0.48487193249339738 0 0.010952901958657699 0.47893989554477873 0 0.0089024403028718502 0.5 0 -0.00096271743285814698 0.44760425322899178 0 0.01182585947114791 0.44250094365390291 0 0.0098003185034536526 0.45870499314720981 0 -0.0020380957693487771 0.43413130746409151 0 -0.00096271743285814698 0.44760425322899178 0 0.01182585947114791 0.44250094365390291 0 -0.0084032224040134704 0.45969352062895152 0 0.0098003185034536526 0.45870499314720981 0 0.010952901958657699 0.47893989554477873 0 0.0098003185034536526 0.45870499314720981 0 0.019450282488670159 0.46830560644301839 0 -0.0084032224040134704 0.45969352062895152 0 -0.00096271743285814698 0.44760425322899178 0 0.0098003185034536526 0.45870499314720981 0 0.031220438929435219 0.47885823283273449 0 0.019450282488670159 0.46830560644301839 0 0.02800385941092073 0.45771646566546781 0 0.031220438929435219 0.47885823283273449 0 0.02800385941092073 0.45771646566546781 0 0.0098003185034536526 0.45870499314720981 0 0.02800385941092073 0.45771646566546781 0 0.0098003185034536526 0.45870499314720981 0 0.019450282488670159 0.46830560644301839 0 0.02800385941092073 0.45771646566546781 0 0.02800385941092073 0.45771646566546781 0 0.033670306998470928 0.44477561848144542 0 0.024292199030424629 0.43332065666498282 0 0.01182585947114791 0.44250094365390291 0 0.02800385941092073 0.45771646566546781 0 0.024292199030424629 0.43332065666498282 0 0.02800385941092073 0.45771646566546781 0 0.024292199030424629 0.43332065666498282 0 0.01182585947114791 0.44250094365390291 0 0.0098003185034536526 0.45870499314720981 0 0.02800385941092073 0.45771646566546781 0 0.033670306998470928 0.44477561848144542 0 0.033923621016176651 0.43527083318928811 0 0.024292199030424629 0.43332065666498282 0 0.040223738754053343 0.45705287572900161 0 0.042858773333566073 0.43699183820877968 0 0.033670306998470928 0.44477561848144542 0 0.042858773333566073 0.43699183820877968 0 0.033923621016176651 0.43527083318928811 0 0.033670306998470928 0.44477561848144542 0 0.040223738754053343 0.45705287572900161 0 0.042858773333566073 0.43699183820877968 0 0.040223738754053343 0.45705287572900161 0 0.04811555719912293 0.44761888819965612 0 0.042858773333566073 0.43699183820877968 0 0.02800385941092073 0.45771646566546781 0 0.033670306998470928 0.44477561848144542 0 0.040223738754053343 0.45705287572900161 0 0.049121400324636001 0.44070322721845429 0 0.04811555719912293 0.44761888819965612 0 0.042858773333566073 0.43699183820877968 0 0.037403167848122892 0.47852643786450078 0 0.040223738754053343 0.45705287572900161 0 0.037403167848122892 0.47852643786450078 0 0.02800385941092073 0.45771646566546781 0 0.040223738754053343 0.45705287572900161 0 0.051514764646800132 0.46969517247403908 0 0.037403167848122892 0.47852643786450078 0 0.040223738754053343 0.45705287572900161 0 0.02800385941092073 0.45771646566546781 0 0.040223738754053343 0.45705287572900161 0 0.067786176320652494 0.46878053199386682 0 0.051514764646800132 0.46969517247403908 0 0.055839364873215183 0.45620488271259529 0 0.051514764646800132 0.46969517247403908 0 0.040223738754053343 0.45705287572900161 0 0.055839364873215183 0.45620488271259529 0 0.040223738754053343 0.45705287572900161 0 0.055839364873215183 0.45620488271259529 0 0.04811555719912293 0.44761888819965612 0 0.040223738754053343 0.45705287572900161 0 0.055839364873215183 0.45620488271259529 0 0.049121400324636001 0.44070322721845429 0 0.04811555719912293 0.44761888819965612 0 0.06053076868858305 0.44439827038149959 0 0.049121400324636001 0.44070322721845429 0 0.06053076868858305 0.44439827038149959 0 0.049606546384789327 0.43343965106680948 0 0.055839364873215183 0.45620488271259529 0 0.04811555719912293 0.44761888819965612 0 0.06053076868858305 0.44439827038149959 0 0.06053076868858305 0.44439827038149959 0 0.049606546384789327 0.43343965106680948 0 0.049606546384789327 0.43343965106680948 0 0.045493807913077867 0.41693080068855781 0 0.063081548685676073 0.43142091244588798 0 0.045493807913077867 0.41693080068855781 0 0.067513035634320206 0.41759001637710191 0 0.063081548685676073 0.43142091244588798 0 0.06053076868858305 0.44439827038149959 0 0.049606546384789327 0.43343965106680948 0 0.063081548685676073 0.43142091244588798 0 0.049121400324636001 0.44070322721845429 0 0.049606546384789327 0.43343965106680948 0 0.042858773333566073 0.43699183820877968 0 0.045493807913077867 0.41693080068855781 0 0.053371107726417587 0.39286869518798379 0 0.067513035634320206 0.41759001637710191 0 0.045493807913077867 0.41693080068855781 0 0.02058053864992565 0.40892484766449821 0 0.033801238340228912 0.39424351452574119 0 0.045493807913077867 0.41693080068855781 0 0.034873204702244982 0.42599521940194468 0 0.02058053864992565 0.40892484766449821 0 0.045493807913077867 0.41693080068855781 0 0.042858773333566073 0.43699183820877968 0 0.034873204702244982 0.42599521940194468 0 0.045493807913077867 0.41693080068855781 0 0.042858773333566073 0.43699183820877968 0 0.049606546384789327 0.43343965106680948 0 0.045493807913077867 0.41693080068855781 0 0.042858773333566073 0.43699183820877968 0 0.042858773333566073 0.43699183820877968 0 0.034873204702244982 0.42599521940194468 0 0.033923621016176651 0.43527083318928811 0 0.034873204702244982 0.42599521940194468 0 0.024292199030424629 0.43332065666498282 0 0.02058053864992565 0.40892484766449821 0 0.024292199030424629 0.43332065666498282 0 0.02058053864992565 0.40892484766449821 0 0.0078873893814910175 0.42460208048856352 0 0.034873204702244982 0.42599521940194468 0 0.033923621016176651 0.43527083318928811 0 0.024292199030424629 0.43332065666498282 0 0.024292199030424629 0.43332065666498282 0 0.02058053864992565 0.40892484766449821 0 -0.0019836062933307631 0.40838514229695472 0 0.02058053864992565 0.40892484766449821 0 0.0078873893814910175 0.42460208048856352 0 0.01182585947114791 0.44250094365390291 0 0.024292199030424629 0.43332065666498282 0 0.0078873893814910175 0.42460208048856352 0 -0.0020380957693487771 0.43413130746409151 0 0.01182585947114791 0.44250094365390291 0 0.0078873893814910175 0.42460208048856352 0 -0.0096529050089097235 0.38818403223530529 0 0.01246101880688281 0.38835476806396452 0 0.0068589959509591644 0.36406818319845519 0 -0.0019836062933307631 0.40838514229695472 0 0.02058053864992565 0.40892484766449821 0 0.01246101880688281 0.38835476806396452 0 -0.0096529050089097235 0.38818403223530529 0 -0.0019836062933307631 0.40838514229695472 0 0.01246101880688281 0.38835476806396452 0 0.02058053864992565 0.40892484766449821 0 0.01246101880688281 0.38835476806396452 0 0.033801238340228912 0.39424351452574119 0 0.01246101880688281 0.38835476806396452 0 0.033801238340228912 0.39424351452574119 0 0.039229179818514988 0.36814737399886571 0 0.033801238340228912 0.39424351452574119 0 0.053371107726417587 0.39286869518798379 0 0.039229179818514988 0.36814737399886571 0 0.053371107726417587 0.39286869518798379 0 0.039229179818514988 0.36814737399886571 0 0.045493807913077867 0.41693080068855781 0 0.033801238340228912 0.39424351452574119 0 0.053371107726417587 0.39286869518798379 0 0.053371107726417587 0.39286869518798379 0 0.067513035634320206 0.41759001637710191 0 0.053371107726417587 0.39286869518798379 0 0.065721765298576498 0.36723728435075681 0 0.039229179818514988 0.36814737399886571 0 0.082012045919436047 0.37835872032243018 0 0.070303856059003897 0.39140739952339337 0 0.065721765298576498 0.36723728435075681 0 0.053371107726417587 0.39286869518798379 0 0.070303856059003897 0.39140739952339337 0 0.065721765298576498 0.36723728435075681 0 0.082012045919436047 0.37835872032243018 0 0.093379860312885782 0.38748047916441242 0 0.082901325716269195 0.40098228137869429 0 0.082012045919436047 0.37835872032243018 0 0.093379860312885782 0.38748047916441242 0 0.10226378897692209 0.37309144900389762 0 0.082012045919436047 0.37835872032243018 0 0.082901325716269195 0.40098228137869429 0 0.070303856059003897 0.39140739952339337 0 0.082901325716269195 0.40098228137869429 0 0.070303856059003897 0.39140739952339337 0 0.067513035634320206 0.41759001637710191 0 0.053371107726417587 0.39286869518798379 0 0.070303856059003897 0.39140739952339337 0 0.067513035634320206 0.41759001637710191 0 0.067513035634320206 0.41759001637710191 0 0.083769642830772914 0.42600909201599801 0 0.082145274067845678 0.41575738730631678 0 0.082901325716269195 0.40098228137869429 0 0.067513035634320206 0.41759001637710191 0 0.082145274067845678 0.41575738730631678 0 0.081654963542222819 0.44231133756621999 0 0.067513035634320206 0.41759001637710191 0 0.081654963542222819 0.44231133756621999 0 0.067513035634320206 0.41759001637710191 0 0.063081548685676073 0.43142091244588798 0 0.081654963542222819 0.44231133756621999 0 0.067513035634320206 0.41759001637710191 0 0.083769642830772914 0.42600909201599801 0 0.081654963542222819 0.44231133756621999 0 0.083769642830772914 0.42600909201599801 0 0.093211119126496073 0.43513101814704869 0 0.083769642830772914 0.42600909201599801 0 0.093211119126496073 0.43513101814704869 0 0.094201704604578884 0.42060160273301772 0 0.082901325716269195 0.40098228137869429 0 0.082145274067845678 0.41575738730631678 0 0.094201704604578884 0.42060160273301772 0 0.083769642830772914 0.42600909201599801 0 0.082145274067845678 0.41575738730631678 0 0.094201704604578884 0.42060160273301772 0 0.082901325716269195 0.40098228137869429 0 0.094201704604578884 0.42060160273301772 0 0.1050493549927676 0.41238151405247842 0 0.094201704604578884 0.42060160273301772 0 0.1050493549927676 0.41238151405247842 0 0.1040016231409318 0.42698923574168901 0 0.1067504447656009 0.44231018210120582 0 0.093211119126496073 0.43513101814704869 0 0.1040016231409318 0.42698923574168901 0 0.093211119126496073 0.43513101814704869 0 0.094201704604578884 0.42060160273301772 0 0.1040016231409318 0.42698923574168901 0 0.1067504447656009 0.44231018210120582 0 0.1198412428593968 0.42397387650584523 0 0.1268369380096746 0.44485403652946842 0 0.1067504447656009 0.44231018210120582 0 0.1040016231409318 0.42698923574168901 0 0.1198412428593968 0.42397387650584523 0 0.1050493549927676 0.41238151405247842 0 0.1040016231409318 0.42698923574168901 0 0.1198412428593968 0.42397387650584523 0 0.1050493549927676 0.41238151405247842 0 0.1198412428593968 0.42397387650584523 0 0.123007952996513 0.4042526220029965 0 0.1050493549927676 0.41238151405247842 0 0.123007952996513 0.4042526220029965 0 0.10634228063891581 0.39748946595262752 0 0.123007952996513 0.4042526220029965 0 0.1247172308674029 0.3823544709444861 0 0.10634228063891581 0.39748946595262752 0 0.1247172308674029 0.3823544709444861 0 0.10634228063891581 0.39748946595262752 0 0.10226378897692209 0.37309144900389762 0 0.093379860312885782 0.38748047916441242 0 0.10634228063891581 0.39748946595262752 0 0.10226378897692209 0.37309144900389762 0 0.093379860312885782 0.38748047916441242 0 0.082901325716269195 0.40098228137869429 0 0.10634228063891581 0.39748946595262752 0 0.082901325716269195 0.40098228137869429 0 0.1050493549927676 0.41238151405247842 0 0.10634228063891581 0.39748946595262752 0 0.10238846866813139 0.34598186424486638 0 0.10226378897692209 0.37309144900389762 0 0.118692486023295 0.35711635397700159 0 0.10238846866813139 0.34598186424486638 0 0.10226378897692209 0.37309144900389762 0 0.085955510243520508 0.36191430595649332 0 0.1247172308674029 0.3823544709444861 0 0.10226378897692209 0.37309144900389762 0 0.118692486023295 0.35711635397700159 0 0.10238846866813139 0.34598186424486638 0 0.118692486023295 0.35711635397700159 0 0.121653117875585 0.33841756537502748 0 0.10238846866813139 0.34598186424486638 0 0.121653117875585 0.33841756537502748 0 0.1139271273706487 0.32357725290979922 0 0.121653117875585 0.33841756537502748 0 0.1139271273706487 0.32357725290979922 0 0.13145164753469951 0.31590187804813491 0 0.1139271273706487 0.32357725290979922 0 0.093908688562443346 0.32312666992009198 0 0.109436350710878 0.29612042384048559 0 0.10238846866813139 0.34598186424486638 0 0.1139271273706487 0.32357725290979922 0 0.093908688562443346 0.32312666992009198 0 0.10238846866813139 0.34598186424486638 0 0.093908688562443346 0.32312666992009198 0 0.07739148235453655 0.34490221186051528 0 0.093908688562443346 0.32312666992009198 0 0.074346373354155837 0.32372037543095272 0 0.07739148235453655 0.34490221186051528 0 0.093908688562443346 0.32312666992009198 0 0.074346373354155837 0.32372037543095272 0 0.085962328916309741 0.30445789123393302 0 0.074346373354155837 0.32372037543095272 0 0.07739148235453655 0.34490221186051528 0 0.050217091630001889 0.33510673948095138 0 0.07739148235453655 0.34490221186051528 0 0.065721765298576498 0.36723728435075681 0 0.050217091630001889 0.33510673948095138 0 0.07739148235453655 0.34490221186051528 0 0.085955510243520508 0.36191430595649332 0 0.065721765298576498 0.36723728435075681 0 0.10238846866813139 0.34598186424486638 0 0.07739148235453655 0.34490221186051528 0 0.085955510243520508 0.36191430595649332 0 0.082012045919436047 0.37835872032243018 0 0.10226378897692209 0.37309144900389762 0 0.085955510243520508 0.36191430595649332 0 0.082012045919436047 0.37835872032243018 0 0.085955510243520508 0.36191430595649332 0 0.065721765298576498 0.36723728435075681 0 0.065721765298576498 0.36723728435075681 0 0.039229179818514988 0.36814737399886571 0 0.050217091630001889 0.33510673948095138 0 0.039229179818514988 0.36814737399886571 0 0.02508725191061242 0.34342605280974758 0 0.050217091630001889 0.33510673948095138 0 0.039229179818514988 0.36814737399886571 0 0.02508725191061242 0.34342605280974758 0 0.039229179818514988 0.36814737399886571 0 0.0068589959509591644 0.36406818319845519 0 0.02508725191061242 0.34342605280974758 0 0.01246101880688281 0.38835476806396452 0 0.039229179818514988 0.36814737399886571 0 0.0068589959509591644 0.36406818319845519 0 -0.0088407377264510274 0.35099551144825197 0 0.0068589959509591644 0.36406818319845519 0 0.007240156443205031 0.34158786810032932 0 0.0068589959509591644 0.36406818319845519 0 0.007240156443205031 0.34158786810032932 0 0.02508725191061242 0.34342605280974758 0 0.0032889550775795991 0.32677985135124687 0 0.02274523180575809 0.32517534841165358 0 0.0091093105619211717 0.31104445313616919 0 -0.01039529281254236 0.32275756492607738 0 0.0032889550775795991 0.32677985135124687 0 0.0091093105619211717 0.31104445313616919 0 -0.01007826550388795 0.33688784853290887 0 0.0032889550775795991 0.32677985135124687 0 0.007240156443205031 0.34158786810032932 0 0.0032889550775795991 0.32677985135124687 0 0.007240156443205031 0.34158786810032932 0 0.02274523180575809 0.32517534841165358 0 0.007240156443205031 0.34158786810032932 0 0.02508725191061242 0.34342605280974758 0 0.02274523180575809 0.32517534841165358 0 0.02274523180575809 0.32517534841165358 0 0.034726983346717297 0.30884893250209039 0 0.0091093105619211717 0.31104445313616919 0 0.02274523180575809 0.32517534841165358 0 0.050217091630001889 0.33510673948095138 0 0.034726983346717297 0.30884893250209039 0 0.02508725191061242 0.34342605280974758 0 0.02274523180575809 0.32517534841165358 0 0.050217091630001889 0.33510673948095138 0 0.050217091630001889 0.33510673948095138 0 0.060344656131513547 0.30665341186801182 0 0.034726983346717297 0.30884893250209039 0 0.074346373354155837 0.32372037543095272 0 0.050217091630001889 0.33510673948095138 0 0.060344656131513547 0.30665341186801182 0 0.060344656131513547 0.30665341186801182 0 0.048439888218750393 0.28460695927571 0 0.034726983346717297 0.30884893250209039 0 0.060344656131513547 0.30665341186801182 0 0.034726983346717297 0.30884893250209039 0 0.060344656131513547 0.30665341186801182 0 0.048439888218750393 0.28460695927571 0 0.076143736916019139 0.28168648605220381 0 0.048439888218750393 0.28460695927571 0 0.034726983346717297 0.30884893250209039 0 0.018077569016195661 0.28560434098933341 0 0.034726983346717297 0.30884893250209039 0 0.018077569016195661 0.28560434098933341 0 0.0091093105619211717 0.31104445313616919 0 0.034726983346717297 0.30884893250209039 0 0.0091093105619211717 0.31104445313616919 0 -0.0051741416952126428 0.27244818375453972 0 0.018077569016195661 0.28560434098933341 0 0.001037681847786531 0.29259039198356668 0 0.018077569016195661 0.28560434098933341 0 0.001037681847786531 0.29259039198356668 0 0.0091093105619211717 0.31104445313616919 0 -0.0093909515200206062 0.30166555970258729 0 0.001037681847786531 0.29259039198356668 0 0.0091093105619211717 0.31104445313616919 0 -0.0051741416952126428 0.27244818375453972 0 -0.001711322607177821 0.2476415137308719 0 0.014129405402641061 0.26483297251484011 0 -0.001711322607177821 0.2476415137308719 0 0.024455966897590251 0.2469497650613437 0 0.014129405402641061 0.26483297251484011 0 -0.0051741416952126428 0.27244818375453972 0 0.018077569016195661 0.28560434098933341 0 -0.0051741416952126428 0.27244818375453972 0 0.018077569016195661 0.28560434098933341 0 0.014129405402641061 0.26483297251484011 0 0.018077569016195661 0.28560434098933341 0 0.014129405402641061 0.26483297251484011 0 0.035875987733604217 0.26452958273597432 0 0.024455966897590251 0.2469497650613437 0 0.014129405402641061 0.26483297251484011 0 0.035875987733604217 0.26452958273597432 0 0.024455966897590251 0.2469497650613437 0 0.047750683954905143 0.2434241251182814 0 0.035875987733604217 0.26452958273597432 0 0.048439888218750393 0.28460695927571 0 0.018077569016195661 0.28560434098933341 0 0.035875987733604217 0.26452958273597432 0 0.048439888218750393 0.28460695927571 0 0.035875987733604217 0.26452958273597432 0 0.062502990013812793 0.26095755865104597 0 0.048439888218750393 0.28460695927571 0 0.062502990013812793 0.26095755865104597 0 0.076143736916019139 0.28168648605220381 0 0.047750683954905143 0.2434241251182814 0 0.035875987733604217 0.26452958273597432 0 0.062502990013812793 0.26095755865104597 0 0.062502990013812793 0.26095755865104597 0 0.085979313092188051 0.25234243848150012 0 0.076143736916019139 0.28168648605220381 0 0.085979313092188051 0.25234243848150012 0 0.076143736916019139 0.28168648605220381 0 0.09760272897394387 0.27204762589420223 0 0.076143736916019139 0.28168648605220381 0 0.09228628637928768 0.28857810675520612 0 0.09760272897394387 0.27204762589420223 0 0.060344656131513547 0.30665341186801182 0 0.076143736916019139 0.28168648605220381 0 0.085962328916309741 0.30445789123393302 0 0.060344656131513547 0.30665341186801182 0 0.085962328916309741 0.30445789123393302 0 0.074346373354155837 0.32372037543095272 0 0.060344656131513547 0.30665341186801182 0 0.085962328916309741 0.30445789123393302 0 0.076143736916019139 0.28168648605220381 0 0.085962328916309741 0.30445789123393302 0 0.09228628637928768 0.28857810675520612 0 0.085962328916309741 0.30445789123393302 0 0.09228628637928768 0.28857810675520612 0 0.109436350710878 0.29612042384048559 0 0.09228628637928768 0.28857810675520612 0 0.109436350710878 0.29612042384048559 0 0.09760272897394387 0.27204762589420223 0 0.093908688562443346 0.32312666992009198 0 0.085962328916309741 0.30445789123393302 0 0.109436350710878 0.29612042384048559 0 0.1139271273706487 0.32357725290979922 0 0.109436350710878 0.29612042384048559 0 0.13145164753469951 0.31590187804813491 0 0.109436350710878 0.29612042384048559 0 0.120327499880284 0.27566418248746571 0 0.1350804375444333 0.29711752101062772 0 0.1172255882914653 0.240359016139747 0 0.1098365401102865 0.25523401559104458 0 0.12954986313609879 0.25966003259786019 0 0.120327499880284 0.27566418248746571 0 0.1098365401102865 0.25523401559104458 0 0.12954986313609879 0.25966003259786019 0 0.085979313092188051 0.25234243848150012 0 0.1098365401102865 0.25523401559104458 0 0.09760272897394387 0.27204762589420223 0 0.109436350710878 0.29612042384048559 0 0.120327499880284 0.27566418248746571 0 0.09760272897394387 0.27204762589420223 0 0.120327499880284 0.27566418248746571 0 0.1098365401102865 0.25523401559104458 0 0.09760272897394387 0.27204762589420223 0 0.1423927392534077 0.27623952208515551 0 0.14985317479105889 0.25641055026691512 0 0.1594445397184612 0.27372740673278417 0 0.1423927392534077 0.27623952208515551 0 0.14985317479105889 0.25641055026691512 0 0.12954986313609879 0.25966003259786019 0 0.1380396634466351 0.24024876031326919 0 0.14985317479105889 0.25641055026691512 0 0.12954986313609879 0.25966003259786019 0 0.120327499880284 0.27566418248746571 0 0.1423927392534077 0.27623952208515551 0 0.12954986313609879 0.25966003259786019 0 0.120327499880284 0.27566418248746571 0 0.1423927392534077 0.27623952208515551 0 0.1350804375444333 0.29711752101062772 0 0.109436350710878 0.29612042384048559 0 0.1350804375444333 0.29711752101062772 0 0.13145164753469951 0.31590187804813491 0 0.1350804375444333 0.29711752101062772 0 0.15052674767856519 0.31443193221621052 0 0.13145164753469951 0.31590187804813491 0 0.1350804375444333 0.29711752101062772 0 0.16010092045011001 0.29485743941527998 0 0.15052674767856519 0.31443193221621052 0 0.1350804375444333 0.29711752101062772 0 0.15052674767856519 0.31443193221621052 0 0.1423927392534077 0.27623952208515551 0 0.1350804375444333 0.29711752101062772 0 0.16010092045011001 0.29485743941527998 0 0.1423927392534077 0.27623952208515551 0 0.16010092045011001 0.29485743941527998 0 0.1594445397184612 0.27372740673278417 0 0.16010092045011001 0.29485743941527998 0 0.17975305898062871 0.30714031686158111 0 0.17328625341433751 0.28347796057017599 0 0.16010092045011001 0.29485743941527998 0 0.17328625341433751 0.28347796057017599 0 0.1594445397184612 0.27372740673278417 0 0.16010092045011001 0.29485743941527998 0 0.17975305898062871 0.30714031686158111 0 0.15052674767856519 0.31443193221621052 0 0.17328625341433751 0.28347796057017599 0 0.19007829356882211 0.27832290766148371 0 0.19268495313657069 0.29422671324685901 0 0.17975305898062871 0.30714031686158111 0 0.17328625341433751 0.28347796057017599 0 0.19268495313657069 0.29422671324685901 0 0.17328625341433751 0.28347796057017599 0 0.1751578196947641 0.25762565753243361 0 0.19007829356882211 0.27832290766148371 0 0.17328625341433751 0.28347796057017599 0 0.1594445397184612 0.27372740673278417 0 0.1751578196947641 0.25762565753243361 0 0.14985317479105889 0.25641055026691512 0 0.1594445397184612 0.27372740673278417 0 0.1751578196947641 0.25762565753243361 0 0.19631113481602469 0.24161166483964239 0 0.1751578196947641 0.25762565753243361 0 0.19803132426978229 0.26181747526401772 0 0.1751578196947641 0.25762565753243361 0 0.19803132426978229 0.26181747526401772 0 0.19007829356882211 0.27832290766148371 0 0.19803132426978229 0.26181747526401772 0 0.19007829356882211 0.27832290766148371 0 0.21095551889598849 0.28349578666088349 0 0.19803132426978229 0.26181747526401772 0 0.21922140051195271 0.25973847567324782 0 0.21095551889598849 0.28349578666088349 0 0.19631113481602469 0.24161166483964239 0 0.19803132426978229 0.26181747526401772 0 0.21922140051195271 0.25973847567324782 0 0.2401615503470183 0.2458573091102893 0 0.21922140051195271 0.25973847567324782 0 0.23902387221865859 0.27043873591054612 0 0.21922140051195271 0.25973847567324782 0 0.23902387221865859 0.27043873591054612 0 0.2283481358888845 0.28234345453216703 0 0.21922140051195271 0.25973847567324782 0 0.2283481358888845 0.28234345453216703 0 0.21095551889598849 0.28349578666088349 0 0.23902387221865859 0.27043873591054612 0 0.24977120520341911 0.28701821694709911 0 0.25931436089426951 0.27642138959578888 0 0.2401615503470183 0.2458573091102893 0 0.23902387221865859 0.27043873591054612 0 0.26100036705339191 0.25593539236450208 0 0.2401615503470183 0.2458573091102893 0 0.23902387221865859 0.27043873591054612 0 0.2378861940902989 0.29502016271080311 0 0.23674851596193919 0.31960158951105999 0 0.24762251716882169 0.30864802395995089 0 0.2378861940902989 0.29502016271080311 0 0.23674851596193919 0.31960158951105999 0 0.24762251716882169 0.30864802395995089 0 0.2378861940902989 0.29502016271080311 0 0.25161633839361708 0.30231206201048039 0 0.23902387221865859 0.27043873591054612 0 0.2378861940902989 0.29502016271080311 0 0.2283481358888845 0.28234345453216703 0 0.23902387221865859 0.27043873591054612 0 0.24977120520341911 0.28701821694709911 0 0.2378861940902989 0.29502016271080311 0 0.24977120520341911 0.28701821694709911 0 0.2378861940902989 0.29502016271080311 0 0.25161633839361708 0.30231206201048039 0 0.23902387221865859 0.27043873591054612 0 0.2378861940902989 0.29502016271080311 0 0.2283481358888845 0.28234345453216703 0 0.22372872123399951 0.30291099161927137 0 0.21095551889598849 0.28349578666088349 0 0.2378861940902989 0.29502016271080311 0 0.2283481358888845 0.28234345453216703 0 0.22372872123399951 0.30291099161927137 0 0.2378861940902989 0.29502016271080311 0 0.22372872123399951 0.30291099161927137 0 0.23674851596193919 0.31960158951105999 0 0.22372872123399951 0.30291099161927137 0 0.20678384102200401 0.30621173839888832 0 0.21730970143778991 0.32234134287876681 0 0.22372872123399951 0.30291099161927137 0 0.20678384102200401 0.30621173839888832 0 0.21095551889598849 0.28349578666088349 0 0.20678384102200401 0.30621173839888832 0 0.21095551889598849 0.28349578666088349 0 0.19268495313657069 0.29422671324685901 0 0.19007829356882211 0.27832290766148371 0 0.21095551889598849 0.28349578666088349 0 0.19268495313657069 0.29422671324685901 0 0.17975305898062871 0.30714031686158111 0 0.20678384102200401 0.30621173839888832 0 0.19268495313657069 0.29422671324685901 0 0.17975305898062871 0.30714031686158111 0 0.20678384102200401 0.30621173839888832 0 0.19490807469540231 0.32943534849571871 0 0.19490807469540231 0.32943534849571871 0 0.19978301617508851 0.3483722320656637 0 0.181419367946829 0.34906075462737612 0 0.19490807469540231 0.32943534849571871 0 0.21157773337411359 0.33852941004609888 0 0.19978301617508851 0.3483722320656637 0 0.19490807469540231 0.32943534849571871 0 0.21157773337411359 0.33852941004609888 0 0.21730970143778991 0.32234134287876681 0 0.20678384102200401 0.30621173839888832 0 0.19490807469540231 0.32943534849571871 0 0.21730970143778991 0.32234134287876681 0 0.22372872123399951 0.30291099161927137 0 0.21730970143778991 0.32234134287876681 0 0.23674851596193919 0.31960158951105999 0 0.21730970143778991 0.32234134287876681 0 0.23011132233928031 0.33735897920156349 0 0.23674851596193919 0.31960158951105999 0 0.21157773337411359 0.33852941004609888 0 0.23011132233928031 0.33735897920156349 0 0.22591995898968259 0.35117825670578579 0 0.21157773337411359 0.33852941004609888 0 0.21730970143778991 0.32234134287876681 0 0.23011132233928031 0.33735897920156349 0 0.23011132233928031 0.33735897920156349 0 0.2407813983965908 0.33320573386014118 0 0.23674851596193919 0.31960158951105999 0 0.23011132233928031 0.33735897920156349 0 0.24165933342299781 0.34336032058970639 0 0.23549565816048629 0.34890106626918199 0 0.23011132233928031 0.33735897920156349 0 0.2407813983965908 0.33320573386014118 0 0.24165933342299781 0.34336032058970639 0 0.2407813983965908 0.33320573386014118 0 0.24165933342299781 0.34336032058970639 0 0.25262120207229127 0.34084517858386998 0 0.2407813983965908 0.33320573386014118 0 0.25026421316334402 0.32948166370830623 0 0.25262120207229127 0.34084517858386998 0 0.2407813983965908 0.33320573386014118 0 0.23674851596193919 0.31960158951105999 0 0.25026421316334402 0.32948166370830623 0 0.23674851596193919 0.31960158951105999 0 0.25375848191490757 0.31919031353891703 0 0.25026421316334402 0.32948166370830623 0 0.24762251716882169 0.30864802395995089 0 0.23674851596193919 0.31960158951105999 0 0.25375848191490757 0.31919031353891703 0 0.2435893676352921 0.35444018843789149 0 0.23619830841517861 0.35816758641096308 0 0.22946792748715919 0.37569623772732658 0 0.2453621331743529 0.37093673251849368 0 0.2435893676352921 0.35444018843789149 0 0.22946792748715919 0.37569623772732658 0 0.2453621331743529 0.37093673251849368 0 0.2435893676352921 0.35444018843789149 0 0.25061804429220852 0.36201224904723989 0 0.2435893676352921 0.35444018843789149 0 0.22946792748715919 0.37569623772732658 0 0.2435893676352921 0.35444018843789149 0 0.2549064962932388 0.35651835030752899 0 0.25061804429220852 0.36201224904723989 0 0.2435893676352921 0.35444018843789149 0 0.25262120207229127 0.34084517858386998 0 0.24165933342299781 0.34336032058970639 0 0.2435893676352921 0.35444018843789149 0 0.25262120207229127 0.34084517858386998 0 0.24165933342299781 0.34336032058970639 0 0.2435893676352921 0.35444018843789149 0 0.23549565816048629 0.34890106626918199 0 0.2435893676352921 0.35444018843789149 0 0.23549565816048629 0.34890106626918199 0 0.23619830841517861 0.35816758641096308 0 0.2435893676352921 0.35444018843789149 0 0.23619830841517861 0.35816758641096308 0 0.23619830841517861 0.35816758641096308 0 0.22591995898968259 0.35117825670578579 0 0.22446232773324359 0.36341762215920431 0 0.23549565816048629 0.34890106626918199 0 0.23619830841517861 0.35816758641096308 0 0.22591995898968259 0.35117825670578579 0 0.23011132233928031 0.33735897920156349 0 0.23549565816048629 0.34890106626918199 0 0.22591995898968259 0.35117825670578579 0 0.22591995898968259 0.35117825670578579 0 0.22446232773324359 0.36341762215920431 0 0.21414422677813641 0.35846048132616593 0 0.23619830841517861 0.35816758641096308 0 0.22446232773324359 0.36341762215920431 0 0.22946792748715919 0.37569623772732658 0 0.22446232773324359 0.36341762215920431 0 0.2140394038306338 0.37497649326173582 0 0.22946792748715919 0.37569623772732658 0 0.22446232773324359 0.36341762215920431 0 0.2140394038306338 0.37497649326173582 0 0.21414422677813641 0.35846048132616593 0 0.2140394038306338 0.37497649326173582 0 0.21414422677813641 0.35846048132616593 0 0.19686567808096089 0.36637516583295898 0 0.2140394038306338 0.37497649326173582 0 0.19686567808096089 0.36637516583295898 0 0.20499532100950349 0.37946023161941878 0 0.21414422677813641 0.35846048132616593 0 0.19978301617508851 0.3483722320656637 0 0.19686567808096089 0.36637516583295898 0 0.21157773337411359 0.33852941004609888 0 0.21414422677813641 0.35846048132616593 0 0.19978301617508851 0.3483722320656637 0 0.21157773337411359 0.33852941004609888 0 0.22591995898968259 0.35117825670578579 0 0.21414422677813641 0.35846048132616593 0 0.19686567808096089 0.36637516583295898 0 0.181419367946829 0.34906075462737612 0 0.19978301617508851 0.3483722320656637 0 0.19686567808096089 0.36637516583295898 0 0.181419367946829 0.34906075462737612 0 0.19686567808096089 0.36637516583295898 0 0.18078569376514381 0.37134298371850782 0 0.19449694356433969 0.3788799403556708 0 0.19686567808096089 0.36637516583295898 0 0.19449694356433969 0.3788799403556708 0 0.20499532100950349 0.37946023161941878 0 0.19686567808096089 0.36637516583295898 0 0.18078569376514381 0.37134298371850782 0 0.181419367946829 0.34906075462737612 0 0.18078569376514381 0.37134298371850782 0 0.16543644782336431 0.36427035277662589 0 0.181419367946829 0.34906075462737612 0 0.18078569376514381 0.37134298371850782 0 0.16543644782336431 0.36427035277662589 0 0.16220499096968449 0.37827428364331861 0 0.16543644782336431 0.36427035277662589 0 0.15894186899331261 0.3508841989203022 0 0.181419367946829 0.34906075462737612 0 0.15894186899331261 0.3508841989203022 0 0.181419367946829 0.34906075462737612 0 0.16597305781269711 0.33174634342179332 0 0.181419367946829 0.34906075462737612 0 0.16597305781269711 0.33174634342179332 0 0.19490807469540231 0.32943534849571871 0 0.181419367946829 0.34906075462737612 0 0.16597305781269711 0.33174634342179332 0 0.17975305898062871 0.30714031686158111 0 0.19490807469540231 0.32943534849571871 0 0.16597305781269711 0.33174634342179332 0 0.17975305898062871 0.30714031686158111 0 0.16597305781269711 0.33174634342179332 0 0.15052674767856519 0.31443193221621052 0 0.16597305781269711 0.33174634342179332 0 0.15052674767856519 0.31443193221621052 0 0.15894186899331261 0.3508841989203022 0 0.16597305781269711 0.33174634342179332 0 0.13974094341450211 0.3396011128838235 0 0.16597305781269711 0.33174634342179332 0 0.15052674767856519 0.31443193221621052 0 0.13974094341450211 0.3396011128838235 0 0.15052674767856519 0.31443193221621052 0 0.13145164753469951 0.31590187804813491 0 0.13974094341450211 0.3396011128838235 0 0.121653117875585 0.33841756537502748 0 0.13145164753469951 0.31590187804813491 0 0.13974094341450211 0.3396011128838235 0 0.118692486023295 0.35711635397700159 0 0.121653117875585 0.33841756537502748 0 0.13974094341450211 0.3396011128838235 0 0.118692486023295 0.35711635397700159 0 0.13974094341450211 0.3396011128838235 0 0.14044873849648981 0.3676953188101601 0 0.1247172308674029 0.3823544709444861 0 0.118692486023295 0.35711635397700159 0 0.14044873849648981 0.3676953188101601 0 0.118692486023295 0.35711635397700159 0 0.14044873849648981 0.3676953188101601 0 0.16543644782336431 0.36427035277662589 0 0.15894186899331261 0.3508841989203022 0 0.14044873849648981 0.3676953188101601 0 0.14044873849648981 0.3676953188101601 0 0.16220499096968449 0.37827428364331861 0 0.16543644782336431 0.36427035277662589 0 0.14044873849648981 0.3676953188101601 0 0.16220499096968449 0.37827428364331861 0 0.15894186899331261 0.3508841989203022 0 0.13974094341450211 0.3396011128838235 0 0.14044873849648981 0.3676953188101601 0 0.1389926337232448 0.39591180975406931 0 0.137003618067042 0.41149275768582078 0 0.15407374958972869 0.4071685066110482 0 0.15282166697656041 0.39032169776158449 0 0.1389926337232448 0.39591180975406931 0 0.15407374958972869 0.4071685066110482 0 0.15282166697656041 0.39032169776158449 0 0.14317618158006651 0.38252368084282151 0 0.16220499096968449 0.37827428364331861 0 0.14044873849648981 0.3676953188101601 0 0.14317618158006651 0.38252368084282151 0 0.16220499096968449 0.37827428364331861 0 0.15282166697656041 0.39032169776158449 0 0.14317618158006651 0.38252368084282151 0 0.1389926337232448 0.39591180975406931 0 0.1247172308674029 0.3823544709444861 0 0.14317618158006651 0.38252368084282151 0 0.1389926337232448 0.39591180975406931 0 0.1247172308674029 0.3823544709444861 0 0.14044873849648981 0.3676953188101601 0 0.14317618158006651 0.38252368084282151 0 0.123007952996513 0.4042526220029965 0 0.1247172308674029 0.3823544709444861 0 0.1389926337232448 0.39591180975406931 0 0.123007952996513 0.4042526220029965 0 0.1389926337232448 0.39591180975406931 0 0.137003618067042 0.41149275768582078 0 0.1198412428593968 0.42397387650584523 0 0.123007952996513 0.4042526220029965 0 0.137003618067042 0.41149275768582078 0 0.1198412428593968 0.42397387650584523 0 0.137003618067042 0.41149275768582078 0 0.14015317038045719 0.42842951568108689 0 0.1198412428593968 0.42397387650584523 0 0.14015317038045719 0.42842951568108689 0 0.1268369380096746 0.44485403652946842 0 0.14015317038045719 0.42842951568108689 0 0.15680531250106761 0.42943783501172711 0 0.1485921674465126 0.450895386405332 0 0.137003618067042 0.41149275768582078 0 0.14015317038045719 0.42842951568108689 0 0.15407374958972869 0.4071685066110482 0 0.14015317038045719 0.42842951568108689 0 0.15407374958972869 0.4071685066110482 0 0.15680531250106761 0.42943783501172711 0 0.15407374958972869 0.4071685066110482 0 0.1695068102250806 0.41646518755586298 0 0.15680531250106761 0.42943783501172711 0 0.1695068102250806 0.41646518755586298 0 0.1717006648635587 0.44423057880530542 0 0.1695068102250806 0.41646518755586298 0 0.15680531250106761 0.42943783501172711 0 0.1717006648635587 0.44423057880530542 0 0.1695068102250806 0.41646518755586298 0 0.1866571042593006 0.42779559815619711 0 0.1717006648635587 0.44423057880530542 0 0.1695068102250806 0.41646518755586298 0 0.1866571042593006 0.42779559815619711 0 0.18897277856493469 0.40620771451460352 0 0.1673129555866025 0.38869979630642049 0 0.1839612434428794 0.38885324847647712 0 0.18897277856493469 0.40620771451460352 0 0.1695068102250806 0.41646518755586298 0 0.1673129555866025 0.38869979630642049 0 0.18897277856493469 0.40620771451460352 0 0.15282166697656041 0.39032169776158449 0 0.15407374958972869 0.4071685066110482 0 0.1673129555866025 0.38869979630642049 0 0.15407374958972869 0.4071685066110482 0 0.1695068102250806 0.41646518755586298 0 0.1673129555866025 0.38869979630642049 0 0.1695068102250806 0.41646518755586298 0 0.1673129555866025 0.38869979630642049 0 0.16220499096968449 0.37827428364331861 0 0.1673129555866025 0.38869979630642049 0 0.1839612434428794 0.38885324847647712 0 0.15282166697656041 0.39032169776158449 0 0.16220499096968449 0.37827428364331861 0 0.1673129555866025 0.38869979630642049 0 0.18078569376514381 0.37134298371850782 0 0.1839612434428794 0.38885324847647712 0 0.19449694356433969 0.3788799403556708 0 0.16220499096968449 0.37827428364331861 0 0.1839612434428794 0.38885324847647712 0 0.18078569376514381 0.37134298371850782 0 0.16220499096968449 0.37827428364331861 0 0.1839612434428794 0.38885324847647712 0 0.1839612434428794 0.38885324847647712 0 0.19449694356433969 0.3788799403556708 0 0.20587678152321101 0.388368072130991 0 0.19449694356433969 0.3788799403556708 0 0.20499532100950349 0.37946023161941878 0 0.20587678152321101 0.388368072130991 0 0.18897277856493469 0.40620771451460352 0 0.20571749591607441 0.39943221330963558 0 0.20434056635788311 0.4104052143373263 0 0.1839612434428794 0.38885324847647712 0 0.20571749591607441 0.39943221330963558 0 0.20587678152321101 0.388368072130991 0 0.1839612434428794 0.38885324847647712 0 0.18897277856493469 0.40620771451460352 0 0.20571749591607441 0.39943221330963558 0 0.1839612434428794 0.38885324847647712 0 0.20571749591607441 0.39943221330963558 0 0.20571749591607441 0.39943221330963558 0 0.213741679716004 0.40716373255343857 0 0.20434056635788311 0.4104052143373263 0 0.20571749591607441 0.39943221330963558 0 0.21534648733902559 0.39695228701676122 0 0.20587678152321101 0.388368072130991 0 0.21534648733902559 0.39695228701676122 0 0.22425205528917461 0.40439251142441052 0 0.213741679716004 0.40716373255343857 0 0.20571749591607441 0.39943221330963558 0 0.21534648733902559 0.39695228701676122 0 0.213741679716004 0.40716373255343857 0 0.2140394038306338 0.37497649326173582 0 0.21534648733902559 0.39695228701676122 0 0.20587678152321101 0.388368072130991 0 0.2140394038306338 0.37497649326173582 0 0.20499532100950349 0.37946023161941878 0 0.20587678152321101 0.388368072130991 0 0.2140394038306338 0.37497649326173582 0 0.21534648733902559 0.39695228701676122 0 0.22946792748715919 0.37569623772732658 0 0.22946792748715919 0.37569623772732658 0 0.22983904005408901 0.39212012622784898 0 0.24115934006274431 0.38599615874030679 0 0.21534648733902559 0.39695228701676122 0 0.22946792748715919 0.37569623772732658 0 0.22983904005408901 0.39212012622784898 0 0.21534648733902559 0.39695228701676122 0 0.22946792748715919 0.37569623772732658 0 0.21534648733902559 0.39695228701676122 0 0.22425205528917461 0.40439251142441052 0 0.22983904005408901 0.39212012622784898 0 0.22425205528917461 0.40439251142441052 0 0.22983904005408901 0.39212012622784898 0 0.2347251501097769 0.40338996238380048 0 0.22983904005408901 0.39212012622784898 0 0.2384729245374721 0.39509531972936368 0 0.2347251501097769 0.40338996238380048 0 0.22983904005408901 0.39212012622784898 0 0.2384729245374721 0.39509531972936368 0 0.24115934006274431 0.38599615874030679 0 0.2384729245374721 0.39509531972936368 0 0.2467744606880356 0.39584089270316469 0 0.24115934006274431 0.38599615874030679 0 0.2384729245374721 0.39509531972936368 0 0.2347251501097769 0.40338996238380048 0 0.2429757628230248 0.40379176262926852 0 0.2347251501097769 0.40338996238380048 0 0.2429757628230248 0.40379176262926852 0 0.24106246601305389 0.41127907996518709 0 0.2429757628230248 0.40379176262926852 0 0.2467744606880356 0.39584089270316469 0 0.25425612982894968 0.40934958201286309 0 0.2384729245374721 0.39509531972936368 0 0.2429757628230248 0.40379176262926852 0 0.2467744606880356 0.39584089270316469 0 0.2453621331743529 0.37093673251849368 0 0.24115934006274431 0.38599615874030679 0 0.25768124422427657 0.38752600091818851 0 0.2453621331743529 0.37093673251849368 0 0.22946792748715919 0.37569623772732658 0 0.24115934006274431 0.38599615874030679 0 0.2467744606880356 0.39584089270316469 0 0.24115934006274431 0.38599615874030679 0 0.25768124422427657 0.38752600091818851 0 0.2383868758125415 0.42347896434486448 0 0.2362739382004802 0.43687989130365829 0 0.24543322266541101 0.43541889254993399 0 0.24543322266541101 0.43541889254993399 0 0.25307793640191562 0.44090379946232228 0 0.25128307062355898 0.42829283212929448 0 0.2383868758125415 0.42347896434486448 0 0.24543322266541101 0.43541889254993399 0 0.25128307062355898 0.42829283212929448 0 0.2383868758125415 0.42347896434486448 0 0.25272431505726811 0.41910974766963099 0 0.25128307062355898 0.42829283212929448 0 0.2383868758125415 0.42347896434486448 0 0.25272431505726811 0.41910974766963099 0 0.2383868758125415 0.42347896434486448 0 0.24106246601305389 0.41127907996518709 0 0.25425612982894968 0.40934958201286309 0 0.2383868758125415 0.42347896434486448 0 0.25425612982894968 0.40934958201286309 0 0.2383868758125415 0.42347896434486448 0 0.25425612982894968 0.40934958201286309 0 0.25272431505726811 0.41910974766963099 0 0.2429757628230248 0.40379176262926852 0 0.24106246601305389 0.41127907996518709 0 0.25425612982894968 0.40934958201286309 0 0.2347251501097769 0.40338996238380048 0 0.24106246601305389 0.41127907996518709 0 0.23082445010043151 0.41298445868408767 0 0.2383868758125415 0.42347896434486448 0 0.24106246601305389 0.41127907996518709 0 0.23082445010043151 0.41298445868408767 0 0.2383868758125415 0.42347896434486448 0 0.23082445010043151 0.41298445868408767 0 0.2242489767006676 0.41989406390079448 0 0.22425205528917461 0.40439251142441052 0 0.2347251501097769 0.40338996238380048 0 0.23082445010043151 0.41298445868408767 0 0.22425205528917461 0.40439251142441052 0 0.2210895635104875 0.41310271821505562 0 0.213741679716004 0.40716373255343857 0 0.22425205528917461 0.40439251142441052 0 0.23082445010043151 0.41298445868408767 0 0.2210895635104875 0.41310271821505562 0 0.23082445010043151 0.41298445868408767 0 0.2210895635104875 0.41310271821505562 0 0.2242489767006676 0.41989406390079448 0 0.2210895635104875 0.41310271821505562 0 0.2242489767006676 0.41989406390079448 0 0.2128735592616465 0.41828966258567202 0 0.2383868758125415 0.42347896434486448 0 0.21811839695373281 0.42965561655590312 0 0.2383868758125415 0.42347896434486448 0 0.2242489767006676 0.41989406390079448 0 0.21811839695373281 0.42965561655590312 0 0.2383868758125415 0.42347896434486448 0 0.22398975613312941 0.43629761405704492 0 0.21811839695373281 0.42965561655590312 0 0.2383868758125415 0.42347896434486448 0 0.2362739382004802 0.43687989130365829 0 0.22398975613312941 0.43629761405704492 0 0.2383868758125415 0.42347896434486448 0 0.22398975613312941 0.43629761405704492 0 0.22398975613312941 0.43629761405704492 0 0.2127377907128086 0.43565352473930291 0 0.21811839695373281 0.42965561655590312 0 0.2127377907128086 0.43565352473930291 0 0.21811839695373281 0.42965561655590312 0 0.20936302575552909 0.4278610054835954 0 0.21811839695373281 0.42965561655590312 0 0.20936302575552909 0.4278610054835954 0 0.2128735592616465 0.41828966258567202 0 0.2242489767006676 0.41989406390079448 0 0.21811839695373281 0.42965561655590312 0 0.2128735592616465 0.41828966258567202 0 0.20936302575552909 0.4278610054835954 0 0.2128735592616465 0.41828966258567202 0 0.20039731833075591 0.42093274872328201 0 0.20936302575552909 0.4278610054835954 0 0.20039731833075591 0.42093274872328201 0 0.20268806351870211 0.43477347481381712 0 0.2127377907128086 0.43565352473930291 0 0.20936302575552909 0.4278610054835954 0 0.20268806351870211 0.43477347481381712 0 0.2210895635104875 0.41310271821505562 0 0.213741679716004 0.40716373255343857 0 0.2128735592616465 0.41828966258567202 0 0.2128735592616465 0.41828966258567202 0 0.20434056635788311 0.4104052143373263 0 0.20039731833075591 0.42093274872328201 0 0.213741679716004 0.40716373255343857 0 0.2128735592616465 0.41828966258567202 0 0.20434056635788311 0.4104052143373263 0 0.1866571042593006 0.42779559815619711 0 0.18897277856493469 0.40620771451460352 0 0.20039731833075591 0.42093274872328201 0 0.18897277856493469 0.40620771451460352 0 0.20434056635788311 0.4104052143373263 0 0.20039731833075591 0.42093274872328201 0 0.1866571042593006 0.42779559815619711 0 0.20268806351870211 0.43477347481381712 0 0.1926048573679722 0.44349481772051302 0 0.1866571042593006 0.42779559815619711 0 0.20039731833075591 0.42093274872328201 0 0.20268806351870211 0.43477347481381712 0 0.20268806351870211 0.43477347481381712 0 0.1926048573679722 0.44349481772051302 0 0.20959263645371781 0.44911626376922581 0 0.1926048573679722 0.44349481772051302 0 0.19238581774458169 0.46155817305801961 0 0.20959263645371781 0.44911626376922581 0 0.19238581774458169 0.46155817305801961 0 0.21258877640667209 0.46226531802147308 0 0.20640925040967609 0.47415258875439398 0 0.19238581774458169 0.46155817305801961 0 0.21258877640667209 0.46226531802147308 0 0.20959263645371781 0.44911626376922581 0 0.21258877640667209 0.46226531802147308 0 0.20959263645371781 0.44911626376922581 0 0.22237566426784519 0.45298677781629709 0 0.2127377907128086 0.43565352473930291 0 0.20268806351870211 0.43477347481381712 0 0.20959263645371781 0.44911626376922581 0 0.20959263645371781 0.44911626376922581 0 0.22166070101726651 0.44590863734145142 0 0.22237566426784519 0.45298677781629709 0 0.22398975613312941 0.43629761405704492 0 0.20959263645371781 0.44911626376922581 0 0.22398975613312941 0.43629761405704492 0 0.20959263645371781 0.44911626376922581 0 0.22166070101726651 0.44590863734145142 0 0.22398975613312941 0.43629761405704492 0 0.2127377907128086 0.43565352473930291 0 0.20959263645371781 0.44911626376922581 0 0.22398975613312941 0.43629761405704492 0 0.23068474721437371 0.44523389372323779 0 0.22166070101726651 0.44590863734145142 0 0.2362739382004802 0.43687989130365829 0 0.22398975613312941 0.43629761405704492 0 0.23068474721437371 0.44523389372323779 0 0.23068474721437371 0.44523389372323779 0 0.22166070101726651 0.44590863734145142 0 0.22237566426784519 0.45298677781629709 0 0.21258877640667209 0.46226531802147308 0 0.22237566426784519 0.45298677781629709 0 0.2235561040573327 0.4746040738513545 0 0.23068474721437371 0.44523389372323779 0 0.22237566426784519 0.45298677781629709 0 0.2397695184178931 0.46865785187753128 0 0.22237566426784519 0.45298677781629709 0 0.2397695184178931 0.46865785187753128 0 0.22237566426784519 0.45298677781629709 0 0.2397695184178931 0.46865785187753128 0 0.2235561040573327 0.4746040738513545 0 0.23068474721437371 0.44523389372323779 0 0.2397695184178931 0.46865785187753128 0 0.24299435070596459 0.44666352649766328 0 0.2397695184178931 0.46865785187753128 0 0.24299435070596459 0.44666352649766328 0 0.25289743674024862 0.45440379631961753 0 0.24299435070596459 0.44666352649766328 0 0.25307793640191562 0.44090379946232228 0 0.25289743674024862 0.45440379631961753 0 0.24543322266541101 0.43541889254993399 0 0.24299435070596459 0.44666352649766328 0 0.25307793640191562 0.44090379946232228 0 0.2362739382004802 0.43687989130365829 0 0.23068474721437371 0.44523389372323779 0 0.24299435070596459 0.44666352649766328 0 0.2362739382004802 0.43687989130365829 0 0.24543322266541101 0.43541889254993399 0 0.24299435070596459 0.44666352649766328 0 0.2499447275231288 0.5 0 0.2395145350799289 0.48538673505267182 0 0.25716337256794097 0.48432892593876548 0 0.2499447275231288 0.5 0 0.2395145350799289 0.48538673505267182 0 0.22533222832826871 0.5 0 0.2397695184178931 0.46865785187753128 0 0.2395145350799289 0.48538673505267182 0 0.25716337256794097 0.48432892593876548 0 0.2397695184178931 0.46865785187753128 0 0.25716337256794097 0.48432892593876548 0 0.2397695184178931 0.46865785187753128 0 0.2395145350799289 0.48538673505267182 0 0.2235561040573327 0.4746040738513545 0 0.2235561040573327 0.4746040738513545 0 0.22533222832826871 0.5 0 0.2102406177354425 0.48757941756675399 0 0.2395145350799289 0.48538673505267182 0 0.2235561040573327 0.4746040738513545 0 0.22533222832826871 0.5 0 0.22533222832826871 0.5 0 0.2102406177354425 0.48757941756675399 0 0.20071972913340849 0.5 0 0.21258877640667209 0.46226531802147308 0 0.2235561040573327 0.4746040738513545 0 0.20640925040967609 0.47415258875439398 0 0.2235561040573327 0.4746040738513545 0 0.2102406177354425 0.48757941756675399 0 0.20640925040967609 0.47415258875439398 0 0.19238581774458169 0.46155817305801961 0 0.20640925040967609 0.47415258875439398 0 0.18961505475773399 0.48378720615058501 0 0.2102406177354425 0.48757941756675399 0 0.20640925040967609 0.47415258875439398 0 0.18961505475773399 0.48378720615058501 0 0.18961505475773399 0.48378720615058501 0 0.20071972913340849 0.5 0 0.17834327737024289 0.49978320773391688 0 0.2102406177354425 0.48757941756675399 0 0.18961505475773399 0.48378720615058501 0 0.20071972913340849 0.5 0 0.17608837414051601 0.49976136130419052 0 0.1738945195020368 0.47199597005474803 0 0.18961505475773399 0.48378720615058501 0 0.17608837414051601 0.49976136130419052 0 0.17834327737024289 0.49978320773391688 0 0.18961505475773399 0.48378720615058501 0 0.17608837414051601 0.49976136130419052 0 0.1738945195020368 0.47199597005474803 0 0.17608837414051601 0.49976136130419052 0 0.17834327737024289 0.49978320773391688 0 0.17608837414051601 0.49976136130419052 0 0.14603260252331449 0.5 0 0.15481562571134219 0.4986077548204888 0 0.17608837414051601 0.49976136130419052 0 0.15481562571134219 0.4986077548204888 0 0.17608837414051601 0.49976136130419052 0 0.16410032756018211 0.48650823537295401 0 0.1738945195020368 0.47199597005474803 0 0.16410032756018211 0.48650823537295401 0 0.15481562571134219 0.4986077548204888 0 0.15160279088683351 0.47566785531238881 0 0.17608837414051601 0.49976136130419052 0 0.16410032756018211 0.48650823537295401 0 0.15481562571134219 0.4986077548204888 0 0.16410032756018211 0.48650823537295401 0 0.1738945195020368 0.47199597005474803 0 0.15160279088683351 0.47566785531238881 0 0.19238581774458169 0.46155817305801961 0 0.18961505475773399 0.48378720615058501 0 0.1738945195020368 0.47199597005474803 0 0.1738945195020368 0.47199597005474803 0 0.1717006648635587 0.44423057880530542 0 0.19238581774458169 0.46155817305801961 0 0.1738945195020368 0.47199597005474803 0 0.1717006648635587 0.44423057880530542 0 0.1866571042593006 0.42779559815619711 0 0.1926048573679722 0.44349481772051302 0 0.1717006648635587 0.44423057880530542 0 0.1926048573679722 0.44349481772051302 0 0.19238581774458169 0.46155817305801961 0 0.1717006648635587 0.44423057880530542 0 0.15680531250106761 0.42943783501172711 0 0.1717006648635587 0.44423057880530542 0 0.1485921674465126 0.450895386405332 0 0.1738945195020368 0.47199597005474803 0 0.1717006648635587 0.44423057880530542 0 0.1485921674465126 0.450895386405332 0 0.1738945195020368 0.47199597005474803 0 0.1485921674465126 0.450895386405332 0 0.15160279088683351 0.47566785531238881 0 0.1485921674465126 0.450895386405332 0 0.13203429693280841 0.46485456583424678 0 0.15160279088683351 0.47566785531238881 0 0.14015317038045719 0.42842951568108689 0 0.1485921674465126 0.450895386405332 0 0.1268369380096746 0.44485403652946842 0 0.1485921674465126 0.450895386405332 0 0.1268369380096746 0.44485403652946842 0 0.13203429693280841 0.46485456583424678 0 0.1181521448807476 0.47910587189452208 0 0.13203429693280841 0.46485456583424678 0 0.13691953724932671 0.48254861517922842 0 0.13203429693280841 0.46485456583424678 0 0.13691953724932671 0.48254861517922842 0 0.15160279088683351 0.47566785531238881 0 0.1159579751080806 0.500000000000004 0 0.13354287728216829 0.49745414833678719 0 0.14603260252331449 0.5 0 0.1181521448807476 0.47910587189452208 0 0.13691953724932671 0.48254861517922842 0 0.13354287728216829 0.49745414833678719 0 0.13354287728216829 0.49745414833678719 0 0.14603260252331449 0.5 0 0.15481562571134219 0.4986077548204888 0 0.13354287728216829 0.49745414833678719 0 0.15481562571134219 0.4986077548204888 0 0.13691953724932671 0.48254861517922842 0 0.13354287728216829 0.49745414833678719 0 0.15481562571134219 0.4986077548204888 0 0.13691953724932671 0.48254861517922842 0 0.15481562571134219 0.4986077548204888 0 0.15160279088683351 0.47566785531238881 0 0.35941744806433051 0.47884355145640378 0 0.34904024096446362 0.46486630418036079 0 0.34147417475646269 0.48228920681662718 0 0.36012784339578502 0.5 0 0.35941744806433051 0.47884355145640378 0 0.34147417475646269 0.48228920681662718 0 0.36012784339578502 0.5 0 0.34147417475646269 0.48228920681662718 0 0.33160430450318618 0.5 0 0.36012784339578502 0.5 0 0.37556414921668291 0.48330088294525653 0 0.38865138228838358 0.5 0 0.36012784339578502 0.5 0 0.35941744806433051 0.47884355145640378 0 0.37556414921668291 0.48330088294525653 0 0.35941744806433051 0.47884355145640378 0 0.37088083198825822 0.46376136333977419 0 0.37556414921668291 0.48330088294525653 0 0.35941744806433051 0.47884355145640378 0 0.37088083198825822 0.46376136333977419 0 0.34904024096446362 0.46486630418036079 0 0.37088083198825822 0.46376136333977419 0 0.3739039730899622 0.44823051421869181 0 0.35523397852359112 0.44565196188381379 0 0.3739039730899622 0.44823051421869181 0 0.35523397852359112 0.44565196188381379 0 0.36270600567134031 0.42996737180436151 0 0.3739039730899622 0.44823051421869181 0 0.36270600567134031 0.42996737180436151 0 0.38831176678627888 0.43826958822440631 0 0.35523397852359112 0.44565196188381379 0 0.34904024096446362 0.46486630418036079 0 0.33705007144708499 0.45059312110025268 0 0.37088083198825822 0.46376136333977419 0 0.35523397852359112 0.44565196188381379 0 0.34904024096446362 0.46486630418036079 0 0.33038676513379639 0.46508507929821291 0 0.33705007144708499 0.45059312110025268 0 0.32196633033810751 0.44895268801754479 0 0.34904024096446362 0.46486630418036079 0 0.33038676513379639 0.46508507929821291 0 0.33705007144708499 0.45059312110025268 0 0.35523397852359112 0.44565196188381379 0 0.33705007144708499 0.45059312110025268 0 0.33329905320622111 0.43523943913228619 0 0.33705007144708499 0.45059312110025268 0 0.32196633033810751 0.44895268801754479 0 0.33329905320622111 0.43523943913228619 0 0.32196633033810751 0.44895268801754479 0 0.30233726636647662 0.44611835726920268 0 0.31631889127748031 0.42847101164256662 0 0.33038676513379639 0.46508507929821291 0 0.32196633033810751 0.44895268801754479 0 0.31240593459758581 0.46820911966274809 0 0.33038676513379639 0.46508507929821291 0 0.32220990081548972 0.48440866523194132 0 0.31240593459758581 0.46820911966274809 0 0.32220990081548972 0.48440866523194132 0 0.30308076561058761 0.5 0 0.31240593459758581 0.46820911966274809 0 0.33038676513379639 0.46508507929821291 0 0.32220990081548972 0.48440866523194132 0 0.34147417475646269 0.48228920681662718 0 0.34904024096446362 0.46486630418036079 0 0.33038676513379639 0.46508507929821291 0 0.34147417475646269 0.48228920681662718 0 0.32220990081548972 0.48440866523194132 0 0.34147417475646269 0.48228920681662718 0 0.33160430450318618 0.5 0 0.32220990081548972 0.48440866523194132 0 0.33160430450318618 0.5 0 0.30308076561058761 0.5 0 0.30308076561058761 0.5 0 0.2940912068929013 0.46742747471470258 0 0.31240593459758581 0.46820911966274809 0 0.30308076561058761 0.5 0 0.27948837381892028 0.47861494668875643 0 0.2940912068929013 0.46742747471470258 0 0.30308076561058761 0.5 0 0.27455722671798888 0.49999999999999978 0 0.27948837381892028 0.47861494668875643 0 0.27455722671798888 0.49999999999999978 0 0.25716337256794097 0.48432892593876548 0 0.27455722671798888 0.49999999999999978 0 0.27948837381892028 0.47861494668875643 0 0.25716337256794097 0.48432892593876548 0 0.27948837381892028 0.47861494668875643 0 0.25716337256794097 0.48432892593876548 0 0.26361544674464549 0.46598982738786382 0 0.2397695184178931 0.46865785187753128 0 0.25716337256794097 0.48432892593876548 0 0.26361544674464549 0.46598982738786382 0 0.2499447275231288 0.5 0 0.27455722671798888 0.49999999999999978 0 0.25716337256794097 0.48432892593876548 0 0.26540211326641372 0.44725832193153309 0 0.25307793640191562 0.44090379946232228 0 0.26266894896098553 0.43382753843677418 0 0.26540211326641372 0.44725832193153309 0 0.25307793640191562 0.44090379946232228 0 0.25289743674024862 0.45440379631961753 0 0.26540211326641372 0.44725832193153309 0 0.26361544674464549 0.46598982738786382 0 0.25289743674024862 0.45440379631961753 0 0.2397695184178931 0.46865785187753128 0 0.26361544674464549 0.46598982738786382 0 0.25289743674024862 0.45440379631961753 0 0.27948837381892028 0.47861494668875643 0 0.26361544674464549 0.46598982738786382 0 0.28442222437945791 0.45394345209120618 0 0.26540211326641372 0.44725832193153309 0 0.26361544674464549 0.46598982738786382 0 0.28442222437945791 0.45394345209120618 0 0.26540211326641372 0.44725832193153309 0 0.28063852310889309 0.4366006916833105 0 0.26266894896098553 0.43382753843677418 0 0.26540211326641372 0.44725832193153309 0 0.28442222437945791 0.45394345209120618 0 0.28063852310889309 0.4366006916833105 0 0.28442222437945791 0.45394345209120618 0 0.30233726636647662 0.44611835726920268 0 0.28063852310889309 0.4366006916833105 0 0.2940912068929013 0.46742747471470258 0 0.28442222437945791 0.45394345209120618 0 0.30233726636647662 0.44611835726920268 0 0.27948837381892028 0.47861494668875643 0 0.2940912068929013 0.46742747471470258 0 0.28442222437945791 0.45394345209120618 0 0.2940912068929013 0.46742747471470258 0 0.31240593459758581 0.46820911966274809 0 0.30233726636647662 0.44611835726920268 0 0.32196633033810751 0.44895268801754479 0 0.31240593459758581 0.46820911966274809 0 0.30233726636647662 0.44611835726920268 0 0.30233726636647662 0.44611835726920268 0 0.29559113321076341 0.42416669310407701 0 0.31631889127748031 0.42847101164256662 0 0.30637626188319128 0.41800557202955979 0 0.29559113321076341 0.42416669310407701 0 0.31631889127748031 0.42847101164256662 0 0.30637626188319128 0.41800557202955979 0 0.29559113321076341 0.42416669310407701 0 0.30118405151922961 0.40434204159513087 0 0.30637626188319128 0.41800557202955979 0 0.30118405151922961 0.40434204159513087 0 0.31638899430655898 0.41463485516653198 0 0.27695418328824861 0.41172589463238041 0 0.30118405151922961 0.40434204159513087 0 0.29559113321076341 0.42416669310407701 0 0.27695418328824861 0.41172589463238041 0 0.30118405151922961 0.40434204159513087 0 0.29559113321076341 0.42416669310407701 0 0.28122463192783909 0.42465810624099948 0 0.27695418328824861 0.41172589463238041 0 0.30233726636647662 0.44611835726920268 0 0.29559113321076341 0.42416669310407701 0 0.28063852310889309 0.4366006916833105 0 0.29559113321076341 0.42416669310407701 0 0.28063852310889309 0.4366006916833105 0 0.28122463192783909 0.42465810624099948 0 0.28063852310889309 0.4366006916833105 0 0.27171468810345151 0.42613914554422971 0 0.26266894896098553 0.43382753843677418 0 0.27171468810345151 0.42613914554422971 0 0.26266894896098553 0.43382753843677418 0 0.2630690412067026 0.42381903168246188 0 0.28063852310889309 0.4366006916833105 0 0.27171468810345151 0.42613914554422971 0 0.28122463192783909 0.42465810624099948 0 0.27171468810345151 0.42613914554422971 0 0.28122463192783909 0.42465810624099948 0 0.27695418328824861 0.41172589463238041 0 0.27171468810345151 0.42613914554422971 0 0.27695418328824861 0.41172589463238041 0 0.2630690412067026 0.42381903168246188 0 0.27695418328824861 0.41172589463238041 0 0.25272431505726811 0.41910974766963099 0 0.2630690412067026 0.42381903168246188 0 0.27695418328824861 0.41172589463238041 0 0.2628173206521407 0.4094725459237436 0 0.25272431505726811 0.41910974766963099 0 0.27695418328824861 0.41172589463238041 0 0.25272431505726811 0.41910974766963099 0 0.2628173206521407 0.4094725459237436 0 0.25425612982894968 0.40934958201286309 0 0.25272431505726811 0.41910974766963099 0 0.25425612982894968 0.40934958201286309 0 0.25272431505726811 0.41910974766963099 0 0.25272431505726811 0.41910974766963099 0 0.25128307062355898 0.42829283212929448 0 0.25272431505726811 0.41910974766963099 0 0.25128307062355898 0.42829283212929448 0 0.2630690412067026 0.42381903168246188 0 0.25307793640191562 0.44090379946232228 0 0.25128307062355898 0.42829283212929448 0 0.26266894896098553 0.43382753843677418 0 0.25128307062355898 0.42829283212929448 0 0.26266894896098553 0.43382753843677418 0 0.2630690412067026 0.42381903168246188 0 0.25768124422427657 0.38752600091818851 0 0.26110635861960457 0.36570241982351381 0 0.25768124422427657 0.38752600091818851 0 0.27542927181838278 0.37893498932047781 0 0.26110635861960457 0.36570241982351381 0 0.2467744606880356 0.39584089270316469 0 0.25425612982894968 0.40934958201286309 0 0.25768124422427657 0.38752600091818851 0 0.25425612982894968 0.40934958201286309 0 0.25768124422427657 0.38752600091818851 0 0.25425612982894968 0.40934958201286309 0 0.25768124422427657 0.38752600091818851 0 0.26733465443409549 0.39770495938009931 0 0.2628173206521407 0.4094725459237436 0 0.25425612982894968 0.40934958201286309 0 0.26733465443409549 0.39770495938009931 0 0.25425612982894968 0.40934958201286309 0 0.26733465443409549 0.39770495938009931 0 0.27695418328824861 0.41172589463238041 0 0.26733465443409549 0.39770495938009931 0 0.28385379034161767 0.39580650866637529 0 0.26733465443409549 0.39770495938009931 0 0.27542927181838278 0.37893498932047781 0 0.28385379034161767 0.39580650866637529 0 0.27695418328824861 0.41172589463238041 0 0.2628173206521407 0.4094725459237436 0 0.26733465443409549 0.39770495938009931 0 0.25768124422427657 0.38752600091818851 0 0.26733465443409549 0.39770495938009931 0 0.27542927181838278 0.37893498932047781 0 0.27542927181838278 0.37893498932047781 0 0.28385379034161767 0.39580650866637529 0 0.29836679064813187 0.38632465840378821 0 0.27542927181838278 0.37893498932047781 0 0.29836679064813187 0.38632465840378821 0 0.28632795174045672 0.36264130238425191 0 0.27695418328824861 0.41172589463238041 0 0.28385379034161767 0.39580650866637529 0 0.30118405151922961 0.40434204159513087 0 0.28385379034161767 0.39580650866637529 0 0.30118405151922961 0.40434204159513087 0 0.29836679064813187 0.38632465840378821 0 0.30118405151922961 0.40434204159513087 0 0.31246472811083209 0.39098801198699851 0 0.29836679064813187 0.38632465840378821 0 0.31246472811083209 0.39098801198699851 0 0.29836679064813187 0.38632465840378821 0 0.31685025883591661 0.3790255610106204 0 0.29836679064813187 0.38632465840378821 0 0.31685025883591661 0.3790255610106204 0 0.30606599884082941 0.36317623976023122 0 0.31685025883591661 0.3790255610106204 0 0.32429626458655209 0.38754556906186471 0 0.33396297058320279 0.37979601670120833 0 0.31246472811083209 0.39098801198699851 0 0.31685025883591661 0.3790255610106204 0 0.32429626458655209 0.38754556906186471 0 0.33396297058320279 0.37979601670120833 0 0.33278944565259838 0.39096006705261488 0 0.35190293067442968 0.38758847192644802 0 0.32429626458655209 0.38754556906186471 0 0.33396297058320279 0.37979601670120833 0 0.33278944565259838 0.39096006705261488 0 0.3321587874544773 0.40216804770996539 0 0.35190293067442968 0.38758847192644802 0 0.33278944565259838 0.39096006705261488 0 0.3321587874544773 0.40216804770996539 0 0.35190293067442968 0.38758847192644802 0 0.33278944565259838 0.39096006705261488 0 0.3321587874544773 0.40216804770996539 0 0.32541391975021039 0.39695818855788129 0 0.30118405151922961 0.40434204159513087 0 0.31246472811083209 0.39098801198699851 0 0.32541391975021039 0.39695818855788129 0 0.30118405151922961 0.40434204159513087 0 0.32541391975021039 0.39695818855788129 0 0.3321587874544773 0.40216804770996539 0 0.32541391975021039 0.39695818855788129 0 0.32135107222113318 0.40705477412460561 0 0.30118405151922961 0.40434204159513087 0 0.32541391975021039 0.39695818855788129 0 0.32135107222113318 0.40705477412460561 0 0.32429626458655209 0.38754556906186471 0 0.33278944565259838 0.39096006705261488 0 0.32541391975021039 0.39695818855788129 0 0.31246472811083209 0.39098801198699851 0 0.32429626458655209 0.38754556906186471 0 0.32541391975021039 0.39695818855788129 0 0.30118405151922961 0.40434204159513087 0 0.31638899430655898 0.41463485516653198 0 0.32135107222113318 0.40705477412460561 0 0.30637626188319128 0.41800557202955979 0 0.31638899430655898 0.41463485516653198 0 0.31631889127748031 0.42847101164256662 0 0.31638899430655898 0.41463485516653198 0 0.31631889127748031 0.42847101164256662 0 0.33160960807518969 0.41717073759351808 0 0.31638899430655898 0.41463485516653198 0 0.32135107222113318 0.40705477412460561 0 0.33160960807518969 0.41717073759351808 0 0.32196633033810751 0.44895268801754479 0 0.31631889127748031 0.42847101164256662 0 0.33329905320622111 0.43523943913228619 0 0.31631889127748031 0.42847101164256662 0 0.33329905320622111 0.43523943913228619 0 0.33160960807518969 0.41717073759351808 0 0.33329905320622111 0.43523943913228619 0 0.33160960807518969 0.41717073759351808 0 0.34680142255515761 0.42677857726239032 0 0.33160960807518969 0.41717073759351808 0 0.35258406569808348 0.40797278878207899 0 0.34680142255515761 0.42677857726239032 0 0.3321587874544773 0.40216804770996539 0 0.33160960807518969 0.41717073759351808 0 0.35258406569808348 0.40797278878207899 0 0.3321587874544773 0.40216804770996539 0 0.32135107222113318 0.40705477412460561 0 0.33160960807518969 0.41717073759351808 0 0.35258406569808348 0.40797278878207899 0 0.34680142255515761 0.42677857726239032 0 0.36270600567134031 0.42996737180436151 0 0.35523397852359112 0.44565196188381379 0 0.34680142255515761 0.42677857726239032 0 0.36270600567134031 0.42996737180436151 0 0.35523397852359112 0.44565196188381379 0 0.33329905320622111 0.43523943913228619 0 0.34680142255515761 0.42677857726239032 0 0.35258406569808348 0.40797278878207899 0 0.37234689329828258 0.40235042049070202 0 0.37600920761416617 0.4189630949491861 0 0.35258406569808348 0.40797278878207899 0 0.36270600567134031 0.42996737180436151 0 0.37600920761416617 0.4189630949491861 0 0.35258406569808348 0.40797278878207899 0 0.37234689329828258 0.40235042049070202 0 0.36560552752104791 0.39157162495380321 0 0.37234689329828258 0.40235042049070202 0 0.36560552752104791 0.39157162495380321 0 0.37954667404006182 0.38693754742685732 0 0.35190293067442968 0.38758847192644802 0 0.37164707389438162 0.37300889614292948 0 0.36560552752104791 0.39157162495380321 0 0.37164707389438162 0.37300889614292948 0 0.37954667404006182 0.38693754742685732 0 0.36560552752104791 0.39157162495380321 0 0.35190293067442968 0.38758847192644802 0 0.37164707389438162 0.37300889614292948 0 0.35190293067442968 0.38758847192644802 0 0.3502699817108223 0.36810123543595219 0 0.37164707389438162 0.37300889614292948 0 0.33396297058320279 0.37979601670120833 0 0.35190293067442968 0.38758847192644802 0 0.3502699817108223 0.36810123543595219 0 0.3321587874544773 0.40216804770996539 0 0.35258406569808348 0.40797278878207899 0 0.35190293067442968 0.38758847192644802 0 0.35258406569808348 0.40797278878207899 0 0.36560552752104791 0.39157162495380321 0 0.35190293067442968 0.38758847192644802 0 0.3502699817108223 0.36810123543595219 0 0.3594237842053456 0.35145667369099892 0 0.33790891690249852 0.34659774172784902 0 0.37164707389438162 0.37300889614292948 0 0.3594237842053456 0.35145667369099892 0 0.3502699817108223 0.36810123543595219 0 0.37164707389438162 0.37300889614292948 0 0.3594237842053456 0.35145667369099892 0 0.3594237842053456 0.35145667369099892 0 0.36473176787229478 0.33593830767487048 0 0.37502222645091138 0.35209631528788943 0 0.37164707389438162 0.37300889614292948 0 0.3594237842053456 0.35145667369099892 0 0.37502222645091138 0.35209631528788943 0 0.36473176787229478 0.33593830767487048 0 0.38205499985883618 0.33859476847568148 0 0.37502222645091138 0.35209631528788943 0 0.36473176787229478 0.33593830767487048 0 0.37547604290798409 0.32536411734344328 0 0.38205499985883618 0.33859476847568148 0 0.36891808154843297 0.31491442274563353 0 0.35933595400268048 0.32252231114922109 0 0.37547604290798409 0.32536411734344328 0 0.36473176787229478 0.33593830767487048 0 0.35933595400268048 0.32252231114922109 0 0.37547604290798409 0.32536411734344328 0 0.36891808154843297 0.31491442274563353 0 0.35933595400268048 0.32252231114922109 0 0.35890266197979609 0.31140234212675688 0 0.35933595400268048 0.32252231114922109 0 0.34696107592017611 0.31440218095809169 0 0.35890266197979609 0.31140234212675688 0 0.35933595400268048 0.32252231114922109 0 0.34696107592017611 0.31440218095809169 0 0.3472004945163098 0.3299044512390682 0 0.36473176787229478 0.33593830767487048 0 0.35933595400268048 0.32252231114922109 0 0.3472004945163098 0.3299044512390682 0 0.3594237842053456 0.35145667369099892 0 0.3472004945163098 0.3299044512390682 0 0.3594237842053456 0.35145667369099892 0 0.36473176787229478 0.33593830767487048 0 0.3472004945163098 0.3299044512390682 0 0.3594237842053456 0.35145667369099892 0 0.3472004945163098 0.3299044512390682 0 0.33790891690249852 0.34659774172784902 0 0.3472004945163098 0.3299044512390682 0 0.33053530041995788 0.32612558006804998 0 0.33790891690249852 0.34659774172784902 0 0.3472004945163098 0.3299044512390682 0 0.33497720482727378 0.30835222878713769 0 0.3472004945163098 0.3299044512390682 0 0.33053530041995788 0.32612558006804998 0 0.33497720482727378 0.30835222878713769 0 0.34696107592017611 0.31440218095809169 0 0.3472004945163098 0.3299044512390682 0 0.33497720482727378 0.30835222878713769 0 0.33053530041995788 0.32612558006804998 0 0.31474784082911089 0.31855413464633281 0 0.33497720482727378 0.30835222878713769 0 0.31474784082911089 0.31855413464633281 0 0.33497720482727378 0.30835222878713769 0 0.33053530041995788 0.32612558006804998 0 0.3136499146147318 0.34115412833690351 0 0.33790891690249852 0.34659774172784902 0 0.33053530041995788 0.32612558006804998 0 0.31474784082911089 0.31855413464633281 0 0.3136499146147318 0.34115412833690351 0 0.3136499146147318 0.34115412833690351 0 0.32637402594782372 0.36284438159612098 0 0.30606599884082941 0.36317623976023122 0 0.3136499146147318 0.34115412833690351 0 0.33790891690249852 0.34659774172784902 0 0.32637402594782372 0.36284438159612098 0 0.3502699817108223 0.36810123543595219 0 0.33790891690249852 0.34659774172784902 0 0.32637402594782372 0.36284438159612098 0 0.33396297058320279 0.37979601670120833 0 0.3502699817108223 0.36810123543595219 0 0.32637402594782372 0.36284438159612098 0 0.31685025883591661 0.3790255610106204 0 0.32637402594782372 0.36284438159612098 0 0.30606599884082941 0.36317623976023122 0 0.31685025883591661 0.3790255610106204 0 0.33396297058320279 0.37979601670120833 0 0.32637402594782372 0.36284438159612098 0 0.29836679064813187 0.38632465840378821 0 0.30606599884082941 0.36317623976023122 0 0.28632795174045672 0.36264130238425191 0 0.3136499146147318 0.34115412833690351 0 0.30606599884082941 0.36317623976023122 0 0.29482705125791592 0.34706740682970239 0 0.29482705125791592 0.34706740682970239 0 0.28632795174045672 0.36264130238425191 0 0.27428911283278151 0.33895794636471549 0 0.30606599884082941 0.36317623976023122 0 0.29482705125791592 0.34706740682970239 0 0.28632795174045672 0.36264130238425191 0 0.29836679064813187 0.38632465840378821 0 0.28632795174045672 0.36264130238425191 0 0.27542927181838278 0.37893498932047781 0 0.27233683360523142 0.35802309932435972 0 0.26110635861960457 0.36570241982351381 0 0.27542927181838278 0.37893498932047781 0 0.28632795174045672 0.36264130238425191 0 0.27233683360523142 0.35802309932435972 0 0.28632795174045672 0.36264130238425191 0 0.27428911283278151 0.33895794636471549 0 0.27233683360523142 0.35802309932435972 0 0.26453147301493157 0.34387883872883912 0 0.27428911283278151 0.33895794636471549 0 0.27233683360523142 0.35802309932435972 0 0.26453147301493157 0.34387883872883912 0 0.26110635861960457 0.36570241982351381 0 0.28632795174045672 0.36264130238425191 0 0.27233683360523142 0.35802309932435972 0 0.27428911283278151 0.33895794636471549 0 0.26453147301493157 0.34387883872883912 0 0.26110635861960457 0.36570241982351381 0 0.26453147301493157 0.34387883872883912 0 0.2549064962932388 0.35651835030752899 0 0.26110635861960457 0.36570241982351381 0 0.2435893676352921 0.35444018843789149 0 0.26453147301493157 0.34387883872883912 0 0.25551134348532561 0.34391408179685279 0 0.2435893676352921 0.35444018843789149 0 0.26453147301493157 0.34387883872883912 0 0.2549064962932388 0.35651835030752899 0 0.2435893676352921 0.35444018843789149 0 0.26453147301493157 0.34387883872883912 0 0.2435893676352921 0.35444018843789149 0 0.25551134348532561 0.34391408179685279 0 0.25262120207229127 0.34084517858386998 0 0.2453621331743529 0.37093673251849368 0 0.25768124422427657 0.38752600091818851 0 0.26110635861960457 0.36570241982351381 0 0.2453621331743529 0.37093673251849368 0 0.25061804429220852 0.36201224904723989 0 0.26110635861960457 0.36570241982351381 0 0.2549064962932388 0.35651835030752899 0 0.25061804429220852 0.36201224904723989 0 0.26110635861960457 0.36570241982351381 0 0.26523766667612919 0.32115152637158728 0 0.26165303650928989 0.32725016872984808 0 0.25375848191490757 0.31919031353891703 0 0.26523766667612919 0.32115152637158728 0 0.25375848191490757 0.31919031353891703 0 0.25810305548334572 0.30711599202849438 0 0.26523766667612919 0.32115152637158728 0 0.25810305548334572 0.30711599202849438 0 0.26165303650928989 0.32725016872984808 0 0.25375848191490757 0.31919031353891703 0 0.25026421316334402 0.32948166370830623 0 0.26165303650928989 0.32725016872984808 0 0.25026421316334402 0.32948166370830623 0 0.25262120207229127 0.34084517858386998 0 0.26165303650928989 0.32725016872984808 0 0.25262120207229127 0.34084517858386998 0 0.25551134348532561 0.34391408179685279 0 0.25262120207229127 0.34084517858386998 0 0.26130333121878718 0.3364921214368109 0 0.26453147301493157 0.34387883872883912 0 0.26130333121878718 0.3364921214368109 0 0.26688590331760059 0.32887726660262823 0 0.26453147301493157 0.34387883872883912 0 0.25551134348532561 0.34391408179685279 0 0.26130333121878718 0.3364921214368109 0 0.26165303650928989 0.32725016872984808 0 0.25262120207229127 0.34084517858386998 0 0.26130333121878718 0.3364921214368109 0 0.26523766667612919 0.32115152637158728 0 0.26130333121878718 0.3364921214368109 0 0.26523766667612919 0.32115152637158728 0 0.26130333121878718 0.3364921214368109 0 0.26688590331760059 0.32887726660262823 0 0.26523766667612919 0.32115152637158728 0 0.26165303650928989 0.32725016872984808 0 0.26130333121878718 0.3364921214368109 0 0.26523766667612919 0.32115152637158728 0 0.26688590331760059 0.32887726660262823 0 0.27428911283278151 0.33895794636471549 0 0.26523766667612919 0.32115152637158728 0 0.27428911283278151 0.33895794636471549 0 0.26453147301493157 0.34387883872883912 0 0.26688590331760059 0.32887726660262823 0 0.27428911283278151 0.33895794636471549 0 0.26453147301493157 0.34387883872883912 0 0.26688590331760059 0.32887726660262823 0 0.26453147301493157 0.34387883872883912 0 0.27428911283278151 0.33895794636471549 0 0.26523766667612919 0.32115152637158728 0 0.28136612586454418 0.31650453761857811 0 0.27002760382913682 0.30247480522037379 0 0.26523766667612919 0.32115152637158728 0 0.27428911283278151 0.33895794636471549 0 0.28136612586454418 0.31650453761857811 0 0.28136612586454418 0.31650453761857811 0 0.29451847683094629 0.32875604050552421 0 0.29994974828456672 0.31343017051622418 0 0.27428911283278151 0.33895794636471549 0 0.28136612586454418 0.31650453761857811 0 0.29451847683094629 0.32875604050552421 0 0.29482705125791592 0.34706740682970239 0 0.27428911283278151 0.33895794636471549 0 0.29451847683094629 0.32875604050552421 0 0.27428911283278151 0.33895794636471549 0 0.29451847683094629 0.32875604050552421 0 0.31474784082911089 0.31855413464633281 0 0.3136499146147318 0.34115412833690351 0 0.29451847683094629 0.32875604050552421 0 0.3136499146147318 0.34115412833690351 0 0.29482705125791592 0.34706740682970239 0 0.29451847683094629 0.32875604050552421 0 0.31474784082911089 0.31855413464633281 0 0.29451847683094629 0.32875604050552421 0 0.31474784082911089 0.31855413464633281 0 0.29451847683094629 0.32875604050552421 0 0.29994974828456672 0.31343017051622418 0 0.31474784082911089 0.31855413464633281 0 0.29994974828456672 0.31343017051622418 0 0.31131206102322118 0.3028397320694281 0 0.31131206102322118 0.3028397320694281 0 0.29066983242617889 0.30265726864490111 0 0.29994974828456672 0.31343017051622418 0 0.31131206102322118 0.3028397320694281 0 0.29066983242617889 0.30265726864490111 0 0.31131206102322118 0.3028397320694281 0 0.30254030922848391 0.29539064839618068 0 0.29066983242617889 0.30265726864490111 0 0.30580913674198351 0.28179156682018969 0 0.31173941421315848 0.29014030815013181 0 0.31720312288744568 0.27701279582011601 0 0.31131206102322118 0.3028397320694281 0 0.31173941421315848 0.29014030815013181 0 0.30254030922848391 0.29539064839618068 0 0.31173941421315848 0.29014030815013181 0 0.30254030922848391 0.29539064839618068 0 0.29643992925137691 0.28592528472026207 0 0.30580913674198351 0.28179156682018969 0 0.31173941421315848 0.29014030815013181 0 0.29643992925137691 0.28592528472026207 0 0.31173941421315848 0.29014030815013181 0 0.29643992925137691 0.28592528472026207 0 0.29643992925137691 0.28592528472026207 0 0.29066983242617889 0.30265726864490111 0 0.27512155731924459 0.28261267637546511 0 0.30254030922848391 0.29539064839618068 0 0.29643992925137691 0.28592528472026207 0 0.29066983242617889 0.30265726864490111 0 0.28136612586454418 0.31650453761857811 0 0.29994974828456672 0.31343017051622418 0 0.29066983242617889 0.30265726864490111 0 0.29066983242617889 0.30265726864490111 0 0.27002760382913682 0.30247480522037379 0 0.28136612586454418 0.31650453761857811 0 0.29066983242617889 0.30265726864490111 0 0.27002760382913682 0.30247480522037379 0 0.26523766667612919 0.32115152637158728 0 0.27002760382913682 0.30247480522037379 0 0.29066983242617889 0.30265726864490111 0 0.27002760382913682 0.30247480522037379 0 0.27512155731924459 0.28261267637546511 0 0.27002760382913682 0.30247480522037379 0 0.27512155731924459 0.28261267637546511 0 0.26101526042025142 0.29089873450787701 0 0.27002760382913682 0.30247480522037379 0 0.27512155731924459 0.28261267637546511 0 0.27512155731924459 0.28261267637546511 0 0.26101526042025142 0.29089873450787701 0 0.25931436089426951 0.27642138959578888 0 0.24977120520341911 0.28701821694709911 0 0.26101526042025142 0.29089873450787701 0 0.25931436089426951 0.27642138959578888 0 0.24977120520341911 0.28701821694709911 0 0.26101526042025142 0.29089873450787701 0 0.25161633839361708 0.30231206201048039 0 0.27002760382913682 0.30247480522037379 0 0.25161633839361708 0.30231206201048039 0 0.26523766667612919 0.32115152637158728 0 0.27002760382913682 0.30247480522037379 0 0.25810305548334572 0.30711599202849438 0 0.27002760382913682 0.30247480522037379 0 0.25161633839361708 0.30231206201048039 0 0.25810305548334572 0.30711599202849438 0 0.27002760382913682 0.30247480522037379 0 0.26101526042025142 0.29089873450787701 0 0.25161633839361708 0.30231206201048039 0 0.24762251716882169 0.30864802395995089 0 0.25375848191490757 0.31919031353891703 0 0.25810305548334572 0.30711599202849438 0 0.24762251716882169 0.30864802395995089 0 0.25161633839361708 0.30231206201048039 0 0.25810305548334572 0.30711599202849438 0 0.23902387221865859 0.27043873591054612 0 0.26100036705339191 0.25593539236450208 0 0.25931436089426951 0.27642138959578888 0 0.27512155731924459 0.28261267637546511 0 0.28021551080935342 0.26275054753055671 0 0.25931436089426951 0.27642138959578888 0 0.28021551080935342 0.26275054753055671 0 0.27512155731924459 0.28261267637546511 0 0.25931436089426951 0.27642138959578888 0 0.28021551080935342 0.26275054753055671 0 0.26100036705339191 0.25593539236450208 0 0.25931436089426951 0.27642138959578888 0 0.28021551080935342 0.26275054753055671 0 0.26100036705339191 0.25593539236450208 0 0.28021551080935342 0.26275054753055671 0 0.28442486254224258 0.2463376205898751 0 0.28021551080935342 0.26275054753055671 0 0.29548352595208072 0.25276417718664501 0 0.28021551080935342 0.26275054753055671 0 0.29548352595208072 0.25276417718664501 0 0.28442486254224258 0.2463376205898751 0 0.28021551080935342 0.26275054753055671 0 0.29548352595208072 0.25276417718664501 0 0.29513940397713201 0.2706748598100861 0 0.28021551080935342 0.26275054753055671 0 0.28442486254224258 0.2463376205898751 0 0.29643992925137691 0.28592528472026207 0 0.27512155731924459 0.28261267637546511 0 0.29513940397713201 0.2706748598100861 0 0.27512155731924459 0.28261267637546511 0 0.28021551080935342 0.26275054753055671 0 0.29513940397713201 0.2706748598100861 0 0.30736734659995057 0.25967026006023142 0 0.31720312288744568 0.27701279582011601 0 0.30637975255162769 0.27228737062765579 0 0.30736734659995057 0.25967026006023142 0 0.31720312288744568 0.27701279582011601 0 0.30580913674198351 0.28179156682018969 0 0.29643992925137691 0.28592528472026207 0 0.29513940397713201 0.2706748598100861 0 0.30580913674198351 0.28179156682018969 0 0.29513940397713201 0.2706748598100861 0 0.30637975255162769 0.27228737062765579 0 0.29513940397713201 0.2706748598100861 0 0.30637975255162769 0.27228737062765579 0 0.30736734659995057 0.25967026006023142 0 0.30580913674198351 0.28179156682018969 0 0.30637975255162769 0.27228737062765579 0 0.31720312288744568 0.27701279582011601 0 0.30736734659995057 0.25967026006023142 0 0.32645287516793792 0.2534464880952344 0 0.30129484237942677 0.24896316196057619 0 0.29548352595208072 0.25276417718664501 0 0.29513940397713201 0.2706748598100861 0 0.30736734659995057 0.25967026006023142 0 0.29548352595208072 0.25276417718664501 0 0.30736734659995057 0.25967026006023142 0 0.30129484237942677 0.24896316196057619 0 0.30736734659995057 0.25967026006023142 0 0.30129484237942677 0.24896316196057619 0 0.29548352595208072 0.25276417718664501 0 0.30736734659995057 0.25967026006023142 0 0.29548352595208072 0.25276417718664501 0 0.30129484237942677 0.24896316196057619 0 0.30736734659995057 0.25967026006023142 0 0.32645287516793792 0.2534464880952344 0 0.33129789907580798 0.27357709890490101 0 0.32645287516793792 0.2534464880952344 0 0.35135324764132891 0.26660931721666697 0 0.34353276186511927 0.2376624453472102 0 0.32645287516793792 0.2534464880952344 0 0.33129789907580798 0.27357709890490101 0 0.35135324764132891 0.26660931721666697 0 0.33129789907580798 0.27357709890490101 0 0.35522845155166533 0.28748393774957098 0 0.33129789907580798 0.27357709890490101 0 0.3283937976125193 0.28288756170752388 0 0.33803526931188232 0.28660502052507852 0 0.30736734659995057 0.25967026006023142 0 0.33129789907580798 0.27357709890490101 0 0.33129789907580798 0.27357709890490101 0 0.31720312288744568 0.27701279582011601 0 0.3283937976125193 0.28288756170752388 0 0.30736734659995057 0.25967026006023142 0 0.33129789907580798 0.27357709890490101 0 0.31720312288744568 0.27701279582011601 0 0.31720312288744568 0.27701279582011601 0 0.32703889917494028 0.29435533158000082 0 0.31173941421315848 0.29014030815013181 0 0.31720312288744568 0.27701279582011601 0 0.32703889917494028 0.29435533158000082 0 0.31720312288744568 0.27701279582011601 0 0.32703889917494028 0.29435533158000082 0 0.3283937976125193 0.28288756170752388 0 0.31173941421315848 0.29014030815013181 0 0.32703889917494028 0.29435533158000082 0 0.31173941421315848 0.29014030815013181 0 0.32703889917494028 0.29435533158000082 0 0.32051116600789631 0.29758939182337829 0 0.31131206102322118 0.3028397320694281 0 0.31173941421315848 0.29014030815013181 0 0.32051116600789631 0.29758939182337829 0 0.31131206102322118 0.3028397320694281 0 0.33195428962026341 0.30302219549395348 0 0.31131206102322118 0.3028397320694281 0 0.32243146034354919 0.30850321877451609 0 0.33195428962026341 0.30302219549395348 0 0.31474784082911089 0.31855413464633281 0 0.31131206102322118 0.3028397320694281 0 0.32243146034354919 0.30850321877451609 0 0.31131206102322118 0.3028397320694281 0 0.32051116600789631 0.29758939182337829 0 0.33195428962026341 0.30302219549395348 0 0.31474784082911089 0.31855413464633281 0 0.32243146034354919 0.30850321877451609 0 0.33497720482727378 0.30835222878713769 0 0.32703889917494028 0.29435533158000082 0 0.32051116600789631 0.29758939182337829 0 0.33195428962026341 0.30302219549395348 0 0.32703889917494028 0.29435533158000082 0 0.35331621070300218 0.30159475722350831 0 0.32703889917494028 0.29435533158000082 0 0.33660273890424969 0.30306328466081078 0 0.35331621070300218 0.30159475722350831 0 0.32243146034354919 0.30850321877451609 0 0.33497720482727378 0.30835222878713769 0 0.33195428962026341 0.30302219549395348 0 0.33497720482727378 0.30835222878713769 0 0.33195428962026341 0.30302219549395348 0 0.33660273890424969 0.30306328466081078 0 0.33497720482727378 0.30835222878713769 0 0.33195428962026341 0.30302219549395348 0 0.32703889917494028 0.29435533158000082 0 0.33195428962026341 0.30302219549395348 0 0.32703889917494028 0.29435533158000082 0 0.33195428962026341 0.30302219549395348 0 0.33660273890424969 0.30306328466081078 0 0.33195428962026341 0.30302219549395348 0 0.33660273890424969 0.30306328466081078 0 0.34696107592017611 0.31440218095809169 0 0.33497720482727378 0.30835222878713769 0 0.34577542782547971 0.30690812329873213 0 0.33497720482727378 0.30835222878713769 0 0.33660273890424969 0.30306328466081078 0 0.34577542782547971 0.30690812329873213 0 0.33129789907580798 0.27357709890490101 0 0.33803526931188232 0.28660502052507852 0 0.35522845155166533 0.28748393774957098 0 0.32703889917494028 0.29435533158000082 0 0.34340470768537279 0.29250976176953952 0 0.33803526931188232 0.28660502052507852 0 0.32703889917494028 0.29435533158000082 0 0.34340470768537279 0.29250976176953952 0 0.35331621070300218 0.30159475722350831 0 0.32703889917494028 0.29435533158000082 0 0.3283937976125193 0.28288756170752388 0 0.33803526931188232 0.28660502052507852 0 0.34340470768537279 0.29250976176953952 0 0.33803526931188232 0.28660502052507852 0 0.35522845155166533 0.28748393774957098 0 0.34340470768537279 0.29250976176953952 0 0.35522845155166533 0.28748393774957098 0 0.35331621070300218 0.30159475722350831 0 0.33660273890424969 0.30306328466081078 0 0.34577542782547971 0.30690812329873213 0 0.35331621070300218 0.30159475722350831 0 0.34696107592017611 0.31440218095809169 0 0.34577542782547971 0.30690812329873213 0 0.35890266197979609 0.31140234212675688 0 0.34577542782547971 0.30690812329873213 0 0.35331621070300218 0.30159475722350831 0 0.35890266197979609 0.31140234212675688 0 0.35331621070300218 0.30159475722350831 0 0.37959352223106441 0.30883418286701508 0 0.35331621070300218 0.30159475722350831 0 0.35890266197979609 0.31140234212675688 0 0.37959352223106441 0.30883418286701508 0 0.36891808154843297 0.31491442274563353 0 0.35890266197979609 0.31140234212675688 0 0.37959352223106441 0.30883418286701508 0 0.35331621070300218 0.30159475722350831 0 0.37959352223106441 0.30883418286701508 0 0.37915900402752228 0.30139077659424118 0 0.35522845155166533 0.28748393774957098 0 0.35331621070300218 0.30159475722350831 0 0.37915900402752228 0.30139077659424118 0 0.35522845155166533 0.28748393774957098 0 0.37915900402752228 0.30139077659424118 0 0.35522845155166533 0.28748393774957098 0 0.37834652839569871 0.27179832220999101 0 0.37915900402752228 0.30139077659424118 0 0.35522845155166533 0.28748393774957098 0 0.35135324764132891 0.26660931721666697 0 0.37834652839569871 0.27179832220999101 0 0.37834652839569871 0.27179832220999101 0 0.36346140581198227 0.2489327044989503 0 0.38313168943010789 0.24915105822936001 0 0.35135324764132891 0.26660931721666697 0 0.37834652839569871 0.27179832220999101 0 0.36346140581198227 0.2489327044989503 0 0.35135324764132891 0.26660931721666697 0 0.34353276186511927 0.2376624453472102 0 0.36346140581198227 0.2489327044989503 0 0.33129789907580798 0.27357709890490101 0 0.35522845155166533 0.28748393774957098 0 0.35135324764132891 0.26660931721666697 0 0.37834652839569871 0.27179832220999101 0 0.39579141488576458 0.28726443808203628 0 0.40741878708023538 0.26033295739176671 0 0.37834652839569871 0.27179832220999101 0 0.40741878708023538 0.26033295739176671 0 0.38313168943010789 0.24915105822936001 0 0.37834652839569871 0.27179832220999101 0 0.37915900402752228 0.30139077659424118 0 0.39579141488576458 0.28726443808203628 0 0.37915900402752228 0.30139077659424118 0 0.4030895565033813 0.31529761543890827 0 0.38600381902590719 0.31510601909226899 0 0.37959352223106441 0.30883418286701508 0 0.37915900402752228 0.30139077659424118 0 0.38600381902590719 0.31510601909226899 0 0.37915900402752228 0.30139077659424118 0 0.4030895565033813 0.31529761543890827 0 0.37915900402752228 0.30139077659424118 0 0.39579141488576458 0.28726443808203628 0 0.4030895565033813 0.31529761543890827 0 0.39579141488576458 0.28726443808203628 0 0.41760231516954321 0.28795375624503672 0 0.4030895565033813 0.31529761543890827 0 0.41760231516954321 0.28795375624503672 0 0.42778584325884822 0.31557455509830767 0 0.4030895565033813 0.31529761543890827 0 0.41760231516954321 0.28795375624503672 0 0.44285636301006648 0.2975099544025685 0 0.42778584325884822 0.31557455509830767 0 0.41760231516954321 0.28795375624503672 0 0.42778584325884822 0.31557455509830767 0 0.41760231516954321 0.28795375624503672 0 0.43358055878153412 0.26648832257796429 0 0.44285636301006648 0.2975099544025685 0 0.41760231516954321 0.28795375624503672 0 0.40741878708023538 0.26033295739176671 0 0.41760231516954321 0.28795375624503672 0 0.43358055878153412 0.26648832257796429 0 0.40741878708023538 0.26033295739176671 0 0.39579141488576458 0.28726443808203628 0 0.41760231516954321 0.28795375624503672 0 0.40741878708023538 0.26033295739176671 0 0.43358055878153412 0.26648832257796429 0 0.40741878708023538 0.26033295739176671 0 0.41697898989259552 0.2411205159443833 0 0.43358055878153412 0.26648832257796429 0 0.4364808034378429 0.24279813918634921 0 0.41697898989259552 0.2411205159443833 0 0.43358055878153412 0.26648832257796429 0 0.45265058905914229 0.25041858092155223 0 0.4364808034378429 0.24279813918634921 0 0.45265058905914229 0.25041858092155223 0 0.47289252882010568 0.25761516153415509 0 0.46215850355791649 0.28406087509804739 0 0.43358055878153412 0.26648832257796429 0 0.45265058905914229 0.25041858092155223 0 0.46215850355791649 0.28406087509804739 0 0.47289252882010568 0.25761516153415509 0 0.5 0.25820470379876048 0 0.4771563458419712 0.2385321447755672 0 0.47289252882010568 0.25761516153415509 0 0.48300010911807861 0.27541734435653642 0 0.46215850355791649 0.28406087509804739 0 0.48300010911807861 0.27541734435653642 0 0.5 0.25820470379876048 0 0.5 0.28570940986788917 0 0.47289252882010568 0.25761516153415509 0 0.48300010911807861 0.27541734435653642 0 0.5 0.25820470379876048 0 0.48536254280176427 0.305094307140789 0 0.5 0.28570940986788917 0 0.5 0.31321411593701798 0 0.48300010911807861 0.27541734435653642 0 0.5 0.28570940986788917 0 0.47994951321237073 0.29149657148382968 0 0.48536254280176427 0.305094307140789 0 0.5 0.28570940986788917 0 0.47994951321237073 0.29149657148382968 0 0.48300010911807861 0.27541734435653642 0 0.47994951321237073 0.29149657148382968 0 0.46215850355791649 0.28406087509804739 0 0.47994951321237073 0.29149657148382968 0 0.47038622573571692 0.31010883449225229 0 0.46215850355791649 0.28406087509804739 0 0.48536254280176427 0.305094307140789 0 0.47994951321237073 0.29149657148382968 0 0.47038622573571692 0.31010883449225229 0 0.48536254280176427 0.305094307140789 0 0.47038622573571692 0.31010883449225229 0 0.48431533362791213 0.32003248979995119 0 0.47038622573571692 0.31010883449225229 0 0.45822616873111233 0.30030257713831371 0 0.46215850355791649 0.28406087509804739 0 0.47038622573571692 0.31010883449225229 0 0.45822616873111233 0.30030257713831371 0 0.45751799767071749 0.31590796605996913 0 0.47038622573571692 0.31010883449225229 0 0.46215850355791649 0.28406087509804739 0 0.45822616873111233 0.30030257713831371 0 0.46215850355791649 0.28406087509804739 0 0.44285636301006648 0.2975099544025685 0 0.43358055878153412 0.26648832257796429 0 0.46215850355791649 0.28406087509804739 0 0.44285636301006648 0.2975099544025685 0 0.44285636301006648 0.2975099544025685 0 0.45751799767071749 0.31590796605996913 0 0.42778584325884822 0.31557455509830767 0 0.45822616873111233 0.30030257713831371 0 0.44285636301006648 0.2975099544025685 0 0.45751799767071749 0.31590796605996913 0 0.44662413980042248 0.32783918953121149 0 0.45751799767071749 0.31590796605996913 0 0.42778584325884822 0.31557455509830767 0 0.45751799767071749 0.31590796605996913 0 0.42778584325884822 0.31557455509830767 0 0.45113062581250418 0.34321587639346501 0 0.43439015164247091 0.33348743085503257 0 0.44662413980042248 0.32783918953121149 0 0.45113062581250418 0.34321587639346501 0 0.43439015164247091 0.33348743085503257 0 0.45113062581250418 0.34321587639346501 0 0.46229608061756999 0.33101011924928347 0 0.46787109998253679 0.35294432193189867 0 0.44662413980042248 0.32783918953121149 0 0.45113062581250418 0.34321587639346501 0 0.46229608061756999 0.33101011924928347 0 0.44662413980042248 0.32783918953121149 0 0.46229608061756999 0.33101011924928347 0 0.45751799767071749 0.31590796605996913 0 0.47038622573571692 0.31010883449225229 0 0.46229608061756999 0.33101011924928347 0 0.45751799767071749 0.31590796605996913 0 0.47038622573571692 0.31010883449225229 0 0.4786139479135173 0.33615679388645719 0 0.47038622573571692 0.31010883449225229 0 0.46229608061756999 0.33101011924928347 0 0.4786139479135173 0.33615679388645719 0 0.47038622573571692 0.31010883449225229 0 0.48431533362791213 0.32003248979995119 0 0.4786139479135173 0.33615679388645719 0 0.46229608061756999 0.33101011924928347 0 0.4786139479135173 0.33615679388645719 0 0.46787109998253679 0.35294432193189867 0 0.48431533362791213 0.32003248979995119 0 0.4786139479135173 0.33615679388645719 0 0.5 0.34071882200614673 0 0.48431533362791213 0.32003248979995119 0 0.5 0.34071882200614673 0 0.5 0.31321411593701798 0 0.48536254280176427 0.305094307140789 0 0.48431533362791213 0.32003248979995119 0 0.5 0.31321411593701798 0 0.48684167009131762 0.36220475328066187 0 0.5 0.36822352807527547 0 0.48347873919881201 0.37403433370194578 0 0.5 0.36822352807527547 0 0.48347873919881201 0.37403433370194578 0 0.49153844573945199 0.38197588110983982 0 0.4786139479135173 0.33615679388645719 0 0.5 0.34071882200614673 0 0.48684167009131762 0.36220475328066187 0 0.5 0.34071882200614673 0 0.48684167009131762 0.36220475328066187 0 0.5 0.36822352807527547 0 0.4786139479135173 0.33615679388645719 0 0.48684167009131762 0.36220475328066187 0 0.46787109998253679 0.35294432193189867 0 0.4786139479135173 0.33615679388645719 0 0.48684167009131762 0.36220475328066187 0 0.48684167009131762 0.36220475328066187 0 0.48347873919881201 0.37403433370194578 0 0.47074924702163629 0.3717794886876713 0 0.48684167009131762 0.36220475328066187 0 0.47074924702163629 0.3717794886876713 0 0.46787109998253679 0.35294432193189867 0 0.47074924702163629 0.3717794886876713 0 0.45840762096375498 0.3640278926468602 0 0.45421117884620332 0.38724803333565699 0 0.47074924702163629 0.3717794886876713 0 0.45840762096375498 0.3640278926468602 0 0.46787109998253679 0.35294432193189867 0 0.45113062581250418 0.34321587639346501 0 0.46787109998253679 0.35294432193189867 0 0.45113062581250418 0.34321587639346501 0 0.45840762096375498 0.3640278926468602 0 0.46787109998253679 0.35294432193189867 0 0.44430066524433698 0.36036773209534467 0 0.43439015164247091 0.33348743085503257 0 0.45113062581250418 0.34321587639346501 0 0.45840762096375498 0.3640278926468602 0 0.44430066524433698 0.36036773209534467 0 0.45113062581250418 0.34321587639346501 0 0.44430066524433698 0.36036773209534467 0 0.43439015164247091 0.33348743085503257 0 0.44430066524433698 0.36036773209534467 0 0.43454302316624371 0.37264346727180148 0 0.45421117884620332 0.38724803333565699 0 0.44430066524433698 0.36036773209534467 0 0.45421117884620332 0.38724803333565699 0 0.45840762096375498 0.3640278926468602 0 0.44430066524433698 0.36036773209534467 0 0.45421117884620332 0.38724803333565699 0 0.43454302316624371 0.37264346727180148 0 0.4173290549533169 0.36509182629494791 0 0.42609964739919171 0.34754003233131869 0 0.43454302316624371 0.37264346727180148 0 0.4173290549533169 0.36509182629494791 0 0.4174484875962593 0.38729715085364502 0 0.43454302316624371 0.37264346727180148 0 0.42609964739919171 0.34754003233131869 0 0.44430066524433698 0.36036773209534467 0 0.43454302316624371 0.37264346727180148 0 0.42609964739919171 0.34754003233131869 0 0.4173290549533169 0.36509182629494791 0 0.3989736506563431 0.3702410969628756 0 0.4174484875962593 0.38729715085364502 0 0.4173290549533169 0.36509182629494791 0 0.40958046594854608 0.34773738405509941 0 0.3989736506563431 0.3702410969628756 0 0.4173290549533169 0.36509182629494791 0 0.40958046594854608 0.34773738405509941 0 0.42609964739919171 0.34754003233131869 0 0.44430066524433698 0.36036773209534467 0 0.42609964739919171 0.34754003233131869 0 0.43439015164247091 0.33348743085503257 0 0.42609964739919171 0.34754003233131869 0 0.43439015164247091 0.33348743085503257 0 0.420187281240752 0.3252336711473246 0 0.43439015164247091 0.33348743085503257 0 0.420187281240752 0.3252336711473246 0 0.43439015164247091 0.33348743085503257 0 0.42778584325884822 0.31557455509830767 0 0.44662413980042248 0.32783918953121149 0 0.43439015164247091 0.33348743085503257 0 0.42778584325884822 0.31557455509830767 0 0.43439015164247091 0.33348743085503257 0 0.42778584325884822 0.31557455509830767 0 0.4219734683390472 0.32144404716008051 0 0.43439015164247091 0.33348743085503257 0 0.4219734683390472 0.32144404716008051 0 0.420187281240752 0.3252336711473246 0 0.42778584325884822 0.31557455509830767 0 0.4030895565033813 0.31529761543890827 0 0.420187281240752 0.3252336711473246 0 0.4030895565033813 0.31529761543890827 0 0.4219734683390472 0.32144404716008051 0 0.420187281240752 0.3252336711473246 0 0.4030895565033813 0.31529761543890827 0 0.42778584325884822 0.31557455509830767 0 0.4219734683390472 0.32144404716008051 0 0.4030895565033813 0.31529761543890827 0 0.420187281240752 0.3252336711473246 0 0.40631370185353849 0.32828785702905439 0 0.4030895565033813 0.31529761543890827 0 0.4219734683390472 0.32144404716008051 0 0.420187281240752 0.3252336711473246 0 0.40958046594854608 0.34773738405509941 0 0.420187281240752 0.3252336711473246 0 0.40958046594854608 0.34773738405509941 0 0.420187281240752 0.3252336711473246 0 0.40631370185353849 0.32828785702905439 0 0.40958046594854608 0.34773738405509941 0 0.42609964739919171 0.34754003233131869 0 0.420187281240752 0.3252336711473246 0 0.40958046594854608 0.34773738405509941 0 0.40631370185353849 0.32828785702905439 0 0.39717543747291512 0.33500042856877482 0 0.40958046594854608 0.34773738405509941 0 0.39717543747291512 0.33500042856877482 0 0.3949724140948509 0.34494793939848822 0 0.40631370185353849 0.32828785702905439 0 0.39717543747291512 0.33500042856877482 0 0.39107717742649672 0.32622252022815001 0 0.39717543747291512 0.33500042856877482 0 0.38205499985883618 0.33859476847568148 0 0.3949724140948509 0.34494793939848822 0 0.4030895565033813 0.31529761543890827 0 0.39107717742649672 0.32622252022815001 0 0.38600381902590719 0.31510601909226899 0 0.4030895565033813 0.31529761543890827 0 0.38600381902590719 0.31510601909226899 0 0.40631370185353849 0.32828785702905439 0 0.4030895565033813 0.31529761543890827 0 0.39107717742649672 0.32622252022815001 0 0.36891808154843297 0.31491442274563353 0 0.38600381902590719 0.31510601909226899 0 0.37547604290798409 0.32536411734344328 0 0.36891808154843297 0.31491442274563353 0 0.37959352223106441 0.30883418286701508 0 0.38600381902590719 0.31510601909226899 0 0.36891808154843297 0.31491442274563353 0 0.38600381902590719 0.31510601909226899 0 0.39107717742649672 0.32622252022815001 0 0.38600381902590719 0.31510601909226899 0 0.37547604290798409 0.32536411734344328 0 0.39717543747291512 0.33500042856877482 0 0.39107717742649672 0.32622252022815001 0 0.38205499985883618 0.33859476847568148 0 0.39107717742649672 0.32622252022815001 0 0.37547604290798409 0.32536411734344328 0 0.38205499985883618 0.33859476847568148 0 0.38205499985883618 0.33859476847568148 0 0.38685322466088212 0.3507424794498965 0 0.37502222645091138 0.35209631528788943 0 0.38205499985883618 0.33859476847568148 0 0.38685322466088212 0.3507424794498965 0 0.3949724140948509 0.34494793939848822 0 0.38685322466088212 0.3507424794498965 0 0.38542250821372848 0.36283676629295958 0 0.39919794253307478 0.35266463644298879 0 0.38685322466088212 0.3507424794498965 0 0.37502222645091138 0.35209631528788943 0 0.38542250821372848 0.36283676629295958 0 0.37164707389438162 0.37300889614292948 0 0.37502222645091138 0.35209631528788943 0 0.38542250821372848 0.36283676629295958 0 0.37164707389438162 0.37300889614292948 0 0.38542250821372848 0.36283676629295958 0 0.37164707389438162 0.37300889614292948 0 0.38542250821372848 0.36283676629295958 0 0.38540225129715872 0.37612168333401741 0 0.38542250821372848 0.36283676629295958 0 0.39161197753678462 0.3693237442567861 0 0.38540225129715872 0.37612168333401741 0 0.38542250821372848 0.36283676629295958 0 0.39664949997990739 0.36809543043729259 0 0.39919794253307478 0.35266463644298879 0 0.39664949997990739 0.36809543043729259 0 0.3989736506563431 0.3702410969628756 0 0.39919794253307478 0.35266463644298879 0 0.38542250821372848 0.36283676629295958 0 0.39161197753678462 0.3693237442567861 0 0.39664949997990739 0.36809543043729259 0 0.39161197753678462 0.3693237442567861 0 0.3989736506563431 0.3702410969628756 0 0.38540225129715872 0.37612168333401741 0 0.39161197753678462 0.3693237442567861 0 0.39664949997990739 0.36809543043729259 0 0.3989736506563431 0.3702410969628756 0 0.39664949997990739 0.36809543043729259 0 0.3989736506563431 0.3702410969628756 0 0.40958046594854608 0.34773738405509941 0 0.3989736506563431 0.3702410969628756 0 0.40958046594854608 0.34773738405509941 0 0.3989736506563431 0.3702410969628756 0 0.39919794253307478 0.35266463644298879 0 0.40958046594854608 0.34773738405509941 0 0.39919794253307478 0.35266463644298879 0 0.3949724140948509 0.34494793939848822 0 0.38685322466088212 0.3507424794498965 0 0.39919794253307478 0.35266463644298879 0 0.3949724140948509 0.34494793939848822 0 0.38542250821372848 0.36283676629295958 0 0.39919794253307478 0.35266463644298879 0 0.403573720170605 0.39855488889144192 0 0.4013199402743009 0.38623348129643342 0 0.3874914291352532 0.39460209595603019 0 0.403573720170605 0.39855488889144192 0 0.3874914291352532 0.39460209595603019 0 0.39389212082124742 0.41068738066363342 0 0.403573720170605 0.39855488889144192 0 0.39389212082124742 0.41068738066363342 0 0.4048971677100151 0.4086302400632098 0 0.3989736506563431 0.3702410969628756 0 0.4013199402743009 0.38623348129643342 0 0.3874914291352532 0.39460209595603019 0 0.3989736506563431 0.3702410969628756 0 0.38540225129715872 0.37612168333401741 0 0.3874914291352532 0.39460209595603019 0 0.3989736506563431 0.3702410969628756 0 0.4013199402743009 0.38623348129643342 0 0.4174484875962593 0.38729715085364502 0 0.3989736506563431 0.3702410969628756 0 0.3874914291352532 0.39460209595603019 0 0.38540225129715872 0.37612168333401741 0 0.37954667404006182 0.38693754742685732 0 0.3874914291352532 0.39460209595603019 0 0.37164707389438162 0.37300889614292948 0 0.37954667404006182 0.38693754742685732 0 0.37164707389438162 0.37300889614292948 0 0.38540225129715872 0.37612168333401741 0 0.37954667404006182 0.38693754742685732 0 0.37234689329828258 0.40235042049070202 0 0.37954667404006182 0.38693754742685732 0 0.3874914291352532 0.39460209595603019 0 0.37234689329828258 0.40235042049070202 0 0.3874914291352532 0.39460209595603019 0 0.37600920761416617 0.4189630949491861 0 0.37600920761416617 0.4189630949491861 0 0.39223207249375353 0.4240980677545354 0 0.39389212082124742 0.41068738066363342 0 0.3874914291352532 0.39460209595603019 0 0.37600920761416617 0.4189630949491861 0 0.3874914291352532 0.39460209595603019 0 0.37600920761416617 0.4189630949491861 0 0.39389212082124742 0.41068738066363342 0 0.37600920761416617 0.4189630949491861 0 0.39223207249375353 0.4240980677545354 0 0.38831176678627888 0.43826958822440631 0 0.36270600567134031 0.42996737180436151 0 0.37600920761416617 0.4189630949491861 0 0.38831176678627888 0.43826958822440631 0 0.39223207249375353 0.4240980677545354 0 0.40150532955207952 0.43286765077168909 0 0.38831176678627888 0.43826958822440631 0 0.39223207249375353 0.4240980677545354 0 0.40150532955207952 0.43286765077168909 0 0.40369755363436821 0.42130381586277288 0 0.40150532955207952 0.43286765077168909 0 0.40369755363436821 0.42130381586277288 0 0.40864750117719001 0.43107274132327922 0 0.39223207249375353 0.4240980677545354 0 0.39389212082124742 0.41068738066363342 0 0.40369755363436821 0.42130381586277288 0 0.39389212082124742 0.41068738066363342 0 0.40369755363436821 0.42130381586277288 0 0.4048971677100151 0.4086302400632098 0 0.4048971677100151 0.4086302400632098 0 0.41257827687390253 0.41516320556354308 0 0.41639317548655441 0.40387898451569948 0 0.40369755363436821 0.42130381586277288 0 0.4048971677100151 0.4086302400632098 0 0.41257827687390253 0.41516320556354308 0 0.40369755363436821 0.42130381586277288 0 0.41257827687390253 0.41516320556354308 0 0.41213040681238922 0.42660742489951969 0 0.41213040681238922 0.42660742489951969 0 0.42402686567428183 0.41548031482196768 0 0.41257827687390253 0.41516320556354308 0 0.41213040681238922 0.42660742489951969 0 0.42402686567428183 0.41548031482196768 0 0.41257827687390253 0.41516320556354308 0 0.42402686567428183 0.41548031482196768 0 0.41639317548655441 0.40387898451569948 0 0.40903021675449291 0.43653261923087461 0 0.41431047855908348 0.43105351633466638 0 0.4134391081656314 0.44032890296073479 0 0.40150532955207952 0.43286765077168909 0 0.40903021675449291 0.43653261923087461 0 0.40864750117719001 0.43107274132327922 0 0.40903021675449291 0.43653261923087461 0 0.40864750117719001 0.43107274132327922 0 0.41431047855908348 0.43105351633466638 0 0.40369755363436821 0.42130381586277288 0 0.40864750117719001 0.43107274132327922 0 0.41213040681238922 0.42660742489951969 0 0.40864750117719001 0.43107274132327922 0 0.41213040681238922 0.42660742489951969 0 0.41431047855908348 0.43105351633466638 0 0.41213040681238922 0.42660742489951969 0 0.4215441978853729 0.42474904678633441 0 0.42402686567428183 0.41548031482196768 0 0.41213040681238922 0.42660742489951969 0 0.4215441978853729 0.42474904678633441 0 0.41431047855908348 0.43105351633466638 0 0.4215441978853729 0.42474904678633441 0 0.41431047855908348 0.43105351633466638 0 0.42894039754425772 0.42704122494494212 0 0.41431047855908348 0.43105351633466638 0 0.42894039754425772 0.42704122494494212 0 0.43843700993025758 0.43561500846718543 0 0.41431047855908348 0.43105351633466638 0 0.43843700993025758 0.43561500846718543 0 0.4215441978853729 0.42474904678633441 0 0.42894039754425772 0.42704122494494212 0 0.42402686567428183 0.41548031482196768 0 0.42894039754425772 0.42704122494494212 0 0.43670876034161182 0.42043616256322142 0 0.43843700993025758 0.43561500846718543 0 0.42402686567428183 0.41548031482196768 0 0.43670876034161182 0.42043616256322142 0 0.43592332453617438 0.40435320474441561 0 0.42402686567428183 0.41548031482196768 0 0.43592332453617438 0.40435320474441561 0 0.41639317548655441 0.40387898451569948 0 0.42894039754425772 0.42704122494494212 0 0.42402686567428183 0.41548031482196768 0 0.43670876034161182 0.42043616256322142 0 0.42402686567428183 0.41548031482196768 0 0.43592332453617438 0.40435320474441561 0 0.43592332453617438 0.40435320474441561 0 0.41639317548655441 0.40387898451569948 0 0.4174484875962593 0.38729715085364502 0 0.43592332453617438 0.40435320474441561 0 0.4174484875962593 0.38729715085364502 0 0.43232987626371272 0.38735949923631008 0 0.43592332453617438 0.40435320474441561 0 0.4174484875962593 0.38729715085364502 0 0.43592332453617438 0.40435320474441561 0 0.43232987626371272 0.38735949923631008 0 0.44298639893329628 0.3977469022122842 0 0.403573720170605 0.39855488889144192 0 0.4013199402743009 0.38623348129643342 0 0.4174484875962593 0.38729715085364502 0 0.403573720170605 0.39855488889144192 0 0.41639317548655441 0.40387898451569948 0 0.4174484875962593 0.38729715085364502 0 0.403573720170605 0.39855488889144192 0 0.4048971677100151 0.4086302400632098 0 0.41639317548655441 0.40387898451569948 0 0.3989736506563431 0.3702410969628756 0 0.4174484875962593 0.38729715085364502 0 0.43454302316624371 0.37264346727180148 0 0.43232987626371272 0.38735949923631008 0 0.44298639893329628 0.3977469022122842 0 0.43454302316624371 0.37264346727180148 0 0.4174484875962593 0.38729715085364502 0 0.43232987626371272 0.38735949923631008 0 0.43454302316624371 0.37264346727180148 0 0.44298639893329628 0.3977469022122842 0 0.45421117884620332 0.38724803333565699 0 0.43454302316624371 0.37264346727180148 0 0.44298639893329628 0.3977469022122842 0 0.43592332453617438 0.40435320474441561 0 0.44298639893329628 0.3977469022122842 0 0.44938996245640939 0.41678566641333242 0 0.44298639893329628 0.3977469022122842 0 0.46074515945061112 0.40497015894897692 0 0.45421117884620332 0.38724803333565699 0 0.43592332453617438 0.40435320474441561 0 0.44298639893329628 0.3977469022122842 0 0.44298639893329628 0.3977469022122842 0 0.45421117884620332 0.38724803333565699 0 0.46074515945061112 0.40497015894897692 0 0.45421117884620332 0.38724803333565699 0 0.46074515945061112 0.40497015894897692 0 0.46583068662590371 0.39302960170769241 0 0.45421117884620332 0.38724803333565699 0 0.46074515945061112 0.40497015894897692 0 0.46583068662590371 0.39302960170769241 0 0.47873167952879703 0.40699890220475932 0 0.47074924702163629 0.3717794886876713 0 0.46583068662590371 0.39302960170769241 0 0.45421117884620332 0.38724803333565699 0 0.47074924702163629 0.3717794886876713 0 0.45421117884620332 0.38724803333565699 0 0.47074924702163629 0.3717794886876713 0 0.46583068662590371 0.39302960170769241 0 0.47875444671192707 0.39183967770930961 0 0.48347873919881201 0.37403433370194578 0 0.47074924702163629 0.3717794886876713 0 0.47875444671192707 0.39183967770930961 0 0.46583068662590371 0.39302960170769241 0 0.47875444671192707 0.39183967770930961 0 0.47873167952879703 0.40699890220475932 0 0.47875444671192707 0.39183967770930961 0 0.48891798831619832 0.39638857543861272 0 0.47873167952879703 0.40699890220475932 0 0.48891798831619832 0.39638857543861272 0 0.49556536960081521 0.40540018202475081 0 0.47873167952879703 0.40699890220475932 0 0.48891798831619832 0.39638857543861272 0 0.49556536960081521 0.40540018202475081 0 0.5 0.39572823414440422 0 0.48891798831619832 0.39638857543861272 0 0.5 0.39572823414440422 0 0.49153844573945199 0.38197588110983982 0 0.48347873919881201 0.37403433370194578 0 0.47875444671192707 0.39183967770930961 0 0.49153844573945199 0.38197588110983982 0 0.5 0.36822352807527547 0 0.5 0.39572823414440422 0 0.49153844573945199 0.38197588110983982 0 0.47875444671192707 0.39183967770930961 0 0.48891798831619832 0.39638857543861272 0 0.49153844573945199 0.38197588110983982 0 0.4915734018360095 0.42309370524459577 0 0.48669007267260578 0.44473799273222359 0 0.4915734018360095 0.42309370524459577 0 0.49999999999999939 0.42323294021353258 0 0.49999999999999961 0.44702424381682121 0 0.4915734018360095 0.42309370524459577 0 0.47543678151971941 0.42960265282875831 0 0.48669007267260578 0.44473799273222359 0 0.4915734018360095 0.42309370524459577 0 0.49999999999999939 0.42323294021353258 0 0.49556536960081521 0.40540018202475081 0 0.5 0.39572823414440422 0 0.49999999999999939 0.42323294021353258 0 0.49556536960081521 0.40540018202475081 0 0.4915734018360095 0.42309370524459577 0 0.49999999999999939 0.42323294021353258 0 0.49556536960081521 0.40540018202475081 0 0.4915734018360095 0.42309370524459577 0 0.49556536960081521 0.40540018202475081 0 0.4915734018360095 0.42309370524459577 0 0.47873167952879703 0.40699890220475932 0 0.4915734018360095 0.42309370524459577 0 0.47873167952879703 0.40699890220475932 0 0.46727914005501642 0.4226922845622979 0 0.46074515945061112 0.40497015894897692 0 0.47873167952879703 0.40699890220475932 0 0.46727914005501642 0.4226922845622979 0 0.47543678151971941 0.42960265282875831 0 0.46860851305142781 0.42890944896091798 0 0.46727914005501642 0.4226922845622979 0 0.4915734018360095 0.42309370524459577 0 0.47543678151971941 0.42960265282875831 0 0.46727914005501642 0.4226922845622979 0 0.47543678151971941 0.42960265282875831 0 0.4710393143091145 0.43508035278505203 0 0.48669007267260578 0.44473799273222359 0 0.4915734018360095 0.42309370524459577 0 0.46727914005501642 0.4226922845622979 0 0.47543678151971941 0.42960265282875831 0 0.4710393143091145 0.43508035278505203 0 0.46860851305142781 0.42890944896091798 0 0.4710393143091145 0.43508035278505203 0 0.46259041840011622 0.43462777854270379 0 0.46256354130143168 0.44017650059970448 0 0.4710393143091145 0.43508035278505203 0 0.46259041840011622 0.43462777854270379 0 0.46577372771668141 0.43127505122874782 0 0.45525873249270521 0.42220374173043268 0 0.45577011684632651 0.4357548317159714 0 0.44938996245640939 0.41678566641333242 0 0.46242413578781888 0.43079263503256321 0 0.46143535424135779 0.42783316027644669 0 0.46004570527671412 0.43146044539215389 0 0.46259041840011622 0.43462777854270379 0 0.46242413578781888 0.43079263503256321 0 0.46004570527671412 0.43146044539215389 0 0.46259041840011622 0.43462777854270379 0 0.46242413578781888 0.43079263503256321 0 0.46577372771668141 0.43127505122874782 0 0.46242413578781888 0.43079263503256321 0 0.46577372771668141 0.43127505122874782 0 0.46450018085941991 0.42818946077764342 0 0.4710393143091145 0.43508035278505203 0 0.46577372771668141 0.43127505122874782 0 0.46860851305142781 0.42890944896091798 0 0.46727914005501642 0.4226922845622979 0 0.45889903782331409 0.42255381785827739 0 0.46727914005501642 0.4226922845622979 0 0.46298466850416381 0.42532474796287167 0 0.45889903782331409 0.42255381785827739 0 0.46860851305142781 0.42890944896091798 0 0.46592164776731482 0.42561393118188412 0 0.46450018085941991 0.42818946077764342 0 0.46577372771668141 0.43127505122874782 0 0.46860851305142781 0.42890944896091798 0 0.46450018085941991 0.42818946077764342 0 0.46860851305142781 0.42890944896091798 0 0.46727914005501642 0.4226922845622979 0 0.46592164776731482 0.42561393118188412 0 0.46727914005501642 0.4226922845622979 0 0.46592164776731482 0.42561393118188412 0 0.46298466850416381 0.42532474796287167 0 0.46592164776731482 0.42561393118188412 0 0.46298466850416381 0.42532474796287167 0 0.46450018085941991 0.42818946077764342 0 0.46298466850416381 0.42532474796287167 0 0.46450018085941991 0.42818946077764342 0 0.46143535424135779 0.42783316027644669 0 0.46298466850416381 0.42532474796287167 0 0.46143535424135779 0.42783316027644669 0 0.46041553056351708 0.42583476081018728 0 0.46242413578781888 0.43079263503256321 0 0.46450018085941991 0.42818946077764342 0 0.46143535424135779 0.42783316027644669 0 0.46143535424135779 0.42783316027644669 0 0.45834306168523298 0.42762731714315338 0 0.46004570527671412 0.43146044539215389 0 0.45834306168523298 0.42762731714315338 0 0.45525873249270521 0.42220374173043268 0 0.45577011684632651 0.4357548317159714 0 0.46143535424135779 0.42783316027644669 0 0.45834306168523298 0.42762731714315338 0 0.46041553056351708 0.42583476081018728 0 0.45834306168523298 0.42762731714315338 0 0.45889903782331409 0.42255381785827739 0 0.46041553056351708 0.42583476081018728 0 0.45834306168523298 0.42762731714315338 0 0.45889903782331409 0.42255381785827739 0 0.45525873249270521 0.42220374173043268 0 0.46298466850416381 0.42532474796287167 0 0.45889903782331409 0.42255381785827739 0 0.46041553056351708 0.42583476081018728 0 0.45834306168523298 0.42762731714315338 0 0.45577011684632651 0.4357548317159714 0 0.46004570527671412 0.43146044539215389 0 0.46259041840011622 0.43462777854270379 0 0.45577011684632651 0.4357548317159714 0 0.46004570527671412 0.43146044539215389 0 0.46259041840011622 0.43462777854270379 0 0.45577011684632651 0.4357548317159714 0 0.46256354130143168 0.44017650059970448 0 0.46074515945061112 0.40497015894897692 0 0.46727914005501642 0.4226922845622979 0 0.46074515945061112 0.40497015894897692 0 0.45889903782331409 0.42255381785827739 0 0.45525873249270521 0.42220374173043268 0 0.46074515945061112 0.40497015894897692 0 0.46727914005501642 0.4226922845622979 0 0.45889903782331409 0.42255381785827739 0 0.46074515945061112 0.40497015894897692 0 0.45525873249270521 0.42220374173043268 0 0.44938996245640939 0.41678566641333242 0 0.44298639893329628 0.3977469022122842 0 0.46074515945061112 0.40497015894897692 0 0.44938996245640939 0.41678566641333242 0 0.43670876034161182 0.42043616256322142 0 0.43592332453617438 0.40435320474441561 0 0.44938996245640939 0.41678566641333242 0 0.44298639893329628 0.3977469022122842 0 0.44938996245640939 0.41678566641333242 0 0.45525873249270521 0.42220374173043268 0 0.44938996245640939 0.41678566641333242 0 0.43670876034161182 0.42043616256322142 0 0.44938996245640939 0.41678566641333242 0 0.44502505921314539 0.42706921059896408 0 0.43592332453617438 0.40435320474441561 0 0.44938996245640939 0.41678566641333242 0 0.45577011684632651 0.4357548317159714 0 0.44938996245640939 0.41678566641333242 0 0.44502505921314539 0.42706921059896408 0 0.45577011684632651 0.4357548317159714 0 0.44502505921314539 0.42706921059896408 0 0.43843700993025758 0.43561500846718543 0 0.45577011684632651 0.4357548317159714 0 0.43843700993025758 0.43561500846718543 0 0.46256354130143168 0.44017650059970448 0 0.45577011684632651 0.4357548317159714 0 0.44938996245640939 0.41678566641333242 0 0.43670876034161182 0.42043616256322142 0 0.44502505921314539 0.42706921059896408 0 0.43843700993025758 0.43561500846718543 0 0.43843700993025758 0.43561500846718543 0 0.46256354130143168 0.44017650059970448 0 0.43843700993025758 0.43561500846718543 0 0.44894628741766102 0.44788873493812292 0 0.46256354130143168 0.44017650059970448 0 0.43843700993025758 0.43561500846718543 0 0.43756765820723859 0.45130310499630732 0 0.44894628741766102 0.44788873493812292 0 0.44815511948895692 0.46165076659685839 0 0.43467097589855552 0.47912136782413611 0 0.43320836749209818 0.46252949751487071 0 0.43756765820723859 0.45130310499630732 0 0.44894628741766102 0.44788873493812292 0 0.44815511948895692 0.46165076659685839 0 0.43756765820723859 0.45130310499630732 0 0.44815511948895692 0.46165076659685839 0 0.43320836749209818 0.46252949751487071 0 0.44894628741766102 0.44788873493812292 0 0.44815511948895692 0.46165076659685839 0 0.45870187278163271 0.45225281107035931 0 0.44815511948895692 0.46165076659685839 0 0.46312057246757488 0.46278908181048473 0 0.45796853447786617 0.47935009503847242 0 0.44815511948895692 0.46165076659685839 0 0.46312057246757488 0.46278908181048473 0 0.45870187278163271 0.45225281107035931 0 0.46312057246757488 0.46278908181048473 0 0.45870187278163271 0.45225281107035931 0 0.4705108716896762 0.45167024952353962 0 0.44894628741766102 0.44788873493812292 0 0.45870187278163271 0.45225281107035931 0 0.46256354130143168 0.44017650059970448 0 0.45870187278163271 0.45225281107035931 0 0.46256354130143168 0.44017650059970448 0 0.4705108716896762 0.45167024952353962 0 0.46256354130143168 0.44017650059970448 0 0.4705108716896762 0.45167024952353962 0 0.48669007267260578 0.44473799273222359 0 0.4710393143091145 0.43508035278505203 0 0.46256354130143168 0.44017650059970448 0 0.48669007267260578 0.44473799273222359 0 0.46256354130143168 0.44017650059970448 0 0.48669007267260578 0.44473799273222359 0 0.48669007267260578 0.44473799273222359 0 0.48045603581939361 0.47236899636611118 0 0.46312057246757488 0.46278908181048473 0 0.4705108716896762 0.45167024952353962 0 0.48045603581939361 0.47236899636611118 0 0.4705108716896762 0.45167024952353962 0 0.48669007267260578 0.44473799273222359 0 0.48045603581939361 0.47236899636611118 0 0.49999999999999961 0.44702424381682121 0 0.48669007267260578 0.44473799273222359 0 0.48045603581939361 0.47236899636611118 0 0.4915734018360095 0.42309370524459577 0 0.49999999999999961 0.44702424381682121 0 0.48669007267260578 0.44473799273222359 0 0.49999999999999961 0.44702424381682121 0 0.48669007267260578 0.44473799273222359 0 0.49999999999999961 0.44702424381682121 0 0.5 0.5 0 0.48045603581939361 0.47236899636611118 0 0.5 0.5 0 0.48045603581939361 0.47236899636611118 0 0.47422199896618 0.49999999999999839 0 0.48045603581939361 0.47236899636611118 0 0.47422199896618 0.49999999999999839 0 0.45796853447786617 0.47935009503847242 0 0.48045603581939361 0.47236899636611118 0 0.47422199896618 0.49999999999999839 0 0.47422199896618 0.49999999999999839 0 0.45796853447786617 0.47935009503847242 0 0.44569846007358122 0.5 0 0.46312057246757488 0.46278908181048473 0 0.48045603581939361 0.47236899636611118 0 0.45796853447786617 0.47935009503847242 0 0.44815511948895692 0.46165076659685839 0 0.45796853447786617 0.47935009503847242 0 0.43467097589855552 0.47912136782413611 0 0.45796853447786617 0.47935009503847242 0 0.44569846007358122 0.5 0 0.43467097589855552 0.47912136782413611 0 0.44569846007358122 0.5 0 0.41717492118098243 0.5 0 0.43467097589855552 0.47912136782413611 0 0.41717492118098243 0.5 0 0.40962755479106577 0.48129043243430669 0 0.43467097589855552 0.47912136782413611 0 0.40962755479106577 0.48129043243430669 0 0.42068383059162401 0.465717066278929 0 0.40604782091115837 0.46154904410783848 0 0.40962755479106577 0.48129043243430669 0 0.43467097589855552 0.47912136782413611 0 0.42068383059162401 0.465717066278929 0 0.43467097589855552 0.47912136782413611 0 0.43320836749209818 0.46252949751487071 0 0.42068383059162401 0.465717066278929 0 0.43320836749209818 0.46252949751487071 0 0.42377835562160621 0.44706172771613689 0 0.42068383059162401 0.465717066278929 0 0.43756765820723859 0.45130310499630732 0 0.43320836749209818 0.46252949751487071 0 0.42377835562160621 0.44706172771613689 0 0.41431047855908348 0.43105351633466638 0 0.43843700993025758 0.43561500846718543 0 0.42377835562160621 0.44706172771613689 0 0.43843700993025758 0.43561500846718543 0 0.43756765820723859 0.45130310499630732 0 0.42377835562160621 0.44706172771613689 0 0.42377835562160621 0.44706172771613689 0 0.40647651736125451 0.44649076535001331 0 0.4134391081656314 0.44032890296073479 0 0.42377835562160621 0.44706172771613689 0 0.40647651736125451 0.44649076535001331 0 0.40604782091115837 0.46154904410783848 0 0.41431047855908348 0.43105351633466638 0 0.42377835562160621 0.44706172771613689 0 0.4134391081656314 0.44032890296073479 0 0.40903021675449291 0.43653261923087461 0 0.40647651736125451 0.44649076535001331 0 0.4134391081656314 0.44032890296073479 0 0.42377835562160621 0.44706172771613689 0 0.42068383059162401 0.465717066278929 0 0.40604782091115837 0.46154904410783848 0 0.40647651736125451 0.44649076535001331 0 0.40604782091115837 0.46154904410783848 0 0.38962552293673391 0.45504833748508777 0 0.40604782091115837 0.46154904410783848 0 0.38962552293673391 0.45504833748508777 0 0.39213222748349108 0.47198874966980309 0 0.40647651736125451 0.44649076535001331 0 0.38831176678627888 0.43826958822440631 0 0.38962552293673391 0.45504833748508777 0 0.40150532955207952 0.43286765077168909 0 0.40647651736125451 0.44649076535001331 0 0.38831176678627888 0.43826958822440631 0 0.40150532955207952 0.43286765077168909 0 0.40903021675449291 0.43653261923087461 0 0.40647651736125451 0.44649076535001331 0 0.3739039730899622 0.44823051421869181 0 0.38831176678627888 0.43826958822440631 0 0.38962552293673391 0.45504833748508777 0 0.37088083198825822 0.46376136333977419 0 0.3739039730899622 0.44823051421869181 0 0.38962552293673391 0.45504833748508777 0 0.37088083198825822 0.46376136333977419 0 0.38962552293673391 0.45504833748508777 0 0.39213222748349108 0.47198874966980309 0 0.37088083198825822 0.46376136333977419 0 0.37556414921668291 0.48330088294525653 0 0.39213222748349108 0.47198874966980309 0 0.37556414921668291 0.48330088294525653 0 0.38865138228838358 0.5 0 0.39213222748349108 0.47198874966980309 0 0.41717492118098243 0.5 0 0.40962755479106577 0.48129043243430669 0 0.38865138228838358 0.5 0 0.40962755479106577 0.48129043243430669 0 0.40604782091115837 0.46154904410783848 0 0.39213222748349108 0.47198874966980309 0 0.40962755479106577 0.48129043243430669 0 0.38865138228838358 0.5 0 0.39213222748349108 0.47198874966980309 0 0.3403608261391935 0.078451547096677232 0 0.32656803168052218 0.1002994036551232 0 0.34880492419268699 0.10135448719635801 0 0.3403608261391935 0.078451547096677232 0 0.31750541221942602 0.084143423796299341 0 0.32656803168052218 0.1002994036551232 0 0.3403608261391935 0.078451547096677232 0 0.33191672808570072 0.055548606996996243 0 0.3403608261391935 0.078451547096677232 0 0.31750541221942602 0.084143423796299341 0 0.33191672808570072 0.055548606996996243 0 0.3403608261391935 0.078451547096677232 0 0.35305130297395793 0.064549435541271974 0 0.33191672808570072 0.055548606996996243 0 0.31750541221942602 0.084143423796299341 0 0.33191672808570072 0.055548606996996243 0 0.30894835104249507 0.065785031816358003 0 0.32656803168052218 0.1002994036551232 0 0.31401299032084079 0.1125619465882338 0 0.30435722602815668 0.099550534231245408 0 0.31750541221942602 0.084143423796299341 0 0.32656803168052218 0.1002994036551232 0 0.30435722602815668 0.099550534231245408 0 0.31401299032084079 0.1125619465882338 0 0.33490557415103578 0.11569719087526061 0 0.32158723913775961 0.12645730826143101 0 0.32656803168052218 0.1002994036551232 0 0.31401299032084079 0.1125619465882338 0 0.33490557415103578 0.11569719087526061 0 0.31401299032084079 0.1125619465882338 0 0.3028000926279425 0.1253139296816112 0 0.32158723913775961 0.12645730826143101 0 0.33490557415103578 0.11569719087526061 0 0.33800044150047293 0.13153308807959971 0 0.32158723913775961 0.12645730826143101 0 0.33490557415103578 0.11569719087526061 0 0.35724902224618049 0.1242574272960387 0 0.33800044150047293 0.13153308807959971 0 0.32656803168052218 0.1002994036551232 0 0.33490557415103578 0.11569719087526061 0 0.34880492419268699 0.10135448719635801 0 0.34880492419268699 0.10135448719635801 0 0.35724902224618049 0.1242574272960387 0 0.36927554414063513 0.10255083054878281 0 0.33490557415103578 0.11569719087526061 0 0.34880492419268699 0.10135448719635801 0 0.35724902224618049 0.1242574272960387 0 0.34880492419268699 0.10135448719635801 0 0.35724902224618049 0.1242574272960387 0 0.35724902224618049 0.1242574272960387 0 0.37438887325428699 0.1198095785569543 0 0.36927554414063513 0.10255083054878281 0 0.34880492419268699 0.10135448719635801 0 0.36927554414063513 0.10255083054878281 0 0.3637048882315343 0.082885104833996831 0 0.36927554414063513 0.10255083054878281 0 0.3637048882315343 0.082885104833996831 0 0.38148175571998499 0.084553222446755311 0 0.3403608261391935 0.078451547096677232 0 0.34880492419268699 0.10135448719635801 0 0.3403608261391935 0.078451547096677232 0 0.34880492419268699 0.10135448719635801 0 0.3637048882315343 0.082885104833996831 0 0.3403608261391935 0.078451547096677232 0 0.3637048882315343 0.082885104833996831 0 0.35305130297395793 0.064549435541271974 0 0.3637048882315343 0.082885104833996831 0 0.35305130297395793 0.064549435541271974 0 0.37385769338344932 0.060786511943751093 0 0.3637048882315343 0.082885104833996831 0 0.37385769338344932 0.060786511943751093 0 0.38148175571998499 0.084553222446755311 0 0.35305130297395793 0.064549435541271974 0 0.37385769338344932 0.060786511943751093 0 0.35541637902991208 0.045075406834938193 0 0.35541637902991208 0.045075406834938193 0 0.378916029974119 0.034602206672870207 0 0.35541637902991208 0.045075406834938193 0 0.36392847794991978 0.017386800626596519 0 0.378916029974119 0.034602206672870207 0 0.37385769338344932 0.060786511943751093 0 0.35541637902991208 0.045075406834938193 0 0.378916029974119 0.034602206672870207 0 0.35541637902991208 0.045075406834938193 0 0.36392847794991978 0.017386800626596519 0 0.34150959738319547 0.039573075725816698 0 0.35305130297395793 0.064549435541271974 0 0.35541637902991208 0.045075406834938193 0 0.33191672808570072 0.055548606996996243 0 0.36234135482611102 0.00074738726826526489 0 0.36392847794991978 0.017386800626596519 0 0.37378227755250659 -0.00013570250308337939 0 0.36392847794991978 0.017386800626596519 0 0.33636350869076032 0.02553056902033729 0 0.34150959738319547 0.039573075725816698 0 0.36392847794991978 0.017386800626596519 0 0.33636350869076032 0.02553056902033729 0 0.36392847794991978 0.017386800626596519 0 0.3422325857100178 0.01142471519111206 0 0.33636350869076032 0.02553056902033729 0 0.36392847794991978 0.017386800626596519 0 0.3511842398881892 0.0023449734811356029 0 0.3422325857100178 0.01142471519111206 0 0.36234135482611102 0.00074738726826526489 0 0.36392847794991978 0.017386800626596519 0 0.3511842398881892 0.0023449734811356029 0 0.3422325857100178 0.01142471519111206 0 0.32303578384916998 0.01471805636546536 0 0.33665091817204978 -0.0028568235379744611 0 0.3511842398881892 0.0023449734811356029 0 0.3422325857100178 0.01142471519111206 0 0.33665091817204978 -0.0028568235379744611 0 0.3422325857100178 0.01142471519111206 0 0.33636350869076032 0.02553056902033729 0 0.32303578384916998 0.01471805636546536 0 0.33636350869076032 0.02553056902033729 0 0.30879853943160052 0.033674337414078118 0 0.32303578384916998 0.01471805636546536 0 0.30879853943160052 0.033674337414078118 0 0.30572016649667377 0.01072875714941081 0 0.33636350869076032 0.02553056902033729 0 0.32303578384916998 0.01471805636546536 0 0.30879853943160052 0.033674337414078118 0 0.32303578384916998 0.01471805636546536 0 0.30572016649667377 0.01072875714941081 0 0.32006958300034688 -0.0039555539418603229 0 0.32303578384916998 0.01471805636546536 0 0.33665091817204978 -0.0028568235379744611 0 0.32006958300034688 -0.0039555539418603229 0 0.32910937464870421 0.047934217964701098 0 0.33191672808570072 0.055548606996996243 0 0.34150959738319547 0.039573075725816698 0 0.35541637902991208 0.045075406834938193 0 0.33191672808570072 0.055548606996996243 0 0.32910937464870421 0.047934217964701098 0 0.33191672808570072 0.055548606996996243 0 0.35541637902991208 0.045075406834938193 0 0.33191672808570072 0.055548606996996243 0 0.34150959738319547 0.039573075725816698 0 0.33636350869076032 0.02553056902033729 0 0.32910937464870421 0.047934217964701098 0 0.34150959738319547 0.039573075725816698 0 0.32910937464870421 0.047934217964701098 0 0.31473329737523131 0.051394421811525717 0 0.30879853943160052 0.033674337414078118 0 0.33636350869076032 0.02553056902033729 0 0.32910937464870421 0.047934217964701098 0 0.30879853943160052 0.033674337414078118 0 0.33191672808570072 0.055548606996996243 0 0.31473329737523131 0.051394421811525717 0 0.30894835104249507 0.065785031816358003 0 0.33191672808570072 0.055548606996996243 0 0.30894835104249507 0.065785031816358003 0 0.32910937464870421 0.047934217964701098 0 0.33191672808570072 0.055548606996996243 0 0.31473329737523131 0.051394421811525717 0 0.31473329737523131 0.051394421811525717 0 0.29430301174571177 0.055174877013740381 0 0.30894835104249507 0.065785031816358003 0 0.31473329737523131 0.051394421811525717 0 0.30879853943160052 0.033674337414078118 0 0.29430301174571177 0.055174877013740381 0 0.30879853943160052 0.033674337414078118 0 0.2925668588277156 0.022669808786877969 0 0.28123357017244072 0.041818105807818938 0 0.30879853943160052 0.033674337414078118 0 0.29430301174571177 0.055174877013740381 0 0.28123357017244072 0.041818105807818938 0 0.30879853943160052 0.033674337414078118 0 0.28123357017244072 0.041818105807818938 0 0.30572016649667377 0.01072875714941081 0 0.28646043770179691 0.0034415334885622329 0 0.30151794338883681 -0.0081949219969716623 0 0.30879853943160052 0.033674337414078118 0 0.30572016649667377 0.01072875714941081 0 0.2925668588277156 0.022669808786877969 0 0.2925668588277156 0.022669808786877969 0 0.27687787477491288 0.019647744513893461 0 0.28123357017244072 0.041818105807818938 0 0.30572016649667377 0.01072875714941081 0 0.2925668588277156 0.022669808786877969 0 0.28646043770179691 0.0034415334885622329 0 0.2925668588277156 0.022669808786877969 0 0.28646043770179691 0.0034415334885622329 0 0.27687787477491288 0.019647744513893461 0 0.26770177198798989 0.0049541517600587117 0 0.27687787477491288 0.019647744513893461 0 0.26002912385580129 0.01522474402357569 0 0.28646043770179691 0.0034415334885622329 0 0.26770177198798989 0.0049541517600587117 0 0.27687787477491288 0.019647744513893461 0 0.28646043770179691 0.0034415334885622329 0 0.26770177198798989 0.0049541517600587117 0 0.27499521198922261 -0.0055023354309521044 0 0.27687787477491288 0.019647744513893461 0 0.26312714772785961 0.028627027444891009 0 0.28123357017244072 0.041818105807818938 0 0.27687787477491288 0.019647744513893461 0 0.26312714772785961 0.028627027444891009 0 0.26002912385580129 0.01522474402357569 0 0.26312714772785961 0.028627027444891009 0 0.25231904427849411 0.021983750114194719 0 0.25145097858043691 0.033250747220101663 0 0.26312714772785961 0.028627027444891009 0 0.25231904427849411 0.021983750114194719 0 0.26002912385580129 0.01522474402357569 0 0.26770177198798989 0.0049541517600587117 0 0.26002912385580129 0.01522474402357569 0 0.25847524534168298 0.0068080678867071956 0 0.24919497150951991 0.0083708591586718235 0 0.25231904427849411 0.021983750114194719 0 0.26002912385580129 0.01522474402357569 0 0.24919497150951991 0.0083708591586718235 0 0.26002912385580129 0.01522474402357569 0 0.25847524534168298 0.0068080678867071956 0 0.24919497150951991 0.0083708591586718235 0 0.25697511401342082 -0.00131748339547743 0 0.2443368381618172 -0.0014217291461706941 0 0.24919497150951991 0.0083708591586718235 0 0.25847524534168298 0.0068080678867071956 0 0.25697511401342082 -0.00131748339547743 0 0.26770177198798989 0.0049541517600587117 0 0.25847524534168298 0.0068080678867071956 0 0.25697511401342082 -0.00131748339547743 0 0.26612433845321792 0.062355908596951712 0 0.28123357017244072 0.041818105807818938 0 0.26075896480600769 0.043165937090930917 0 0.29430301174571177 0.055174877013740381 0 0.26612433845321792 0.062355908596951712 0 0.28123357017244072 0.041818105807818938 0 0.26312714772785961 0.028627027444891009 0 0.28123357017244072 0.041818105807818938 0 0.26075896480600769 0.043165937090930917 0 0.242793264139128 0.046571216962303708 0 0.26075896480600769 0.043165937090930917 0 0.25145097858043691 0.033250747220101663 0 0.26312714772785961 0.028627027444891009 0 0.26075896480600769 0.043165937090930917 0 0.25145097858043691 0.033250747220101663 0 0.242793264139128 0.046571216962303708 0 0.26612433845321792 0.062355908596951712 0 0.26075896480600769 0.043165937090930917 0 0.24236200917689829 0.071146248962842704 0 0.242793264139128 0.046571216962303708 0 0.26612433845321792 0.062355908596951712 0 0.24236200917689829 0.071146248962842704 0 0.26612433845321792 0.062355908596951712 0 0.26301159695607512 0.086257881455061719 0 0.2400432199128654 0.096494306274414576 0 0.26301159695607512 0.086257881455061719 0 0.26301159695607512 0.086257881455061719 0 0.28597997399928521 0.076021456635709833 0 0.26301159695607512 0.086257881455061719 0 0.28597997399928521 0.076021456635709833 0 0.28108914138756202 0.10209683475519329 0 0.26612433845321792 0.062355908596951712 0 0.26301159695607512 0.086257881455061719 0 0.28597997399928521 0.076021456635709833 0 0.29430301174571177 0.055174877013740381 0 0.28597997399928521 0.076021456635709833 0 0.30894835104249507 0.065785031816358003 0 0.31750541221942602 0.084143423796299341 0 0.28597997399928521 0.076021456635709833 0 0.30435722602815668 0.099550534231245408 0 0.29430301174571177 0.055174877013740381 0 0.26612433845321792 0.062355908596951712 0 0.28597997399928521 0.076021456635709833 0 0.31750541221942602 0.084143423796299341 0 0.28597997399928521 0.076021456635709833 0 0.30894835104249507 0.065785031816358003 0 0.28597997399928521 0.076021456635709833 0 0.30435722602815668 0.099550534231245408 0 0.28108914138756202 0.10209683475519329 0 0.28597997399928521 0.076021456635709833 0 0.30894835104249507 0.065785031816358003 0 0.31401299032084079 0.1125619465882338 0 0.29430318797304061 0.1114569608681354 0 0.3028000926279425 0.1253139296816112 0 0.31401299032084079 0.1125619465882338 0 0.30435722602815668 0.099550534231245408 0 0.29430318797304061 0.1114569608681354 0 0.30435722602815668 0.099550534231245408 0 0.29430318797304061 0.1114569608681354 0 0.28108914138756202 0.10209683475519329 0 0.29430318797304061 0.1114569608681354 0 0.28594004410105139 0.1230483701846541 0 0.3028000926279425 0.1253139296816112 0 0.29430318797304061 0.1114569608681354 0 0.28594004410105139 0.1230483701846541 0 0.28108914138756202 0.10209683475519329 0 0.28594004410105139 0.1230483701846541 0 0.26951846525329209 0.1172829376241894 0 0.28108914138756202 0.10209683475519329 0 0.28594004410105139 0.1230483701846541 0 0.26951846525329209 0.1172829376241894 0 0.27293426593656211 0.13150065345081249 0 0.26301159695607512 0.086257881455061719 0 0.28108914138756202 0.10209683475519329 0 0.2643322645272323 0.102198402076584 0 0.26951846525329209 0.1172829376241894 0 0.28108914138756202 0.10209683475519329 0 0.2643322645272323 0.102198402076584 0 0.2400432199128654 0.096494306274414576 0 0.26301159695607512 0.086257881455061719 0 0.25023704899119109 0.1052469062197824 0 0.26301159695607512 0.086257881455061719 0 0.2643322645272323 0.102198402076584 0 0.25023704899119109 0.1052469062197824 0 0.2643322645272323 0.102198402076584 0 0.25023704899119109 0.1052469062197824 0 0.25622030190123501 0.1174027948650358 0 0.26951846525329209 0.1172829376241894 0 0.25622030190123501 0.1174027948650358 0 0.26135835007107328 0.1317600125771706 0 0.26951846525329209 0.1172829376241894 0 0.2643322645272323 0.102198402076584 0 0.25622030190123501 0.1174027948650358 0 0.24429656870276231 0.1190170070957627 0 0.25023704899119109 0.1052469062197824 0 0.25622030190123501 0.1174027948650358 0 0.24429656870276231 0.1190170070957627 0 0.25622030190123501 0.1174027948650358 0 0.25025677146151371 0.12896077062257741 0 0.25622030190123501 0.1174027948650358 0 0.25025677146151371 0.12896077062257741 0 0.26135835007107328 0.1317600125771706 0 0.26135835007107328 0.1317600125771706 0 0.26868215914139798 0.1455470718107551 0 0.25126119266682923 0.14355190786909219 0 0.25025677146151371 0.12896077062257741 0 0.26135835007107328 0.1317600125771706 0 0.25126119266682923 0.14355190786909219 0 0.26951846525329209 0.1172829376241894 0 0.26135835007107328 0.1317600125771706 0 0.27293426593656211 0.13150065345081249 0 0.28594004410105139 0.1230483701846541 0 0.27293426593656211 0.13150065345081249 0 0.28102494862952099 0.13894162707095811 0 0.26135835007107328 0.1317600125771706 0 0.27293426593656211 0.13150065345081249 0 0.26868215914139798 0.1455470718107551 0 0.27293426593656211 0.13150065345081249 0 0.28102494862952099 0.13894162707095811 0 0.26868215914139798 0.1455470718107551 0 0.26868215914139798 0.1455470718107551 0 0.25926820998011912 0.15747411832697761 0 0.27653043984613279 0.16281568909105551 0 0.28102494862952099 0.13894162707095811 0 0.26868215914139798 0.1455470718107551 0 0.28432680797583149 0.15053023263041301 0 0.26868215914139798 0.1455470718107551 0 0.27653043984613279 0.16281568909105551 0 0.28432680797583149 0.15053023263041301 0 0.26868215914139798 0.1455470718107551 0 0.25126119266682923 0.14355190786909219 0 0.25926820998011912 0.15747411832697761 0 0.245332083239199 0.16387733992730119 0 0.25126119266682923 0.14355190786909219 0 0.25926820998011912 0.15747411832697761 0 0.245332083239199 0.16387733992730119 0 0.25926820998011912 0.15747411832697761 0 0.26609091292880988 0.1698860796760043 0 0.245332083239199 0.16387733992730119 0 0.2586352776645402 0.18376471114627199 0 0.26609091292880988 0.1698860796760043 0 0.2586352776645402 0.18376471114627199 0 0.28091934678278291 0.17952816900799201 0 0.26609091292880988 0.1698860796760043 0 0.2586352776645402 0.18376471114627199 0 0.28091934678278291 0.17952816900799201 0 0.27031445723132458 0.19433824760897589 0 0.28091934678278291 0.17952816900799201 0 0.26609091292880988 0.1698860796760043 0 0.27653043984613279 0.16281568909105551 0 0.25926820998011912 0.15747411832697761 0 0.26609091292880988 0.1698860796760043 0 0.27653043984613279 0.16281568909105551 0 0.28091934678278291 0.17952816900799201 0 0.27653043984613279 0.16281568909105551 0 0.28985704967115727 0.16275042361355249 0 0.28985704967115727 0.16275042361355249 0 0.30425365709561419 0.16902202023685431 0 0.29642052240437577 0.15330131381835929 0 0.27653043984613279 0.16281568909105551 0 0.28985704967115727 0.16275042361355249 0 0.28432680797583149 0.15053023263041301 0 0.28985704967115727 0.16275042361355249 0 0.29324783222645001 0.17462648228459091 0 0.30425365709561419 0.16902202023685431 0 0.28091934678278291 0.17952816900799201 0 0.28985704967115727 0.16275042361355249 0 0.29324783222645001 0.17462648228459091 0 0.28091934678278291 0.17952816900799201 0 0.29324783222645001 0.17462648228459091 0 0.29924055071366568 0.18856891344364721 0 0.29324783222645001 0.17462648228459091 0 0.30425365709561419 0.16902202023685431 0 0.29924055071366568 0.18856891344364721 0 0.30425365709561419 0.16902202023685431 0 0.29924055071366568 0.18856891344364721 0 0.30425365709561419 0.16902202023685431 0 0.29924055071366568 0.18856891344364721 0 0.31426831070563249 0.18186980892836949 0 0.30425365709561419 0.16902202023685431 0 0.30742276695010717 0.15666516060399649 0 0.29642052240437577 0.15330131381835929 0 0.30425365709561419 0.16902202023685431 0 0.30742276695010717 0.15666516060399649 0 0.32259963093656913 0.16095631230938551 0 0.28985704967115727 0.16275042361355249 0 0.30425365709561419 0.16902202023685431 0 0.30425365709561419 0.16902202023685431 0 0.30742276695010717 0.15666516060399649 0 0.30742276695010717 0.15666516060399649 0 0.30828488186862513 0.14060752736385509 0 0.29642052240437577 0.15330131381835929 0 0.30828488186862513 0.14060752736385509 0 0.29285696639692599 0.13916965150810959 0 0.29642052240437577 0.15330131381835929 0 0.30828488186862513 0.14060752736385509 0 0.3028000926279425 0.1253139296816112 0 0.32158723913775961 0.12645730826143101 0 0.30828488186862513 0.14060752736385509 0 0.3028000926279425 0.1253139296816112 0 0.29285696639692599 0.13916965150810959 0 0.28594004410105139 0.1230483701846541 0 0.28102494862952099 0.13894162707095811 0 0.29285696639692599 0.13916965150810959 0 0.28594004410105139 0.1230483701846541 0 0.3028000926279425 0.1253139296816112 0 0.29285696639692599 0.13916965150810959 0 0.28102494862952099 0.13894162707095811 0 0.29285696639692599 0.13916965150810959 0 0.28432680797583149 0.15053023263041301 0 0.28985704967115727 0.16275042361355249 0 0.28432680797583149 0.15053023263041301 0 0.29642052240437577 0.15330131381835929 0 0.29285696639692599 0.13916965150810959 0 0.28432680797583149 0.15053023263041301 0 0.29642052240437577 0.15330131381835929 0 0.26286204550881048 0.23380675144995419 0 0.27519877774680518 0.22638752632141329 0 0.28442486254224258 0.2463376205898751 0 0.26286204550881048 0.23380675144995419 0 0.28442486254224258 0.2463376205898751 0 0.26100036705339191 0.25593539236450208 0 0.26286204550881048 0.23380675144995419 0 0.28442486254224258 0.2463376205898751 0 0.2401615503470183 0.2458573091102893 0 0.26100036705339191 0.25593539236450208 0 0.26286204550881048 0.23380675144995419 0 0.2412992284753788 0.22127588231003251 0 0.26286204550881048 0.23380675144995419 0 0.25972824514266152 0.21313008597689859 0 0.2412992284753788 0.22127588231003251 0 0.26286204550881048 0.23380675144995419 0 0.26286204550881048 0.23380675144995419 0 0.27519877774680518 0.22638752632141329 0 0.25972824514266152 0.21313008597689859 0 0.279764397590547 0.21100047373310399 0 0.25972824514266152 0.21313008597689859 0 0.27031445723132458 0.19433824760897589 0 0.27519877774680518 0.22638752632141329 0 0.279764397590547 0.21100047373310399 0 0.25972824514266152 0.21313008597689859 0 0.2421304067638739 0.2033168939570765 0 0.25972824514266152 0.21313008597689859 0 0.25516797988164652 0.19677723396004301 0 0.24296158505236981 0.18535790560412049 0 0.2586352776645402 0.18376471114627199 0 0.25516797988164652 0.19677723396004301 0 0.25972824514266152 0.21313008597689859 0 0.25516797988164652 0.19677723396004301 0 0.27031445723132458 0.19433824760897589 0 0.2586352776645402 0.18376471114627199 0 0.25516797988164652 0.19677723396004301 0 0.27031445723132458 0.19433824760897589 0 0.28091934678278291 0.17952816900799201 0 0.27031445723132458 0.19433824760897589 0 0.28489323933000721 0.19631032208883181 0 0.279764397590547 0.21100047373310399 0 0.27031445723132458 0.19433824760897589 0 0.279764397590547 0.21100047373310399 0 0.27031445723132458 0.19433824760897589 0 0.28489323933000721 0.19631032208883181 0 0.28091934678278291 0.17952816900799201 0 0.28489323933000721 0.19631032208883181 0 0.29924055071366568 0.18856891344364721 0 0.29924055071366568 0.18856891344364721 0 0.29422744433171572 0.20811580665043969 0 0.28489323933000721 0.19631032208883181 0 0.29924055071366568 0.18856891344364721 0 0.29422744433171572 0.20811580665043969 0 0.29924055071366568 0.18856891344364721 0 0.31061892845463568 0.20000113780432421 0 0.29422744433171572 0.20811580665043969 0 0.29924055071366568 0.18856891344364721 0 0.31061892845463568 0.20000113780432421 0 0.31426831070563249 0.18186980892836949 0 0.31061892845463568 0.20000113780432421 0 0.29422744433171572 0.20811580665043969 0 0.30916098073731169 0.22039282680330391 0 0.29422744433171572 0.20811580665043969 0 0.28921433794976792 0.22766269985723281 0 0.30916098073731169 0.22039282680330391 0 0.279764397590547 0.21100047373310399 0 0.29422744433171572 0.20811580665043969 0 0.28921433794976792 0.22766269985723281 0 0.29422744433171572 0.20811580665043969 0 0.28921433794976792 0.22766269985723281 0 0.279764397590547 0.21100047373310399 0 0.28489323933000721 0.19631032208883181 0 0.29422744433171572 0.20811580665043969 0 0.27519877774680518 0.22638752632141329 0 0.28921433794976792 0.22766269985723281 0 0.28442486254224258 0.2463376205898751 0 0.279764397590547 0.21100047373310399 0 0.28921433794976792 0.22766269985723281 0 0.27519877774680518 0.22638752632141329 0 0.279764397590547 0.21100047373310399 0 0.28921433794976792 0.22766269985723281 0 0.28921433794976792 0.22766269985723281 0 0.30916098073731169 0.22039282680330391 0 0.30588532862812551 0.2328038334257331 0 0.30588532862812551 0.2328038334257331 0 0.30129484237942677 0.24896316196057619 0 0.32387115344599432 0.23419664508182009 0 0.28921433794976792 0.22766269985723281 0 0.30588532862812551 0.2328038334257331 0 0.30129484237942677 0.24896316196057619 0 0.28921433794976792 0.22766269985723281 0 0.28442486254224258 0.2463376205898751 0 0.29548352595208072 0.25276417718664501 0 0.30129484237942677 0.24896316196057619 0 0.28442486254224258 0.2463376205898751 0 0.28921433794976792 0.22766269985723281 0 0.30129484237942677 0.24896316196057619 0 0.28921433794976792 0.22766269985723281 0 0.30129484237942677 0.24896316196057619 0 0.28442486254224258 0.2463376205898751 0 0.29548352595208072 0.25276417718664501 0 0.28442486254224258 0.2463376205898751 0 0.32645287516793792 0.2534464880952344 0 0.34353276186511927 0.2376624453472102 0 0.32387115344599432 0.23419664508182009 0 0.32645287516793792 0.2534464880952344 0 0.30129484237942677 0.24896316196057619 0 0.32387115344599432 0.23419664508182009 0 0.30129484237942677 0.24896316196057619 0 0.32387115344599432 0.23419664508182009 0 0.30916098073731169 0.22039282680330391 0 0.30588532862812551 0.2328038334257331 0 0.32387115344599432 0.23419664508182009 0 0.30916098073731169 0.22039282680330391 0 0.32387115344599432 0.23419664508182009 0 0.33103858943529119 0.219973449338664 0 0.34353276186511927 0.2376624453472102 0 0.32387115344599432 0.23419664508182009 0 0.33103858943529119 0.219973449338664 0 0.34353276186511927 0.2376624453472102 0 0.33103858943529119 0.219973449338664 0 0.34976882245585772 0.21670882293860219 0 0.33103858943529119 0.219973449338664 0 0.33966110329704308 0.20298858533014319 0 0.34976882245585772 0.21670882293860219 0 0.33103858943529119 0.219973449338664 0 0.32292825375706818 0.2071902500860569 0 0.33966110329704308 0.20298858533014319 0 0.31061892845463568 0.20000113780432421 0 0.30916098073731169 0.22039282680330391 0 0.32292825375706818 0.2071902500860569 0 0.30916098073731169 0.22039282680330391 0 0.33103858943529119 0.219973449338664 0 0.32292825375706818 0.2071902500860569 0 0.31061892845463568 0.20000113780432421 0 0.32527070428273541 0.19225461912216649 0 0.31426831070563249 0.18186980892836949 0 0.31061892845463568 0.20000113780432421 0 0.32292825375706818 0.2071902500860569 0 0.32527070428273541 0.19225461912216649 0 0.32527070428273541 0.19225461912216649 0 0.33966110329704308 0.20298858533014319 0 0.34362292293366359 0.18617246043517141 0 0.32292825375706818 0.2071902500860569 0 0.32527070428273541 0.19225461912216649 0 0.33966110329704308 0.20298858533014319 0 0.36533732691764281 0.19563191006019839 0 0.34362292293366359 0.18617246043517141 0 0.33966110329704308 0.20298858533014319 0 0.36533732691764281 0.19563191006019839 0 0.34362292293366359 0.18617246043517141 0 0.36533732691764281 0.19563191006019839 0 0.37043085873871168 0.22617568111747199 0 0.38705173090162143 0.2050913596852264 0 0.36533732691764281 0.19563191006019839 0 0.34976882245585772 0.21670882293860219 0 0.37043085873871168 0.22617568111747199 0 0.33966110329704308 0.20298858533014319 0 0.36533732691764281 0.19563191006019839 0 0.34976882245585772 0.21670882293860219 0 0.34353276186511927 0.2376624453472102 0 0.34976882245585772 0.21670882293860219 0 0.37043085873871168 0.22617568111747199 0 0.37043085873871168 0.22617568111747199 0 0.36346140581198227 0.2489327044989503 0 0.38313168943010789 0.24915105822936001 0 0.34353276186511927 0.2376624453472102 0 0.37043085873871168 0.22617568111747199 0 0.36346140581198227 0.2489327044989503 0 0.32768831369378598 0.14585361052300841 0 0.32259963093656913 0.16095631230938551 0 0.3438008196246764 0.16193668910293141 0 0.32768831369378598 0.14585361052300841 0 0.3438008196246764 0.16193668910293141 0 0.34781195812759541 0.14421489361616649 0 0.33800044150047293 0.13153308807959971 0 0.32768831369378598 0.14585361052300841 0 0.34781195812759541 0.14421489361616649 0 0.33800044150047293 0.13153308807959971 0 0.32158723913775961 0.12645730826143101 0 0.32768831369378598 0.14585361052300841 0 0.30828488186862513 0.14060752736385509 0 0.32158723913775961 0.12645730826143101 0 0.32768831369378598 0.14585361052300841 0 0.30742276695010717 0.15666516060399649 0 0.30828488186862513 0.14060752736385509 0 0.32768831369378598 0.14585361052300841 0 0.30742276695010717 0.15666516060399649 0 0.32768831369378598 0.14585361052300841 0 0.32259963093656913 0.16095631230938551 0 0.30425365709561419 0.16902202023685431 0 0.32259963093656913 0.16095631230938551 0 0.32190851894968359 0.17671301081014651 0 0.30425365709561419 0.16902202023685431 0 0.31426831070563249 0.18186980892836949 0 0.32190851894968359 0.17671301081014651 0 0.30425365709561419 0.16902202023685431 0 0.32190851894968359 0.17671301081014651 0 0.31426831070563249 0.18186980892836949 0 0.32190851894968359 0.17671301081014651 0 0.32527070428273541 0.19225461912216649 0 0.31426831070563249 0.18186980892836949 0 0.32190851894968359 0.17671301081014651 0 0.32190851894968359 0.17671301081014651 0 0.34362292293366359 0.18617246043517141 0 0.32190851894968359 0.17671301081014651 0 0.34362292293366359 0.18617246043517141 0 0.3438008196246764 0.16193668910293141 0 0.32527070428273541 0.19225461912216649 0 0.32190851894968359 0.17671301081014651 0 0.34362292293366359 0.18617246043517141 0 0.32259963093656913 0.16095631230938551 0 0.32190851894968359 0.17671301081014651 0 0.3438008196246764 0.16193668910293141 0 0.32190851894968359 0.17671301081014651 0 0.3438008196246764 0.16193668910293141 0 0.3438008196246764 0.16193668910293141 0 0.35980649408084758 0.17867537119523791 0 0.3728126571669893 0.1664706981588886 0 0.34362292293366359 0.18617246043517141 0 0.3438008196246764 0.16193668910293141 0 0.35980649408084758 0.17867537119523791 0 0.36533732691764281 0.19563191006019839 0 0.34362292293366359 0.18617246043517141 0 0.35980649408084758 0.17867537119523791 0 0.36533732691764281 0.19563191006019839 0 0.35980649408084758 0.17867537119523791 0 0.37993219403430473 0.18578102892205781 0 0.35980649408084758 0.17867537119523791 0 0.3728126571669893 0.1664706981588886 0 0.37993219403430473 0.18578102892205781 0 0.3728126571669893 0.1664706981588886 0 0.36569312029967188 0.14716036739572019 0 0.3438008196246764 0.16193668910293141 0 0.3728126571669893 0.1664706981588886 0 0.36569312029967188 0.14716036739572019 0 0.3728126571669893 0.1664706981588886 0 0.36569312029967188 0.14716036739572019 0 0.38508292456619669 0.152813363367755 0 0.3438008196246764 0.16193668910293141 0 0.36569312029967188 0.14716036739572019 0 0.34781195812759541 0.14421489361616649 0 0.3438008196246764 0.16193668910293141 0 0.36569312029967188 0.14716036739572019 0 0.35724902224618049 0.1242574272960387 0 0.36569312029967188 0.14716036739572019 0 0.34781195812759541 0.14421489361616649 0 0.35724902224618049 0.1242574272960387 0 0.33800044150047293 0.13153308807959971 0 0.34781195812759541 0.14421489361616649 0 0.35724902224618049 0.1242574272960387 0 0.36569312029967188 0.14716036739572019 0 0.35724902224618049 0.1242574272960387 0 0.37438887325428699 0.1198095785569543 0 0.36569312029967188 0.14716036739572019 0 0.37438887325428699 0.1198095785569543 0 0.36569312029967188 0.14716036739572019 0 0.38706864713890621 0.1327328448649846 0 0.36569312029967188 0.14716036739572019 0 0.38706864713890621 0.1327328448649846 0 0.38706864713890621 0.1327328448649846 0 0.41462743281309822 0.1318645721239024 0 0.40981498018493079 0.15061749384490039 0 0.38706864713890621 0.1327328448649846 0 0.41462743281309822 0.1318645721239024 0 0.40844417397814581 0.1183053223342567 0 0.38706864713890621 0.1327328448649846 0 0.40844417397814581 0.1183053223342567 0 0.38706864713890621 0.1327328448649846 0 0.38508292456619669 0.152813363367755 0 0.40981498018493079 0.15061749384490039 0 0.36569312029967188 0.14716036739572019 0 0.38706864713890621 0.1327328448649846 0 0.38508292456619669 0.152813363367755 0 0.3728126571669893 0.1664706981588886 0 0.38508292456619669 0.152813363367755 0 0.39345112515908481 0.16949074399214051 0 0.3728126571669893 0.1664706981588886 0 0.37993219403430473 0.18578102892205781 0 0.37993219403430473 0.18578102892205781 0 0.39345112515908481 0.16949074399214051 0 0.39774382828626348 0.18793301248771771 0 0.3728126571669893 0.1664706981588886 0 0.37993219403430473 0.18578102892205781 0 0.39345112515908481 0.16949074399214051 0 0.39345112515908481 0.16949074399214051 0 0.41703312027512429 0.17453153288045289 0 0.39774382828626348 0.18793301248771771 0 0.38508292456619669 0.152813363367755 0 0.39345112515908481 0.16949074399214051 0 0.40981498018493079 0.15061749384490039 0 0.41703312027512429 0.17453153288045289 0 0.43632241226398499 0.16113005327318811 0 0.40981498018493079 0.15061749384490039 0 0.39345112515908481 0.16949074399214051 0 0.41703312027512429 0.17453153288045289 0 0.40981498018493079 0.15061749384490039 0 0.41703312027512429 0.17453153288045289 0 0.39774382828626348 0.18793301248771771 0 0.41703312027512429 0.17453153288045289 0 0.39774382828626348 0.18793301248771771 0 0.41108805514564067 0.1978798657858534 0 0.41703312027512429 0.17453153288045289 0 0.4285941367189352 0.19863764702444389 0 0.43839798550278969 0.17961467819316179 0 0.41703312027512429 0.17453153288045289 0 0.43632241226398499 0.16113005327318811 0 0.41703312027512429 0.17453153288045289 0 0.43632241226398499 0.16113005327318811 0 0.43839798550278969 0.17961467819316179 0 0.43632241226398499 0.16113005327318811 0 0.43408285867340918 0.13674184292503899 0 0.40981498018493079 0.15061749384490039 0 0.43408285867340918 0.13674184292503899 0 0.41462743281309822 0.1318645721239024 0 0.42432326589957642 0.1205474715483494 0 0.43408285867340918 0.13674184292503899 0 0.41462743281309822 0.1318645721239024 0 0.40981498018493079 0.15061749384490039 0 0.40741878708023538 0.26033295739176671 0 0.38313168943010789 0.24915105822936001 0 0.39723525899092771 0.2327121585384968 0 0.40741878708023538 0.26033295739176671 0 0.39723525899092771 0.2327121585384968 0 0.37043085873871168 0.22617568111747199 0 0.38313168943010789 0.24915105822936001 0 0.39723525899092771 0.2327121585384968 0 0.37043085873871168 0.22617568111747199 0 0.39723525899092771 0.2327121585384968 0 0.38705173090162143 0.2050913596852264 0 0.39723525899092771 0.2327121585384968 0 0.38705173090162143 0.2050913596852264 0 0.38705173090162143 0.2050913596852264 0 0.41108805514564067 0.1978798657858534 0 0.40806981443216161 0.2142474711087046 0 0.39723525899092771 0.2327121585384968 0 0.38705173090162143 0.2050913596852264 0 0.40806981443216161 0.2142474711087046 0 0.38705173090162143 0.2050913596852264 0 0.40806981443216161 0.2142474711087046 0 0.36533732691764281 0.19563191006019839 0 0.38705173090162143 0.2050913596852264 0 0.36533732691764281 0.19563191006019839 0 0.37993219403430473 0.18578102892205781 0 0.38705173090162143 0.2050913596852264 0 0.37993219403430473 0.18578102892205781 0 0.38705173090162143 0.2050913596852264 0 0.37993219403430473 0.18578102892205781 0 0.38705173090162143 0.2050913596852264 0 0.39774382828626348 0.18793301248771771 0 0.38705173090162143 0.2050913596852264 0 0.39774382828626348 0.18793301248771771 0 0.41108805514564067 0.1978798657858534 0 0.41703312027512429 0.17453153288045289 0 0.41108805514564067 0.1978798657858534 0 0.4285941367189352 0.19863764702444389 0 0.4285941367189352 0.19863764702444389 0 0.40806981443216161 0.2142474711087046 0 0.42908789796270141 0.2234035825321837 0 0.4285941367189352 0.19863764702444389 0 0.42908789796270141 0.2234035825321837 0 0.44722926665117729 0.21224757579824649 0 0.41108805514564067 0.1978798657858534 0 0.4285941367189352 0.19863764702444389 0 0.40806981443216161 0.2142474711087046 0 0.40806981443216161 0.2142474711087046 0 0.42908789796270141 0.2234035825321837 0 0.41697898989259552 0.2411205159443833 0 0.39723525899092771 0.2327121585384968 0 0.40806981443216161 0.2142474711087046 0 0.41697898989259552 0.2411205159443833 0 0.40806981443216161 0.2142474711087046 0 0.42908789796270141 0.2234035825321837 0 0.42908789796270141 0.2234035825321837 0 0.4364808034378429 0.24279813918634921 0 0.41697898989259552 0.2411205159443833 0 0.40741878708023538 0.26033295739176671 0 0.39723525899092771 0.2327121585384968 0 0.41697898989259552 0.2411205159443833 0 0.45265058905914229 0.25041858092155223 0 0.45010598149324132 0.23255969395566281 0 0.4771563458419712 0.2385321447755672 0 0.45265058905914229 0.25041858092155223 0 0.47289252882010568 0.25761516153415509 0 0.4771563458419712 0.2385321447755672 0 0.45265058905914229 0.25041858092155223 0 0.4364808034378429 0.24279813918634921 0 0.45010598149324132 0.23255969395566281 0 0.42908789796270141 0.2234035825321837 0 0.45010598149324132 0.23255969395566281 0 0.42908789796270141 0.2234035825321837 0 0.4364808034378429 0.24279813918634921 0 0.45010598149324132 0.23255969395566281 0 0.42908789796270141 0.2234035825321837 0 0.45010598149324132 0.23255969395566281 0 0.44722926665117729 0.21224757579824649 0 0.45010598149324132 0.23255969395566281 0 0.44722926665117729 0.21224757579824649 0 0.47293294921353007 0.21487603124898111 0 0.45010598149324132 0.23255969395566281 0 0.47293294921353007 0.21487603124898111 0 0.4771563458419712 0.2385321447755672 0 0.44722926665117729 0.21224757579824649 0 0.45542536786747861 0.19176092422996119 0 0.47293294921353007 0.21487603124898111 0 0.4285941367189352 0.19863764702444389 0 0.44722926665117729 0.21224757579824649 0 0.45542536786747861 0.19176092422996119 0 0.4285941367189352 0.19863764702444389 0 0.45542536786747861 0.19176092422996119 0 0.43839798550278969 0.17961467819316179 0 0.45542536786747861 0.19176092422996119 0 0.47996377725968919 0.1914610463388596 0 0.47293294921353007 0.21487603124898111 0 0.47996377725968919 0.1914610463388596 0 0.5 0.2031952916605031 0 0.5 0.1756905855913744 0 0.5 0.2031952916605031 0 0.47293294921353007 0.21487603124898111 0 0.5 0.23069999772963179 0 0.47996377725968919 0.1914610463388596 0 0.5 0.2031952916605031 0 0.47293294921353007 0.21487603124898111 0 0.47293294921353007 0.21487603124898111 0 0.5 0.23069999772963179 0 0.4771563458419712 0.2385321447755672 0 0.5 0.25820470379876048 0 0.5 0.23069999772963179 0 0.4771563458419712 0.2385321447755672 0 0.45561170425284581 0.1477285736659234 0 0.47490099624170717 0.13432709405865961 0 0.47490099624170717 0.13432709405865961 0 0.4570645398281219 0.1244784313289783 0 0.45561170425284581 0.1477285736659234 0 0.47490099624170717 0.13432709405865961 0 0.4570645398281219 0.1244784313289783 0 0.43408285867340918 0.13674184292503899 0 0.45561170425284581 0.1477285736659234 0 0.4570645398281219 0.1244784313289783 0 0.43408285867340918 0.13674184292503899 0 0.4570645398281219 0.1244784313289783 0 0.4392280834145369 0.11462976859929649 0 0.43632241226398499 0.16113005327318811 0 0.45561170425284581 0.1477285736659234 0 0.43632241226398499 0.16113005327318811 0 0.43408285867340918 0.13674184292503899 0 0.45561170425284581 0.1477285736659234 0 0.43632241226398499 0.16113005327318811 0 0.45144360782090731 0.1704033256651426 0 0.43839798550278969 0.17961467819316179 0 0.43632241226398499 0.16113005327318811 0 0.45561170425284581 0.1477285736659234 0 0.45144360782090731 0.1704033256651426 0 0.45542536786747861 0.19176092422996119 0 0.45144360782090731 0.1704033256651426 0 0.43839798550278969 0.17961467819316179 0 0.45542536786747861 0.19176092422996119 0 0.45144360782090731 0.1704033256651426 0 0.47146056921743751 0.17178239896347841 0 0.45561170425284581 0.1477285736659234 0 0.45144360782090731 0.1704033256651426 0 0.47146056921743751 0.17178239896347841 0 0.47146056921743751 0.17178239896347841 0 0.5 0.1756905855913744 0 0.48056157119626203 0.15373270292247071 0 0.45561170425284581 0.1477285736659234 0 0.47146056921743751 0.17178239896347841 0 0.48056157119626203 0.15373270292247071 0 0.47996377725968919 0.1914610463388596 0 0.47146056921743751 0.17178239896347841 0 0.5 0.1756905855913744 0 0.45542536786747861 0.19176092422996119 0 0.47996377725968919 0.1914610463388596 0 0.47146056921743751 0.17178239896347841 0 0.5 0.1756905855913744 0 0.50000000000000133 0.14818587952224571 0 0.48056157119626203 0.15373270292247071 0 0.50000000000000133 0.14818587952224571 0 0.48056157119626203 0.15373270292247071 0 0.47490099624170717 0.13432709405865961 0 0.50000000000000133 0.14818587952224571 0 0.47490099624170717 0.13432709405865961 0 0.45561170425284581 0.1477285736659234 0 0.48056157119626203 0.15373270292247071 0 0.47490099624170717 0.13432709405865961 0 0.47490099624170717 0.13432709405865961 0 0.47539285610177301 0.1199563779136837 0 0.4570645398281219 0.1244784313289783 0 0.47490099624170717 0.13432709405865961 0 0.48745049812085312 0.12560816888443049 0 0.47539285610177301 0.1199563779136837 0 0.47490099624170717 0.13432709405865961 0 0.48745049812085312 0.12560816888443049 0 0.50000000000000133 0.14818587952224571 0 0.47490099624170717 0.13432709405865961 0 0.5 0.13253756161622421 0 0.47490099624170717 0.13432709405865961 0 0.48745049812085312 0.12560816888443049 0 0.5 0.13253756161622421 0 0.48745049812085312 0.12560816888443049 0 0.5 0.13253756161622421 0 0.49999999999999972 0.11688924371020271 0 0.48745049812085312 0.12560816888443049 0 0.49999999999999972 0.11688924371020271 0 0.48745049812085312 0.12560816888443049 0 0.48628347409551997 0.1099016003484882 0 0.49999999999999972 0.11688924371020271 0 0.48628347409551997 0.1099016003484882 0 0.5 0.095790056084337882 0 0.48575244945363 0.093204934006353796 0 0.48628347409551997 0.1099016003484882 0 0.49999999999999972 0.11688924371020271 0 0.5 0.095790056084337882 0 0.48628347409551997 0.1099016003484882 0 0.47126477222266278 0.1054665949478613 0 0.48575244945363 0.093204934006353796 0 0.48745049812085312 0.12560816888443049 0 0.48628347409551997 0.1099016003484882 0 0.47539285610177301 0.1199563779136837 0 0.48628347409551997 0.1099016003484882 0 0.47126477222266278 0.1054665949478613 0 0.47539285610177301 0.1199563779136837 0 0.49999999999999772 0.074690868458473073 0 0.47121400094996713 0.08017555019260858 0 0.49999999999999772 0.074690868458473073 0 0.48575244945363 0.093204934006353796 0 0.47121400094996713 0.08017555019260858 0 0.5 0.095790056084337882 0 0.49999999999999772 0.074690868458473073 0 0.48575244945363 0.093204934006353796 0 0.47126477222266278 0.1054665949478613 0 0.48575244945363 0.093204934006353796 0 0.47121400094996713 0.08017555019260858 0 0.49999999999999772 0.074690868458473073 0 0.47121400094996713 0.08017555019260858 0 0.48163788683881098 0.056019187176130511 0 0.47121400094996713 0.08017555019260858 0 0.46396714977145692 0.055648484723071823 0 0.48163788683881098 0.056019187176130511 0 0.47121400094996713 0.08017555019260858 0 0.44242800189993658 0.085660231926744504 0 0.4489294390676789 0.064159471050271824 0 0.47121400094996713 0.08017555019260858 0 0.4489294390676789 0.064159471050271824 0 0.46396714977145692 0.055648484723071823 0 0.47121400094996713 0.08017555019260858 0 0.44242800189993658 0.085660231926744504 0 0.47121400094996713 0.08017555019260858 0 0.44242800189993658 0.085660231926744504 0 0.45353677771505552 0.1015997059304275 0 0.44242800189993658 0.085660231926744504 0 0.4489294390676789 0.064159471050271824 0 0.43329691641467022 0.068535806900018634 0 0.4489294390676789 0.064159471050271824 0 0.43329691641467022 0.068535806900018634 0 0.43580461931973241 0.055098080055632312 0 0.47126477222266278 0.1054665949478613 0 0.4570645398281219 0.1244784313289783 0 0.45353677771505552 0.1015997059304275 0 0.47126477222266278 0.1054665949478613 0 0.47539285610177301 0.1199563779136837 0 0.4570645398281219 0.1244784313289783 0 0.47126477222266278 0.1054665949478613 0 0.47121400094996713 0.08017555019260858 0 0.45353677771505552 0.1015997059304275 0 0.44242800189993658 0.085660231926744504 0 0.45353677771505552 0.1015997059304275 0 0.43404529857607738 0.099563145197392719 0 0.45353677771505552 0.1015997059304275 0 0.4392280834145369 0.11462976859929649 0 0.43404529857607738 0.099563145197392719 0 0.4570645398281219 0.1244784313289783 0 0.4392280834145369 0.11462976859929649 0 0.4570645398281219 0.1244784313289783 0 0.45353677771505552 0.1015997059304275 0 0.4392280834145369 0.11462976859929649 0 0.4392280834145369 0.11462976859929649 0 0.42139162700095179 0.1047811058696147 0 0.4392280834145369 0.11462976859929649 0 0.42432326589957642 0.1205474715483494 0 0.42139162700095179 0.1047811058696147 0 0.43408285867340918 0.13674184292503899 0 0.4392280834145369 0.11462976859929649 0 0.42432326589957642 0.1205474715483494 0 0.42432326589957642 0.1205474715483494 0 0.40844417397814581 0.1183053223342567 0 0.42139162700095179 0.1047811058696147 0 0.41462743281309822 0.1318645721239024 0 0.42432326589957642 0.1205474715483494 0 0.40844417397814581 0.1183053223342567 0 0.40844417397814581 0.1183053223342567 0 0.42139162700095179 0.1047811058696147 0 0.40403374906824557 0.10301864173870461 0 0.42139162700095179 0.1047811058696147 0 0.41364200284990599 0.091144913660880456 0 0.40403374906824557 0.10301864173870461 0 0.4392280834145369 0.11462976859929649 0 0.42139162700095179 0.1047811058696147 0 0.43404529857607738 0.099563145197392719 0 0.42139162700095179 0.1047811058696147 0 0.43404529857607738 0.099563145197392719 0 0.41364200284990599 0.091144913660880456 0 0.44242800189993658 0.085660231926744504 0 0.43404529857607738 0.099563145197392719 0 0.41364200284990599 0.091144913660880456 0 0.44242800189993658 0.085660231926744504 0 0.41955165579074982 0.078259190897350506 0 0.41364200284990599 0.091144913660880456 0 0.44242800189993658 0.085660231926744504 0 0.41364200284990599 0.091144913660880456 0 0.44242800189993658 0.085660231926744504 0 0.43329691641467022 0.068535806900018634 0 0.41955165579074982 0.078259190897350506 0 0.43329691641467022 0.068535806900018634 0 0.41955165579074982 0.078259190897350506 0 0.42135269578552298 0.059975218228521879 0 0.41862302142131169 0.065782907600163323 0 0.41955165579074982 0.078259190897350506 0 0.42135269578552298 0.059975218228521879 0 0.41955165579074982 0.078259190897350506 0 0.42135269578552298 0.059975218228521879 0 0.41862302142131169 0.065782907600163323 0 0.42135269578552298 0.059975218228521879 0 0.41862302142131169 0.065782907600163323 0 0.41320430736835589 0.07304397474181934 0 0.41955165579074982 0.078259190897350506 0 0.41320430736835589 0.07304397474181934 0 0.41955165579074982 0.078259190897350506 0 0.41054971073159269 0.081928721453413622 0 0.41320430736835589 0.07304397474181934 0 0.41054971073159269 0.081928721453413622 0 0.40603046007780402 0.073463766035951228 0 0.41320430736835589 0.07304397474181934 0 0.41028143954377982 0.066669107234177363 0 0.40603046007780402 0.073463766035951228 0 0.41028143954377982 0.066669107234177363 0 0.40196413380207952 0.062988501443327446 0 0.41069650986198869 0.058500656892173819 0 0.41862302142131169 0.065782907600163323 0 0.41028143954377982 0.066669107234177363 0 0.41069650986198869 0.058500656892173819 0 0.41862302142131169 0.065782907600163323 0 0.41320430736835589 0.07304397474181934 0 0.41028143954377982 0.066669107234177363 0 0.41955165579074982 0.078259190897350506 0 0.41054971073159269 0.081928721453413622 0 0.41364200284990599 0.091144913660880456 0 0.41054971073159269 0.081928721453413622 0 0.41364200284990599 0.091144913660880456 0 0.40074389855622511 0.085989293443378911 0 0.41364200284990599 0.091144913660880456 0 0.40074389855622511 0.085989293443378911 0 0.40403374906824557 0.10301864173870461 0 0.40074389855622511 0.085989293443378911 0 0.39315516671573858 0.073951231941620801 0 0.38148175571998499 0.084553222446755311 0 0.41054971073159269 0.081928721453413622 0 0.40074389855622511 0.085989293443378911 0 0.40603046007780402 0.073463766035951228 0 0.40196413380207952 0.062988501443327446 0 0.39315516671573858 0.073951231941620801 0 0.39061376796590458 0.054252798003922909 0 0.41028143954377982 0.066669107234177363 0 0.40196413380207952 0.062988501443327446 0 0.40603046007780402 0.073463766035951228 0 0.40196413380207952 0.062988501443327446 0 0.40603046007780402 0.073463766035951228 0 0.39315516671573858 0.073951231941620801 0 0.40074389855622511 0.085989293443378911 0 0.40603046007780402 0.073463766035951228 0 0.39315516671573858 0.073951231941620801 0 0.37385769338344932 0.060786511943751093 0 0.39315516671573858 0.073951231941620801 0 0.39061376796590458 0.054252798003922909 0 0.37385769338344932 0.060786511943751093 0 0.39315516671573858 0.073951231941620801 0 0.38148175571998499 0.084553222446755311 0 0.40074389855622511 0.085989293443378911 0 0.38148175571998499 0.084553222446755311 0 0.38815334329232781 0.1011563619690015 0 0.37438887325428699 0.1198095785569543 0 0.36927554414063513 0.10255083054878281 0 0.38815334329232781 0.1011563619690015 0 0.36927554414063513 0.10255083054878281 0 0.38148175571998499 0.084553222446755311 0 0.38815334329232781 0.1011563619690015 0 0.37438887325428699 0.1198095785569543 0 0.38706864713890621 0.1327328448649846 0 0.39182744873191788 0.1167348531550952 0 0.37438887325428699 0.1198095785569543 0 0.38815334329232781 0.1011563619690015 0 0.39182744873191788 0.1167348531550952 0 0.38706864713890621 0.1327328448649846 0 0.40844417397814581 0.1183053223342567 0 0.39182744873191788 0.1167348531550952 0 0.40844417397814581 0.1183053223342567 0 0.39182744873191788 0.1167348531550952 0 0.40403374906824557 0.10301864173870461 0 0.40074389855622511 0.085989293443378911 0 0.38815334329232781 0.1011563619690015 0 0.40403374906824557 0.10301864173870461 0 0.38815334329232781 0.1011563619690015 0 0.39182744873191788 0.1167348531550952 0 0.40403374906824557 0.10301864173870461 0 0.40241568091832591 0.024129006510802301 0 0.378916029974119 0.034602206672870207 0 0.40241568091832591 0.024129006510802301 0 0.39149344720907941 0.0092430322328557434 0 0.378916029974119 0.034602206672870207 0 0.40241568091832591 0.024129006510802301 0 0.39149344720907941 0.0092430322328557434 0 0.40931641480716052 0.0008437092888607643 0 0.36392847794991978 0.017386800626596519 0 0.39149344720907941 0.0092430322328557434 0 0.39149344720907941 0.0092430322328557434 0 0.38513078397851142 -0.0076072966754338282 0 0.37378227755250659 -0.00013570250308337939 0 0.36392847794991978 0.017386800626596519 0 0.39149344720907941 0.0092430322328557434 0 0.37378227755250659 -0.00013570250308337939 0 0.36392847794991978 0.017386800626596519 0 0.39149344720907941 0.0092430322328557434 0 0.378916029974119 0.034602206672870207 0 0.378916029974119 0.034602206672870207 0 0.39061376796590458 0.054252798003922909 0 0.39586385863850487 0.040761518988478927 0 0.37385769338344932 0.060786511943751093 0 0.378916029974119 0.034602206672870207 0 0.39061376796590458 0.054252798003922909 0 0.40196413380207952 0.062988501443327446 0 0.39061376796590458 0.054252798003922909 0 0.40100745864726117 0.051093448552118607 0 0.39061376796590458 0.054252798003922909 0 0.40100745864726117 0.051093448552118607 0 0.39586385863850487 0.040761518988478927 0 0.40196413380207952 0.062988501443327446 0 0.40100745864726117 0.051093448552118607 0 0.41069650986198869 0.058500656892173819 0 0.40241568091832591 0.024129006510802301 0 0.39586385863850487 0.040761518988478927 0 0.41131021338107182 0.044141717827366408 0 0.40241568091832591 0.024129006510802301 0 0.378916029974119 0.034602206672870207 0 0.39586385863850487 0.040761518988478927 0 0.40100745864726117 0.051093448552118607 0 0.39586385863850487 0.040761518988478927 0 0.41131021338107182 0.044141717827366408 0 0.40241568091832591 0.024129006510802301 0 0.41131021338107182 0.044141717827366408 0 0.42363401382402749 0.036815512288627963 0 0.41131021338107182 0.044141717827366408 0 0.42135269578552298 0.059975218228521879 0 0.42363401382402749 0.036815512288627963 0 0.41131021338107182 0.044141717827366408 0 0.41069650986198869 0.058500656892173819 0 0.42135269578552298 0.059975218228521879 0 0.40100745864726117 0.051093448552118607 0 0.41131021338107182 0.044141717827366408 0 0.41069650986198869 0.058500656892173819 0 0.41862302142131169 0.065782907600163323 0 0.41069650986198869 0.058500656892173819 0 0.42135269578552298 0.059975218228521879 0 0.42135269578552298 0.059975218228521879 0 0.43580461931973241 0.055098080055632312 0 0.43012946901374982 0.041301645562428602 0 0.42135269578552298 0.059975218228521879 0 0.43012946901374982 0.041301645562428602 0 0.42135269578552298 0.059975218228521879 0 0.42363401382402749 0.036815512288627963 0 0.43329691641467022 0.068535806900018634 0 0.42135269578552298 0.059975218228521879 0 0.43580461931973241 0.055098080055632312 0 0.42135269578552298 0.059975218228521879 0 0.42363401382402749 0.036815512288627963 0 0.43012946901374982 0.041301645562428602 0 0.43012946901374982 0.041301645562428602 0 0.43890624224197627 0.02262807289633521 0 0.42363401382402749 0.036815512288627963 0 0.43012946901374982 0.041301645562428602 0 0.43890624224197627 0.02262807289633521 0 0.42363401382402749 0.036815512288627963 0 0.42591533186253261 0.013655806348733991 0 0.42363401382402749 0.036815512288627963 0 0.42591533186253261 0.013655806348733991 0 0.43890624224197627 0.02262807289633521 0 0.40241568091832591 0.024129006510802301 0 0.42363401382402749 0.036815512288627963 0 0.42591533186253261 0.013655806348733991 0 0.40241568091832591 0.024129006510802301 0 0.42591533186253261 0.013655806348733991 0 0.40241568091832591 0.024129006510802301 0 0.40931641480716052 0.0008437092888607643 0 0.42591533186253261 0.013655806348733991 0 0.40931641480716052 0.0008437092888607643 0 0.42591533186253261 0.013655806348733991 0 0.42800852844673509 -0.0075941099480287266 0 0.42591533186253261 0.013655806348733991 0 0.44768301547019768 0.0039545002302394114 0 0.42800852844673509 -0.0075941099480287266 0 0.42591533186253261 0.013655806348733991 0 0.44768301547019768 0.0039545002302394114 0 0.42591533186253261 0.013655806348733991 0 0.42800852844673509 -0.0075941099480287266 0 0.44768301547019768 0.0039545002302394114 0 0.43890624224197627 0.02262807289633521 0 0.42591533186253261 0.013655806348733991 0 0.44768301547019768 0.0039545002302394114 0 0.43890624224197627 0.02262807289633521 0 0.44768301547019768 0.0039545002302394114 0 0.43890624224197627 0.02262807289633521 0 0.4542257078502811 0.02375297217669432 0 0.43890624224197627 0.02262807289633521 0 0.4542257078502811 0.02375297217669432 0 0.44847823589757918 0.042464573853776257 0 0.4542257078502811 0.02375297217669432 0 0.46648485953840552 0.01429407256055271 0 0.46957618610324842 0.035423641342571949 0 0.44768301547019768 0.0039545002302394114 0 0.46648485953840552 0.01429407256055271 0 0.47384150773509121 -0.0077036782711643881 0 0.44768301547019768 0.0039545002302394114 0 0.4542257078502811 0.02375297217669432 0 0.46648485953840552 0.01429407256055271 0 0.4489294390676789 0.064159471050271824 0 0.43580461931973241 0.055098080055632312 0 0.44847823589757918 0.042464573853776257 0 0.43012946901374982 0.041301645562428602 0 0.43890624224197627 0.02262807289633521 0 0.44847823589757918 0.042464573853776257 0 0.43580461931973241 0.055098080055632312 0 0.43012946901374982 0.041301645562428602 0 0.44847823589757918 0.042464573853776257 0 0.4542257078502811 0.02375297217669432 0 0.44847823589757918 0.042464573853776257 0 0.46957618610324842 0.035423641342571949 0 0.44847823589757918 0.042464573853776257 0 0.46396714977145692 0.055648484723071823 0 0.46957618610324842 0.035423641342571949 0 0.4489294390676789 0.064159471050271824 0 0.44847823589757918 0.042464573853776257 0 0.46396714977145692 0.055648484723071823 0 0.46396714977145692 0.055648484723071823 0 0.48163788683881098 0.056019187176130511 0 0.46957618610324842 0.035423641342571949 0 0.48163788683881098 0.056019187176130511 0 0.46957618610324842 0.035423641342571949 0 0.48718684262746992 0.037862161385017593 0 0.48718684262746992 0.037862161385017593 0 0.5 0.051177687150714912 0 0.5 0.027664505842956651 0 0.48163788683881098 0.056019187176130511 0 0.48718684262746992 0.037862161385017593 0 0.5 0.051177687150714912 0 0.49999999999999772 0.074690868458473073 0 0.48163788683881098 0.056019187176130511 0 0.5 0.051177687150714912 0 0.46648485953840552 0.01429407256055271 0 0.48461754007380631 0.017289253306481251 0 0.47384150773509121 -0.0077036782711643881 0 0.46957618610324842 0.035423641342571949 0 0.48718684262746992 0.037862161385017593 0 0.48461754007380631 0.017289253306481251 0 0.46648485953840552 0.01429407256055271 0 0.46957618610324842 0.035423641342571949 0 0.48461754007380631 0.017289253306481251 0 0.48718684262746992 0.037862161385017593 0 0.48461754007380631 0.017289253306481251 0 0.5 0.027664505842956651 0 0.48461754007380631 0.017289253306481251 0 0.5 0.027664505842956651 0 0.5 0.0041513245351983974 0 0.48461754007380631 0.017289253306481251 0 0.5 0.0041513245351983974 0 0.47384150773509121 -0.0077036782711643881 0 0.47384150773509121 -0.0077036782711643881 0 0.49999999999998829 -0.01936185677255987 0 0.5 0.0041513245351983974 0 0.47384150773509121 -0.0077036782711643881 0 0.49999999999998829 -0.01936185677255987 0 0.47384150773509121 -0.0077036782711643881 0 0.48097930053004823 -0.028324423960057691 0 0.46015545986201428 -0.022582028698780461 0 0.47384150773509121 -0.0077036782711643881 0 0.48097930053004823 -0.028324423960057691 0 0.49999999999998829 -0.01936185677255987 0 0.48097930053004823 -0.028324423960057691 0 0.49999999999998829 -0.01936185677255987 0 0.5 -0.045987289928878461 0 0.48097930053004823 -0.028324423960057691 0 0.5 -0.045987289928878461 0 0.47262790425382589 -0.049118557627802838 0 0.5 -0.045987289928878461 0 0.48952123698066641 -0.059300006507038143 0 0.47262790425382589 -0.049118557627802838 0 0.5 -0.045987289928878461 0 0.48952123698066641 -0.059300006507038143 0 0.50000000000000089 -0.072612723085196951 0 0.48952123698066641 -0.059300006507038143 0 0.47262790425382589 -0.049118557627802838 0 0.48510034864563678 -0.075655086556825429 0 0.47262790425382589 -0.049118557627802838 0 0.48510034864563678 -0.075655086556825429 0 0.48097930053004823 -0.028324423960057691 0 0.47262790425382589 -0.049118557627802838 0 0.46015545986201428 -0.022582028698780461 0 0.47262790425382589 -0.049118557627802838 0 0.45015077892247918 -0.040110854316927062 0 0.46015545986201428 -0.022582028698780461 0 0.47262790425382589 -0.049118557627802838 0 0.46015545986201428 -0.022582028698780461 0 0.47262790425382589 -0.049118557627802838 0 0.45256704136488018 -0.058501556399642482 0 0.45015077892247918 -0.040110854316927062 0 0.47262790425382589 -0.049118557627802838 0 0.45256704136488018 -0.058501556399642482 0 0.46842013911402741 -0.067761792843408747 0 0.45256704136488018 -0.058501556399642482 0 0.43826234487632998 -0.070324325223781931 0 0.43219492161514028 -0.050093942541554137 0 0.45256704136488018 -0.058501556399642482 0 0.45015077892247918 -0.040110854316927062 0 0.43219492161514028 -0.050093942541554137 0 0.45015077892247918 -0.040110854316927062 0 0.44327529253491599 -0.016818328344993541 0 0.46015545986201428 -0.022582028698780461 0 0.45015077892247918 -0.040110854316927062 0 0.44327529253491599 -0.016818328344993541 0 0.43010172503093769 -0.028844026244791428 0 0.44768301547019768 0.0039545002302394114 0 0.44327529253491599 -0.016818328344993541 0 0.42800852844673509 -0.0075941099480287266 0 0.44768301547019768 0.0039545002302394114 0 0.44327529253491599 -0.016818328344993541 0 0.46015545986201428 -0.022582028698780461 0 0.44768301547019768 0.0039545002302394114 0 0.47384150773509121 -0.0077036782711643881 0 0.46015545986201428 -0.022582028698780461 0 0.44768301547019768 0.0039545002302394114 0 0.46015545986201428 -0.022582028698780461 0 0.44768301547019768 0.0039545002302394114 0 0.47384150773509121 -0.0077036782711643881 0 0.47866475737878661 -0.119913460570227 0 0.47646043162061208 -0.1028658093870269 0 0.46489337107132062 -0.1095450812078604 0 0.47866475737878661 -0.119913460570227 0 0.48799158047813201 -0.1100113873087083 0 0.47646043162061208 -0.1028658093870269 0 0.47866475737878661 -0.119913460570227 0 0.46489337107132062 -0.1095450812078604 0 0.46441013443710838 -0.1249183798069777 0 0.48799158047813201 -0.1100113873087083 0 0.5 -0.10158745934561821 0 0.5 -0.13056219560603949 0 0.47866475737878661 -0.119913460570227 0 0.48799158047813201 -0.1100113873087083 0 0.5 -0.13056219560603949 0 0.48799158047813201 -0.1100113873087083 0 0.5 -0.10158745934561821 0 0.48483271339126088 -0.095128011634630055 0 0.48483271339126088 -0.095128011634630055 0 0.47646043162061208 -0.1028658093870269 0 0.47404287358340552 -0.087981027095711067 0 0.48799158047813201 -0.1100113873087083 0 0.48483271339126088 -0.095128011634630055 0 0.47646043162061208 -0.1028658093870269 0 0.47646043162061208 -0.1028658093870269 0 0.46508350621890931 -0.096615615686762274 0 0.46489337107132062 -0.1095450812078604 0 0.47646043162061208 -0.1028658093870269 0 0.47404287358340552 -0.087981027095711067 0 0.46508350621890931 -0.096615615686762274 0 0.48510034864563678 -0.075655086556825429 0 0.46055926472057912 -0.080666136514440503 0 0.47404287358340552 -0.087981027095711067 0 0.48510034864563678 -0.075655086556825429 0 0.46055926472057912 -0.080666136514440503 0 0.47404287358340552 -0.087981027095711067 0 0.48279056582094421 -0.085986941699434979 0 0.48510034864563678 -0.075655086556825429 0 0.48483271339126088 -0.095128011634630055 0 0.47404287358340552 -0.087981027095711067 0 0.48279056582094421 -0.085986941699434979 0 0.48483271339126088 -0.095128011634630055 0 0.48279056582094421 -0.085986941699434979 0 0.48854926074309091 -0.082993035139527674 0 0.5 -0.10158745934561821 0 0.48483271339126088 -0.095128011634630055 0 0.48854926074309091 -0.082993035139527674 0 0.5 -0.10158745934561821 0 0.48854926074309091 -0.082993035139527674 0 0.50000000000000089 -0.072612723085196951 0 0.48279056582094421 -0.085986941699434979 0 0.48854926074309091 -0.082993035139527674 0 0.48510034864563678 -0.075655086556825429 0 0.48854926074309091 -0.082993035139527674 0 0.48510034864563678 -0.075655086556825429 0 0.48952123698066641 -0.059300006507038143 0 0.48510034864563678 -0.075655086556825429 0 0.50000000000000089 -0.072612723085196951 0 0.48854926074309091 -0.082993035139527674 0 0.48510034864563678 -0.075655086556825429 0 0.50000000000000089 -0.072612723085196951 0 0.48510034864563678 -0.075655086556825429 0 0.50000000000000089 -0.072612723085196951 0 0.48510034864563678 -0.075655086556825429 0 0.46842013911402741 -0.067761792843408747 0 0.46055926472057912 -0.080666136514440503 0 0.47262790425382589 -0.049118557627802838 0 0.48510034864563678 -0.075655086556825429 0 0.46842013911402741 -0.067761792843408747 0 0.46842013911402741 -0.067761792843408747 0 0.452614388255829 -0.0712299127838978 0 0.46055926472057912 -0.080666136514440503 0 0.45256704136488018 -0.058501556399642482 0 0.46842013911402741 -0.067761792843408747 0 0.452614388255829 -0.0712299127838978 0 0.4468635446620649 -0.076974390248543897 0 0.452614388255829 -0.0712299127838978 0 0.46055926472057912 -0.080666136514440503 0 0.45256704136488018 -0.058501556399642482 0 0.43826234487632998 -0.070324325223781931 0 0.452614388255829 -0.0712299127838978 0 0.43826234487632998 -0.070324325223781931 0 0.4468635446620649 -0.076974390248543897 0 0.43601818079552151 -0.085677186472055369 0 0.43826234487632998 -0.070324325223781931 0 0.4468635446620649 -0.076974390248543897 0 0.452614388255829 -0.0712299127838978 0 0.46055926472057912 -0.080666136514440503 0 0.43601818079552151 -0.085677186472055369 0 0.45423397549956218 -0.0911794337432075 0 0.46055926472057912 -0.080666136514440503 0 0.43601818079552151 -0.085677186472055369 0 0.4468635446620649 -0.076974390248543897 0 0.46055926472057912 -0.080666136514440503 0 0.43601818079552151 -0.085677186472055369 0 0.45423397549956218 -0.0911794337432075 0 0.46347990500561398 -0.089110553260030326 0 0.46508350621890931 -0.096615615686762274 0 0.45423397549956218 -0.0911794337432075 0 0.46055926472057912 -0.080666136514440503 0 0.46347990500561398 -0.089110553260030326 0 0.47404287358340552 -0.087981027095711067 0 0.46055926472057912 -0.080666136514440503 0 0.46347990500561398 -0.089110553260030326 0 0.47404287358340552 -0.087981027095711067 0 0.46347990500561398 -0.089110553260030326 0 0.46508350621890931 -0.096615615686762274 0 0.46508350621890931 -0.096615615686762274 0 0.45591551385380918 -0.1050002411691591 0 0.46489337107132062 -0.1095450812078604 0 0.45423397549956218 -0.0911794337432075 0 0.46508350621890931 -0.096615615686762274 0 0.45591551385380918 -0.1050002411691591 0 0.45423397549956218 -0.0911794337432075 0 0.44753800254596199 -0.1085568054845248 0 0.43257621930520218 -0.10922446522704909 0 0.45423397549956218 -0.0911794337432075 0 0.45591551385380918 -0.1050002411691591 0 0.44753800254596199 -0.1085568054845248 0 0.45423397549956218 -0.0911794337432075 0 0.43257621930520218 -0.10922446522704909 0 0.43601818079552151 -0.085677186472055369 0 0.45423397549956218 -0.0911794337432075 0 0.43257621930520218 -0.10922446522704909 0 0.44753800254596199 -0.1085568054845248 0 0.44159002387344187 -0.1213829702657743 0 0.45337428019779452 -0.11599691701743391 0 0.45591551385380918 -0.1050002411691591 0 0.44753800254596199 -0.1085568054845248 0 0.45337428019779452 -0.11599691701743391 0 0.44753800254596199 -0.1085568054845248 0 0.44159002387344187 -0.1213829702657743 0 0.43257621930520218 -0.10922446522704909 0 0.44159002387344187 -0.1213829702657743 0 0.45337428019779452 -0.11599691701743391 0 0.45197104021009732 -0.1297866206243361 0 0.45337428019779452 -0.11599691701743391 0 0.46441013443710838 -0.1249183798069777 0 0.45197104021009732 -0.1297866206243361 0 0.45591551385380918 -0.1050002411691591 0 0.45337428019779452 -0.11599691701743391 0 0.46489337107132062 -0.1095450812078604 0 0.45337428019779452 -0.11599691701743391 0 0.46489337107132062 -0.1095450812078604 0 0.46441013443710838 -0.1249183798069777 0 0.41505227724946581 -0.1100274134661261 0 0.43257621930520218 -0.10922446522704909 0 0.41095195339919349 -0.12724159292887649 0 0.41505227724946581 -0.1100274134661261 0 0.4016669304468839 -0.118003868578144 0 0.41095195339919349 -0.12724159292887649 0 0.43257621930520218 -0.10922446522704909 0 0.41095195339919349 -0.12724159292887649 0 0.43257621930520218 -0.10922446522704909 0 0.42947322839580138 -0.13045276546324991 0 0.42535055115134007 -0.11854013211556209 0 0.43257621930520218 -0.10922446522704909 0 0.41095195339919349 -0.12724159292887649 0 0.44159002387344187 -0.1213829702657743 0 0.43257621930520218 -0.10922446522704909 0 0.42947322839580138 -0.13045276546324991 0 0.42535055115134007 -0.11854013211556209 0 0.43257621930520218 -0.10922446522704909 0 0.42947322839580138 -0.13045276546324991 0 0.43257621930520218 -0.10922446522704909 0 0.42203755685191019 -0.10147756875195239 0 0.43347819188330228 -0.090255551602059031 0 0.41505227724946581 -0.1100274134661261 0 0.43257621930520218 -0.10922446522704909 0 0.42203755685191019 -0.10147756875195239 0 0.43257621930520218 -0.10922446522704909 0 0.43347819188330228 -0.090255551602059031 0 0.43601818079552151 -0.085677186472055369 0 0.43257621930520218 -0.10922446522704909 0 0.43601818079552151 -0.085677186472055369 0 0.41505227724946581 -0.1100274134661261 0 0.40704353896967049 -0.096402844712575639 0 0.4016669304468839 -0.118003868578144 0 0.42203755685191019 -0.10147756875195239 0 0.40704353896967049 -0.096402844712575639 0 0.43347819188330228 -0.090255551602059031 0 0.41505227724946581 -0.1100274134661261 0 0.42203755685191019 -0.10147756875195239 0 0.40704353896967049 -0.096402844712575639 0 0.40704353896967049 -0.096402844712575639 0 0.41600475231343031 -0.079053357186786508 0 0.43347819188330228 -0.090255551602059031 0 0.40704353896967049 -0.096402844712575639 0 0.43347819188330228 -0.090255551602059031 0 0.41600475231343031 -0.079053357186786508 0 0.43347819188330228 -0.090255551602059031 0 0.43098739446860262 -0.078978999981146797 0 0.43347819188330228 -0.090255551602059031 0 0.43098739446860262 -0.078978999981146797 0 0.43601818079552151 -0.085677186472055369 0 0.43826234487632998 -0.070324325223781931 0 0.43098739446860262 -0.078978999981146797 0 0.43601818079552151 -0.085677186472055369 0 0.41600475231343031 -0.079053357186786508 0 0.43098739446860262 -0.078978999981146797 0 0.42664160152912739 -0.062784525401469435 0 0.43826234487632998 -0.070324325223781931 0 0.43098739446860262 -0.078978999981146797 0 0.42664160152912739 -0.062784525401469435 0 0.43826234487632998 -0.070324325223781931 0 0.43601818079552151 -0.085677186472055369 0 0.41600475231343031 -0.079053357186786508 0 0.42664160152912739 -0.062784525401469435 0 0.41193226077549389 -0.05686483444150179 0 0.41600475231343031 -0.079053357186786508 0 0.39224299197285428 -0.067601485151461263 0 0.41193226077549389 -0.05686483444150179 0 0.41600475231343031 -0.079053357186786508 0 0.39224299197285428 -0.067601485151461263 0 0.39106687414105468 -0.085504972507515292 0 0.39224299197285428 -0.067601485151461263 0 0.36860292664027122 -0.065968725110588086 0 0.37346069529248521 -0.082049458216582563 0 0.39224299197285428 -0.067601485151461263 0 0.39106687414105468 -0.085504972507515292 0 0.37346069529248521 -0.082049458216582563 0 0.38086372985856992 -0.092058689967441681 0 0.37831846394470081 -0.09813019132257661 0 0.37346069529248521 -0.082049458216582563 0 0.37831846394470081 -0.09813019132257661 0 0.37346069529248521 -0.082049458216582563 0 0.38086372985856992 -0.092058689967441681 0 0.39106687414105468 -0.085504972507515292 0 0.37346069529248521 -0.082049458216582563 0 0.38086372985856992 -0.092058689967441681 0 0.39106687414105468 -0.085504972507515292 0 0.38060888605603882 -0.1025501378230923 0 0.40704353896967049 -0.096402844712575639 0 0.41600475231343031 -0.079053357186786508 0 0.39106687414105468 -0.085504972507515292 0 0.40704353896967049 -0.096402844712575639 0 0.38060888605603882 -0.1025501378230923 0 0.40704353896967049 -0.096402844712575639 0 0.39106687414105468 -0.085504972507515292 0 0.38060888605603882 -0.1025501378230923 0 0.40704353896967049 -0.096402844712575639 0 0.39220057476159381 -0.1094571064211964 0 0.4016669304468839 -0.118003868578144 0 0.40704353896967049 -0.096402844712575639 0 0.38060888605603882 -0.1025501378230923 0 0.39220057476159381 -0.1094571064211964 0 0.38086372985856992 -0.092058689967441681 0 0.37831846394470081 -0.09813019132257661 0 0.38060888605603882 -0.1025501378230923 0 0.37831846394470081 -0.09813019132257661 0 0.38060888605603882 -0.1025501378230923 0 0.36814437039120379 -0.098971037106231841 0 0.38060888605603882 -0.1025501378230923 0 0.38373264842515298 -0.1103516083894274 0 0.37692150664171048 -0.1111942642614612 0 0.38060888605603882 -0.1025501378230923 0 0.37692150664171048 -0.1111942642614612 0 0.36905511877313579 -0.11053119746291459 0 0.38060888605603882 -0.1025501378230923 0 0.38373264842515298 -0.1103516083894274 0 0.39220057476159381 -0.1094571064211964 0 0.38373264842515298 -0.1103516083894274 0 0.37954614204083659 -0.1158132695650981 0 0.38763710598076351 -0.1211819530494572 0 0.38373264842515298 -0.1103516083894274 0 0.38763710598076351 -0.1211819530494572 0 0.39220057476159381 -0.1094571064211964 0 0.38373264842515298 -0.1103516083894274 0 0.37954614204083659 -0.1158132695650981 0 0.37692150664171048 -0.1111942642614612 0 0.37954614204083659 -0.1158132695650981 0 0.37692150664171048 -0.1111942642614612 0 0.37166473791338872 -0.1167251080667738 0 0.37954614204083659 -0.1158132695650981 0 0.37690317713408772 -0.1222977117636227 0 0.38763710598076351 -0.1211819530494572 0 0.37954614204083659 -0.1158132695650981 0 0.37690317713408772 -0.1222977117636227 0 0.37166473791338872 -0.1167251080667738 0 0.38763710598076351 -0.1211819530494572 0 0.4016669304468839 -0.118003868578144 0 0.39639467592149358 -0.1284483734250037 0 0.38763710598076351 -0.1211819530494572 0 0.39220057476159381 -0.1094571064211964 0 0.4016669304468839 -0.118003868578144 0 0.4016669304468839 -0.118003868578144 0 0.39639467592149358 -0.1284483734250037 0 0.41095195339919349 -0.12724159292887649 0 0.40874876474289401 -0.02238153719427264 0 0.43010172503093769 -0.028844026244791428 0 0.41476006013110078 -0.039617228857881187 0 0.40931641480716052 0.0008437092888607643 0 0.40874876474289401 -0.02238153719427264 0 0.42800852844673509 -0.0075941099480287266 0 0.44327529253491599 -0.016818328344993541 0 0.42800852844673509 -0.0075941099480287266 0 0.43010172503093769 -0.028844026244791428 0 0.42800852844673509 -0.0075941099480287266 0 0.43010172503093769 -0.028844026244791428 0 0.40874876474289401 -0.02238153719427264 0 0.42800852844673509 -0.0075941099480287266 0 0.43010172503093769 -0.028844026244791428 0 0.43010172503093769 -0.028844026244791428 0 0.43219492161514028 -0.050093942541554137 0 0.41476006013110078 -0.039617228857881187 0 0.45015077892247918 -0.040110854316927062 0 0.43010172503093769 -0.028844026244791428 0 0.43219492161514028 -0.050093942541554137 0 0.43010172503093769 -0.028844026244791428 0 0.43219492161514028 -0.050093942541554137 0 0.43826234487632998 -0.070324325223781931 0 0.42664160152912739 -0.062784525401469435 0 0.43219492161514028 -0.050093942541554137 0 0.42664160152912739 -0.062784525401469435 0 0.43219492161514028 -0.050093942541554137 0 0.41193226077549389 -0.05686483444150179 0 0.43219492161514028 -0.050093942541554137 0 0.41193226077549389 -0.05686483444150179 0 0.41476006013110078 -0.039617228857881187 0 0.40874876474289401 -0.02238153719427264 0 0.41476006013110078 -0.039617228857881187 0 0.38867584569158292 -0.04417513115243063 0 0.40874876474289401 -0.02238153719427264 0 0.38867584569158292 -0.04417513115243063 0 0.41193226077549389 -0.05686483444150179 0 0.41476006013110078 -0.039617228857881187 0 0.38867584569158292 -0.04417513115243063 0 0.39224299197285428 -0.067601485151461263 0 0.41193226077549389 -0.05686483444150179 0 0.38867584569158292 -0.04417513115243063 0 0.38867584569158292 -0.04417513115243063 0 0.36860292664027122 -0.065968725110588086 0 0.38867584569158292 -0.04417513115243063 0 0.37525078491369551 -0.038041508705652233 0 0.36860292664027122 -0.065968725110588086 0 0.39224299197285428 -0.067601485151461263 0 0.38867584569158292 -0.04417513115243063 0 0.36860292664027122 -0.065968725110588086 0 0.38867584569158292 -0.04417513115243063 0 0.37525078491369551 -0.038041508705652233 0 0.38742199521823811 -0.021499890801610029 0 0.37525078491369551 -0.038041508705652233 0 0.37587617809310853 -0.024201119587408108 0 0.38742199521823811 -0.021499890801610029 0 0.37587617809310853 -0.024201119587408108 0 0.38742199521823811 -0.021499890801610029 0 0.37363946424933608 -0.01365398008840504 0 0.40874876474289401 -0.02238153719427264 0 0.38742199521823811 -0.021499890801610029 0 0.39856328541552583 -0.01102431706412384 0 0.40874876474289401 -0.02238153719427264 0 0.38867584569158292 -0.04417513115243063 0 0.38742199521823811 -0.021499890801610029 0 0.39149344720907941 0.0092430322328557434 0 0.40931641480716052 0.0008437092888607643 0 0.39856328541552583 -0.01102431706412384 0 0.39149344720907941 0.0092430322328557434 0 0.39856328541552583 -0.01102431706412384 0 0.38513078397851142 -0.0076072966754338282 0 0.40931641480716052 0.0008437092888607643 0 0.40874876474289401 -0.02238153719427264 0 0.39856328541552583 -0.01102431706412384 0 0.38742199521823811 -0.021499890801610029 0 0.39856328541552583 -0.01102431706412384 0 0.38513078397851142 -0.0076072966754338282 0 0.38742199521823811 -0.021499890801610029 0 0.38513078397851142 -0.0076072966754338282 0 0.37363946424933608 -0.01365398008840504 0 0.38513078397851142 -0.0076072966754338282 0 0.37378227755250659 -0.00013570250308337939 0 0.37363946424933608 -0.01365398008840504 0 0.37378227755250659 -0.00013570250308337939 0 0.37363946424933608 -0.01365398008840504 0 0.36394696822204647 -0.0086334128336824807 0 0.36394696822204647 -0.0086334128336824807 0 0.35602744723572788 -0.0062321018227241556 0 0.35821572360096599 -0.01221429151786798 0 0.36394696822204647 -0.0086334128336824807 0 0.36298500857916249 -0.016607051349926929 0 0.35821572360096599 -0.01221429151786798 0 0.37363946424933608 -0.01365398008840504 0 0.36394696822204647 -0.0086334128336824807 0 0.36298500857916249 -0.016607051349926929 0 0.36298500857916249 -0.016607051349926929 0 0.35852853082143388 -0.016207167657810349 0 0.35821572360096599 -0.01221429151786798 0 0.36234135482611102 0.00074738726826526489 0 0.37378227755250659 -0.00013570250308337939 0 0.36394696822204647 -0.0086334128336824807 0 0.36234135482611102 0.00074738726826526489 0 0.36394696822204647 -0.0086334128336824807 0 0.35602744723572788 -0.0062321018227241556 0 0.37587617809310853 -0.024201119587408108 0 0.36930839759229012 -0.029553228907550941 0 0.36865504388760861 -0.021526166610278522 0 0.37525078491369551 -0.038041508705652233 0 0.37587617809310853 -0.024201119587408108 0 0.36930839759229012 -0.029553228907550941 0 0.37587617809310853 -0.024201119587408108 0 0.37363946424933608 -0.01365398008840504 0 0.36865504388760861 -0.021526166610278522 0 0.37363946424933608 -0.01365398008840504 0 0.36865504388760861 -0.021526166610278522 0 0.36298500857916249 -0.016607051349926929 0 0.36298500857916249 -0.016607051349926929 0 0.35993111651305421 -0.019614001581370739 0 0.35852853082143388 -0.016207167657810349 0 0.36298500857916249 -0.016607051349926929 0 0.35993111651305421 -0.019614001581370739 0 0.36146617092414579 -0.023615453118101599 0 0.35993111651305421 -0.019614001581370739 0 0.36146617092414579 -0.023615453118101599 0 0.3579967537951842 -0.020244948672220871 0 0.36865504388760861 -0.021526166610278522 0 0.36298500857916249 -0.016607051349926929 0 0.36146617092414579 -0.023615453118101599 0 0.36930839759229012 -0.029553228907550941 0 0.36865504388760861 -0.021526166610278522 0 0.36146617092414579 -0.023615453118101599 0 0.35463580585309729 -0.019733188238062381 0 0.34351703691333529 -0.016441911751832301 0 0.34084277107474931 -0.037690143674182323 0 0.35463580585309729 -0.019733188238062381 0 0.34084277107474931 -0.037690143674182323 0 0.36146617092414579 -0.023615453118101599 0 0.35463580585309729 -0.019733188238062381 0 0.361619366246683 -0.042850956674325577 0 0.36146617092414579 -0.023615453118101599 0 0.35463580585309729 -0.019733188238062381 0 0.3579967537951842 -0.020244948672220871 0 0.35463580585309729 -0.019733188238062381 0 0.3579967537951842 -0.020244948672220871 0 0.35595392189043967 -0.018017151751348801 0 0.35463580585309729 -0.019733188238062381 0 0.35595392189043967 -0.018017151751348801 0 0.35597876128746447 -0.015806567855077249 0 0.35993111651305421 -0.019614001581370739 0 0.35595392189043967 -0.018017151751348801 0 0.35852853082143388 -0.016207167657810349 0 0.35993111651305421 -0.019614001581370739 0 0.3579967537951842 -0.020244948672220871 0 0.35595392189043967 -0.018017151751348801 0 0.35595392189043967 -0.018017151751348801 0 0.35852853082143388 -0.016207167657810349 0 0.35597876128746447 -0.015806567855077249 0 0.35463580585309729 -0.019733188238062381 0 0.35597876128746447 -0.015806567855077249 0 0.3525598242713861 -0.01286104011029676 0 0.35463580585309729 -0.019733188238062381 0 0.3525598242713861 -0.01286104011029676 0 0.35463580585309729 -0.019733188238062381 0 0.35595392189043967 -0.018017151751348801 0 0.35463580585309729 -0.019733188238062381 0 0.3525598242713861 -0.01286104011029676 0 0.34351703691333529 -0.016441911751832301 0 0.36234135482611102 0.00074738726826526489 0 0.3511842398881892 0.0023449734811356029 0 0.35602744723572788 -0.0062321018227241556 0 0.3511842398881892 0.0023449734811356029 0 0.35602744723572788 -0.0062321018227241556 0 0.34798789329613772 -0.0072093807483384134 0 0.35602744723572788 -0.0062321018227241556 0 0.35821572360096599 -0.01221429151786798 0 0.3525598242713861 -0.01286104011029676 0 0.35602744723572788 -0.0062321018227241556 0 0.3525598242713861 -0.01286104011029676 0 0.34798789329613772 -0.0072093807483384134 0 0.35852853082143388 -0.016207167657810349 0 0.35597876128746447 -0.015806567855077249 0 0.35821572360096599 -0.01221429151786798 0 0.35597876128746447 -0.015806567855077249 0 0.35821572360096599 -0.01221429151786798 0 0.3525598242713861 -0.01286104011029676 0 0.3525598242713861 -0.01286104011029676 0 0.34798789329613772 -0.0072093807483384134 0 0.34351703691333529 -0.016441911751832301 0 0.3511842398881892 0.0023449734811356029 0 0.34798789329613772 -0.0072093807483384134 0 0.33665091817204978 -0.0028568235379744611 0 0.33665091817204978 -0.0028568235379744611 0 0.32991501114414301 -0.01923085803003715 0 0.32006958300034688 -0.0039555539418603229 0 0.33665091817204978 -0.0028568235379744611 0 0.34351703691333529 -0.016441911751832301 0 0.32991501114414301 -0.01923085803003715 0 0.34798789329613772 -0.0072093807483384134 0 0.33665091817204978 -0.0028568235379744611 0 0.34351703691333529 -0.016441911751832301 0 0.32991501114414301 -0.01923085803003715 0 0.32066036240605428 -0.033932398068078573 0 0.34084277107474931 -0.037690143674182323 0 0.34351703691333529 -0.016441911751832301 0 0.32991501114414301 -0.01923085803003715 0 0.34084277107474931 -0.037690143674182323 0 0.32991501114414301 -0.01923085803003715 0 0.31454170909054069 -0.0193447198848089 0 0.32066036240605428 -0.033932398068078573 0 0.32991501114414301 -0.01923085803003715 0 0.31454170909054069 -0.0193447198848089 0 0.32006958300034688 -0.0039555539418603229 0 0.3270497362964 -0.055647099110301357 0 0.32066036240605428 -0.033932398068078573 0 0.30915730089378812 -0.051630931402563002 0 0.3270497362964 -0.055647099110301357 0 0.3132567015180508 -0.073604054546420369 0 0.30915730089378812 -0.051630931402563002 0 0.3270497362964 -0.055647099110301357 0 0.32066036240605428 -0.033932398068078573 0 0.34084277107474931 -0.037690143674182323 0 0.3270497362964 -0.055647099110301357 0 0.34084277107474931 -0.037690143674182323 0 0.3270497362964 -0.055647099110301357 0 0.34084277107474931 -0.037690143674182323 0 0.34826628012747712 -0.059498443694411519 0 0.35463580585309729 -0.019733188238062381 0 0.34084277107474931 -0.037690143674182323 0 0.361619366246683 -0.042850956674325577 0 0.34084277107474931 -0.037690143674182323 0 0.34826628012747712 -0.059498443694411519 0 0.361619366246683 -0.042850956674325577 0 0.35463580585309729 -0.019733188238062381 0 0.361619366246683 -0.042850956674325577 0 0.36930839759229012 -0.029553228907550941 0 0.36146617092414579 -0.023615453118101599 0 0.361619366246683 -0.042850956674325577 0 0.37525078491369551 -0.038041508705652233 0 0.36930839759229012 -0.029553228907550941 0 0.361619366246683 -0.042850956674325577 0 0.34826628012747712 -0.059498443694411519 0 0.361619366246683 -0.042850956674325577 0 0.36860292664027122 -0.065968725110588086 0 0.37525078491369551 -0.038041508705652233 0 0.361619366246683 -0.042850956674325577 0 0.36860292664027122 -0.065968725110588086 0 0.361619366246683 -0.042850956674325577 0 0.36860292664027122 -0.065968725110588086 0 0.36860292664027122 -0.065968725110588086 0 0.37346069529248521 -0.082049458216582563 0 0.35638355587753662 -0.079235555119044412 0 0.36860292664027122 -0.065968725110588086 0 0.37346069529248521 -0.082049458216582563 0 0.36860292664027122 -0.065968725110588086 0 0.35638355587753662 -0.079235555119044412 0 0.37831846394470081 -0.09813019132257661 0 0.37346069529248521 -0.082049458216582563 0 0.36850794224712041 -0.09102139210661013 0 0.37346069529248521 -0.082049458216582563 0 0.36850794224712041 -0.09102139210661013 0 0.35638355587753662 -0.079235555119044412 0 0.36850794224712041 -0.09102139210661013 0 0.35638355587753662 -0.079235555119044412 0 0.35911232656575209 -0.094456033345271334 0 0.35638355587753662 -0.079235555119044412 0 0.3441641851148014 -0.09250238512750017 0 0.33329953426632059 -0.078283831989338415 0 0.35638355587753662 -0.079235555119044412 0 0.3441641851148014 -0.09250238512750017 0 0.35911232656575209 -0.094456033345271334 0 0.35638355587753662 -0.079235555119044412 0 0.3441641851148014 -0.09250238512750017 0 0.34826628012747712 -0.059498443694411519 0 0.35638355587753662 -0.079235555119044412 0 0.33329953426632059 -0.078283831989338415 0 0.34826628012747712 -0.059498443694411519 0 0.36860292664027122 -0.065968725110588086 0 0.35638355587753662 -0.079235555119044412 0 0.36210983418206122 -0.11740939208029651 0 0.36746293228242261 -0.12355698237555079 0 0.37166473791338872 -0.1167251080667738 0 0.36210983418206122 -0.11740939208029651 0 0.36746293228242261 -0.12355698237555079 0 0.35745480695362442 -0.13016305203082479 0 0.37690317713408772 -0.1222977117636227 0 0.36746293228242261 -0.12355698237555079 0 0.37166473791338872 -0.1167251080667738 0 0.36210983418206122 -0.11740939208029651 0 0.37166473791338872 -0.1167251080667738 0 0.36905511877313579 -0.11053119746291459 0 0.37692150664171048 -0.1111942642614612 0 0.37166473791338872 -0.1167251080667738 0 0.36905511877313579 -0.11053119746291459 0 0.36210983418206122 -0.11740939208029651 0 0.36905511877313579 -0.11053119746291459 0 0.35417423314240692 -0.1086974309336089 0 0.38060888605603882 -0.1025501378230923 0 0.35417423314240692 -0.1086974309336089 0 0.38060888605603882 -0.1025501378230923 0 0.36905511877313579 -0.11053119746291459 0 0.35417423314240692 -0.1086974309336089 0 0.38060888605603882 -0.1025501378230923 0 0.36814437039120379 -0.098971037106231841 0 0.35417423314240692 -0.1086974309336089 0 0.37831846394470081 -0.09813019132257661 0 0.36850794224712041 -0.09102139210661013 0 0.36814437039120379 -0.098971037106231841 0 0.36850794224712041 -0.09102139210661013 0 0.36814437039120379 -0.098971037106231841 0 0.35911232656575209 -0.094456033345271334 0 0.36814437039120379 -0.098971037106231841 0 0.35911232656575209 -0.094456033345271334 0 0.35417423314240692 -0.1086974309336089 0 0.3441641851148014 -0.09250238512750017 0 0.35417423314240692 -0.1086974309336089 0 0.33843470349248739 -0.10368567882431 0 0.3441641851148014 -0.09250238512750017 0 0.35911232656575209 -0.094456033345271334 0 0.35417423314240692 -0.1086974309336089 0 0.36210983418206122 -0.11740939208029651 0 0.35417423314240692 -0.1086974309336089 0 0.35391892927541668 -0.11781878038423679 0 0.35417423314240692 -0.1086974309336089 0 0.34065708727569521 -0.11654837904588269 0 0.34238340667691891 -0.11627032931393839 0 0.35417423314240692 -0.1086974309336089 0 0.35391892927541668 -0.11781878038423679 0 0.34238340667691891 -0.11627032931393839 0 0.34238340667691891 -0.11627032931393839 0 0.35745480695362442 -0.13016305203082479 0 0.35391892927541668 -0.11781878038423679 0 0.34238340667691891 -0.11627032931393839 0 0.35745480695362442 -0.13016305203082479 0 0.34238340667691891 -0.11627032931393839 0 0.35745480695362442 -0.13016305203082479 0 0.34562067203974622 -0.12583860049684939 0 0.36210983418206122 -0.11740939208029651 0 0.35391892927541668 -0.11781878038423679 0 0.35745480695362442 -0.13016305203082479 0 0.35417423314240692 -0.1086974309336089 0 0.34065708727569521 -0.11654837904588269 0 0.32773958022877492 -0.1148447240441256 0 0.35417423314240692 -0.1086974309336089 0 0.32773958022877492 -0.1148447240441256 0 0.34065708727569521 -0.11654837904588269 0 0.32773958022877492 -0.1148447240441256 0 0.33244958873092573 -0.12895594156981971 0 0.34065708727569521 -0.11654837904588269 0 0.34238340667691891 -0.11627032931393839 0 0.34562067203974622 -0.12583860049684939 0 0.3441641851148014 -0.09250238512750017 0 0.33843470349248739 -0.10368567882431 0 0.32766081548396653 -0.098698175192005244 0 0.35417423314240692 -0.1086974309336089 0 0.33843470349248739 -0.10368567882431 0 0.32773958022877492 -0.1148447240441256 0 0.33843470349248739 -0.10368567882431 0 0.32766081548396653 -0.098698175192005244 0 0.32773958022877492 -0.1148447240441256 0 0.32766081548396653 -0.098698175192005244 0 0.32773958022877492 -0.1148447240441256 0 0.31790394115621851 -0.11163882208368241 0 0.32766081548396653 -0.098698175192005244 0 0.31279177307916678 -0.10113372465461 0 0.31631546544601252 -0.088801111135685826 0 0.32766081548396653 -0.098698175192005244 0 0.31279177307916678 -0.10113372465461 0 0.31790394115621851 -0.11163882208368241 0 0.32773958022877492 -0.1148447240441256 0 0.31790394115621851 -0.11163882208368241 0 0.32235966697723062 -0.1244956984284933 0 0.31790394115621851 -0.11163882208368241 0 0.31348553918016059 -0.1222753444614357 0 0.32235966697723062 -0.1244956984284933 0 0.32773958022877492 -0.1148447240441256 0 0.32235966697723062 -0.1244956984284933 0 0.33244958873092573 -0.12895594156981971 0 0.3270497362964 -0.055647099110301357 0 0.34826628012747712 -0.059498443694411519 0 0.33329953426632059 -0.078283831989338415 0 0.3441641851148014 -0.09250238512750017 0 0.32766081548396653 -0.098698175192005244 0 0.33329953426632059 -0.078283831989338415 0 0.32766081548396653 -0.098698175192005244 0 0.33329953426632059 -0.078283831989338415 0 0.31631546544601252 -0.088801111135685826 0 0.33329953426632059 -0.078283831989338415 0 0.31631546544601252 -0.088801111135685826 0 0.3132567015180508 -0.073604054546420369 0 0.3270497362964 -0.055647099110301357 0 0.33329953426632059 -0.078283831989338415 0 0.3132567015180508 -0.073604054546420369 0 0.3270497362964 -0.055647099110301357 0 0.3132567015180508 -0.073604054546420369 0 0.3132567015180508 -0.073604054546420369 0 0.2986585628208574 -0.069574274434017785 0 0.30915730089378812 -0.051630931402563002 0 0.31631546544601252 -0.088801111135685826 0 0.3132567015180508 -0.073604054546420369 0 0.29946366673970148 -0.091561009982539437 0 0.3132567015180508 -0.073604054546420369 0 0.29946366673970148 -0.091561009982539437 0 0.3132567015180508 -0.073604054546420369 0 0.2986585628208574 -0.069574274434017785 0 0.29946366673970148 -0.091561009982539437 0 0.28518132899708881 -0.078105231606254349 0 0.29026995651824539 -0.098464347858879003 0 0.27749917073897729 -0.1014529137158349 0 0.28518132899708881 -0.078105231606254349 0 0.27749917073897729 -0.1014529137158349 0 0.29946366673970148 -0.091561009982539437 0 0.28518132899708881 -0.078105231606254349 0 0.29026995651824539 -0.098464347858879003 0 0.2986585628208574 -0.069574274434017785 0 0.29946366673970148 -0.091561009982539437 0 0.28518132899708881 -0.078105231606254349 0 0.28518132899708881 -0.078105231606254349 0 0.28016798871516257 -0.064367825235831913 0 0.29286348725520539 -0.05475754949667562 0 0.2986585628208574 -0.069574274434017785 0 0.28518132899708881 -0.078105231606254349 0 0.29286348725520539 -0.05475754949667562 0 0.28518132899708881 -0.078105231606254349 0 0.29286348725520539 -0.05475754949667562 0 0.31348553918016059 -0.1222753444614357 0 0.30132220979911373 -0.12079637543379559 0 0.31348553918016059 -0.1222753444614357 0 0.30132220979911373 -0.12079637543379559 0 0.30338627198801188 -0.1083852657214244 0 0.31790394115621851 -0.11163882208368241 0 0.31348553918016059 -0.1222753444614357 0 0.30338627198801188 -0.1083852657214244 0 0.30132220979911373 -0.12079637543379559 0 0.30338627198801188 -0.1083852657214244 0 0.28941069026904642 -0.11112464457481409 0 0.31279177307916678 -0.10113372465461 0 0.31631546544601252 -0.088801111135685826 0 0.29946366673970148 -0.091561009982539437 0 0.31279177307916678 -0.10113372465461 0 0.29946366673970148 -0.091561009982539437 0 0.30338627198801188 -0.1083852657214244 0 0.29946366673970148 -0.091561009982539437 0 0.30338627198801188 -0.1083852657214244 0 0.29026995651824539 -0.098464347858879003 0 0.31279177307916678 -0.10113372465461 0 0.31790394115621851 -0.11163882208368241 0 0.30338627198801188 -0.1083852657214244 0 0.29026995651824539 -0.098464347858879003 0 0.28941069026904642 -0.11112464457481409 0 0.27749917073897729 -0.1014529137158349 0 0.28941069026904642 -0.11112464457481409 0 0.27749917073897729 -0.1014529137158349 0 0.30338627198801188 -0.1083852657214244 0 0.29026995651824539 -0.098464347858879003 0 0.28941069026904642 -0.11112464457481409 0 0.30132220979911373 -0.12079637543379559 0 0.27229581902450262 -0.11726698544566549 0 0.30132220979911373 -0.12079637543379559 0 0.28941069026904642 -0.11112464457481409 0 0.27229581902450262 -0.11726698544566549 0 0.30132220979911373 -0.12079637543379559 0 0.27229581902450262 -0.11726698544566549 0 0.27899961788560279 -0.12582867294549421 0 0.30132220979911373 -0.12079637543379559 0 0.28941069026904642 -0.11112464457481409 0 0.27229581902450262 -0.11726698544566549 0 0.27749917073897729 -0.1014529137158349 0 0.28941069026904642 -0.11112464457481409 0 0.27229581902450262 -0.11726698544566549 0 0.27749917073897729 -0.1014529137158349 0 0.26649561327193638 -0.12100667635923371 0 0.26375614166209482 -0.12684189785870739 0 0.27071636032101187 -0.12639367660335599 0 0.26649561327193638 -0.12100667635923371 0 0.27229581902450262 -0.11726698544566549 0 0.27157045020067738 -0.1194715326759913 0 0.27229581902450262 -0.11726698544566549 0 0.27157045020067738 -0.1194715326759913 0 0.27364484127571748 -0.1225481944252807 0 0.27229581902450262 -0.11726698544566549 0 0.27157045020067738 -0.1194715326759913 0 0.26649561327193638 -0.12100667635923371 0 0.27157045020067738 -0.1194715326759913 0 0.27071636032101187 -0.12639367660335599 0 0.27157045020067738 -0.1194715326759913 0 0.27364484127571748 -0.1225481944252807 0 0.27071636032101187 -0.12639367660335599 0 0.27229581902450262 -0.11726698544566549 0 0.27364484127571748 -0.1225481944252807 0 0.27899961788560279 -0.12582867294549421 0 0.27364484127571748 -0.1225481944252807 0 0.27899961788560279 -0.12582867294549421 0 0.27071636032101187 -0.12639367660335599 0 0.27229581902450262 -0.11726698544566549 0 0.27749917073897729 -0.1014529137158349 0 0.26383541654185411 -0.10465616931522979 0 0.27749917073897729 -0.1014529137158349 0 0.26383541654185411 -0.10465616931522979 0 0.26435756066830318 -0.090782393020602106 0 0.27749917073897729 -0.1014529137158349 0 0.26435756066830318 -0.090782393020602106 0 0.25088523712609029 -0.098719265181599597 0 0.26383541654185411 -0.10465616931522979 0 0.25413929515139538 -0.1150592892124483 0 0.25088523712609029 -0.098719265181599597 0 0.26383541654185411 -0.10465616931522979 0 0.26435756066830318 -0.090782393020602106 0 0.27229581902450262 -0.11726698544566549 0 0.26383541654185411 -0.10465616931522979 0 0.25413929515139538 -0.1150592892124483 0 0.26649561327193638 -0.12100667635923371 0 0.27229581902450262 -0.11726698544566549 0 0.25413929515139538 -0.1150592892124483 0 0.27229581902450262 -0.11726698544566549 0 0.25413929515139538 -0.1150592892124483 0 0.25413929515139538 -0.1150592892124483 0 0.26375614166209482 -0.12684189785870739 0 0.2536752578795437 -0.1305515451499529 0 0.26649561327193638 -0.12100667635923371 0 0.25413929515139538 -0.1150592892124483 0 0.26375614166209482 -0.12684189785870739 0 0.28518132899708881 -0.078105231606254349 0 0.28016798871516257 -0.064367825235831913 0 0.26909093935854878 -0.070215171828802173 0 0.28518132899708881 -0.078105231606254349 0 0.26909093935854878 -0.070215171828802173 0 0.27229336497431478 -0.082562188659956084 0 0.28016798871516257 -0.064367825235831913 0 0.26909093935854878 -0.070215171828802173 0 0.27353619924980738 -0.05439334801159549 0 0.28518132899708881 -0.078105231606254349 0 0.27749917073897729 -0.1014529137158349 0 0.27229336497431478 -0.082562188659956084 0 0.27749917073897729 -0.1014529137158349 0 0.27229336497431478 -0.082562188659956084 0 0.26435756066830318 -0.090782393020602106 0 0.27229336497431478 -0.082562188659956084 0 0.26435756066830318 -0.090782393020602106 0 0.25121595059762658 -0.08011187232537241 0 0.25088523712609029 -0.098719265181599597 0 0.26435756066830318 -0.090782393020602106 0 0.25121595059762658 -0.08011187232537241 0 0.26435756066830318 -0.090782393020602106 0 0.25121595059762658 -0.08011187232537241 0 0.26909093935854878 -0.070215171828802173 0 0.25121595059762658 -0.08011187232537241 0 0.26909093935854878 -0.070215171828802173 0 0.25121595059762658 -0.08011187232537241 0 0.25384440802733849 -0.059479789847577097 0 0.26909093935854878 -0.070215171828802173 0 0.27229336497431478 -0.082562188659956084 0 0.25121595059762658 -0.08011187232537241 0 0.27353619924980738 -0.05439334801159549 0 0.25696371130683121 -0.039704838371586719 0 0.26909093935854878 -0.070215171828802173 0 0.25384440802733849 -0.059479789847577097 0 0.27353619924980738 -0.05439334801159549 0 0.25384440802733849 -0.059479789847577097 0 0.27353619924980738 -0.05439334801159549 0 0.25696371130683121 -0.039704838371586719 0 0.27353619924980738 -0.05439334801159549 0 0.27528308868181112 -0.032895348868380067 0 0.29286348725520539 -0.05475754949667562 0 0.27353619924980738 -0.05439334801159549 0 0.27528308868181112 -0.032895348868380067 0 0.25696371130683121 -0.039704838371586719 0 0.27528308868181112 -0.032895348868380067 0 0.25696371130683121 -0.039704838371586719 0 0.25726128205146648 -0.02472902709960445 0 0.25696371130683121 -0.039704838371586719 0 0.25726128205146648 -0.02472902709960445 0 0.24039122336385491 -0.025016328731577941 0 0.25726128205146648 -0.02472902709960445 0 0.26576862082992658 -0.01403504657299064 0 0.2478997660749088 -0.01199357295348687 0 0.25697511401342082 -0.00131748339547743 0 0.26576862082992658 -0.01403504657299064 0 0.2478997660749088 -0.01199357295348687 0 0.26770177198798989 0.0049541517600587117 0 0.25697511401342082 -0.00131748339547743 0 0.27499521198922261 -0.0055023354309521044 0 0.26576862082992658 -0.01403504657299064 0 0.27499521198922261 -0.0055023354309521044 0 0.28383332294298791 -0.01480824715661923 0 0.25697511401342082 -0.00131748339547743 0 0.26576862082992658 -0.01403504657299064 0 0.27499521198922261 -0.0055023354309521044 0 0.27528308868181112 -0.032895348868380067 0 0.25726128205146648 -0.02472902709960445 0 0.26576862082992658 -0.01403504657299064 0 0.27528308868181112 -0.032895348868380067 0 0.26576862082992658 -0.01403504657299064 0 0.28383332294298791 -0.01480824715661923 0 0.27528308868181112 -0.032895348868380067 0 0.28383332294298791 -0.01480824715661923 0 0.30054564551332208 -0.031409867387096772 0 0.28383332294298791 -0.01480824715661923 0 0.30151794338883681 -0.0081949219969716623 0 0.30054564551332208 -0.031409867387096772 0 0.28646043770179691 0.0034415334885622329 0 0.28383332294298791 -0.01480824715661923 0 0.30151794338883681 -0.0081949219969716623 0 0.28646043770179691 0.0034415334885622329 0 0.27499521198922261 -0.0055023354309521044 0 0.28383332294298791 -0.01480824715661923 0 0.30572016649667377 0.01072875714941081 0 0.32006958300034688 -0.0039555539418603229 0 0.30151794338883681 -0.0081949219969716623 0 0.31454170909054069 -0.0193447198848089 0 0.32006958300034688 -0.0039555539418603229 0 0.30151794338883681 -0.0081949219969716623 0 0.31454170909054069 -0.0193447198848089 0 0.30151794338883681 -0.0081949219969716623 0 0.30054564551332208 -0.031409867387096772 0 0.31454170909054069 -0.0193447198848089 0 0.32066036240605428 -0.033932398068078573 0 0.30054564551332208 -0.031409867387096772 0 0.32066036240605428 -0.033932398068078573 0 0.30054564551332208 -0.031409867387096772 0 0.30915730089378812 -0.051630931402563002 0 0.30054564551332208 -0.031409867387096772 0 0.30915730089378812 -0.051630931402563002 0 0.29286348725520539 -0.05475754949667562 0 0.2986585628208574 -0.069574274434017785 0 0.30915730089378812 -0.051630931402563002 0 0.29286348725520539 -0.05475754949667562 0 0.28016798871516257 -0.064367825235831913 0 0.27353619924980738 -0.05439334801159549 0 0.29286348725520539 -0.05475754949667562 0 0.30054564551332208 -0.031409867387096772 0 0.29286348725520539 -0.05475754949667562 0 0.27528308868181112 -0.032895348868380067 0 0.30054564551332208 -0.031409867387096772 0 0.29286348725520539 -0.05475754949667562 0 0.28962476240694079 -0.2134468598953882 0 0.29358903104036771 -0.19087803179815241 0 0.28062559600331582 -0.1964003202334772 0 0.29358903104036771 -0.19087803179815241 0 0.28062559600331582 -0.1964003202334772 0 0.28077417924946968 -0.1790897044896399 0 0.28962476240694079 -0.2134468598953882 0 0.29358903104036771 -0.19087803179815241 0 0.31008634201274771 -0.19895639803808901 0 0.29358903104036771 -0.19087803179815241 0 0.31008634201274771 -0.19895639803808901 0 0.30530534687668742 -0.1802748843298593 0 0.28962476240694079 -0.2134468598953882 0 0.31008634201274771 -0.19895639803808901 0 0.28962476240694079 -0.2134468598953882 0 0.31008634201274771 -0.19895639803808901 0 0.31239540020471351 -0.22181725365993599 0 0.31239540020471351 -0.22181725365993599 0 0.30063535053619073 -0.23125295388427991 0 0.31142496719684643 -0.24222813569118609 0 0.28962476240694079 -0.2134468598953882 0 0.31239540020471351 -0.22181725365993599 0 0.30063535053619073 -0.23125295388427991 0 0.30063535053619073 -0.23125295388427991 0 0.31142496719684643 -0.24222813569118609 0 0.2940086542031955 -0.24888242052267159 0 0.28709823578863303 -0.23691048900917511 0 0.27724512123053158 -0.25750334182104839 0 0.30063535053619073 -0.23125295388427991 0 0.28709823578863303 -0.23691048900917511 0 0.2940086542031955 -0.24888242052267159 0 0.28709823578863303 -0.23691048900917511 0 0.2940086542031955 -0.24888242052267159 0 0.27724512123053158 -0.25750334182104839 0 0.28962476240694079 -0.2134468598953882 0 0.28709823578863303 -0.23691048900917511 0 0.26916318280113383 -0.22793732175268749 0 0.28962476240694079 -0.2134468598953882 0 0.30063535053619073 -0.23125295388427991 0 0.28709823578863303 -0.23691048900917511 0 0.28962476240694079 -0.2134468598953882 0 0.26916318280113383 -0.22793732175268749 0 0.28709823578863303 -0.23691048900917511 0 0.26916318280113383 -0.22793732175268749 0 0.26268245050989442 -0.24934744598758921 0 0.28709823578863303 -0.23691048900917511 0 0.26268245050989442 -0.24934744598758921 0 0.27724512123053158 -0.25750334182104839 0 0.26916318280113383 -0.22793732175268749 0 0.2487016031953268 -0.24242778360998679 0 0.26916318280113383 -0.22793732175268749 0 0.26268245050989442 -0.24934744598758921 0 0.2487016031953268 -0.24242778360998679 0 0.26268245050989442 -0.24934744598758921 0 0.25263242868506919 -0.2575241993518359 0 0.2487016031953268 -0.24242778360998679 0 0.26916318280113383 -0.22793732175268749 0 0.2468955789815907 -0.21314817564740571 0 0.2487016031953268 -0.24242778360998679 0 0.26916318280113383 -0.22793732175268749 0 0.27104218741395703 -0.2088987664151718 0 0.2468955789815907 -0.21314817564740571 0 0.27104218741395703 -0.2088987664151718 0 0.25504538993481529 -0.1984662779270023 0 0.2468955789815907 -0.21314817564740571 0 0.28962476240694079 -0.2134468598953882 0 0.27104218741395703 -0.2088987664151718 0 0.28062559600331582 -0.1964003202334772 0 0.28962476240694079 -0.2134468598953882 0 0.26916318280113383 -0.22793732175268749 0 0.27104218741395703 -0.2088987664151718 0 0.28062559600331582 -0.1964003202334772 0 0.26809781990584403 -0.1896882385690338 0 0.28077417924946968 -0.1790897044896399 0 0.27104218741395703 -0.2088987664151718 0 0.28062559600331582 -0.1964003202334772 0 0.26809781990584403 -0.1896882385690338 0 0.27104218741395703 -0.2088987664151718 0 0.26809781990584403 -0.1896882385690338 0 0.25504538993481529 -0.1984662779270023 0 0.26809781990584403 -0.1896882385690338 0 0.25504538993481529 -0.1984662779270023 0 0.25259120948828062 -0.1836903746716112 0 0.25259120948828062 -0.1836903746716112 0 0.26684855958863629 -0.1690683127767853 0 0.2437523598962367 -0.16819249339514139 0 0.26809781990584403 -0.1896882385690338 0 0.25259120948828062 -0.1836903746716112 0 0.26684855958863629 -0.1690683127767853 0 0.26684855958863629 -0.1690683127767853 0 0.25258679472742501 -0.1513124129151564 0 0.2437523598962367 -0.16819249339514139 0 0.27136774448079909 -0.14825149732067519 0 0.28906023108205448 -0.1659514494913974 0 0.26684855958863629 -0.1690683127767853 0 0.27136774448079909 -0.14825149732067519 0 0.28906023108205448 -0.1659514494913974 0 0.26684855958863629 -0.1690683127767853 0 0.28077417924946968 -0.1790897044896399 0 0.28906023108205448 -0.1659514494913974 0 0.26809781990584403 -0.1896882385690338 0 0.26684855958863629 -0.1690683127767853 0 0.28077417924946968 -0.1790897044896399 0 0.2536752578795437 -0.1305515451499529 0 0.27136774448079909 -0.14825149732067519 0 0.26375614166209482 -0.12684189785870739 0 0.2536752578795437 -0.1305515451499529 0 0.27188446222811702 -0.1338644405348845 0 0.26684855958863629 -0.1690683127767853 0 0.25258679472742501 -0.1513124129151564 0 0.27136774448079909 -0.14825149732067519 0 0.2536752578795437 -0.1305515451499529 0 0.25258679472742501 -0.1513124129151564 0 0.27136774448079909 -0.14825149732067519 0 0.27136774448079909 -0.14825149732067519 0 0.27188446222811702 -0.1338644405348845 0 0.28763103760754899 -0.1446118633219102 0 0.2536752578795437 -0.1305515451499529 0 0.27136774448079909 -0.14825149732067519 0 0.27188446222811702 -0.1338644405348845 0 0.27188446222811702 -0.1338644405348845 0 0.27899961788560279 -0.12582867294549421 0 0.27071636032101187 -0.12639367660335599 0 0.27188446222811702 -0.1338644405348845 0 0.27899961788560279 -0.12582867294549421 0 0.28665508780811849 -0.13163024824967501 0 0.26375614166209482 -0.12684189785870739 0 0.27188446222811702 -0.1338644405348845 0 0.27071636032101187 -0.12639367660335599 0 0.30132220979911373 -0.12079637543379559 0 0.27899961788560279 -0.12582867294549421 0 0.28665508780811849 -0.13163024824967501 0 0.27188446222811702 -0.1338644405348845 0 0.28665508780811849 -0.13163024824967501 0 0.28763103760754899 -0.1446118633219102 0 0.30132220979911373 -0.12079637543379559 0 0.28665508780811849 -0.13163024824967501 0 0.29817227447607958 -0.13273200579302161 0 0.28665508780811849 -0.13163024824967501 0 0.28763103760754899 -0.1446118633219102 0 0.29817227447607958 -0.13273200579302161 0 0.28763103760754899 -0.1446118633219102 0 0.29818292902206261 -0.1553371468427685 0 0.28906023108205448 -0.1659514494913974 0 0.27136774448079909 -0.14825149732067519 0 0.28763103760754899 -0.1446118633219102 0 0.28906023108205448 -0.1659514494913974 0 0.28763103760754899 -0.1446118633219102 0 0.29818292902206261 -0.1553371468427685 0 0.29809453415561249 -0.1445162550209495 0 0.28763103760754899 -0.1446118633219102 0 0.29809453415561249 -0.1445162550209495 0 0.29817227447607958 -0.13273200579302161 0 0.29818292902206261 -0.1553371468427685 0 0.30996464082095199 -0.14499717345415769 0 0.31696211126309332 -0.15689109144613869 0 0.30996464082095199 -0.14499717345415769 0 0.29809453415561249 -0.1445162550209495 0 0.30619005451630638 -0.1356205393034409 0 0.29818292902206261 -0.1553371468427685 0 0.30996464082095199 -0.14499717345415769 0 0.29809453415561249 -0.1445162550209495 0 0.31348553918016059 -0.1222753444614357 0 0.30132220979911373 -0.12079637543379559 0 0.31708887016899789 -0.13359834375173621 0 0.30132220979911373 -0.12079637543379559 0 0.30619005451630638 -0.1356205393034409 0 0.31708887016899789 -0.13359834375173621 0 0.30132220979911373 -0.12079637543379559 0 0.31708887016899789 -0.13359834375173621 0 0.29809453415561249 -0.1445162550209495 0 0.30619005451630638 -0.1356205393034409 0 0.29817227447607958 -0.13273200579302161 0 0.30996464082095199 -0.14499717345415769 0 0.30619005451630638 -0.1356205393034409 0 0.31708887016899789 -0.13359834375173621 0 0.30132220979911373 -0.12079637543379559 0 0.30619005451630638 -0.1356205393034409 0 0.29817227447607958 -0.13273200579302161 0 0.29358903104036771 -0.19087803179815241 0 0.28077417924946968 -0.1790897044896399 0 0.29396198003812218 -0.17647368188841511 0 0.28077417924946968 -0.1790897044896399 0 0.29396198003812218 -0.17647368188841511 0 0.28906023108205448 -0.1659514494913974 0 0.29818292902206261 -0.1553371468427685 0 0.28906023108205448 -0.1659514494913974 0 0.30106869198730368 -0.1673818708225962 0 0.29396198003812218 -0.17647368188841511 0 0.28906023108205448 -0.1659514494913974 0 0.30106869198730368 -0.1673818708225962 0 0.30106869198730368 -0.1673818708225962 0 0.31696211126309332 -0.15689109144613869 0 0.29818292902206261 -0.1553371468427685 0 0.30106869198730368 -0.1673818708225962 0 0.31696211126309332 -0.15689109144613869 0 0.30106869198730368 -0.1673818708225962 0 0.31625807385923588 -0.16932359434029251 0 0.31696211126309332 -0.15689109144613869 0 0.30106869198730368 -0.1673818708225962 0 0.30530534687668742 -0.1802748843298593 0 0.31625807385923588 -0.16932359434029251 0 0.31008634201274771 -0.19895639803808901 0 0.30530534687668742 -0.1802748843298593 0 0.31977198030437348 -0.17986300100465011 0 0.29396198003812218 -0.17647368188841511 0 0.30106869198730368 -0.1673818708225962 0 0.30530534687668742 -0.1802748843298593 0 0.29358903104036771 -0.19087803179815241 0 0.29396198003812218 -0.17647368188841511 0 0.30530534687668742 -0.1802748843298593 0 0.31977198030437348 -0.17986300100465011 0 0.3311447232765472 -0.17248953036049761 0 0.33170278278812482 -0.18962851983111961 0 0.31977198030437348 -0.17986300100465011 0 0.31625807385923588 -0.16932359434029251 0 0.3311447232765472 -0.17248953036049761 0 0.30530534687668742 -0.1802748843298593 0 0.31977198030437348 -0.17986300100465011 0 0.31625807385923588 -0.16932359434029251 0 0.31625807385923588 -0.16932359434029251 0 0.31696211126309332 -0.15689109144613869 0 0.32894203945271472 -0.15983587534700611 0 0.31625807385923588 -0.16932359434029251 0 0.32894203945271472 -0.15983587534700611 0 0.3311447232765472 -0.17248953036049761 0 0.32894203945271472 -0.15983587534700611 0 0.3311447232765472 -0.17248953036049761 0 0.34277363238595437 -0.15445345855990381 0 0.3311447232765472 -0.17248953036049761 0 0.34277363238595437 -0.15445345855990381 0 0.3442083978355242 -0.1801485869964492 0 0.34277363238595437 -0.15445345855990381 0 0.3442083978355242 -0.1801485869964492 0 0.3311447232765472 -0.17248953036049761 0 0.3442083978355242 -0.1801485869964492 0 0.33170278278812482 -0.18962851983111961 0 0.31708887016899789 -0.13359834375173621 0 0.3276784116562288 -0.13422109629036269 0 0.33285553053888078 -0.14640031206967841 0 0.31708887016899789 -0.13359834375173621 0 0.33285553053888078 -0.14640031206967841 0 0.32235966697723062 -0.1244956984284933 0 0.31708887016899789 -0.13359834375173621 0 0.3276784116562288 -0.13422109629036269 0 0.32235966697723062 -0.1244956984284933 0 0.3276784116562288 -0.13422109629036269 0 0.33244958873092573 -0.12895594156981971 0 0.31348553918016059 -0.1222753444614357 0 0.32235966697723062 -0.1244956984284933 0 0.31708887016899789 -0.13359834375173621 0 0.31696211126309332 -0.15689109144613869 0 0.32894203945271472 -0.15983587534700611 0 0.33285553053888078 -0.14640031206967841 0 0.31708887016899789 -0.13359834375173621 0 0.31921778819798108 -0.1454717301804275 0 0.33285553053888078 -0.14640031206967841 0 0.31696211126309332 -0.15689109144613869 0 0.33285553053888078 -0.14640031206967841 0 0.31696211126309332 -0.15689109144613869 0 0.31921778819798108 -0.1454717301804275 0 0.33285553053888078 -0.14640031206967841 0 0.30996464082095199 -0.14499717345415769 0 0.31708887016899789 -0.13359834375173621 0 0.31921778819798108 -0.1454717301804275 0 0.30996464082095199 -0.14499717345415769 0 0.31696211126309332 -0.15689109144613869 0 0.31921778819798108 -0.1454717301804275 0 0.32894203945271472 -0.15983587534700611 0 0.34277363238595437 -0.15445345855990381 0 0.33285553053888078 -0.14640031206967841 0 0.34277363238595437 -0.15445345855990381 0 0.33285553053888078 -0.14640031206967841 0 0.34277363238595437 -0.15445345855990381 0 0.3419873872527458 -0.14037264159675139 0 0.33285553053888078 -0.14640031206967841 0 0.3419873872527458 -0.14037264159675139 0 0.33285553053888078 -0.14640031206967841 0 0.33363840186510829 -0.13765518563208659 0 0.3419873872527458 -0.14037264159675139 0 0.34277363238595437 -0.15445345855990381 0 0.33285553053888078 -0.14640031206967841 0 0.3419873872527458 -0.14037264159675139 0 0.34065708727569521 -0.11654837904588269 0 0.3419873872527458 -0.14037264159675139 0 0.34562067203974622 -0.12583860049684939 0 0.34065708727569521 -0.11654837904588269 0 0.3419873872527458 -0.14037264159675139 0 0.33244958873092573 -0.12895594156981971 0 0.34065708727569521 -0.11654837904588269 0 0.3419873872527458 -0.14037264159675139 0 0.3276784116562288 -0.13422109629036269 0 0.33285553053888078 -0.14640031206967841 0 0.33363840186510829 -0.13765518563208659 0 0.3276784116562288 -0.13422109629036269 0 0.33363840186510829 -0.13765518563208659 0 0.33244958873092573 -0.12895594156981971 0 0.33363840186510829 -0.13765518563208659 0 0.3419873872527458 -0.14037264159675139 0 0.33244958873092573 -0.12895594156981971 0 0.3419873872527458 -0.14037264159675139 0 0.35745480695362442 -0.13016305203082479 0 0.35676761944587349 -0.14696124346368331 0 0.3419873872527458 -0.14037264159675139 0 0.35745480695362442 -0.13016305203082479 0 0.34562067203974622 -0.12583860049684939 0 0.3419873872527458 -0.14037264159675139 0 0.35745480695362442 -0.13016305203082479 0 0.34277363238595437 -0.15445345855990381 0 0.3419873872527458 -0.14037264159675139 0 0.35676761944587349 -0.14696124346368331 0 0.35745480695362442 -0.13016305203082479 0 0.35676761944587349 -0.14696124346368331 0 0.37398976802662609 -0.14540487595588941 0 0.35676761944587349 -0.14696124346368331 0 0.37398976802662609 -0.14540487595588941 0 0.36160452928663328 -0.1697434781243147 0 0.35745480695362442 -0.13016305203082479 0 0.37398976802662609 -0.14540487595588941 0 0.3775753466606227 -0.13185955422043091 0 0.36746293228242261 -0.12355698237555079 0 0.35745480695362442 -0.13016305203082479 0 0.3775753466606227 -0.13185955422043091 0 0.35745480695362442 -0.13016305203082479 0 0.37398976802662609 -0.14540487595588941 0 0.37690317713408772 -0.1222977117636227 0 0.36746293228242261 -0.12355698237555079 0 0.3775753466606227 -0.13185955422043091 0 0.36746293228242261 -0.12355698237555079 0 0.35745480695362442 -0.13016305203082479 0 0.3442083978355242 -0.1801485869964492 0 0.36155089002841378 -0.18420731622823669 0 0.3548679355285046 -0.1933757727374894 0 0.3442083978355242 -0.1801485869964492 0 0.36160452928663328 -0.1697434781243147 0 0.36155089002841378 -0.18420731622823669 0 0.34277363238595437 -0.15445345855990381 0 0.35676761944587349 -0.14696124346368331 0 0.36160452928663328 -0.1697434781243147 0 0.34277363238595437 -0.15445345855990381 0 0.3442083978355242 -0.1801485869964492 0 0.36160452928663328 -0.1697434781243147 0 0.34277363238595437 -0.15445345855990381 0 0.36160452928663328 -0.1697434781243147 0 0.36160452928663328 -0.1697434781243147 0 0.36155089002841378 -0.18420731622823669 0 0.38043542618731307 -0.18503349768872451 0 0.36160452928663328 -0.1697434781243147 0 0.38043542618731307 -0.18503349768872451 0 0.36155089002841378 -0.18420731622823669 0 0.36615122676013512 -0.19552293070318891 0 0.38043542618731307 -0.18503349768872451 0 0.36615122676013512 -0.19552293070318891 0 0.3651471435695145 -0.2071574742542992 0 0.37967264823571367 -0.20490341219650671 0 0.36615122676013512 -0.19552293070318891 0 0.3651471435695145 -0.2071574742542992 0 0.35654253246137713 -0.20255015688106889 0 0.36155089002841378 -0.18420731622823669 0 0.36615122676013512 -0.19552293070318891 0 0.3548679355285046 -0.1933757727374894 0 0.3520495150724926 -0.2126983621002394 0 0.3713197953178542 -0.22011250939049201 0 0.3651471435695145 -0.2071574742542992 0 0.3520495150724926 -0.2126983621002394 0 0.3713197953178542 -0.22011250939049201 0 0.3651471435695145 -0.2071574742542992 0 0.3713197953178542 -0.22011250939049201 0 0.37967264823571367 -0.20490341219650671 0 0.3651471435695145 -0.2071574742542992 0 0.3520495150724926 -0.2126983621002394 0 0.35654253246137713 -0.20255015688106889 0 0.3520495150724926 -0.2126983621002394 0 0.34564316328509309 -0.20584371543299471 0 0.35654253246137713 -0.20255015688106889 0 0.3520495150724926 -0.2126983621002394 0 0.34240833053443681 -0.2155447499677495 0 0.34806367058790982 -0.22399364904937261 0 0.3442083978355242 -0.1801485869964492 0 0.34564316328509309 -0.20584371543299471 0 0.3548679355285046 -0.1933757727374894 0 0.3442083978355242 -0.1801485869964492 0 0.34564316328509309 -0.20584371543299471 0 0.34564316328509309 -0.20584371543299471 0 0.3548679355285046 -0.1933757727374894 0 0.35654253246137713 -0.20255015688106889 0 0.36615122676013512 -0.19552293070318891 0 0.3548679355285046 -0.1933757727374894 0 0.35654253246137713 -0.20255015688106889 0 0.3442083978355242 -0.1801485869964492 0 0.34564316328509309 -0.20584371543299471 0 0.33170278278812482 -0.18962851983111961 0 0.34564316328509309 -0.20584371543299471 0 0.33170278278812482 -0.18962851983111961 0 0.33277923482713101 -0.20528421480998679 0 0.3520495150724926 -0.2126983621002394 0 0.34564316328509309 -0.20584371543299471 0 0.33277923482713101 -0.20528421480998679 0 0.3520495150724926 -0.2126983621002394 0 0.34240833053443681 -0.2155447499677495 0 0.33277923482713101 -0.20528421480998679 0 0.3520495150724926 -0.2126983621002394 0 0.33277923482713101 -0.20528421480998679 0 0.34240833053443681 -0.2155447499677495 0 0.33277923482713101 -0.20528421480998679 0 0.33674090165021392 -0.220202773911399 0 0.33277923482713101 -0.20528421480998679 0 0.32391095272644838 -0.21472883072907009 0 0.33674090165021392 -0.220202773911399 0 0.31008634201274771 -0.19895639803808901 0 0.31239540020471351 -0.22181725365993599 0 0.32391095272644838 -0.21472883072907009 0 0.31008634201274771 -0.19895639803808901 0 0.33277923482713101 -0.20528421480998679 0 0.32391095272644838 -0.21472883072907009 0 0.31008634201274771 -0.19895639803808901 0 0.33170278278812482 -0.18962851983111961 0 0.33277923482713101 -0.20528421480998679 0 0.31008634201274771 -0.19895639803808901 0 0.31977198030437348 -0.17986300100465011 0 0.33170278278812482 -0.18962851983111961 0 0.31142496719684643 -0.24222813569118609 0 0.33042557080642287 -0.24315064574926751 0 0.31853563878910368 -0.25774835206947638 0 0.31142496719684643 -0.24222813569118609 0 0.3258475405736137 -0.22913391672037919 0 0.33042557080642287 -0.24315064574926751 0 0.31239540020471351 -0.22181725365993599 0 0.31142496719684643 -0.24222813569118609 0 0.3258475405736137 -0.22913391672037919 0 0.31239540020471351 -0.22181725365993599 0 0.32391095272644838 -0.21472883072907009 0 0.3258475405736137 -0.22913391672037919 0 0.3258475405736137 -0.22913391672037919 0 0.33674090165021392 -0.220202773911399 0 0.34018745085703739 -0.2326758605814169 0 0.32391095272644838 -0.21472883072907009 0 0.3258475405736137 -0.22913391672037919 0 0.33674090165021392 -0.220202773911399 0 0.33674090165021392 -0.220202773911399 0 0.34018745085703739 -0.2326758605814169 0 0.34806367058790982 -0.22399364904937261 0 0.34240833053443681 -0.2155447499677495 0 0.33674090165021392 -0.220202773911399 0 0.34806367058790982 -0.22399364904937261 0 0.34018745085703739 -0.2326758605814169 0 0.33042557080642287 -0.24315064574926751 0 0.34336738700494301 -0.24456987520111051 0 0.3258475405736137 -0.22913391672037919 0 0.34018745085703739 -0.2326758605814169 0 0.33042557080642287 -0.24315064574926751 0 0.33042557080642287 -0.24315064574926751 0 0.34336738700494301 -0.24456987520111051 0 0.33735714006296069 -0.25666736057948658 0 0.34336738700494301 -0.24456987520111051 0 0.35326694512129192 -0.236979453662575 0 0.35559982817700192 -0.25337605543280639 0 0.35326694512129192 -0.236979453662575 0 0.3679425094737202 -0.24269626993342461 0 0.35559982817700192 -0.25337605543280639 0 0.34018745085703739 -0.2326758605814169 0 0.34336738700494301 -0.24456987520111051 0 0.35326694512129192 -0.236979453662575 0 0.34018745085703739 -0.2326758605814169 0 0.35326694512129192 -0.236979453662575 0 0.34806367058790982 -0.22399364904937261 0 0.35326694512129192 -0.236979453662575 0 0.34806367058790982 -0.22399364904937261 0 0.36159963987810229 -0.22815663986162471 0 0.3520495150724926 -0.2126983621002394 0 0.34806367058790982 -0.22399364904937261 0 0.36159963987810229 -0.22815663986162471 0 0.3520495150724926 -0.2126983621002394 0 0.36159963987810229 -0.22815663986162471 0 0.3713197953178542 -0.22011250939049201 0 0.36159963987810229 -0.22815663986162471 0 0.3713197953178542 -0.22011250939049201 0 0.37695540369534541 -0.23245959503364441 0 0.35326694512129192 -0.236979453662575 0 0.36159963987810229 -0.22815663986162471 0 0.3679425094737202 -0.24269626993342461 0 0.36159963987810229 -0.22815663986162471 0 0.3679425094737202 -0.24269626993342461 0 0.37695540369534541 -0.23245959503364441 0 0.3679425094737202 -0.24269626993342461 0 0.38524374560404362 -0.24428931345025909 0 0.37370526739500132 -0.25695533472129339 0 0.3679425094737202 -0.24269626993342461 0 0.38524374560404362 -0.24428931345025909 0 0.37695540369534541 -0.23245959503364441 0 0.38524374560404362 -0.24428931345025909 0 0.39059007556321579 -0.2275266566807447 0 0.37695540369534541 -0.23245959503364441 0 0.38524374560404362 -0.24428931345025909 0 0.39059007556321579 -0.2275266566807447 0 0.38524374560404362 -0.24428931345025909 0 0.40482471362102651 -0.23300336495069551 0 0.39059007556321579 -0.2275266566807447 0 0.38524374560404362 -0.24428931345025909 0 0.40432710488521362 -0.24824992017021499 0 0.40482471362102651 -0.23300336495069551 0 0.40482471362102651 -0.23300336495069551 0 0.39059007556321579 -0.2275266566807447 0 0.4029475596913647 -0.21664517753736909 0 0.40482471362102651 -0.23300336495069551 0 0.39059007556321579 -0.2275266566807447 0 0.3713197953178542 -0.22011250939049201 0 0.39059007556321579 -0.2275266566807447 0 0.3713197953178542 -0.22011250939049201 0 0.39059007556321579 -0.2275266566807447 0 0.37695540369534541 -0.23245959503364441 0 0.39059007556321579 -0.2275266566807447 0 0.37967264823571367 -0.20490341219650671 0 0.3992663230879947 -0.20032351725313211 0 0.3713197953178542 -0.22011250939049201 0 0.39059007556321579 -0.2275266566807447 0 0.37967264823571367 -0.20490341219650671 0 0.37967264823571367 -0.20490341219650671 0 0.3992663230879947 -0.20032351725313211 0 0.38043542618731307 -0.18503349768872451 0 0.3992663230879947 -0.20032351725313211 0 0.38043542618731307 -0.18503349768872451 0 0.36615122676013512 -0.19552293070318891 0 0.37967264823571367 -0.20490341219650671 0 0.38043542618731307 -0.18503349768872451 0 0.3992663230879947 -0.20032351725313211 0 0.40705969017262972 -0.17588852380601791 0 0.39059007556321579 -0.2275266566807447 0 0.3992663230879947 -0.20032351725313211 0 0.39059007556321579 -0.2275266566807447 0 0.3992663230879947 -0.20032351725313211 0 0.4029475596913647 -0.21664517753736909 0 0.3992663230879947 -0.20032351725313211 0 0.41941305847039528 -0.216681950936917 0 0.42632113792154841 -0.19364360613338019 0 0.3992663230879947 -0.20032351725313211 0 0.41941305847039528 -0.216681950936917 0 0.3992663230879947 -0.20032351725313211 0 0.4029475596913647 -0.21664517753736909 0 0.41941305847039528 -0.216681950936917 0 0.3992663230879947 -0.20032351725313211 0 0.42632113792154841 -0.19364360613338019 0 0.40705969017262972 -0.17588852380601791 0 0.42632113792154841 -0.19364360613338019 0 0.44558258567046782 -0.21139868846074181 0 0.41941305847039528 -0.216681950936917 0 0.42632113792154841 -0.19364360613338019 0 0.44558258567046782 -0.21139868846074181 0 0.41941305847039528 -0.216681950936917 0 0.43955979385279792 -0.2330403846206999 0 0.41941305847039528 -0.216681950936917 0 0.43955979385279792 -0.2330403846206999 0 0.44558258567046782 -0.21139868846074181 0 0.41941305847039528 -0.216681950936917 0 0.41905935167883712 -0.2384800732206464 0 0.43955979385279792 -0.2330403846206999 0 0.41905935167883712 -0.2384800732206464 0 0.4194226021379755 -0.25620125026357371 0 0.43525063582752987 -0.25156675733937423 0 0.41905935167883712 -0.2384800732206464 0 0.43955979385279792 -0.2330403846206999 0 0.43525063582752987 -0.25156675733937423 0 0.40432710488521362 -0.24824992017021499 0 0.41905935167883712 -0.2384800732206464 0 0.4194226021379755 -0.25620125026357371 0 0.40432710488521362 -0.24824992017021499 0 0.40482471362102651 -0.23300336495069551 0 0.41905935167883712 -0.2384800732206464 0 0.40482471362102651 -0.23300336495069551 0 0.41905935167883712 -0.2384800732206464 0 0.40482471362102651 -0.23300336495069551 0 0.4029475596913647 -0.21664517753736909 0 0.41941305847039528 -0.216681950936917 0 0.40482471362102651 -0.23300336495069551 0 0.41941305847039528 -0.216681950936917 0 0.41905935167883712 -0.2384800732206464 0 0.38932768749318558 -0.14525872063070469 0 0.41095195339919349 -0.12724159292887649 0 0.39639467592149358 -0.1284483734250037 0 0.38825103715550802 -0.1315614371765588 0 0.38932768749318558 -0.14525872063070469 0 0.39639467592149358 -0.1284483734250037 0 0.38932768749318558 -0.14525872063070469 0 0.41095195339919349 -0.12724159292887649 0 0.38763710598076351 -0.1211819530494572 0 0.39639467592149358 -0.1284483734250037 0 0.38825103715550802 -0.1315614371765588 0 0.38763710598076351 -0.1211819530494572 0 0.38825103715550802 -0.1315614371765588 0 0.3775753466606227 -0.13185955422043091 0 0.37690317713408772 -0.1222977117636227 0 0.38763710598076351 -0.1211819530494572 0 0.3775753466606227 -0.13185955422043091 0 0.38825103715550802 -0.1315614371765588 0 0.3775753466606227 -0.13185955422043091 0 0.38932768749318558 -0.14525872063070469 0 0.37398976802662609 -0.14540487595588941 0 0.38932768749318558 -0.14525872063070469 0 0.39052472909962749 -0.16064669988095401 0 0.37398976802662609 -0.14540487595588941 0 0.39052472909962749 -0.16064669988095401 0 0.37398976802662609 -0.14540487595588941 0 0.3775753466606227 -0.13185955422043091 0 0.38932768749318558 -0.14525872063070469 0 0.38932768749318558 -0.14525872063070469 0 0.40234804146405417 -0.15198640721576601 0 0.41095195339919349 -0.12724159292887649 0 0.38932768749318558 -0.14525872063070469 0 0.40234804146405417 -0.15198640721576601 0 0.39052472909962749 -0.16064669988095401 0 0.40234804146405417 -0.15198640721576601 0 0.39052472909962749 -0.16064669988095401 0 0.40705969017262972 -0.17588852380601791 0 0.39052472909962749 -0.16064669988095401 0 0.40705969017262972 -0.17588852380601791 0 0.37398976802662609 -0.14540487595588941 0 0.36160452928663328 -0.1697434781243147 0 0.39052472909962749 -0.16064669988095401 0 0.36160452928663328 -0.1697434781243147 0 0.39052472909962749 -0.16064669988095401 0 0.38043542618731307 -0.18503349768872451 0 0.39052472909962749 -0.16064669988095401 0 0.38043542618731307 -0.18503349768872451 0 0.40705969017262972 -0.17588852380601791 0 0.3992663230879947 -0.20032351725313211 0 0.38043542618731307 -0.18503349768872451 0 0.40705969017262972 -0.17588852380601791 0 0.42632113792154841 -0.19364360613338019 0 0.40705969017262972 -0.17588852380601791 0 0.42632113792154841 -0.19364360613338019 0 0.40705969017262972 -0.17588852380601791 0 0.42445985093351718 -0.16737745842564669 0 0.42632113792154841 -0.19364360613338019 0 0.42445985093351718 -0.16737745842564669 0 0.43983605296360739 -0.17267812073442421 0 0.42632113792154841 -0.19364360613338019 0 0.43983605296360739 -0.17267812073442421 0 0.44359441925494553 -0.1899396459288924 0 0.42445985093351718 -0.16737745842564669 0 0.43961466575996161 -0.15618427435628651 0 0.43983605296360739 -0.17267812073442421 0 0.42445985093351718 -0.16737745842564669 0 0.42637023748639918 -0.1516810656994505 0 0.43961466575996161 -0.15618427435628651 0 0.40705969017262972 -0.17588852380601791 0 0.41620512066198589 -0.1472143279607904 0 0.40705969017262972 -0.17588852380601791 0 0.42445985093351718 -0.16737745842564669 0 0.41620512066198589 -0.1472143279607904 0 0.40234804146405417 -0.15198640721576601 0 0.40705969017262972 -0.17588852380601791 0 0.41620512066198589 -0.1472143279607904 0 0.40234804146405417 -0.15198640721576601 0 0.41620512066198589 -0.1472143279607904 0 0.41095195339919349 -0.12724159292887649 0 0.42637023748639918 -0.1516810656994505 0 0.42947322839580138 -0.13045276546324991 0 0.42637023748639918 -0.1516810656994505 0 0.43695120740492599 -0.14263883695726209 0 0.42947322839580138 -0.13045276546324991 0 0.41620512066198589 -0.1472143279607904 0 0.42637023748639918 -0.1516810656994505 0 0.42947322839580138 -0.13045276546324991 0 0.42445985093351718 -0.16737745842564669 0 0.41620512066198589 -0.1472143279607904 0 0.42637023748639918 -0.1516810656994505 0 0.42637023748639918 -0.1516810656994505 0 0.43695120740492599 -0.14263883695726209 0 0.43961466575996161 -0.15618427435628651 0 0.42535055115134007 -0.11854013211556209 0 0.41620512066198589 -0.1472143279607904 0 0.42947322839580138 -0.13045276546324991 0 0.43695120740492599 -0.14263883695726209 0 0.42947322839580138 -0.13045276546324991 0 0.44084139809499279 -0.13264631133583021 0 0.44159002387344187 -0.1213829702657743 0 0.42947322839580138 -0.13045276546324991 0 0.44084139809499279 -0.13264631133583021 0 0.42535055115134007 -0.11854013211556209 0 0.41620512066198589 -0.1472143279607904 0 0.41095195339919349 -0.12724159292887649 0 0.42535055115134007 -0.11854013211556209 0 0.41620512066198589 -0.1472143279607904 0 0.46297207685201558 -0.14047645694181229 0 0.45197104021009732 -0.1297866206243361 0 0.44863832780523111 -0.1432986883781884 0 0.46441013443710838 -0.1249183798069777 0 0.46297207685201558 -0.14047645694181229 0 0.45197104021009732 -0.1297866206243361 0 0.44159002387344187 -0.1213829702657743 0 0.45197104021009732 -0.1297866206243361 0 0.44084139809499279 -0.13264631133583021 0 0.43695120740492599 -0.14263883695726209 0 0.44084139809499279 -0.13264631133583021 0 0.44863832780523111 -0.1432986883781884 0 0.45197104021009732 -0.1297866206243361 0 0.44084139809499279 -0.13264631133583021 0 0.44863832780523111 -0.1432986883781884 0 0.44863832780523111 -0.1432986883781884 0 0.43961466575996161 -0.15618427435628651 0 0.46066595045601327 -0.16126644344741911 0 0.43695120740492599 -0.14263883695726209 0 0.44863832780523111 -0.1432986883781884 0 0.43961466575996161 -0.15618427435628651 0 0.46297207685201558 -0.14047645694181229 0 0.46066595045601327 -0.16126644344741911 0 0.47907434228402368 -0.1443185734870796 0 0.46297207685201558 -0.14047645694181229 0 0.44863832780523111 -0.1432986883781884 0 0.46066595045601327 -0.16126644344741911 0 0.43961466575996161 -0.15618427435628651 0 0.46066595045601327 -0.16126644344741911 0 0.43983605296360739 -0.17267812073442421 0 0.43983605296360739 -0.17267812073442421 0 0.44359441925494553 -0.1899396459288924 0 0.46124830433411079 -0.18928702748695769 0 0.46066595045601327 -0.16126644344741911 0 0.43983605296360739 -0.17267812073442421 0 0.46124830433411079 -0.18928702748695769 0 0.46066595045601327 -0.16126644344741911 0 0.48056843563063878 -0.1752922273120483 0 0.46124830433411079 -0.18928702748695769 0 0.48056843563063878 -0.1752922273120483 0 0.5 -0.15953693186646081 0 0.4999999999999965 -0.18851166812688211 0 0.48056843563063878 -0.1752922273120483 0 0.5 -0.15953693186646081 0 0.47907434228402368 -0.1443185734870796 0 0.46066595045601327 -0.16126644344741911 0 0.48056843563063878 -0.1752922273120483 0 0.47907434228402368 -0.1443185734870796 0 0.5 -0.15953693186646081 0 0.47907434228402368 -0.1443185734870796 0 0.5 -0.13056219560603949 0 0.47866475737878661 -0.119913460570227 0 0.47907434228402368 -0.1443185734870796 0 0.5 -0.13056219560603949 0 0.47866475737878661 -0.119913460570227 0 0.46441013443710838 -0.1249183798069777 0 0.47907434228402368 -0.1443185734870796 0 0.46441013443710838 -0.1249183798069777 0 0.46297207685201558 -0.14047645694181229 0 0.47907434228402368 -0.1443185734870796 0 0.46484403341938718 -0.22915377078810339 0 0.44558258567046782 -0.21139868846074181 0 0.46484403341938718 -0.22915377078810339 0 0.45062813877201841 -0.22924668237659751 0 0.44558258567046782 -0.21139868846074181 0 0.46484403341938718 -0.22915377078810339 0 0.45244064693917058 -0.24349917990462591 0 0.45062813877201841 -0.22924668237659751 0 0.46484403341938718 -0.22915377078810339 0 0.46670221866604461 -0.23580096895239341 0 0.47015426925884929 -0.2329310206391951 0 0.46670221866604461 -0.23580096895239341 0 0.46225831965791542 -0.24037965767077829 0 0.47088079272060901 -0.2459499529473389 0 0.46484403341938718 -0.22915377078810339 0 0.46670221866604461 -0.23580096895239341 0 0.46225831965791542 -0.24037965767077829 0 0.46225831965791542 -0.24037965767077829 0 0.45970652923520039 -0.24939881830448271 0 0.47088079272060901 -0.2459499529473389 0 0.46225831965791542 -0.24037965767077829 0 0.45970652923520039 -0.24939881830448271 0 0.45244064693917058 -0.24349917990462591 0 0.45970652923520039 -0.24939881830448271 0 0.45244064693917058 -0.24349917990462591 0 0.46484403341938718 -0.22915377078810339 0 0.45244064693917058 -0.24349917990462591 0 0.46484403341938718 -0.22915377078810339 0 0.46225831965791542 -0.24037965767077829 0 0.45244064693917058 -0.24349917990462591 0 0.45244064693917058 -0.24349917990462591 0 0.43955979385279792 -0.2330403846206999 0 0.43525063582752987 -0.25156675733937423 0 0.45244064693917058 -0.24349917990462591 0 0.43955979385279792 -0.2330403846206999 0 0.45062813877201841 -0.22924668237659751 0 0.45970652923520039 -0.24939881830448271 0 0.45244064693917058 -0.24349917990462591 0 0.43525063582752987 -0.25156675733937423 0 0.45244064693917058 -0.24349917990462591 0 0.43955979385279792 -0.2330403846206999 0 0.43955979385279792 -0.2330403846206999 0 0.45062813877201841 -0.22924668237659751 0 0.44558258567046782 -0.21139868846074181 0 0.42632113792154841 -0.19364360613338019 0 0.44558258567046782 -0.21139868846074181 0 0.44359441925494553 -0.1899396459288924 0 0.44558258567046782 -0.21139868846074181 0 0.44359441925494553 -0.1899396459288924 0 0.46383581727534412 -0.2077255064593547 0 0.44359441925494553 -0.1899396459288924 0 0.46124830433411079 -0.18928702748695769 0 0.46383581727534412 -0.2077255064593547 0 0.46484403341938718 -0.22915377078810339 0 0.44558258567046782 -0.21139868846074181 0 0.46383581727534412 -0.2077255064593547 0 0.48056843563063878 -0.1752922273120483 0 0.46124830433411079 -0.18928702748695769 0 0.48242201670969093 -0.2088327194574921 0 0.46484403341938718 -0.22915377078810339 0 0.46383581727534412 -0.2077255064593547 0 0.48242201670969093 -0.2088327194574921 0 0.48056843563063878 -0.1752922273120483 0 0.48242201670969093 -0.2088327194574921 0 0.4999999999999965 -0.18851166812688211 0 0.46124830433411079 -0.18928702748695769 0 0.46383581727534412 -0.2077255064593547 0 0.48242201670969093 -0.2088327194574921 0 0.48242201670969093 -0.2088327194574921 0 0.4999999999999965 -0.18851166812688211 0 0.48242201670969093 -0.2088327194574921 0 0.4999999999999965 -0.18851166812688211 0 0.5 -0.21191267251317419 0 0.48242201670969093 -0.2088327194574921 0 0.5 -0.21191267251317419 0 0.48765231993410207 -0.22419124917821931 0 0.5 -0.21191267251317419 0 0.48765231993410207 -0.22419124917821931 0 0.5 -0.23531367689946639 0 0.48765231993410207 -0.22419124917821931 0 0.4838912318768045 -0.23442185659741169 0 0.5 -0.23531367689946639 0 0.46484403341938718 -0.22915377078810339 0 0.48242201670969093 -0.2088327194574921 0 0.46484403341938718 -0.22915377078810339 0 0.48242201670969093 -0.2088327194574921 0 0.4750394153030294 -0.22824133614125941 0 0.48242201670969093 -0.2088327194574921 0 0.48765231993410207 -0.22419124917821931 0 0.4750394153030294 -0.22824133614125941 0 0.48765231993410207 -0.22419124917821931 0 0.4750394153030294 -0.22824133614125941 0 0.4838912318768045 -0.23442185659741169 0 0.4750394153030294 -0.22824133614125941 0 0.47321180225993009 -0.23777249770071959 0 0.4838912318768045 -0.23442185659741169 0 0.46484403341938718 -0.22915377078810339 0 0.4750394153030294 -0.22824133614125941 0 0.47015426925884929 -0.2329310206391951 0 0.4750394153030294 -0.22824133614125941 0 0.47015426925884929 -0.2329310206391951 0 0.47321180225993009 -0.23777249770071959 0 0.47088079272060901 -0.2459499529473389 0 0.47321180225993009 -0.23777249770071959 0 0.48355262188696091 -0.24659052306739379 0 0.46670221866604461 -0.23580096895239341 0 0.47088079272060901 -0.2459499529473389 0 0.47321180225993009 -0.23777249770071959 0 0.46670221866604461 -0.23580096895239341 0 0.47015426925884929 -0.2329310206391951 0 0.47321180225993009 -0.23777249770071959 0 0.47321180225993009 -0.23777249770071959 0 0.4838912318768045 -0.23442185659741169 0 0.48355262188696091 -0.24659052306739379 0 0.4838912318768045 -0.23442185659741169 0 0.48355262188696091 -0.24659052306739379 0 0.5 -0.23531367689946639 0 0.48355262188696091 -0.24659052306739379 0 0.5 -0.23531367689946639 0 0.5 -0.25871468128575842 0 0.48355262188696091 -0.24659052306739379 0 0.5 -0.25871468128575842 0 0.47985326461760303 -0.26575725198826561 0 0.47985326461760303 -0.26575725198826561 0 0.500000000000004 -0.28211568567205042 0 0.5 -0.25871468128575842 0 0.47985326461760303 -0.26575725198826561 0 0.500000000000004 -0.28211568567205042 0 0.47985326461760303 -0.26575725198826561 0 0.47746518501633373 -0.29482445222130538 0 0.500000000000004 -0.28211568567205042 0 0.47985326461760303 -0.26575725198826561 0 0.45710434692920132 -0.27853391768334612 0 0.47746518501633373 -0.29482445222130538 0 0.47088079272060901 -0.2459499529473389 0 0.48355262188696091 -0.24659052306739379 0 0.47985326461760303 -0.26575725198826561 0 0.45970652923520039 -0.24939881830448271 0 0.47088079272060901 -0.2459499529473389 0 0.47985326461760303 -0.26575725198826561 0 0.45970652923520039 -0.24939881830448271 0 0.47985326461760303 -0.26575725198826561 0 0.45970652923520039 -0.24939881830448271 0 0.47985326461760303 -0.26575725198826561 0 0.45710434692920132 -0.27853391768334612 0 0.45970652923520039 -0.24939881830448271 0 0.45710434692920132 -0.27853391768334612 0 0.44697066495878413 -0.26258602852217772 0 0.45710434692920132 -0.27853391768334612 0 0.44697066495878413 -0.26258602852217772 0 0.4342069528447306 -0.27012596966592151 0 0.45710434692920132 -0.27853391768334612 0 0.4342069528447306 -0.27012596966592151 0 0.43424028155945449 -0.29098529834933612 0 0.45970652923520039 -0.24939881830448271 0 0.44697066495878413 -0.26258602852217772 0 0.43525063582752987 -0.25156675733937423 0 0.44697066495878413 -0.26258602852217772 0 0.43525063582752987 -0.25156675733937423 0 0.4342069528447306 -0.27012596966592151 0 0.45425353511113808 -0.30446901579874752 0 0.43424028155945449 -0.29098529834933612 0 0.42999115297691659 -0.31221924472473728 0 0.45710434692920132 -0.27853391768334612 0 0.45425353511113808 -0.30446901579874752 0 0.43424028155945449 -0.29098529834933612 0 0.45710434692920132 -0.27853391768334612 0 0.45425353511113808 -0.30446901579874752 0 0.47746518501633373 -0.29482445222130538 0 0.45425353511113808 -0.30446901579874752 0 0.47746518501633373 -0.29482445222130538 0 0.47357996344005471 -0.32382001522219778 0 0.47746518501633373 -0.29482445222130538 0 0.5 -0.31425082696322731 0 0.47357996344005471 -0.32382001522219778 0 0.47746518501633373 -0.29482445222130538 0 0.500000000000004 -0.28211568567205042 0 0.5 -0.31425082696322731 0 0.5 -0.31425082696322731 0 0.48236366796469238 -0.3431351943057781 0 0.47357996344005471 -0.32382001522219778 0 0.5 -0.31425082696322731 0 0.48236366796469238 -0.3431351943057781 0 0.5 -0.35814521541417887 0 0.48236366796469238 -0.3431351943057781 0 0.47357996344005471 -0.32382001522219778 0 0.46592770491830149 -0.35135969968358932 0 0.5 -0.35814521541417887 0 0.47231067146510619 -0.36810021424569761 0 0.47756373257846541 -0.39682819980628109 0 0.48236366796469238 -0.3431351943057781 0 0.5 -0.35814521541417887 0 0.47231067146510619 -0.36810021424569761 0 0.48236366796469238 -0.3431351943057781 0 0.47231067146510619 -0.36810021424569761 0 0.46592770491830149 -0.35135969968358932 0 0.46592770491830149 -0.35135969968358932 0 0.45000923999056419 -0.36796204441545199 0 0.47231067146510619 -0.36810021424569761 0 0.46592770491830149 -0.35135969968358932 0 0.45000923999056419 -0.36796204441545199 0 0.45000923999056419 -0.36796204441545199 0 0.44290617837391372 -0.34333122351702039 0 0.43684942113035458 -0.35811790603038479 0 0.46592770491830149 -0.35135969968358932 0 0.45000923999056419 -0.36796204441545199 0 0.44290617837391372 -0.34333122351702039 0 0.45000923999056419 -0.36796204441545199 0 0.43031640878717692 -0.3685479064212559 0 0.43409077506282701 -0.38456438914731461 0 0.45000923999056419 -0.36796204441545199 0 0.43031640878717692 -0.3685479064212559 0 0.43684942113035458 -0.35811790603038479 0 0.45425353511113808 -0.30446901579874752 0 0.47357996344005471 -0.32382001522219778 0 0.45208886578080959 -0.32596591698931698 0 0.47357996344005471 -0.32382001522219778 0 0.46592770491830149 -0.35135969968358932 0 0.45208886578080959 -0.32596591698931698 0 0.46592770491830149 -0.35135969968358932 0 0.44290617837391372 -0.34333122351702039 0 0.45208886578080959 -0.32596591698931698 0 0.44290617837391372 -0.34333122351702039 0 0.45208886578080959 -0.32596591698931698 0 0.43537445384396029 -0.32858269157712622 0 0.45208886578080959 -0.32596591698931698 0 0.43537445384396029 -0.32858269157712622 0 0.42999115297691659 -0.31221924472473728 0 0.45425353511113808 -0.30446901579874752 0 0.45208886578080959 -0.32596591698931698 0 0.42999115297691659 -0.31221924472473728 0 0.43537445384396029 -0.32858269157712622 0 0.41979649173798239 -0.33556015553506419 0 0.42999115297691659 -0.31221924472473728 0 0.44290617837391372 -0.34333122351702039 0 0.43537445384396029 -0.32858269157712622 0 0.41979649173798239 -0.33556015553506419 0 0.41979649173798239 -0.33556015553506419 0 0.40588002759030251 -0.32030274256601021 0 0.40350512412404788 -0.33649187772235989 0 0.41979649173798239 -0.33556015553506419 0 0.40742431786960148 -0.34902519329093279 0 0.40350512412404788 -0.33649187772235989 0 0.41979649173798239 -0.33556015553506419 0 0.40588002759030251 -0.32030274256601021 0 0.42999115297691659 -0.31221924472473728 0 0.43031640878717692 -0.3685479064212559 0 0.41765003651554933 -0.36703694136242848 0 0.4200038076190386 -0.37933119148023858 0 0.43031640878717692 -0.3685479064212559 0 0.42332864873551412 -0.35505094888734429 0 0.43684942113035458 -0.35811790603038479 0 0.43031640878717692 -0.3685479064212559 0 0.42332864873551412 -0.35505094888734429 0 0.41765003651554933 -0.36703694136242848 0 0.44290617837391372 -0.34333122351702039 0 0.41979649173798239 -0.33556015553506419 0 0.42332864873551412 -0.35505094888734429 0 0.44290617837391372 -0.34333122351702039 0 0.42332864873551412 -0.35505094888734429 0 0.43684942113035458 -0.35811790603038479 0 0.42332864873551412 -0.35505094888734429 0 0.40742431786960148 -0.34902519329093279 0 0.40990017249845617 -0.36002780319592531 0 0.41979649173798239 -0.33556015553506419 0 0.42332864873551412 -0.35505094888734429 0 0.40742431786960148 -0.34902519329093279 0 0.42332864873551412 -0.35505094888734429 0 0.41765003651554933 -0.36703694136242848 0 0.40990017249845617 -0.36002780319592531 0 0.41765003651554933 -0.36703694136242848 0 0.40990017249845617 -0.36002780319592531 0 0.40565272868260371 -0.37111416337195519 0 0.41765003651554933 -0.36703694136242848 0 0.40565272868260371 -0.37111416337195519 0 0.4200038076190386 -0.37933119148023858 0 0.39130164974616771 -0.36289713526367362 0 0.40282419468191072 -0.38402689579459831 0 0.40565272868260371 -0.37111416337195519 0 0.39130164974616771 -0.36289713526367362 0 0.40282419468191072 -0.38402689579459831 0 0.40565272868260371 -0.37111416337195519 0 0.39130164974616771 -0.36289713526367362 0 0.39952910175049572 -0.35766480192895261 0 0.40565272868260371 -0.37111416337195519 0 0.39130164974616771 -0.36289713526367362 0 0.40990017249845617 -0.36002780319592531 0 0.40565272868260371 -0.37111416337195519 0 0.39952910175049572 -0.35766480192895261 0 0.39130164974616771 -0.36289713526367362 0 0.39952910175049572 -0.35766480192895261 0 0.38801185198465898 -0.35686438474862331 0 0.39952910175049572 -0.35766480192895261 0 0.39488388972148769 -0.34606013170260469 0 0.38801185198465898 -0.35686438474862331 0 0.40742431786960148 -0.34902519329093279 0 0.40990017249845617 -0.36002780319592531 0 0.39952910175049572 -0.35766480192895261 0 0.40742431786960148 -0.34902519329093279 0 0.39952910175049572 -0.35766480192895261 0 0.39488388972148769 -0.34606013170260469 0 0.40742431786960148 -0.34902519329093279 0 0.39488388972148769 -0.34606013170260469 0 0.40350512412404788 -0.33649187772235989 0 0.39130164974616771 -0.36289713526367362 0 0.38801185198465898 -0.35686438474862331 0 0.36928642654333582 -0.35029183160190053 0 0.39130164974616771 -0.36289713526367362 0 0.36928642654333582 -0.35029183160190053 0 0.3820441661052193 -0.34411713656500931 0 0.38801185198465898 -0.35686438474862331 0 0.36928642654333582 -0.35029183160190053 0 0.39488388972148769 -0.34606013170260469 0 0.3820441661052193 -0.34411713656500931 0 0.38801185198465898 -0.35686438474862331 0 0.39130164974616771 -0.36289713526367362 0 0.3773010266139154 -0.37904134570775289 0 0.36928642654333582 -0.35029183160190053 0 0.39130164974616771 -0.36289713526367362 0 0.38801185198465898 -0.35686438474862331 0 0.40588002759030251 -0.32030274256601021 0 0.38954089370086542 -0.33151116551718729 0 0.38052084063157299 -0.30776748558769262 0 0.40588002759030251 -0.32030274256601021 0 0.40350512412404788 -0.33649187772235989 0 0.38954089370086542 -0.33151116551718729 0 0.39488388972148769 -0.34606013170260469 0 0.40350512412404788 -0.33649187772235989 0 0.38954089370086542 -0.33151116551718729 0 0.3820441661052193 -0.34411713656500931 0 0.38954089370086542 -0.33151116551718729 0 0.37012320384522962 -0.33165039796497042 0 0.39488388972148769 -0.34606013170260469 0 0.3820441661052193 -0.34411713656500931 0 0.38954089370086542 -0.33151116551718729 0 0.38954089370086542 -0.33151116551718729 0 0.38052084063157299 -0.30776748558769262 0 0.37012320384522962 -0.33165039796497042 0 0.38052084063157299 -0.30776748558769262 0 0.40815327087852438 -0.29911061624236152 0 0.40588002759030251 -0.32030274256601021 0 0.38052084063157299 -0.30776748558769262 0 0.40815327087852438 -0.29911061624236152 0 0.38052084063157299 -0.30776748558769262 0 0.39346514406432309 -0.28116357729501962 0 0.40815327087852438 -0.29911061624236152 0 0.39346514406432309 -0.28116357729501962 0 0.41602171729167481 -0.27604821085685838 0 0.40815327087852438 -0.29911061624236152 0 0.38052084063157299 -0.30776748558769262 0 0.39346514406432309 -0.28116357729501962 0 0.37187804895054721 -0.28686610270275381 0 0.37956303889575871 -0.27163288434970229 0 0.39346514406432309 -0.28116357729501962 0 0.37187804895054721 -0.28686610270275381 0 0.37956303889575871 -0.27163288434970229 0 0.3903687019426556 -0.26087583328958452 0 0.39346514406432309 -0.28116357729501962 0 0.37956303889575871 -0.27163288434970229 0 0.3903687019426556 -0.26087583328958452 0 0.37370526739500132 -0.25695533472129339 0 0.38524374560404362 -0.24428931345025909 0 0.3903687019426556 -0.26087583328958452 0 0.37370526739500132 -0.25695533472129339 0 0.38524374560404362 -0.24428931345025909 0 0.40432710488521362 -0.24824992017021499 0 0.3903687019426556 -0.26087583328958452 0 0.40432710488521362 -0.24824992017021499 0 0.3903687019426556 -0.26087583328958452 0 0.4059079108115935 -0.26296396975101799 0 0.4059079108115935 -0.26296396975101799 0 0.39346514406432309 -0.28116357729501962 0 0.41602171729167481 -0.27604821085685838 0 0.3903687019426556 -0.26087583328958452 0 0.4059079108115935 -0.26296396975101799 0 0.39346514406432309 -0.28116357729501962 0 0.4059079108115935 -0.26296396975101799 0 0.41602171729167481 -0.27604821085685838 0 0.4194226021379755 -0.25620125026357371 0 0.40432710488521362 -0.24824992017021499 0 0.4059079108115935 -0.26296396975101799 0 0.4194226021379755 -0.25620125026357371 0 0.4194226021379755 -0.25620125026357371 0 0.43525063582752987 -0.25156675733937423 0 0.4342069528447306 -0.27012596966592151 0 0.41602171729167481 -0.27604821085685838 0 0.4194226021379755 -0.25620125026357371 0 0.4342069528447306 -0.27012596966592151 0 0.41602171729167481 -0.27604821085685838 0 0.4342069528447306 -0.27012596966592151 0 0.43424028155945449 -0.29098529834933612 0 0.43424028155945449 -0.29098529834933612 0 0.42999115297691659 -0.31221924472473728 0 0.40815327087852438 -0.29911061624236152 0 0.40588002759030251 -0.32030274256601021 0 0.42999115297691659 -0.31221924472473728 0 0.40815327087852438 -0.29911061624236152 0 0.41602171729167481 -0.27604821085685838 0 0.43424028155945449 -0.29098529834933612 0 0.40815327087852438 -0.29911061624236152 0 0.5 -0.5 0 0.47832353862489302 -0.46359197518209089 0 0.5 -0.41810121042673187 0 0.45429394902818637 -0.47841086999361149 0 0.46606699871600132 -0.49999999999999739 0 0.47832353862489302 -0.46359197518209089 0 0.44089572902239688 -0.50000000000000133 0 0.45429394902818637 -0.47841086999361149 0 0.43634884304873489 -0.47599381083660258 0 0.44089572902239688 -0.50000000000000133 0 0.45429394902818637 -0.47841086999361149 0 0.45429394902818637 -0.47841086999361149 0 0.44386029304456442 -0.45927788733870489 0 0.45429394902818637 -0.47841086999361149 0 0.44386029304456442 -0.45927788733870489 0 0.43634884304873489 -0.47599381083660258 0 0.45429394902818637 -0.47841086999361149 0 0.46606699871600132 -0.49999999999999739 0 0.44089572902239688 -0.50000000000000133 0 0.45429394902818637 -0.47841086999361149 0 0.46606699871600132 -0.49999999999999739 0 0.46606699871600132 -0.49999999999999739 0 0.5 -0.5 0 0.47832353862489302 -0.46359197518209089 0 0.46973917790336811 -0.45352330627091342 0 0.47832353862489302 -0.46359197518209089 0 0.47984110610180047 -0.43151646440129199 0 0.47832353862489302 -0.46359197518209089 0 0.47984110610180047 -0.43151646440129199 0 0.5 -0.41810121042673187 0 0.46973917790336811 -0.45352330627091342 0 0.45430763749262593 -0.4370499496983305 0 0.47984110610180047 -0.43151646440129199 0 0.46973917790336811 -0.45352330627091342 0 0.44386029304456442 -0.45927788733870489 0 0.45430763749262593 -0.4370499496983305 0 0.45429394902818637 -0.47841086999361149 0 0.46973917790336811 -0.45352330627091342 0 0.44386029304456442 -0.45927788733870489 0 0.45429394902818637 -0.47841086999361149 0 0.46973917790336811 -0.45352330627091342 0 0.45429394902818637 -0.47841086999361149 0 0.46973917790336811 -0.45352330627091342 0 0.47832353862489302 -0.46359197518209089 0 0.44386029304456442 -0.45927788733870489 0 0.45430763749262593 -0.4370499496983305 0 0.43342663706094209 -0.44014490468379852 0 0.44386029304456442 -0.45927788733870489 0 0.43342663706094209 -0.44014490468379852 0 0.43990522403057009 -0.42103792158120479 0 0.45838344958350402 -0.41401273986542608 0 0.45430763749262593 -0.4370499496983305 0 0.43990522403057009 -0.42103792158120479 0 0.45430763749262593 -0.4370499496983305 0 0.43342663706094209 -0.44014490468379852 0 0.43990522403057009 -0.42103792158120479 0 0.45838344958350402 -0.41401273986542608 0 0.44260122273942148 -0.40465230564401983 0 0.43990522403057009 -0.42103792158120479 0 0.44260122273942148 -0.40465230564401983 0 0.43077788333749961 -0.40893045312275228 0 0.45838344958350402 -0.41401273986542608 0 0.45430763749262593 -0.4370499496983305 0 0.47984110610180047 -0.43151646440129199 0 0.47984110610180047 -0.43151646440129199 0 0.5 -0.41810121042673187 0 0.47756373257846541 -0.39682819980628109 0 0.45838344958350402 -0.41401273986542608 0 0.47984110610180047 -0.43151646440129199 0 0.47756373257846541 -0.39682819980628109 0 0.5 -0.35814521541417887 0 0.5 -0.41810121042673187 0 0.47756373257846541 -0.39682819980628109 0 0.47231067146510619 -0.36810021424569761 0 0.47756373257846541 -0.39682819980628109 0 0.45484716832038169 -0.39109335448436072 0 0.47231067146510619 -0.36810021424569761 0 0.45000923999056419 -0.36796204441545199 0 0.45484716832038169 -0.39109335448436072 0 0.45838344958350402 -0.41401273986542608 0 0.47756373257846541 -0.39682819980628109 0 0.45484716832038169 -0.39109335448436072 0 0.45838344958350402 -0.41401273986542608 0 0.45484716832038169 -0.39109335448436072 0 0.44260122273942148 -0.40465230564401983 0 0.45484716832038169 -0.39109335448436072 0 0.44260122273942148 -0.40465230564401983 0 0.44127927591064059 -0.39473686561637061 0 0.44260122273942148 -0.40465230564401983 0 0.44127927591064059 -0.39473686561637061 0 0.43357793751993251 -0.39863741318978729 0 0.45000923999056419 -0.36796204441545199 0 0.43409077506282701 -0.38456438914731461 0 0.45484716832038169 -0.39109335448436072 0 0.44127927591064059 -0.39473686561637061 0 0.43409077506282701 -0.38456438914731461 0 0.45000923999056419 -0.36796204441545199 0 0.45484716832038169 -0.39109335448436072 0 0.43409077506282701 -0.38456438914731461 0 0.43031640878717692 -0.3685479064212559 0 0.43409077506282701 -0.38456438914731461 0 0.4200038076190386 -0.37933119148023858 0 0.43409077506282701 -0.38456438914731461 0 0.41817231013508971 -0.40116673387917717 0 0.4200038076190386 -0.37933119148023858 0 0.44127927591064059 -0.39473686561637061 0 0.43409077506282701 -0.38456438914731461 0 0.43357793751993251 -0.39863741318978729 0 0.43409077506282701 -0.38456438914731461 0 0.41817231013508971 -0.40116673387917717 0 0.43409077506282701 -0.38456438914731461 0 0.43357793751993251 -0.39863741318978729 0 0.41817231013508971 -0.40116673387917717 0 0.44260122273942148 -0.40465230564401983 0 0.43357793751993251 -0.39863741318978729 0 0.43077788333749961 -0.40893045312275228 0 0.43357793751993251 -0.39863741318978729 0 0.41817231013508971 -0.40116673387917717 0 0.43077788333749961 -0.40893045312275228 0 0.41434673961765328 -0.40515665632552289 0 0.40282419468191072 -0.38402689579459831 0 0.41817231013508971 -0.40116673387917717 0 0.41434673961765328 -0.40515665632552289 0 0.40282419468191072 -0.38402689579459831 0 0.41817231013508971 -0.40116673387917717 0 0.41434673961765328 -0.40515665632552289 0 0.41817231013508971 -0.40116673387917717 0 0.4200038076190386 -0.37933119148023858 0 0.41231702062237352 -0.37706234603703281 0 0.41817231013508971 -0.40116673387917717 0 0.41231702062237352 -0.37706234603703281 0 0.41817231013508971 -0.40116673387917717 0 0.41231702062237352 -0.37706234603703281 0 0.40282419468191072 -0.38402689579459831 0 0.40565272868260371 -0.37111416337195519 0 0.4200038076190386 -0.37933119148023858 0 0.41231702062237352 -0.37706234603703281 0 0.40565272868260371 -0.37111416337195519 0 0.4200038076190386 -0.37933119148023858 0 0.40565272868260371 -0.37111416337195519 0 0.41231702062237352 -0.37706234603703281 0 0.40282419468191072 -0.38402689579459831 0 0.40282419468191072 -0.38402689579459831 0 0.3773010266139154 -0.37904134570775289 0 0.393556852135311 -0.40236099019313493 0 0.39130164974616771 -0.36289713526367362 0 0.40282419468191072 -0.38402689579459831 0 0.3773010266139154 -0.37904134570775289 0 0.3773010266139154 -0.37904134570775289 0 0.393556852135311 -0.40236099019313493 0 0.37392217404960898 -0.4028242056209263 0 0.41434673961765328 -0.40515665632552289 0 0.40282419468191072 -0.38402689579459831 0 0.393556852135311 -0.40236099019313493 0 0.41434673961765328 -0.40515665632552289 0 0.393556852135311 -0.40236099019313493 0 0.39824406234837012 -0.42195112742208718 0 0.393556852135311 -0.40236099019313493 0 0.37851404563230417 -0.42416527968138662 0 0.39824406234837012 -0.42195112742208718 0 0.393556852135311 -0.40236099019313493 0 0.37851404563230417 -0.42416527968138662 0 0.37392217404960898 -0.4028242056209263 0 0.37851404563230417 -0.42416527968138662 0 0.39824406234837012 -0.42195112742208718 0 0.39590524446459358 -0.4453908984965434 0 0.39824406234837012 -0.42195112742208718 0 0.41248011545763003 -0.4378307382435585 0 0.39590524446459358 -0.4453908984965434 0 0.42299298107732031 -0.42101192202889182 0 0.42967091206302788 -0.44850286643274723 0 0.41248011545763003 -0.4378307382435585 0 0.39824406234837012 -0.42195112742208718 0 0.42299298107732031 -0.42101192202889182 0 0.41248011545763003 -0.4378307382435585 0 0.41817231013508971 -0.40116673387917717 0 0.42299298107732031 -0.42101192202889182 0 0.41434673961765328 -0.40515665632552289 0 0.39824406234837012 -0.42195112742208718 0 0.42299298107732031 -0.42101192202889182 0 0.41817231013508971 -0.40116673387917717 0 0.41434673961765328 -0.40515665632552289 0 0.42299298107732031 -0.42101192202889182 0 0.41434673961765328 -0.40515665632552289 0 0.39824406234837012 -0.42195112742208718 0 0.41434673961765328 -0.40515665632552289 0 0.42299298107732031 -0.42101192202889182 0 0.43990522403057009 -0.42103792158120479 0 0.42299298107732031 -0.42101192202889182 0 0.43077788333749961 -0.40893045312275228 0 0.41817231013508971 -0.40116673387917717 0 0.42299298107732031 -0.42101192202889182 0 0.43077788333749961 -0.40893045312275228 0 0.42299298107732031 -0.42101192202889182 0 0.43342663706094209 -0.44014490468379852 0 0.42967091206302788 -0.44850286643274723 0 0.43990522403057009 -0.42103792158120479 0 0.42299298107732031 -0.42101192202889182 0 0.43342663706094209 -0.44014490468379852 0 0.42299298107732031 -0.42101192202889182 0 0.43342663706094209 -0.44014490468379852 0 0.42299298107732031 -0.42101192202889182 0 0.42967091206302788 -0.44850286643274723 0 0.44386029304456442 -0.45927788733870489 0 0.43342663706094209 -0.44014490468379852 0 0.42967091206302788 -0.44850286643274723 0 0.42967091206302788 -0.44850286643274723 0 0.42209632826390991 -0.46439646076621383 0 0.41460675504392452 -0.4510354426092234 0 0.42967091206302788 -0.44850286643274723 0 0.42209632826390991 -0.46439646076621383 0 0.43634884304873489 -0.47599381083660258 0 0.42967091206302788 -0.44850286643274723 0 0.43634884304873489 -0.47599381083660258 0 0.44386029304456442 -0.45927788733870489 0 0.42967091206302788 -0.44850286643274723 0 0.43634884304873489 -0.47599381083660258 0 0.42209632826390991 -0.46439646076621383 0 0.40961271734162569 -0.46289801691544308 0 0.41460675504392452 -0.4510354426092234 0 0.41248011545763003 -0.4378307382435585 0 0.41460675504392452 -0.4510354426092234 0 0.39590524446459358 -0.4453908984965434 0 0.40961271734162569 -0.46289801691544308 0 0.41460675504392452 -0.4510354426092234 0 0.39590524446459358 -0.4453908984965434 0 0.42967091206302788 -0.44850286643274723 0 0.41248011545763003 -0.4378307382435585 0 0.41460675504392452 -0.4510354426092234 0 0.37851404563230417 -0.42416527968138662 0 0.39590524446459358 -0.4453908984965434 0 0.37460903697736447 -0.44917324779894602 0 0.39590524446459358 -0.4453908984965434 0 0.39096376519371412 -0.47269544924827123 0 0.37460903697736447 -0.44917324779894602 0 0.39096376519371412 -0.47269544924827123 0 0.36421271319295351 -0.46922574975807352 0 0.37460903697736447 -0.44917324779894602 0 0.39590524446459358 -0.4453908984965434 0 0.39096376519371412 -0.47269544924827123 0 0.40961271734162569 -0.46289801691544308 0 0.39590524446459358 -0.4453908984965434 0 0.39096376519371412 -0.47269544924827123 0 0.39096376519371412 -0.47269544924827123 0 0.37256898249647619 -0.48641377800784508 0 0.36421271319295351 -0.46922574975807352 0 0.39096376519371412 -0.47269544924827123 0 0.38602228592283472 -0.49999999999999911 0 0.37256898249647619 -0.48641377800784508 0 0.39096376519371412 -0.47269544924827123 0 0.38602228592283472 -0.49999999999999911 0 0.39096376519371412 -0.47269544924827123 0 0.38602228592283472 -0.49999999999999911 0 0.41345900747261582 -0.5 0 0.40961271734162569 -0.46289801691544308 0 0.39096376519371412 -0.47269544924827123 0 0.41889606505716631 -0.47933062296108869 0 0.39096376519371412 -0.47269544924827123 0 0.41345900747261582 -0.5 0 0.41889606505716631 -0.47933062296108869 0 0.42209632826390991 -0.46439646076621383 0 0.40961271734162569 -0.46289801691544308 0 0.41889606505716631 -0.47933062296108869 0 0.42209632826390991 -0.46439646076621383 0 0.41889606505716631 -0.47933062296108869 0 0.43634884304873489 -0.47599381083660258 0 0.44089572902239688 -0.50000000000000133 0 0.41345900747261582 -0.5 0 0.41889606505716631 -0.47933062296108869 0 0.44089572902239688 -0.50000000000000133 0 0.41889606505716631 -0.47933062296108869 0 0.43634884304873489 -0.47599381083660258 0 0.31267918262080668 -0.5 0 0.32623944247773168 -0.48089058819485708 0 0.33712688372148281 -0.5 0 0.31267918262080668 -0.5 0 0.32623944247773168 -0.48089058819485708 0 0.30250096524746012 -0.48147532188351427 0 0.32623944247773168 -0.48089058819485708 0 0.31549058186814027 -0.46119525704266512 0 0.30250096524746012 -0.48147532188351427 0 0.32623944247773168 -0.48089058819485708 0 0.34935073427182067 -0.48537635608385449 0 0.34028830713667968 -0.45729659415910928 0 0.32623944247773168 -0.48089058819485708 0 0.33712688372148281 -0.5 0 0.34935073427182067 -0.48537635608385449 0 0.33712688372148281 -0.5 0 0.34935073427182067 -0.48537635608385449 0 0.36157458482215882 -0.5 0 0.34935073427182067 -0.48537635608385449 0 0.37256898249647619 -0.48641377800784508 0 0.36157458482215882 -0.5 0 0.38602228592283472 -0.49999999999999911 0 0.37256898249647619 -0.48641377800784508 0 0.36157458482215882 -0.5 0 0.34935073427182067 -0.48537635608385449 0 0.37256898249647619 -0.48641377800784508 0 0.36421271319295351 -0.46922574975807352 0 0.34935073427182067 -0.48537635608385449 0 0.36421271319295351 -0.46922574975807352 0 0.34028830713667968 -0.45729659415910928 0 0.36421271319295351 -0.46922574975807352 0 0.35746494989476962 -0.4513800389125554 0 0.34028830713667968 -0.45729659415910928 0 0.36421271319295351 -0.46922574975807352 0 0.37460903697736447 -0.44917324779894602 0 0.35746494989476962 -0.4513800389125554 0 0.37460903697736447 -0.44917324779894602 0 0.35746494989476962 -0.4513800389125554 0 0.3602521603017288 -0.43476886745020521 0 0.35746494989476962 -0.4513800389125554 0 0.34028830713667968 -0.45729659415910928 0 0.34083668343400059 -0.4341949263218926 0 0.35746494989476962 -0.4513800389125554 0 0.34083668343400059 -0.4341949263218926 0 0.3602521603017288 -0.43476886745020521 0 0.34028830713667968 -0.45729659415910928 0 0.31405451954891189 -0.43693821222098289 0 0.34083668343400059 -0.4341949263218926 0 0.34028830713667968 -0.45729659415910928 0 0.31549058186814027 -0.46119525704266512 0 0.32623944247773168 -0.48089058819485708 0 0.34028830713667968 -0.45729659415910928 0 0.31549058186814027 -0.46119525704266512 0 0.34028830713667968 -0.45729659415910928 0 0.31549058186814027 -0.46119525704266512 0 0.31405451954891189 -0.43693821222098289 0 0.31405451954891189 -0.43693821222098289 0 0.32670226749232262 -0.41332079396623073 0 0.34083668343400059 -0.4341949263218926 0 0.31405451954891189 -0.43693821222098289 0 0.32670226749232262 -0.41332079396623073 0 0.30329614980860292 -0.41155657773388821 0 0.32670226749232262 -0.41332079396623073 0 0.353108789149152 -0.41268762078786342 0 0.33764792453432052 -0.3941981862995943 0 0.32670226749232262 -0.41332079396623073 0 0.34083668343400059 -0.4341949263218926 0 0.353108789149152 -0.41268762078786342 0 0.34083668343400059 -0.4341949263218926 0 0.3602521603017288 -0.43476886745020521 0 0.353108789149152 -0.41268762078786342 0 0.37851404563230417 -0.42416527968138662 0 0.37460903697736447 -0.44917324779894602 0 0.3602521603017288 -0.43476886745020521 0 0.37851404563230417 -0.42416527968138662 0 0.3602521603017288 -0.43476886745020521 0 0.353108789149152 -0.41268762078786342 0 0.37851404563230417 -0.42416527968138662 0 0.353108789149152 -0.41268762078786342 0 0.37392217404960898 -0.4028242056209263 0 0.353108789149152 -0.41268762078786342 0 0.35467841854771692 -0.38560565421242848 0 0.33764792453432052 -0.3941981862995943 0 0.353108789149152 -0.41268762078786342 0 0.37392217404960898 -0.4028242056209263 0 0.35467841854771692 -0.38560565421242848 0 0.37392217404960898 -0.4028242056209263 0 0.35467841854771692 -0.38560565421242848 0 0.3773010266139154 -0.37904134570775289 0 0.37392217404960898 -0.4028242056209263 0 0.35467841854771692 -0.38560565421242848 0 0.3773010266139154 -0.37904134570775289 0 0.35467841854771692 -0.38560565421242848 0 0.35643523989685899 -0.36451112525733692 0 0.35467841854771692 -0.38560565421242848 0 0.33543466304582481 -0.36838710280393089 0 0.35467841854771692 -0.38560565421242848 0 0.33764792453432052 -0.3941981862995943 0 0.33543466304582481 -0.36838710280393089 0 0.33764792453432052 -0.3941981862995943 0 0.3183154844365863 -0.39098975972751798 0 0.33543466304582481 -0.36838710280393089 0 0.32670226749232262 -0.41332079396623073 0 0.33764792453432052 -0.3941981862995943 0 0.3183154844365863 -0.39098975972751798 0 0.32670226749232262 -0.41332079396623073 0 0.3183154844365863 -0.39098975972751798 0 0.30329614980860292 -0.41155657773388821 0 0.3183154844365863 -0.39098975972751798 0 0.33543466304582481 -0.36838710280393089 0 0.31688348939894601 -0.37122921338219828 0 0.3183154844365863 -0.39098975972751798 0 0.29134285677724708 -0.38759120903257338 0 0.31688348939894601 -0.37122921338219828 0 0.3183154844365863 -0.39098975972751798 0 0.29134285677724708 -0.38759120903257338 0 0.30329614980860292 -0.41155657773388821 0 0.29134285677724708 -0.38759120903257338 0 0.28452055823151112 -0.41024075845607882 0 0.30329614980860292 -0.41155657773388821 0 0.29134285677724708 -0.38759120903257338 0 0.27141318643561713 -0.39883409361897387 0 0.28452055823151112 -0.41024075845607882 0 0.29134285677724708 -0.38759120903257338 0 0.27141318643561713 -0.39883409361897387 0 0.29134285677724708 -0.38759120903257338 0 0.26585621628047651 -0.38290750340658009 0 0.27141318643561713 -0.39883409361897387 0 0.29134285677724708 -0.38759120903257338 0 0.26585621628047651 -0.38290750340658009 0 0.27966663507896639 -0.36810219924290288 0 0.26585621628047651 -0.38290750340658009 0 0.25859912728986689 -0.39588521810156108 0 0.2456435903493869 -0.39172229717531593 0 0.26585621628047651 -0.38290750340658009 0 0.25190729546770829 -0.37177056320457008 0 0.2456435903493869 -0.39172229717531593 0 0.25859912728986689 -0.39588521810156108 0 0.25148351609398711 -0.41007697820537448 0 0.2456435903493869 -0.39172229717531593 0 0.26585621628047651 -0.38290750340658009 0 0.25859912728986689 -0.39588521810156108 0 0.27141318643561713 -0.39883409361897387 0 0.25859912728986689 -0.39588521810156108 0 0.27141318643561713 -0.39883409361897387 0 0.25148351609398711 -0.41007697820537448 0 0.27141318643561713 -0.39883409361897387 0 0.25148351609398711 -0.41007697820537448 0 0.27141318643561713 -0.39883409361897387 0 0.27267547654644658 -0.41893632537797332 0 0.26091522747717322 -0.41830298317036813 0 0.27267547654644658 -0.41893632537797332 0 0.28628078115937422 -0.42958814651571642 0 0.28452055823151112 -0.41024075845607882 0 0.27141318643561713 -0.39883409361897387 0 0.27267547654644658 -0.41893632537797332 0 0.28452055823151112 -0.41024075845607882 0 0.25148351609398711 -0.41007697820537448 0 0.26091522747717322 -0.41830298317036813 0 0.24989084696786101 -0.42678548658759008 0 0.27141318643561713 -0.39883409361897387 0 0.25148351609398711 -0.41007697820537448 0 0.26091522747717322 -0.41830298317036813 0 0.26452617529655981 -0.43273615630968099 0 0.2487244885417072 -0.44515622280077161 0 0.24989084696786101 -0.42678548658759008 0 0.26091522747717322 -0.41830298317036813 0 0.26452617529655981 -0.43273615630968099 0 0.24989084696786101 -0.42678548658759008 0 0.26452617529655981 -0.43273615630968099 0 0.28628078115937422 -0.42958814651571642 0 0.275149596401778 -0.4485991132665238 0 0.27267547654644658 -0.41893632537797332 0 0.26452617529655981 -0.43273615630968099 0 0.28628078115937422 -0.42958814651571642 0 0.27267547654644658 -0.41893632537797332 0 0.26091522747717322 -0.41830298317036813 0 0.26452617529655981 -0.43273615630968099 0 0.28628078115937422 -0.42958814651571642 0 0.28452055823151112 -0.41024075845607882 0 0.30329614980860292 -0.41155657773388821 0 0.31405451954891189 -0.43693821222098289 0 0.28628078115937422 -0.42958814651571642 0 0.30329614980860292 -0.41155657773388821 0 0.31549058186814027 -0.46119525704266512 0 0.31405451954891189 -0.43693821222098289 0 0.29635015937306441 -0.44712110029405111 0 0.31405451954891189 -0.43693821222098289 0 0.28628078115937422 -0.42958814651571642 0 0.29635015937306441 -0.44712110029405111 0 0.31549058186814027 -0.46119525704266512 0 0.29069285659960092 -0.46509391992622101 0 0.29635015937306441 -0.44712110029405111 0 0.31549058186814027 -0.46119525704266512 0 0.29069285659960092 -0.46509391992622101 0 0.29069285659960092 -0.46509391992622101 0 0.29635015937306441 -0.44712110029405111 0 0.275149596401778 -0.4485991132665238 0 0.28628078115937422 -0.42958814651571642 0 0.29635015937306441 -0.44712110029405111 0 0.275149596401778 -0.4485991132665238 0 0.26452617529655981 -0.43273615630968099 0 0.275149596401778 -0.4485991132665238 0 0.2487244885417072 -0.44515622280077161 0 0.275149596401778 -0.4485991132665238 0 0.26589513133106157 -0.46899258280977701 0 0.2487244885417072 -0.44515622280077161 0 0.26589513133106157 -0.46899258280977701 0 0.2487244885417072 -0.44515622280077161 0 0.26589513133106157 -0.46899258280977701 0 0.26267917762634829 -0.46949819044951091 0 0.2487244885417072 -0.44515622280077161 0 0.26267917762634829 -0.46949819044951091 0 0.24448467661682541 -0.46126560583513659 0 0.2487244885417072 -0.44515622280077161 0 0.29069285659960092 -0.46509391992622101 0 0.275149596401778 -0.4485991132665238 0 0.26589513133106157 -0.46899258280977701 0 0.29069285659960092 -0.46509391992622101 0 0.26589513133106157 -0.46899258280977701 0 0.29069285659960092 -0.46509391992622101 0 0.26589513133106157 -0.46899258280977701 0 0.27706330642559551 -0.48449629140489031 0 0.26589513133106157 -0.46899258280977701 0 0.27706330642559551 -0.48449629140489031 0 0.26589513133106157 -0.46899258280977701 0 0.26193558570745012 -0.48063280291756871 0 0.27706330642559551 -0.48449629140489031 0 0.26589513133106157 -0.46899258280977701 0 0.26267917762634829 -0.46949819044951091 0 0.26193558570745012 -0.48063280291756871 0 0.26589513133106157 -0.46899258280977701 0 0.26267917762634829 -0.46949819044951091 0 0.26267917762634829 -0.46949819044951091 0 0.26193558570745012 -0.48063280291756871 0 0.24448467661682541 -0.46126560583513659 0 0.26193558570745012 -0.48063280291756871 0 0.24448467661682541 -0.46126560583513659 0 0.26193558570745012 -0.48063280291756871 0 0.25227544134082031 -0.50000000000000022 0 0.2397654126660492 -0.48419337146826508 0 0.26193558570745012 -0.48063280291756871 0 0.25227544134082031 -0.50000000000000022 0 0.27938649479807492 -0.50000000000000044 0 0.26193558570745012 -0.48063280291756871 0 0.27938649479807492 -0.50000000000000044 0 0.26193558570745012 -0.48063280291756871 0 0.27706330642559551 -0.48449629140489031 0 0.27938649479807492 -0.50000000000000044 0 0.27706330642559551 -0.48449629140489031 0 0.28823148152013078 -0.50000000000000244 0 0.27706330642559551 -0.48449629140489031 0 0.27938649479807492 -0.50000000000000044 0 0.28823148152013078 -0.50000000000000244 0 0.27706330642559551 -0.48449629140489031 0 0.28823148152013078 -0.50000000000000244 0 0.30250096524746012 -0.48147532188351427 0 0.29069285659960092 -0.46509391992622101 0 0.27706330642559551 -0.48449629140489031 0 0.30250096524746012 -0.48147532188351427 0 0.31549058186814027 -0.46119525704266512 0 0.29069285659960092 -0.46509391992622101 0 0.30250096524746012 -0.48147532188351427 0 0.31267918262080668 -0.5 0 0.28823148152013078 -0.50000000000000244 0 0.30250096524746012 -0.48147532188351427 0 0.33491478709878197 -0.29463968994288758 0 0.33849042542331109 -0.28126488927698418 0 0.35235506150376938 -0.28767157648361208 0 0.33491478709878197 -0.29463968994288758 0 0.34224474236913521 -0.30571677079688742 0 0.35235506150376938 -0.28767157648361208 0 0.33491478709878197 -0.29463968994288758 0 0.33849042542331109 -0.28126488927698418 0 0.32751257197611239 -0.28615156335101738 0 0.33491478709878197 -0.29463968994288758 0 0.34224474236913521 -0.30571677079688742 0 0.3280095209441608 -0.30935317458405848 0 0.33491478709878197 -0.29463968994288758 0 0.3280095209441608 -0.30935317458405848 0 0.31986089815396818 -0.29690925529456552 0 0.3280095209441608 -0.30935317458405848 0 0.31558535637781071 -0.30846476466395661 0 0.31986089815396818 -0.29690925529456552 0 0.31558535637781071 -0.30846476466395661 0 0.31986089815396818 -0.29690925529456552 0 0.30729156703991528 -0.29621903393578108 0 0.31986089815396818 -0.29690925529456552 0 0.31552103743671878 -0.28294706181386942 0 0.30729156703991528 -0.29621903393578108 0 0.33491478709878197 -0.29463968994288758 0 0.31986089815396818 -0.29690925529456552 0 0.32751257197611239 -0.28615156335101738 0 0.31986089815396818 -0.29690925529456552 0 0.32751257197611239 -0.28615156335101738 0 0.31552103743671878 -0.28294706181386942 0 0.31552103743671878 -0.28294706181386942 0 0.32782907694059171 -0.27149670904789241 0 0.30899189932738752 -0.27064265230963358 0 0.32782907694059171 -0.27149670904789241 0 0.31853563878910368 -0.25774835206947638 0 0.30899189932738752 -0.27064265230963358 0 0.32751257197611239 -0.28615156335101738 0 0.31552103743671878 -0.28294706181386942 0 0.32782907694059171 -0.27149670904789241 0 0.32782907694059171 -0.27149670904789241 0 0.31853563878910368 -0.25774835206947638 0 0.33735714006296069 -0.25666736057948658 0 0.33042557080642287 -0.24315064574926751 0 0.31853563878910368 -0.25774835206947638 0 0.33735714006296069 -0.25666736057948658 0 0.32782907694059171 -0.27149670904789241 0 0.33735714006296069 -0.25666736057948658 0 0.34667799362569401 -0.26988727328752921 0 0.33849042542331109 -0.28126488927698418 0 0.32782907694059171 -0.27149670904789241 0 0.34667799362569401 -0.26988727328752921 0 0.33849042542331109 -0.28126488927698418 0 0.32751257197611239 -0.28615156335101738 0 0.32782907694059171 -0.27149670904789241 0 0.34667799362569401 -0.26988727328752921 0 0.36311231821512552 -0.27091451935039101 0 0.35235506150376938 -0.28767157648361208 0 0.33849042542331109 -0.28126488927698418 0 0.34667799362569401 -0.26988727328752921 0 0.35235506150376938 -0.28767157648361208 0 0.34336738700494301 -0.24456987520111051 0 0.33735714006296069 -0.25666736057948658 0 0.35559982817700192 -0.25337605543280639 0 0.34667799362569401 -0.26988727328752921 0 0.35559982817700192 -0.25337605543280639 0 0.36311231821512552 -0.27091451935039101 0 0.33735714006296069 -0.25666736057948658 0 0.34667799362569401 -0.26988727328752921 0 0.35559982817700192 -0.25337605543280639 0 0.35559982817700192 -0.25337605543280639 0 0.37370526739500132 -0.25695533472129339 0 0.36311231821512552 -0.27091451935039101 0 0.3679425094737202 -0.24269626993342461 0 0.35559982817700192 -0.25337605543280639 0 0.37370526739500132 -0.25695533472129339 0 0.37956303889575871 -0.27163288434970229 0 0.37370526739500132 -0.25695533472129339 0 0.36311231821512552 -0.27091451935039101 0 0.37956303889575871 -0.27163288434970229 0 0.36311231821512552 -0.27091451935039101 0 0.37187804895054721 -0.28686610270275381 0 0.37187804895054721 -0.28686610270275381 0 0.35235506150376938 -0.28767157648361208 0 0.36004469414580742 -0.30113060455938789 0 0.36311231821512552 -0.27091451935039101 0 0.37187804895054721 -0.28686610270275381 0 0.35235506150376938 -0.28767157648361208 0 0.34224474236913521 -0.30571677079688742 0 0.36004469414580742 -0.30113060455938789 0 0.35288841038462171 -0.31642435493302379 0 0.34224474236913521 -0.30571677079688742 0 0.35235506150376938 -0.28767157648361208 0 0.36004469414580742 -0.30113060455938789 0 0.38052084063157299 -0.30776748558769262 0 0.37187804895054721 -0.28686610270275381 0 0.36004469414580742 -0.30113060455938789 0 0.38052084063157299 -0.30776748558769262 0 0.36004469414580742 -0.30113060455938789 0 0.35288841038462171 -0.31642435493302379 0 0.38052084063157299 -0.30776748558769262 0 0.35288841038462171 -0.31642435493302379 0 0.38052084063157299 -0.30776748558769262 0 0.37012320384522962 -0.33165039796497042 0 0.35288841038462171 -0.31642435493302379 0 0.3820441661052193 -0.34411713656500931 0 0.37012320384522962 -0.33165039796497042 0 0.36928642654333582 -0.35029183160190053 0 0.37012320384522962 -0.33165039796497042 0 0.34727120334050282 -0.33768652794012921 0 0.36928642654333582 -0.35029183160190053 0 0.37012320384522962 -0.33165039796497042 0 0.34727120334050282 -0.33768652794012921 0 0.35288841038462171 -0.31642435493302379 0 0.3773010266139154 -0.37904134570775289 0 0.36928642654333582 -0.35029183160190053 0 0.35643523989685899 -0.36451112525733692 0 0.34727120334050282 -0.33768652794012921 0 0.36928642654333582 -0.35029183160190053 0 0.35643523989685899 -0.36451112525733692 0 0.34727120334050282 -0.33768652794012921 0 0.35643523989685899 -0.36451112525733692 0 0.33543466304582481 -0.36838710280393089 0 0.34727120334050282 -0.33768652794012921 0 0.36928642654333582 -0.35029183160190053 0 0.35467841854771692 -0.38560565421242848 0 0.35643523989685899 -0.36451112525733692 0 0.33543466304582481 -0.36838710280393089 0 0.34727120334050282 -0.33768652794012921 0 0.33543466304582481 -0.36838710280393089 0 0.3161909075439327 -0.35116855139543318 0 0.33543466304582481 -0.36838710280393089 0 0.3161909075439327 -0.35116855139543318 0 0.33543466304582481 -0.36838710280393089 0 0.3161909075439327 -0.35116855139543318 0 0.31688348939894601 -0.37122921338219828 0 0.34727120334050282 -0.33768652794012921 0 0.35288841038462171 -0.31642435493302379 0 0.32525598013767082 -0.32508122427835617 0 0.35288841038462171 -0.31642435493302379 0 0.32525598013767082 -0.32508122427835617 0 0.34224474236913521 -0.30571677079688742 0 0.3280095209441608 -0.30935317458405848 0 0.32525598013767082 -0.32508122427835617 0 0.34224474236913521 -0.30571677079688742 0 0.35288841038462171 -0.31642435493302379 0 0.32525598013767082 -0.32508122427835617 0 0.34727120334050282 -0.33768652794012921 0 0.32525598013767082 -0.32508122427835617 0 0.34727120334050282 -0.33768652794012921 0 0.3161909075439327 -0.35116855139543318 0 0.32525598013767082 -0.32508122427835617 0 0.3161909075439327 -0.35116855139543318 0 0.32525598013767082 -0.32508122427835617 0 0.2969471520420382 -0.33394999998693797 0 0.3280095209441608 -0.30935317458405848 0 0.31749431027863828 -0.32063710828670539 0 0.32525598013767082 -0.32508122427835617 0 0.31749431027863828 -0.32063710828670539 0 0.32525598013767082 -0.32508122427835617 0 0.2969471520420382 -0.33394999998693797 0 0.31749431027863828 -0.32063710828670539 0 0.32525598013767082 -0.32508122427835617 0 0.3280095209441608 -0.30935317458405848 0 0.31558535637781071 -0.30846476466395661 0 0.31749431027863828 -0.32063710828670539 0 0.31558535637781071 -0.30846476466395661 0 0.31749431027863828 -0.32063710828670539 0 0.30621324187867333 -0.31646310974783509 0 0.30621324187867333 -0.31646310974783509 0 0.2904053224311704 -0.32809662955467772 0 0.30621324187867333 -0.31646310974783509 0 0.2969471520420382 -0.33394999998693797 0 0.2904053224311704 -0.32809662955467772 0 0.31749431027863828 -0.32063710828670539 0 0.30621324187867333 -0.31646310974783509 0 0.2969471520420382 -0.33394999998693797 0 0.30621324187867333 -0.31646310974783509 0 0.29281896608550317 -0.31397598710645452 0 0.30386116534365099 -0.30755776810030189 0 0.3161909075439327 -0.35116855139543318 0 0.2969471520420382 -0.33394999998693797 0 0.32525598013767082 -0.32508122427835617 0 0.2969471520420382 -0.33394999998693797 0 0.2969471520420382 -0.33394999998693797 0 0.2904053224311704 -0.32809662955467772 0 0.27170672199909651 -0.34185748778837333 0 0.2969471520420382 -0.33394999998693797 0 0.2904053224311704 -0.32809662955467772 0 0.2969471520420382 -0.33394999998693797 0 0.28936701770794948 -0.35270638412541172 0 0.27170672199909651 -0.34185748778837333 0 0.2969471520420382 -0.33394999998693797 0 0.27170672199909651 -0.34185748778837333 0 0.2904053224311704 -0.32809662955467772 0 0.27397210727274879 -0.31339283849973559 0 0.29281896608550317 -0.31397598710645452 0 0.2904053224311704 -0.32809662955467772 0 0.27397210727274879 -0.31339283849973559 0 0.30621324187867333 -0.31646310974783509 0 0.29281896608550317 -0.31397598710645452 0 0.2904053224311704 -0.32809662955467772 0 0.3161909075439327 -0.35116855139543318 0 0.31688348939894601 -0.37122921338219828 0 0.29885142690896782 -0.36602648731086918 0 0.29134285677724708 -0.38759120903257338 0 0.31688348939894601 -0.37122921338219828 0 0.29885142690896782 -0.36602648731086918 0 0.3161909075439327 -0.35116855139543318 0 0.2969471520420382 -0.33394999998693797 0 0.28936701770794948 -0.35270638412541172 0 0.3161909075439327 -0.35116855139543318 0 0.29885142690896782 -0.36602648731086918 0 0.28936701770794948 -0.35270638412541172 0 0.29885142690896782 -0.36602648731086918 0 0.28936701770794948 -0.35270638412541172 0 0.27966663507896639 -0.36810219924290288 0 0.29134285677724708 -0.38759120903257338 0 0.29885142690896782 -0.36602648731086918 0 0.27966663507896639 -0.36810219924290288 0 0.26585621628047651 -0.38290750340658009 0 0.27966663507896639 -0.36810219924290288 0 0.26498664928760912 -0.36549527316121527 0 0.27966663507896639 -0.36810219924290288 0 0.27277960493193082 -0.35599603471034591 0 0.26498664928760912 -0.36549527316121527 0 0.28936701770794948 -0.35270638412541172 0 0.27966663507896639 -0.36810219924290288 0 0.27277960493193082 -0.35599603471034591 0 0.28936701770794948 -0.35270638412541172 0 0.27277960493193082 -0.35599603471034591 0 0.27170672199909651 -0.34185748778837333 0 0.27277960493193082 -0.35599603471034591 0 0.2581710005860316 -0.3518188292338249 0 0.27170672199909651 -0.34185748778837333 0 0.2601629119886546 -0.34547400845320603 0 0.24047176103938259 -0.3516429816308696 0 0.2601629119886546 -0.34547400845320603 0 0.2581710005860316 -0.3518188292338249 0 0.24047176103938259 -0.3516429816308696 0 0.2601629119886546 -0.34547400845320603 0 0.2581710005860316 -0.3518188292338249 0 0.27170672199909651 -0.34185748778837333 0 0.2581710005860316 -0.3518188292338249 0 0.27170672199909651 -0.34185748778837333 0 0.2601629119886546 -0.34547400845320603 0 0.2581710005860316 -0.3518188292338249 0 0.27277960493193082 -0.35599603471034591 0 0.2581710005860316 -0.3518188292338249 0 0.26498664928760912 -0.36549527316121527 0 0.2581710005860316 -0.3518188292338249 0 0.26498664928760912 -0.36549527316121527 0 0.25190729546770829 -0.37177056320457008 0 0.2581710005860316 -0.3518188292338249 0 0.25190729546770829 -0.37177056320457008 0 0.2581710005860316 -0.3518188292338249 0 0.25190729546770829 -0.37177056320457008 0 0.24146598496200589 -0.36411254889637368 0 0.26585621628047651 -0.38290750340658009 0 0.26498664928760912 -0.36549527316121527 0 0.25190729546770829 -0.37177056320457008 0 0.2904053224311704 -0.32809662955467772 0 0.27397210727274879 -0.31339283849973559 0 0.26512424170232168 -0.32967072130630942 0 0.27397210727274879 -0.31339283849973559 0 0.26512424170232168 -0.32967072130630942 0 0.26094121867519138 -0.31535282269022419 0 0.2904053224311704 -0.32809662955467772 0 0.27170672199909651 -0.34185748778837333 0 0.2601629119886546 -0.34547400845320603 0 0.27170672199909651 -0.34185748778837333 0 0.26512424170232168 -0.32967072130630942 0 0.2904053224311704 -0.32809662955467772 0 0.27170672199909651 -0.34185748778837333 0 0.26512424170232168 -0.32967072130630942 0 0.2601629119886546 -0.34547400845320603 0 0.27170672199909651 -0.34185748778837333 0 0.2601629119886546 -0.34547400845320603 0 0.26512424170232168 -0.32967072130630942 0 0.25483137275842388 -0.33462596871293221 0 0.26512424170232168 -0.32967072130630942 0 0.25483137275842388 -0.33462596871293221 0 0.25359624740287762 -0.32344822482654528 0 0.2601629119886546 -0.34547400845320603 0 0.26512424170232168 -0.32967072130630942 0 0.2601629119886546 -0.34547400845320603 0 0.25483137275842388 -0.33462596871293221 0 0.24778652996150041 -0.34100038757193951 0 0.25483137275842388 -0.33462596871293221 0 0.25359624740287762 -0.32344822482654528 0 0.24463449472280871 -0.33176062141936191 0 0.26512424170232168 -0.32967072130630942 0 0.25359624740287762 -0.32344822482654528 0 0.26094121867519138 -0.31535282269022419 0 0.25359624740287762 -0.32344822482654528 0 0.26094121867519138 -0.31535282269022419 0 0.25146536696828148 -0.311382618461781 0 0.26094121867519138 -0.31535282269022419 0 0.25146536696828148 -0.311382618461781 0 0.25753889211432701 -0.29868904744479402 0 0.27397210727274879 -0.31339283849973559 0 0.26094121867519138 -0.31535282269022419 0 0.25753889211432701 -0.29868904744479402 0 0.25146536696828148 -0.311382618461781 0 0.25753889211432701 -0.29868904744479402 0 0.25146536696828148 -0.311382618461781 0 0.25753889211432701 -0.29868904744479402 0 0.2426408128535564 -0.30047328696598619 0 0.25753889211432701 -0.29868904744479402 0 0.25175723827891727 -0.28401037683988128 0 0.26526217823433329 -0.28254750221507069 0 0.25753889211432701 -0.29868904744479402 0 0.26526217823433329 -0.28254750221507069 0 0.25753889211432701 -0.29868904744479402 0 0.26526217823433329 -0.28254750221507069 0 0.27101414994607959 -0.29126827483728879 0 0.25753889211432701 -0.29868904744479402 0 0.27101414994607959 -0.29126827483728879 0 0.27353865935125599 -0.30061780100081142 0 0.27101414994607959 -0.29126827483728879 0 0.2776161308857924 -0.28375544195961921 0 0.26739200667243013 -0.27809619463292162 0 0.26526217823433329 -0.28254750221507069 0 0.27101414994607959 -0.29126827483728879 0 0.26739200667243013 -0.27809619463292162 0 0.27101414994607959 -0.29126827483728879 0 0.27353865935125599 -0.30061780100081142 0 0.28125569093507591 -0.2936128342641332 0 0.27101414994607959 -0.29126827483728879 0 0.2776161308857924 -0.28375544195961921 0 0.28125569093507591 -0.2936128342641332 0 0.27397210727274879 -0.31339283849973559 0 0.25753889211432701 -0.29868904744479402 0 0.27353865935125599 -0.30061780100081142 0 0.27397210727274879 -0.31339283849973559 0 0.25753889211432701 -0.29868904744479402 0 0.27353865935125599 -0.30061780100081142 0 0.28555838963728708 -0.30363819015503041 0 0.28125569093507591 -0.2936128342641332 0 0.27397210727274879 -0.31339283849973559 0 0.27353865935125599 -0.30061780100081142 0 0.28555838963728708 -0.30363819015503041 0 0.29281896608550317 -0.31397598710645452 0 0.27397210727274879 -0.31339283849973559 0 0.28555838963728708 -0.30363819015503041 0 0.29281896608550317 -0.31397598710645452 0 0.28555838963728708 -0.30363819015503041 0 0.29739669533635271 -0.30266594504748218 0 0.28555838963728708 -0.30363819015503041 0 0.29431320744298228 -0.29365136168937123 0 0.29739669533635271 -0.30266594504748218 0 0.28555838963728708 -0.30363819015503041 0 0.28125569093507591 -0.2936128342641332 0 0.29431320744298228 -0.29365136168937123 0 0.28125569093507591 -0.2936128342641332 0 0.28929766439643861 -0.28467289343278662 0 0.29431320744298228 -0.29365136168937123 0 0.2776161308857924 -0.28375544195961921 0 0.28929766439643861 -0.28467289343278662 0 0.28464003869408261 -0.27668085890719069 0 0.2776161308857924 -0.28375544195961921 0 0.28125569093507591 -0.2936128342641332 0 0.28929766439643861 -0.28467289343278662 0 0.28929766439643861 -0.28467289343278662 0 0.29431320744298228 -0.29365136168937123 0 0.30093215520620142 -0.28353296524306992 0 0.29431320744298228 -0.29365136168937123 0 0.30093215520620142 -0.28353296524306992 0 0.30729156703991528 -0.29621903393578108 0 0.31552103743671878 -0.28294706181386942 0 0.30093215520620142 -0.28353296524306992 0 0.30729156703991528 -0.29621903393578108 0 0.31558535637781071 -0.30846476466395661 0 0.30729156703991528 -0.29621903393578108 0 0.30386116534365099 -0.30755776810030189 0 0.31558535637781071 -0.30846476466395661 0 0.30621324187867333 -0.31646310974783509 0 0.30386116534365099 -0.30755776810030189 0 0.29281896608550317 -0.31397598710645452 0 0.30386116534365099 -0.30755776810030189 0 0.29739669533635271 -0.30266594504748218 0 0.29431320744298228 -0.29365136168937123 0 0.30729156703991528 -0.29621903393578108 0 0.29739669533635271 -0.30266594504748218 0 0.30729156703991528 -0.29621903393578108 0 0.30386116534365099 -0.30755776810030189 0 0.29739669533635271 -0.30266594504748218 0 0.31142496719684643 -0.24222813569118609 0 0.2940086542031955 -0.24888242052267159 0 0.30160354126031041 -0.25992615835042049 0 0.31853563878910368 -0.25774835206947638 0 0.30160354126031041 -0.25992615835042049 0 0.30899189932738752 -0.27064265230963358 0 0.31142496719684643 -0.24222813569118609 0 0.31853563878910368 -0.25774835206947638 0 0.30160354126031041 -0.25992615835042049 0 0.31552103743671878 -0.28294706181386942 0 0.30093215520620142 -0.28353296524306992 0 0.30899189932738752 -0.27064265230963358 0 0.30093215520620142 -0.28353296524306992 0 0.30899189932738752 -0.27064265230963358 0 0.29563362564211793 -0.27279555217010232 0 0.30160354126031041 -0.25992615835042049 0 0.30899189932738752 -0.27064265230963358 0 0.29563362564211793 -0.27279555217010232 0 0.30160354126031041 -0.25992615835042049 0 0.29563362564211793 -0.27279555217010232 0 0.28671501702667412 -0.26526734630585552 0 0.28929766439643861 -0.28467289343278662 0 0.29563362564211793 -0.27279555217010232 0 0.28464003869408261 -0.27668085890719069 0 0.28929766439643861 -0.28467289343278662 0 0.30093215520620142 -0.28353296524306992 0 0.29563362564211793 -0.27279555217010232 0 0.28464003869408261 -0.27668085890719069 0 0.28671501702667412 -0.26526734630585552 0 0.27858760133789962 -0.27230185634013993 0 0.29563362564211793 -0.27279555217010232 0 0.28464003869408261 -0.27668085890719069 0 0.28671501702667412 -0.26526734630585552 0 0.2940086542031955 -0.24888242052267159 0 0.30160354126031041 -0.25992615835042049 0 0.28671501702667412 -0.26526734630585552 0 0.2940086542031955 -0.24888242052267159 0 0.28671501702667412 -0.26526734630585552 0 0.27724512123053158 -0.25750334182104839 0 0.26268245050989442 -0.24934744598758921 0 0.27724512123053158 -0.25750334182104839 0 0.26187373521819768 -0.26563934327865302 0 0.28671501702667412 -0.26526734630585552 0 0.27724512123053158 -0.25750334182104839 0 0.27858760133789962 -0.27230185634013993 0 0.27724512123053158 -0.25750334182104839 0 0.26739200667243013 -0.27809619463292162 0 0.26187373521819768 -0.26563934327865302 0 0.27724512123053158 -0.25750334182104839 0 0.26739200667243013 -0.27809619463292162 0 0.27724512123053158 -0.25750334182104839 0 0.27858760133789962 -0.27230185634013993 0 0.26739200667243013 -0.27809619463292162 0 0.2776161308857924 -0.28375544195961921 0 0.27858760133789962 -0.27230185634013993 0 0.26739200667243013 -0.27809619463292162 0 0.2776161308857924 -0.28375544195961921 0 0.28464003869408261 -0.27668085890719069 0 0.27858760133789962 -0.27230185634013993 0 0.26526217823433329 -0.28254750221507069 0 0.26739200667243013 -0.27809619463292162 0 0.26526217823433329 -0.28254750221507069 0 0.25548147986079228 -0.27482558281646041 0 0.24314117507413391 -0.27430172371603162 0 0.26526217823433329 -0.28254750221507069 0 0.24314117507413391 -0.27430172371603162 0 0.25175723827891727 -0.28401037683988128 0 0.26526217823433329 -0.28254750221507069 0 0.24314117507413391 -0.27430172371603162 0 0.26526217823433329 -0.28254750221507069 0 0.26208442204062388 -0.27595363768355441 0 0.25548147986079228 -0.27482558281646041 0 0.26526217823433329 -0.28254750221507069 0 0.26739200667243013 -0.27809619463292162 0 0.26208442204062388 -0.27595363768355441 0 0.26739200667243013 -0.27809619463292162 0 0.26208442204062388 -0.27595363768355441 0 0.26187373521819768 -0.26563934327865302 0 0.26208442204062388 -0.27595363768355441 0 0.26187373521819768 -0.26563934327865302 0 0.25548147986079228 -0.27482558281646041 0 0.26187373521819768 -0.26563934327865302 0 0.25041081755491829 -0.26703854025063328 0 0.25548147986079228 -0.27482558281646041 0 0.26268245050989442 -0.24934744598758921 0 0.26187373521819768 -0.26563934327865302 0 0.25263242868506919 -0.2575241993518359 0 0.26187373521819768 -0.26563934327865302 0 0.25041081755491829 -0.26703854025063328 0 0.25263242868506919 -0.2575241993518359 0 0.25263242868506919 -0.2575241993518359 0 0.24057087964953891 -0.26088709268020033 0 0.2487016031953268 -0.24242778360998679 0 0.24057087964953891 -0.26088709268020033 0 0.22824002358951981 -0.25691824546728609 0 0.2487016031953268 -0.24242778360998679 0 0.25041081755491829 -0.26703854025063328 0 0.25263242868506919 -0.2575241993518359 0 0.24057087964953891 -0.26088709268020033 0 0.24314117507413391 -0.27430172371603162 0 0.22112203515483481 -0.26610468398043619 0 0.23933046363458099 -0.28239686571261502 0 0.24057087964953891 -0.26088709268020033 0 0.24314117507413391 -0.27430172371603162 0 0.22112203515483481 -0.26610468398043619 0 0.25175723827891727 -0.28401037683988128 0 0.24314117507413391 -0.27430172371603162 0 0.23933046363458099 -0.28239686571261502 0 0.25041081755491829 -0.26703854025063328 0 0.24057087964953891 -0.26088709268020033 0 0.24314117507413391 -0.27430172371603162 0 0.25041081755491829 -0.26703854025063328 0 0.25548147986079228 -0.27482558281646041 0 0.24314117507413391 -0.27430172371603162 0 0.22112203515483481 -0.26610468398043619 0 0.22251182704624031 -0.28200197536713978 0 0.23933046363458099 -0.28239686571261502 0 0.22112203515483481 -0.26610468398043619 0 0.23933046363458099 -0.28239686571261502 0 0.24314117507413391 -0.27430172371603162 0 0.22112203515483481 -0.26610468398043619 0 0.24057087964953891 -0.26088709268020033 0 0.22112203515483481 -0.26610468398043619 0 0.22824002358951981 -0.25691824546728609 0 0.22112203515483481 -0.26610468398043619 0 0.22824002358951981 -0.25691824546728609 0 0.21687744589983871 -0.25222819469780228 0 0.22824002358951981 -0.25691824546728609 0 0.21687744589983871 -0.25222819469780228 0 0.2222449605538882 -0.24652785509083011 0 0.22112203515483481 -0.26610468398043619 0 0.21687744589983871 -0.25222819469780228 0 0.20273920809173551 -0.24965645729264649 0 0.22112203515483481 -0.26610468398043619 0 0.20538005720077651 -0.26024443606525099 0 0.20273920809173551 -0.24965645729264649 0 0.22112203515483481 -0.26610468398043619 0 0.20273920809173551 -0.24965645729264649 0 0.22112203515483481 -0.26610468398043619 0 0.20538005720077651 -0.26024443606525099 0 0.22112203515483481 -0.26610468398043619 0 0.20724853317873229 -0.27595835706624611 0 0.22251182704624031 -0.28200197536713978 0 0.22112203515483481 -0.26610468398043619 0 0.20538005720077651 -0.26024443606525099 0 0.20724853317873229 -0.27595835706624611 0 0.20724853317873229 -0.27595835706624611 0 0.18938478975216491 -0.26959117801576182 0 0.1960201820069159 -0.28327650833581769 0 0.20724853317873229 -0.27595835706624611 0 0.18938478975216491 -0.26959117801576182 0 0.18963807924671869 -0.25438418815006431 0 0.20538005720077651 -0.26024443606525099 0 0.20724853317873229 -0.27595835706624611 0 0.18963807924671869 -0.25438418815006431 0 0.20538005720077651 -0.26024443606525099 0 0.18963807924671869 -0.25438418815006431 0 0.20538005720077651 -0.26024443606525099 0 0.18963807924671869 -0.25438418815006431 0 0.20273920809173551 -0.24965645729264649 0 0.20724853317873229 -0.27595835706624611 0 0.18963807924671869 -0.25438418815006431 0 0.1996419219496402 -0.30032416250819399 0 0.19575483119092241 -0.31477202809319288 0 0.18392485775987391 -0.30478761472482713 0 0.1996419219496402 -0.30032416250819399 0 0.207496847066823 -0.31197484668785258 0 0.19575483119092241 -0.31477202809319288 0 0.19575483119092241 -0.31477202809319288 0 0.18496657547759079 -0.31425121246610221 0 0.18392485775987391 -0.30478761472482713 0 0.1996419219496402 -0.30032416250819399 0 0.17559499016115329 -0.2896017615384186 0 0.1996419219496402 -0.30032416250819399 0 0.1960201820069159 -0.28327650833581769 0 0.18465163540903709 -0.2844690950240496 0 0.20724853317873229 -0.27595835706624611 0 0.22485898711074559 -0.29753252598242819 0 0.22251182704624031 -0.28200197536713978 0 0.20724853317873229 -0.27595835706624611 0 0.22485898711074559 -0.29753252598242819 0 0.20724853317873229 -0.27595835706624611 0 0.1960201820069159 -0.28327650833581769 0 0.21786439549878331 -0.2968698988880818 0 0.1996419219496402 -0.30032416250819399 0 0.1960201820069159 -0.28327650833581769 0 0.21786439549878331 -0.2968698988880818 0 0.20724853317873229 -0.27595835706624611 0 0.21786439549878331 -0.2968698988880818 0 0.22485898711074559 -0.29753252598242819 0 0.1960201820069159 -0.28327650833581769 0 0.21786439549878331 -0.2968698988880818 0 0.1996419219496402 -0.30032416250819399 0 0.207496847066823 -0.31197484668785258 0 0.22368885373812711 -0.31104656347796961 0 0.1996419219496402 -0.30032416250819399 0 0.22368885373812711 -0.31104656347796961 0 0.2199754930695276 -0.30269234390691607 0 0.1996419219496402 -0.30032416250819399 0 0.21786439549878331 -0.2968698988880818 0 0.2199754930695276 -0.30269234390691607 0 0.1996419219496402 -0.30032416250819399 0 0.22368885373812711 -0.31104656347796961 0 0.22368885373812711 -0.31104656347796961 0 0.2199754930695276 -0.30269234390691607 0 0.2323356113358164 -0.30510972431349292 0 0.2199754930695276 -0.30269234390691607 0 0.22485898711074559 -0.29753252598242819 0 0.2323356113358164 -0.30510972431349292 0 0.21786439549878331 -0.2968698988880818 0 0.2199754930695276 -0.30269234390691607 0 0.22485898711074559 -0.29753252598242819 0 0.22485898711074559 -0.29753252598242819 0 0.2323356113358164 -0.30510972431349292 0 0.2333678816841176 -0.29540242923671622 0 0.22368885373812711 -0.31104656347796961 0 0.2323356113358164 -0.30510972431349292 0 0.23808957306242701 -0.31806920935398159 0 0.22251182704624031 -0.28200197536713978 0 0.22885084763584471 -0.2890205155665363 0 0.23933046363458099 -0.28239686571261502 0 0.22485898711074559 -0.29753252598242819 0 0.22251182704624031 -0.28200197536713978 0 0.22885084763584471 -0.2890205155665363 0 0.22485898711074559 -0.29753252598242819 0 0.2333678816841176 -0.29540242923671622 0 0.22885084763584471 -0.2890205155665363 0 0.2333678816841176 -0.29540242923671622 0 0.22885084763584471 -0.2890205155665363 0 0.23933046363458099 -0.28239686571261502 0 0.25753889211432701 -0.29868904744479402 0 0.23933046363458099 -0.28239686571261502 0 0.2426408128535564 -0.30047328696598619 0 0.25753889211432701 -0.29868904744479402 0 0.23933046363458099 -0.28239686571261502 0 0.25753889211432701 -0.29868904744479402 0 0.25175723827891727 -0.28401037683988128 0 0.23933046363458099 -0.28239686571261502 0 0.2333678816841176 -0.29540242923671622 0 0.23933046363458099 -0.28239686571261502 0 0.2426408128535564 -0.30047328696598619 0 0.2323356113358164 -0.30510972431349292 0 0.24113284105502031 -0.30875870977381042 0 0.23808957306242701 -0.31806920935398159 0 0.2323356113358164 -0.30510972431349292 0 0.24113284105502031 -0.30875870977381042 0 0.2426408128535564 -0.30047328696598619 0 0.2323356113358164 -0.30510972431349292 0 0.2333678816841176 -0.29540242923671622 0 0.2426408128535564 -0.30047328696598619 0 0.25146536696828148 -0.311382618461781 0 0.24113284105502031 -0.30875870977381042 0 0.2426408128535564 -0.30047328696598619 0 0.25359624740287762 -0.32344822482654528 0 0.25146536696828148 -0.311382618461781 0 0.23808957306242701 -0.31806920935398159 0 0.25146536696828148 -0.311382618461781 0 0.24113284105502031 -0.30875870977381042 0 0.23808957306242701 -0.31806920935398159 0 0.23808957306242701 -0.31806920935398159 0 0.24463449472280871 -0.33176062141936191 0 0.23406103644257631 -0.32880946810439882 0 0.25359624740287762 -0.32344822482654528 0 0.23808957306242701 -0.31806920935398159 0 0.24463449472280871 -0.33176062141936191 0 0.25483137275842388 -0.33462596871293221 0 0.24463449472280871 -0.33176062141936191 0 0.24778652996150041 -0.34100038757193951 0 0.24463449472280871 -0.33176062141936191 0 0.24778652996150041 -0.34100038757193951 0 0.23713801195345449 -0.34012384461201728 0 0.24463449472280871 -0.33176062141936191 0 0.23713801195345449 -0.34012384461201728 0 0.23406103644257631 -0.32880946810439882 0 0.23713801195345449 -0.34012384461201728 0 0.23406103644257631 -0.32880946810439882 0 0.2233009606400938 -0.33291347610124261 0 0.2233009606400938 -0.33291347610124261 0 0.2263824340864336 -0.34630989490781328 0 0.20789080604716029 -0.34843247942462802 0 0.23713801195345449 -0.34012384461201728 0 0.2233009606400938 -0.33291347610124261 0 0.2263824340864336 -0.34630989490781328 0 0.2233009606400938 -0.33291347610124261 0 0.22633235556286019 -0.32213653254006103 0 0.2109017813886023 -0.32175663267205379 0 0.22368885373812711 -0.31104656347796961 0 0.22633235556286019 -0.32213653254006103 0 0.2109017813886023 -0.32175663267205379 0 0.22368885373812711 -0.31104656347796961 0 0.23808957306242701 -0.31806920935398159 0 0.22633235556286019 -0.32213653254006103 0 0.23406103644257631 -0.32880946810439882 0 0.2233009606400938 -0.33291347610124261 0 0.22633235556286019 -0.32213653254006103 0 0.23808957306242701 -0.31806920935398159 0 0.23406103644257631 -0.32880946810439882 0 0.22633235556286019 -0.32213653254006103 0 0.24146598496200589 -0.36411254889637368 0 0.23912447091982281 -0.37871657610652432 0 0.22476096933797921 -0.37640626855892112 0 0.25190729546770829 -0.37177056320457008 0 0.24146598496200589 -0.36411254889637368 0 0.23912447091982281 -0.37871657610652432 0 0.2581710005860316 -0.3518188292338249 0 0.24146598496200589 -0.36411254889637368 0 0.24047176103938259 -0.3516429816308696 0 0.2601629119886546 -0.34547400845320603 0 0.24778652996150041 -0.34100038757193951 0 0.24047176103938259 -0.3516429816308696 0 0.2581710005860316 -0.3518188292338249 0 0.24146598496200589 -0.36411254889637368 0 0.24146598496200589 -0.36411254889637368 0 0.24047176103938259 -0.3516429816308696 0 0.2249418751801508 -0.35915563034921227 0 0.24778652996150041 -0.34100038757193951 0 0.23713801195345449 -0.34012384461201728 0 0.24047176103938259 -0.3516429816308696 0 0.23713801195345449 -0.34012384461201728 0 0.24047176103938259 -0.3516429816308696 0 0.2263824340864336 -0.34630989490781328 0 0.2263824340864336 -0.34630989490781328 0 0.2249418751801508 -0.35915563034921227 0 0.20789080604716029 -0.34843247942462802 0 0.24047176103938259 -0.3516429816308696 0 0.2263824340864336 -0.34630989490781328 0 0.2249418751801508 -0.35915563034921227 0 0.24146598496200589 -0.36411254889637368 0 0.2249418751801508 -0.35915563034921227 0 0.22476096933797921 -0.37640626855892112 0 0.24146598496200589 -0.36411254889637368 0 0.22476096933797921 -0.37640626855892112 0 0.2249418751801508 -0.35915563034921227 0 0.21120728553081389 -0.36737319844216287 0 0.22476096933797921 -0.37640626855892112 0 0.21120728553081389 -0.36737319844216287 0 0.20789080604716029 -0.34843247942462802 0 0.19038682337482821 -0.36417162565658379 0 0.21120728553081389 -0.36737319844216287 0 0.19038682337482821 -0.36417162565658379 0 0.20805595371395241 -0.38869998822146862 0 0.2249418751801508 -0.35915563034921227 0 0.21120728553081389 -0.36737319844216287 0 0.20789080604716029 -0.34843247942462802 0 0.20789080604716029 -0.34843247942462802 0 0.19038682337482821 -0.36417162565658379 0 0.20789080604716029 -0.34843247942462802 0 0.19038682337482821 -0.36417162565658379 0 0.17901347699933939 -0.34838309740874729 0 0.207496847066823 -0.31197484668785258 0 0.22368885373812711 -0.31104656347796961 0 0.2109017813886023 -0.32175663267205379 0 0.207496847066823 -0.31197484668785258 0 0.2109017813886023 -0.32175663267205379 0 0.19575483119092241 -0.31477202809319288 0 0.2233009606400938 -0.33291347610124261 0 0.20789080604716029 -0.34843247942462802 0 0.2109017813886023 -0.32175663267205379 0 0.20789080604716029 -0.34843247942462802 0 0.2109017813886023 -0.32175663267205379 0 0.19248017579521731 -0.3321635174076184 0 0.20789080604716029 -0.34843247942462802 0 0.19248017579521731 -0.3321635174076184 0 0.17901347699933939 -0.34838309740874729 0 0.2109017813886023 -0.32175663267205379 0 0.19248017579521731 -0.3321635174076184 0 0.19575483119092241 -0.31477202809319288 0 0.19248017579521731 -0.3321635174076184 0 0.19575483119092241 -0.31477202809319288 0 0.1816974809073858 -0.32368329862704909 0 0.19575483119092241 -0.31477202809319288 0 0.1816974809073858 -0.32368329862704909 0 0.19575483119092241 -0.31477202809319288 0 0.18496657547759079 -0.31425121246610221 0 0.1816974809073858 -0.32368329862704909 0 0.18496657547759079 -0.31425121246610221 0 0.1816974809073858 -0.32368329862704909 0 0.17144694916196479 -0.31981184956978148 0 0.18496657547759079 -0.31425121246610221 0 0.17144694916196479 -0.31981184956978148 0 0.17389593342071849 -0.30918044489691487 0 0.1816974809073858 -0.32368329862704909 0 0.16764013062385219 -0.3325945691609099 0 0.17144694916196479 -0.31981184956978148 0 0.19248017579521731 -0.3321635174076184 0 0.1816974809073858 -0.32368329862704909 0 0.17983592089225031 -0.33531674330423827 0 0.17983592089225031 -0.33531674330423827 0 0.16764013062385219 -0.3325945691609099 0 0.17901347699933939 -0.34838309740874729 0 0.16764013062385219 -0.3325945691609099 0 0.17901347699933939 -0.34838309740874729 0 0.19248017579521731 -0.3321635174076184 0 0.17983592089225031 -0.33531674330423827 0 0.17901347699933939 -0.34838309740874729 0 0.1816974809073858 -0.32368329862704909 0 0.16764013062385219 -0.3325945691609099 0 0.1816974809073858 -0.32368329862704909 0 0.17983592089225031 -0.33531674330423827 0 0.16764013062385219 -0.3325945691609099 0 0.16764013062385219 -0.3325945691609099 0 0.15464732660253941 -0.32680785299590009 0 0.14694060468228551 -0.33416367566000887 0 0.16764013062385219 -0.3325945691609099 0 0.16282049263822251 -0.32590392702549931 0 0.16764013062385219 -0.3325945691609099 0 0.16282049263822251 -0.32590392702549931 0 0.15464732660253941 -0.32680785299590009 0 0.16282049263822251 -0.32590392702549931 0 0.15534564103898191 -0.31753715555771972 0 0.15464732660253941 -0.32680785299590009 0 0.16282049263822251 -0.32590392702549931 0 0.1635419837454842 -0.31876575550157282 0 0.15534564103898191 -0.31753715555771972 0 0.1635419837454842 -0.31876575550157282 0 0.15534564103898191 -0.31753715555771972 0 0.1645548521427678 -0.31181008985329062 0 0.17144694916196479 -0.31981184956978148 0 0.17389593342071849 -0.30918044489691487 0 0.1645548521427678 -0.31181008985329062 0 0.1635419837454842 -0.31876575550157282 0 0.17144694916196479 -0.31981184956978148 0 0.1645548521427678 -0.31181008985329062 0 0.16282049263822251 -0.32590392702549931 0 0.1635419837454842 -0.31876575550157282 0 0.17144694916196479 -0.31981184956978148 0 0.16764013062385219 -0.3325945691609099 0 0.16282049263822251 -0.32590392702549931 0 0.17144694916196479 -0.31981184956978148 0 0.19038682337482821 -0.36417162565658379 0 0.1728128378695751 -0.36416853085440481 0 0.16978454160986309 -0.3826966854376338 0 0.19038682337482821 -0.36417162565658379 0 0.16978454160986309 -0.3826966854376338 0 0.19038682337482821 -0.36417162565658379 0 0.1728128378695751 -0.36416853085440481 0 0.17901347699933939 -0.34838309740874729 0 0.19038682337482821 -0.36417162565658379 0 0.17901347699933939 -0.34838309740874729 0 0.1728128378695751 -0.36416853085440481 0 0.17901347699933939 -0.34838309740874729 0 0.164917938703248 -0.35381332168036128 0 0.16764013062385219 -0.3325945691609099 0 0.17901347699933939 -0.34838309740874729 0 0.164917938703248 -0.35381332168036128 0 0.16764013062385219 -0.3325945691609099 0 0.164917938703248 -0.35381332168036128 0 0.14280157288908751 -0.34834028959760122 0 0.1728128378695751 -0.36416853085440481 0 0.164917938703248 -0.35381332168036128 0 0.15996140866059799 -0.37177792408869681 0 0.1728128378695751 -0.36416853085440481 0 0.15996140866059799 -0.37177792408869681 0 0.16978454160986309 -0.3826966854376338 0 0.15996140866059799 -0.37177792408869681 0 0.14027506293359071 -0.36547259065621862 0 0.13749590410147369 -0.3795107903002583 0 0.15996140866059799 -0.37177792408869681 0 0.14280157288908751 -0.34834028959760122 0 0.14027506293359071 -0.36547259065621862 0 0.15996140866059799 -0.37177792408869681 0 0.14280157288908751 -0.34834028959760122 0 0.164917938703248 -0.35381332168036128 0 0.15996140866059799 -0.37177792408869681 0 0.14280157288908751 -0.34834028959760122 0 0.14280157288908751 -0.34834028959760122 0 0.1208413660832037 -0.36226135863831821 0 0.11699351622576951 -0.34403361455389231 0 0.14280157288908751 -0.34834028959760122 0 0.1208413660832037 -0.36226135863831821 0 0.14280157288908751 -0.34834028959760122 0 0.14027506293359071 -0.36547259065621862 0 0.1208413660832037 -0.36226135863831821 0 0.14027506293359071 -0.36547259065621862 0 0.13749590410147369 -0.3795107903002583 0 0.1208413660832037 -0.36226135863831821 0 0.14457120243219601 -0.32286816238034938 0 0.14633917791433981 -0.31350769914162452 0 0.13592818618865821 -0.31132803863965253 0 0.14457120243219601 -0.32286816238034938 0 0.14633917791433981 -0.31350769914162452 0 0.15534564103898191 -0.31753715555771972 0 0.14633917791433981 -0.31350769914162452 0 0.15534564103898191 -0.31753715555771972 0 0.15127704398359129 -0.30842607005049238 0 0.14457120243219601 -0.32286816238034938 0 0.15534564103898191 -0.31753715555771972 0 0.15464732660253941 -0.32680785299590009 0 0.14457120243219601 -0.32286816238034938 0 0.15464732660253941 -0.32680785299590009 0 0.14694060468228551 -0.33416367566000887 0 0.16764013062385219 -0.3325945691609099 0 0.14280157288908751 -0.34834028959760122 0 0.16764013062385219 -0.3325945691609099 0 0.14280157288908751 -0.34834028959760122 0 0.14694060468228551 -0.33416367566000887 0 0.14457120243219601 -0.32286816238034938 0 0.14694060468228551 -0.33416367566000887 0 0.12961892576368231 -0.33033486873784551 0 0.14280157288908751 -0.34834028959760122 0 0.12961892576368231 -0.33033486873784551 0 0.11699351622576951 -0.34403361455389231 0 0.14280157288908751 -0.34834028959760122 0 0.14694060468228551 -0.33416367566000887 0 0.12961892576368231 -0.33033486873784551 0 0.14280157288908751 -0.34834028959760122 0 0.12961892576368231 -0.33033486873784551 0 0.14457120243219601 -0.32286816238034938 0 0.12961892576368231 -0.33033486873784551 0 0.13592818618865821 -0.31132803863965253 0 0.12961892576368231 -0.33033486873784551 0 0.13592818618865821 -0.31132803863965253 0 0.1164362786382771 -0.31232944787808981 0 0.13592818618865821 -0.31132803863965253 0 0.14370588941086221 -0.30451327395604311 0 0.1343008787529249 -0.29565270669279531 0 0.13592818618865821 -0.31132803863965253 0 0.1343008787529249 -0.29565270669279531 0 0.1197459798455955 -0.29742202926321543 0 0.14633917791433981 -0.31350769914162452 0 0.14370588941086221 -0.30451327395604311 0 0.15127704398359129 -0.30842607005049238 0 0.14633917791433981 -0.31350769914162452 0 0.13592818618865821 -0.31132803863965253 0 0.14370588941086221 -0.30451327395604311 0 0.14370588941086221 -0.30451327395604311 0 0.15223134537103261 -0.30034908205245142 0 0.14521319615885611 -0.29622272259402788 0 0.14370588941086221 -0.30451327395604311 0 0.14521319615885611 -0.29622272259402788 0 0.1343008787529249 -0.29565270669279531 0 0.14370588941086221 -0.30451327395604311 0 0.15223134537103261 -0.30034908205245142 0 0.15127704398359129 -0.30842607005049238 0 0.15223134537103261 -0.30034908205245142 0 0.15060623729783179 -0.29341210048605082 0 0.1591301185639856 -0.2973448818877506 0 0.15534564103898191 -0.31753715555771972 0 0.15127704398359129 -0.30842607005049238 0 0.1590279289931758 -0.30546643724168537 0 0.15223134537103261 -0.30034908205245142 0 0.15127704398359129 -0.30842607005049238 0 0.1590279289931758 -0.30546643724168537 0 0.15168119798134461 -0.28523010386903269 0 0.15060623729783179 -0.29341210048605082 0 0.1591301185639856 -0.2973448818877506 0 0.15168119798134461 -0.28523010386903269 0 0.15060623729783179 -0.29341210048605082 0 0.1440943488882146 -0.28957153907736771 0 0.15223134537103261 -0.30034908205245142 0 0.15060623729783179 -0.29341210048605082 0 0.14521319615885611 -0.29622272259402788 0 0.14521319615885611 -0.29622272259402788 0 0.1440943488882146 -0.28957153907736771 0 0.1343008787529249 -0.29565270669279531 0 0.15060623729783179 -0.29341210048605082 0 0.14521319615885611 -0.29622272259402788 0 0.1440943488882146 -0.28957153907736771 0 0.15168119798134461 -0.28523010386903269 0 0.1440943488882146 -0.28957153907736771 0 0.13809932188555391 -0.283757338703231 0 0.13809932188555391 -0.283757338703231 0 0.1343008787529249 -0.29565270669279531 0 0.1282379217895048 -0.2860663123777078 0 0.1440943488882146 -0.28957153907736771 0 0.13809932188555391 -0.283757338703231 0 0.1343008787529249 -0.29565270669279531 0 0.1343008787529249 -0.29565270669279531 0 0.1282379217895048 -0.2860663123777078 0 0.1197459798455955 -0.29742202926321543 0 0.13809932188555391 -0.283757338703231 0 0.1282379217895048 -0.2860663123777078 0 0.13161107513800779 -0.27089164914675262 0 0.1282379217895048 -0.2860663123777078 0 0.13161107513800779 -0.27089164914675262 0 0.1174323533254415 -0.28260783808254508 0 0.15168119798134461 -0.28523010386903269 0 0.13809932188555391 -0.283757338703231 0 0.13161107513800779 -0.27089164914675262 0 0.13161107513800779 -0.27089164914675262 0 0.14352025240818661 -0.26105083466349449 0 0.13161107513800779 -0.27089164914675262 0 0.14352025240818661 -0.26105083466349449 0 0.1443779236123795 -0.27237156528195461 0 0.13161107513800779 -0.27089164914675262 0 0.13030530462117779 -0.25171385039249911 0 0.14352025240818661 -0.26105083466349449 0 0.13030530462117779 -0.25171385039249911 0 0.1422398969336455 -0.25095148979243781 0 0.14352025240818661 -0.26105083466349449 0 0.1422398969336455 -0.25095148979243781 0 0.14352025240818661 -0.26105083466349449 0 0.15542942967836421 -0.25121002018023469 0 0.14352025240818661 -0.26105083466349449 0 0.14950499553281019 -0.26284815503313552 0 0.14827094721741929 -0.26710049982690792 0 0.14352025240818661 -0.26105083466349449 0 0.14950499553281019 -0.26284815503313552 0 0.15233175502318111 -0.25608972723128942 0 0.14950499553281019 -0.26284815503313552 0 0.15233175502318111 -0.25608972723128942 0 0.15526452299042029 -0.26698029863988082 0 0.14352025240818661 -0.26105083466349449 0 0.15542942967836421 -0.25121002018023469 0 0.14352025240818661 -0.26105083466349449 0 0.15542942967836421 -0.25121002018023469 0 0.15233175502318111 -0.25608972723128942 0 0.15168119798134461 -0.28523010386903269 0 0.13161107513800779 -0.27089164914675262 0 0.1443779236123795 -0.27237156528195461 0 0.15168119798134461 -0.28523010386903269 0 0.13161107513800779 -0.27089164914675262 0 0.14352025240818661 -0.26105083466349449 0 0.1443779236123795 -0.27237156528195461 0 0.14827094721741929 -0.26710049982690792 0 0.1443779236123795 -0.27237156528195461 0 0.14827094721741929 -0.26710049982690792 0 0.15142203255923239 -0.27190912597413452 0 0.14827094721741929 -0.26710049982690792 0 0.15142203255923239 -0.27190912597413452 0 0.15526452299042029 -0.26698029863988082 0 0.14950499553281019 -0.26284815503313552 0 0.14827094721741929 -0.26710049982690792 0 0.15526452299042029 -0.26698029863988082 0 0.15142203255923239 -0.27190912597413452 0 0.15526452299042029 -0.26698029863988082 0 0.15901620611124281 -0.27404264578231641 0 0.15142203255923239 -0.27190912597413452 0 0.15154805837266619 -0.27887936056864299 0 0.15901620611124281 -0.27404264578231641 0 0.15168119798134461 -0.28523010386903269 0 0.1443779236123795 -0.27237156528195461 0 0.15154805837266619 -0.27887936056864299 0 0.1443779236123795 -0.27237156528195461 0 0.15142203255923239 -0.27190912597413452 0 0.15154805837266619 -0.27887936056864299 0 0.15526452299042029 -0.26698029863988082 0 0.15901620611124281 -0.27404264578231641 0 0.1741759685150486 -0.26968311778355358 0 0.15154805837266619 -0.27887936056864299 0 0.15901620611124281 -0.27404264578231641 0 0.1671240885617766 -0.27836416949673731 0 0.15901620611124281 -0.27404264578231641 0 0.1671240885617766 -0.27836416949673731 0 0.1741759685150486 -0.26968311778355358 0 0.15542942967836421 -0.25121002018023469 0 0.1741759685150486 -0.26968311778355358 0 0.1655278077511898 -0.24540868528259829 0 0.15233175502318111 -0.25608972723128942 0 0.1741759685150486 -0.26968311778355358 0 0.15542942967836421 -0.25121002018023469 0 0.15233175502318111 -0.25608972723128942 0 0.1741759685150486 -0.26968311778355358 0 0.15233175502318111 -0.25608972723128942 0 0.15526452299042029 -0.26698029863988082 0 0.1741759685150486 -0.26968311778355358 0 0.18963807924671869 -0.25438418815006431 0 0.1741759685150486 -0.26968311778355358 0 0.1655278077511898 -0.24540868528259829 0 0.18938478975216491 -0.26959117801576182 0 0.18963807924671869 -0.25438418815006431 0 0.1741759685150486 -0.26968311778355358 0 0.1960201820069159 -0.28327650833581769 0 0.1741759685150486 -0.26968311778355358 0 0.18465163540903709 -0.2844690950240496 0 0.18938478975216491 -0.26959117801576182 0 0.1960201820069159 -0.28327650833581769 0 0.1741759685150486 -0.26968311778355358 0 0.1960201820069159 -0.28327650833581769 0 0.1741759685150486 -0.26968311778355358 0 0.17544618644263529 -0.28023896133809562 0 0.1741759685150486 -0.26968311778355358 0 0.18465163540903709 -0.2844690950240496 0 0.1671240885617766 -0.27836416949673731 0 0.17544618644263529 -0.28023896133809562 0 0.1741759685150486 -0.26968311778355358 0 0.1996419219496402 -0.30032416250819399 0 0.18465163540903709 -0.2844690950240496 0 0.17559499016115329 -0.2896017615384186 0 0.1671240885617766 -0.27836416949673731 0 0.17544618644263529 -0.28023896133809562 0 0.17559499016115329 -0.2896017615384186 0 0.17544618644263529 -0.28023896133809562 0 0.18465163540903709 -0.2844690950240496 0 0.17559499016115329 -0.2896017615384186 0 0.1996419219496402 -0.30032416250819399 0 0.17559499016115329 -0.2896017615384186 0 0.18392485775987391 -0.30478761472482713 0 0.18496657547759079 -0.31425121246610221 0 0.18392485775987391 -0.30478761472482713 0 0.17389593342071849 -0.30918044489691487 0 0.17559499016115329 -0.2896017615384186 0 0.18392485775987391 -0.30478761472482713 0 0.171751320824681 -0.29956855859131332 0 0.18392485775987391 -0.30478761472482713 0 0.17389593342071849 -0.30918044489691487 0 0.171751320824681 -0.29956855859131332 0 0.171751320824681 -0.29956855859131332 0 0.16567203078906581 -0.30467408249419092 0 0.1591301185639856 -0.2973448818877506 0 0.17389593342071849 -0.30918044489691487 0 0.171751320824681 -0.29956855859131332 0 0.16567203078906581 -0.30467408249419092 0 0.17389593342071849 -0.30918044489691487 0 0.16567203078906581 -0.30467408249419092 0 0.1645548521427678 -0.31181008985329062 0 0.15534564103898191 -0.31753715555771972 0 0.1645548521427678 -0.31181008985329062 0 0.1590279289931758 -0.30546643724168537 0 0.16567203078906581 -0.30467408249419092 0 0.1645548521427678 -0.31181008985329062 0 0.1590279289931758 -0.30546643724168537 0 0.15223134537103261 -0.30034908205245142 0 0.1590279289931758 -0.30546643724168537 0 0.1591301185639856 -0.2973448818877506 0 0.16567203078906581 -0.30467408249419092 0 0.1590279289931758 -0.30546643724168537 0 0.1591301185639856 -0.2973448818877506 0 0.15154805837266619 -0.27887936056864299 0 0.1671240885617766 -0.27836416949673731 0 0.17559499016115329 -0.2896017615384186 0 0.15168119798134461 -0.28523010386903269 0 0.15154805837266619 -0.27887936056864299 0 0.17559499016115329 -0.2896017615384186 0 0.15168119798134461 -0.28523010386903269 0 0.171751320824681 -0.29956855859131332 0 0.1591301185639856 -0.2973448818877506 0 0.15154805837266619 -0.27887936056864299 0 0.17559499016115329 -0.2896017615384186 0 0.15168119798134461 -0.28523010386903269 0 0.171751320824681 -0.29956855859131332 0 0.15168119798134461 -0.28523010386903269 0 0.17559499016115329 -0.2896017615384186 0 0.171751320824681 -0.29956855859131332 0 0.1932613357559653 -0.5 0 0.20092204416280729 -0.477951249296721 0 0.18480929435454699 -0.48307757861281109 0 0.20092204416280729 -0.477951249296721 0 0.19635070587972009 -0.46154050094585369 0 0.18480929435454699 -0.48307757861281109 0 0.20092204416280729 -0.477951249296721 0 0.2118134382512247 -0.46811058602967759 0 0.19635070587972009 -0.46154050094585369 0 0.20092204416280729 -0.477951249296721 0 0.21700193675815169 -0.48301631175723347 0 0.2118134382512247 -0.46811058602967759 0 0.21700193675815169 -0.48301631175723347 0 0.22725538399127829 -0.46838674293652999 0 0.2118134382512247 -0.46811058602967759 0 0.1932613357559653 -0.5 0 0.21700193675815169 -0.48301631175723347 0 0.22276838854839279 -0.5 0 0.1932613357559653 -0.5 0 0.20092204416280729 -0.477951249296721 0 0.21700193675815169 -0.48301631175723347 0 0.21700193675815169 -0.48301631175723347 0 0.22276838854839279 -0.5 0 0.2397654126660492 -0.48419337146826508 0 0.25227544134082031 -0.50000000000000022 0 0.2397654126660492 -0.48419337146826508 0 0.25227544134082031 -0.50000000000000022 0 0.22276838854839279 -0.5 0 0.2397654126660492 -0.48419337146826508 0 0.26193558570745012 -0.48063280291756871 0 0.2397654126660492 -0.48419337146826508 0 0.24448467661682541 -0.46126560583513659 0 0.2397654126660492 -0.48419337146826508 0 0.22725538399127829 -0.46838674293652999 0 0.24448467661682541 -0.46126560583513659 0 0.21700193675815169 -0.48301631175723347 0 0.2397654126660492 -0.48419337146826508 0 0.22725538399127829 -0.46838674293652999 0 0.2397654126660492 -0.48419337146826508 0 0.22725538399127829 -0.46838674293652999 0 0.22837979586270299 -0.45603271798229161 0 0.22725538399127829 -0.46838674293652999 0 0.21474535531650751 -0.4525801144047949 0 0.22837979586270299 -0.45603271798229161 0 0.22725538399127829 -0.46838674293652999 0 0.24448467661682541 -0.46126560583513659 0 0.22725538399127829 -0.46838674293652999 0 0.21474535531650751 -0.4525801144047949 0 0.24448467661682541 -0.46126560583513659 0 0.2270337675262008 -0.44189840875270481 0 0.24448467661682541 -0.46126560583513659 0 0.2487244885417072 -0.44515622280077161 0 0.2270337675262008 -0.44189840875270481 0 0.22837979586270299 -0.45603271798229161 0 0.24448467661682541 -0.46126560583513659 0 0.2270337675262008 -0.44189840875270481 0 0.22837979586270299 -0.45603271798229161 0 0.2270337675262008 -0.44189840875270481 0 0.21474535531650751 -0.4525801144047949 0 0.2270337675262008 -0.44189840875270481 0 0.21503845148411579 -0.44058834755584081 0 0.21474535531650751 -0.4525801144047949 0 0.21474535531650751 -0.4525801144047949 0 0.19635070587972009 -0.46154050094585369 0 0.20173184014505099 -0.43814329044665062 0 0.21503845148411579 -0.44058834755584081 0 0.21474535531650751 -0.4525801144047949 0 0.20173184014505099 -0.43814329044665062 0 0.21474535531650751 -0.4525801144047949 0 0.2118134382512247 -0.46811058602967759 0 0.19635070587972009 -0.46154050094585369 0 0.22725538399127829 -0.46838674293652999 0 0.21474535531650751 -0.4525801144047949 0 0.2118134382512247 -0.46811058602967759 0 0.19635070587972009 -0.46154050094585369 0 0.20173184014505099 -0.43814329044665062 0 0.18489248577170669 -0.44492683264729932 0 0.20173184014505099 -0.43814329044665062 0 0.1875464182685864 -0.42919445327344941 0 0.20295458911210629 -0.41825892930100711 0 0.20173184014505099 -0.43814329044665062 0 0.1875464182685864 -0.42919445327344941 0 0.18489248577170669 -0.44492683264729932 0 0.1875464182685864 -0.42919445327344941 0 0.20295458911210629 -0.41825892930100711 0 0.18753249281942319 -0.40380381574376689 0 0.20295458911210629 -0.41825892930100711 0 0.20458698384465809 -0.40394316469321528 0 0.18753249281942319 -0.40380381574376689 0 0.20295458911210629 -0.41825892930100711 0 0.21664284294870401 -0.4297315766192128 0 0.21980489973315209 -0.40500992550661791 0 0.20295458911210629 -0.41825892930100711 0 0.21980489973315209 -0.40500992550661791 0 0.20458698384465809 -0.40394316469321528 0 0.20173184014505099 -0.43814329044665062 0 0.20295458911210629 -0.41825892930100711 0 0.21664284294870401 -0.4297315766192128 0 0.20173184014505099 -0.43814329044665062 0 0.21664284294870401 -0.4297315766192128 0 0.21503845148411579 -0.44058834755584081 0 0.20173184014505099 -0.43814329044665062 0 0.21664284294870401 -0.4297315766192128 0 0.2270337675262008 -0.44189840875270481 0 0.21503845148411579 -0.44058834755584081 0 0.21664284294870401 -0.4297315766192128 0 0.2270337675262008 -0.44189840875270481 0 0.21664284294870401 -0.4297315766192128 0 0.2315538457523523 -0.4213198627917667 0 0.21664284294870401 -0.4297315766192128 0 0.2315538457523523 -0.4213198627917667 0 0.2487244885417072 -0.44515622280077161 0 0.2315538457523523 -0.4213198627917667 0 0.2487244885417072 -0.44515622280077161 0 0.2270337675262008 -0.44189840875270481 0 0.2315538457523523 -0.4213198627917667 0 0.2487244885417072 -0.44515622280077161 0 0.24989084696786101 -0.42678548658759008 0 0.2315538457523523 -0.4213198627917667 0 0.25148351609398711 -0.41007697820537448 0 0.2315538457523523 -0.4213198627917667 0 0.25148351609398711 -0.41007697820537448 0 0.23937988523106549 -0.41167403114606171 0 0.2315538457523523 -0.4213198627917667 0 0.25148351609398711 -0.41007697820537448 0 0.24989084696786101 -0.42678548658759008 0 0.2315538457523523 -0.4213198627917667 0 0.2315538457523523 -0.4213198627917667 0 0.21980489973315209 -0.40500992550661791 0 0.21664284294870401 -0.4297315766192128 0 0.2315538457523523 -0.4213198627917667 0 0.21980489973315209 -0.40500992550661791 0 0.23937988523106549 -0.41167403114606171 0 0.2315538457523523 -0.4213198627917667 0 0.21980489973315209 -0.40500992550661791 0 0.21980489973315209 -0.40500992550661791 0 0.2294616282142265 -0.39203818111915162 0 0.20805595371395241 -0.38869998822146862 0 0.23937988523106549 -0.41167403114606171 0 0.21980489973315209 -0.40500992550661791 0 0.2294616282142265 -0.39203818111915162 0 0.25148351609398711 -0.41007697820537448 0 0.23937988523106549 -0.41167403114606171 0 0.2456435903493869 -0.39172229717531593 0 0.23937988523106549 -0.41167403114606171 0 0.2456435903493869 -0.39172229717531593 0 0.23937988523106549 -0.41167403114606171 0 0.2294616282142265 -0.39203818111915162 0 0.2456435903493869 -0.39172229717531593 0 0.25190729546770829 -0.37177056320457008 0 0.2456435903493869 -0.39172229717531593 0 0.2294616282142265 -0.39203818111915162 0 0.2456435903493869 -0.39172229717531593 0 0.23912447091982281 -0.37871657610652432 0 0.25190729546770829 -0.37177056320457008 0 0.2456435903493869 -0.39172229717531593 0 0.23912447091982281 -0.37871657610652432 0 0.2294616282142265 -0.39203818111915162 0 0.22476096933797921 -0.37640626855892112 0 0.20805595371395241 -0.38869998822146862 0 0.2294616282142265 -0.39203818111915162 0 0.23912447091982281 -0.37871657610652432 0 0.22476096933797921 -0.37640626855892112 0 0.22476096933797921 -0.37640626855892112 0 0.20805595371395241 -0.38869998822146862 0 0.21120728553081389 -0.36737319844216287 0 0.22476096933797921 -0.37640626855892112 0 0.20805595371395241 -0.38869998822146862 0 0.21980489973315209 -0.40500992550661791 0 0.20805595371395241 -0.38869998822146862 0 0.21980489973315209 -0.40500992550661791 0 0.20805595371395241 -0.38869998822146862 0 0.20458698384465809 -0.40394316469321528 0 0.20805595371395241 -0.38869998822146862 0 0.20458698384465809 -0.40394316469321528 0 0.18753249281942319 -0.40380381574376689 0 0.20805595371395241 -0.38869998822146862 0 0.18753249281942319 -0.40380381574376689 0 0.1880792409587915 -0.38537837461481472 0 0.20805595371395241 -0.38869998822146862 0 0.18753249281942319 -0.40380381574376689 0 0.19038682337482821 -0.36417162565658379 0 0.20805595371395241 -0.38869998822146862 0 0.1880792409587915 -0.38537837461481472 0 0.19038682337482821 -0.36417162565658379 0 0.20805595371395241 -0.38869998822146862 0 0.19038682337482821 -0.36417162565658379 0 0.1880792409587915 -0.38537837461481472 0 0.16978454160986309 -0.3826966854376338 0 0.1880792409587915 -0.38537837461481472 0 0.1708147191515601 -0.40175927590006849 0 0.16978454160986309 -0.3826966854376338 0 0.18753249281942319 -0.40380381574376689 0 0.1880792409587915 -0.38537837461481472 0 0.1708147191515601 -0.40175927590006849 0 0.1708147191515601 -0.40175927590006849 0 0.16978454160986309 -0.3826966854376338 0 0.14918225984488909 -0.40122174521867421 0 0.16978454160986309 -0.3826966854376338 0 0.14918225984488909 -0.40122174521867421 0 0.15996140866059799 -0.37177792408869681 0 0.16978454160986309 -0.3826966854376338 0 0.14918225984488909 -0.40122174521867421 0 0.15996140866059799 -0.37177792408869681 0 0.13749590410147369 -0.3795107903002583 0 0.14918225984488909 -0.40122174521867421 0 0.13749590410147369 -0.3795107903002583 0 0.1184520032127041 -0.38876161973235129 0 0.1208413660832037 -0.36226135863831821 0 0.13749590410147369 -0.3795107903002583 0 0.14918225984488909 -0.40122174521867421 0 0.1184520032127041 -0.38876161973235129 0 0.14918225984488909 -0.40122174521867421 0 0.128579978079915 -0.41974680499971451 0 0.1184520032127041 -0.38876161973235129 0 0.14918225984488909 -0.40122174521867421 0 0.14251355274475361 -0.42230368289490028 0 0.1581210986298944 -0.42220705582360568 0 0.14918225984488909 -0.40122174521867421 0 0.128579978079915 -0.41974680499971451 0 0.14918225984488909 -0.40122174521867421 0 0.128579978079915 -0.41974680499971451 0 0.14251355274475361 -0.42230368289490028 0 0.128579978079915 -0.41974680499971451 0 0.128230662296104 -0.43392855666343189 0 0.14251355274475361 -0.42230368289490028 0 0.128230662296104 -0.43392855666343189 0 0.14218790461648639 -0.43646617140533089 0 0.14251355274475361 -0.42230368289490028 0 0.14218790461648639 -0.43646617140533089 0 0.1581210986298944 -0.42220705582360568 0 0.15845405971352261 -0.44097764749030599 0 0.14218790461648639 -0.43646617140533089 0 0.14251355274475361 -0.42230368289490028 0 0.1581210986298944 -0.42220705582360568 0 0.1581210986298944 -0.42220705582360568 0 0.17178448017686179 -0.4344642975777871 0 0.17432826953300781 -0.41804144753026862 0 0.1581210986298944 -0.42220705582360568 0 0.17178448017686179 -0.4344642975777871 0 0.15845405971352261 -0.44097764749030599 0 0.1708147191515601 -0.40175927590006849 0 0.14918225984488909 -0.40122174521867421 0 0.1581210986298944 -0.42220705582360568 0 0.1708147191515601 -0.40175927590006849 0 0.1581210986298944 -0.42220705582360568 0 0.17432826953300781 -0.41804144753026862 0 0.1875464182685864 -0.42919445327344941 0 0.18753249281942319 -0.40380381574376689 0 0.17432826953300781 -0.41804144753026862 0 0.18753249281942319 -0.40380381574376689 0 0.1708147191515601 -0.40175927590006849 0 0.17432826953300781 -0.41804144753026862 0 0.1875464182685864 -0.42919445327344941 0 0.17178448017686179 -0.4344642975777871 0 0.17432826953300781 -0.41804144753026862 0 0.1875464182685864 -0.42919445327344941 0 0.17178448017686179 -0.4344642975777871 0 0.18489248577170669 -0.44492683264729932 0 0.17178448017686179 -0.4344642975777871 0 0.18489248577170669 -0.44492683264729932 0 0.16887801808421149 -0.44972215507966079 0 0.18489248577170669 -0.44492683264729932 0 0.174144600582367 -0.46745484977939372 0 0.16887801808421149 -0.44972215507966079 0 0.19635070587972009 -0.46154050094585369 0 0.18489248577170669 -0.44492683264729932 0 0.174144600582367 -0.46745484977939372 0 0.174144600582367 -0.46745484977939372 0 0.15208903751071601 -0.45772721972955638 0 0.15386301751945641 -0.47838200609423043 0 0.174144600582367 -0.46745484977939372 0 0.16887801808421149 -0.44972215507966079 0 0.15208903751071601 -0.45772721972955638 0 0.174144600582367 -0.46745484977939372 0 0.15208903751071601 -0.45772721972955638 0 0.16887801808421149 -0.44972215507966079 0 0.15845405971352261 -0.44097764749030599 0 0.15208903751071601 -0.45772721972955638 0 0.17178448017686179 -0.4344642975777871 0 0.16887801808421149 -0.44972215507966079 0 0.15845405971352261 -0.44097764749030599 0 0.13003347443906579 -0.44799958967971709 0 0.15208903751071601 -0.45772721972955638 0 0.14218790461648639 -0.43646617140533089 0 0.13003347443906579 -0.44799958967971709 0 0.15208903751071601 -0.45772721972955638 0 0.14218790461648639 -0.43646617140533089 0 0.15845405971352261 -0.44097764749030599 0 0.15208903751071601 -0.45772721972955638 0 0.128230662296104 -0.43392855666343189 0 0.14218790461648639 -0.43646617140533089 0 0.13003347443906579 -0.44799958967971709 0 0.14218790461648639 -0.43646617140533089 0 0.13003347443906579 -0.44799958967971709 0 0.13676800002255429 -0.46259755135231428 0 0.13122867703136229 -0.47781684318553741 0 0.1128821897454062 -0.46427455587949018 0 0.13003347443906579 -0.44799958967971709 0 0.13676800002255429 -0.46259755135231428 0 0.15208903751071601 -0.45772721972955638 0 0.13003347443906579 -0.44799958967971709 0 0.13676800002255429 -0.46259755135231428 0 0.1128821897454062 -0.46427455587949018 0 0.13676800002255429 -0.46259755135231428 0 0.15208903751071601 -0.45772721972955638 0 0.15386301751945641 -0.47838200609423043 0 0.13676800002255429 -0.46259755135231428 0 0.15386301751945641 -0.47838200609423043 0 0.13122867703136229 -0.47781684318553741 0 0.15386301751945641 -0.47838200609423043 0 0.13122867703136229 -0.47781684318553741 0 0.1342472301711104 -0.5 0 0.13122867703136229 -0.47781684318553741 0 0.1342472301711104 -0.5 0 0.1202854200361709 -0.48399946037215241 0 0.15386301751945641 -0.47838200609423043 0 0.1342472301711104 -0.5 0 0.16375428296353789 -0.5 0 0.15386301751945641 -0.47838200609423043 0 0.16375428296353789 -0.5 0 0.18480929435454699 -0.48307757861281109 0 0.174144600582367 -0.46745484977939372 0 0.15386301751945641 -0.47838200609423043 0 0.18480929435454699 -0.48307757861281109 0 0.19635070587972009 -0.46154050094585369 0 0.174144600582367 -0.46745484977939372 0 0.18480929435454699 -0.48307757861281109 0 0.1932613357559653 -0.5 0 0.16375428296353789 -0.5 0 0.18480929435454699 -0.48307757861281109 0 0.075233124586255612 -0.49999999999999928 0 0.078579620358088242 -0.49682448827903752 0 0.059756779632175121 -0.49720889362976839 0 0.067621638624908817 -0.4874476272432311 0 0.078325873142954874 -0.48047096443427839 0 0.078579620358088242 -0.49682448827903752 0 0.078579620358088242 -0.49682448827903752 0 0.059756779632175121 -0.49720889362976839 0 0.067621638624908817 -0.4874476272432311 0 0.078579620358088242 -0.49682448827903752 0 0.059756779632175121 -0.49720889362976839 0 0.075233124586255612 -0.49999999999999928 0 0.078579620358088242 -0.49682448827903752 0 0.067621638624908817 -0.4874476272432311 0 0.066450745843098652 -0.47297506758585067 0 0.053425478362058763 -0.48572311651788458 0 0.066450745843098652 -0.47297506758585067 0 0.078325873142954874 -0.48047096443427839 0 0.083246455836931632 -0.46455811698400939 0 0.067621638624908817 -0.4874476272432311 0 0.066450745843098652 -0.47297506758585067 0 0.078325873142954874 -0.48047096443427839 0 0.078325873142954874 -0.48047096443427839 0 0.095730905051747181 -0.48054952207926371 0 0.083246455836931632 -0.46455811698400939 0 0.075233124586255612 -0.49999999999999928 0 0.10474017737868301 -0.5 0 0.098274200944872409 -0.49642228001152938 0 0.078579620358088242 -0.49682448827903752 0 0.098274200944872409 -0.49642228001152938 0 0.078325873142954874 -0.48047096443427839 0 0.078579620358088242 -0.49682448827903752 0 0.095730905051747181 -0.48054952207926371 0 0.075233124586255612 -0.49999999999999928 0 0.078579620358088242 -0.49682448827903752 0 0.098274200944872409 -0.49642228001152938 0 0.078579620358088242 -0.49682448827903752 0 0.095730905051747181 -0.48054952207926371 0 0.078579620358088242 -0.49682448827903752 0 0.098274200944872409 -0.49642228001152938 0 0.095730905051747181 -0.48054952207926371 0 0.098274200944872409 -0.49642228001152938 0 0.1179687815316566 -0.49602007174402107 0 0.098274200944872409 -0.49642228001152938 0 0.1079277690529515 -0.48673535099972381 0 0.095730905051747181 -0.48054952207926371 0 0.10474017737868301 -0.5 0 0.098274200944872409 -0.49642228001152938 0 0.1179687815316566 -0.49602007174402107 0 0.098274200944872409 -0.49642228001152938 0 0.1079277690529515 -0.48673535099972381 0 0.1179687815316566 -0.49602007174402107 0 0.1342472301711104 -0.5 0 0.10474017737868301 -0.5 0 0.1179687815316566 -0.49602007174402107 0 0.1342472301711104 -0.5 0 0.1179687815316566 -0.49602007174402107 0 0.1202854200361709 -0.48399946037215241 0 0.1079277690529515 -0.48673535099972381 0 0.1179687815316566 -0.49602007174402107 0 0.1202854200361709 -0.48399946037215241 0 0.1079277690529515 -0.48673535099972381 0 0.1202854200361709 -0.48399946037215241 0 0.1128821897454062 -0.46427455587949018 0 0.13122867703136229 -0.47781684318553741 0 0.1202854200361709 -0.48399946037215241 0 0.1128821897454062 -0.46427455587949018 0 0.095730905051747181 -0.48054952207926371 0 0.1128821897454062 -0.46427455587949018 0 0.1079277690529515 -0.48673535099972381 0 0.095730905051747181 -0.48054952207926371 0 0.1128821897454062 -0.46427455587949018 0 0.095730905051747181 -0.48054952207926371 0 0.099341140043946577 -0.45822405309284131 0 0.1128821897454062 -0.46427455587949018 0 0.099341140043946577 -0.45822405309284131 0 0.1128821897454062 -0.46427455587949018 0 0.11073240272465119 -0.45022666798061439 0 0.13003347443906579 -0.44799958967971709 0 0.1128821897454062 -0.46427455587949018 0 0.13003347443906579 -0.44799958967971709 0 0.1128821897454062 -0.46427455587949018 0 0.11073240272465119 -0.45022666798061439 0 0.13003347443906579 -0.44799958967971709 0 0.11073240272465119 -0.45022666798061439 0 0.1079776963149409 -0.43827186478075492 0 0.128230662296104 -0.43392855666343189 0 0.13003347443906579 -0.44799958967971709 0 0.1079776963149409 -0.43827186478075492 0 0.13003347443906579 -0.44799958967971709 0 0.1079776963149409 -0.43827186478075492 0 0.099341140043946577 -0.45822405309284131 0 0.11073240272465119 -0.45022666798061439 0 0.1034275130798967 -0.44236327647026918 0 0.099341140043946577 -0.45822405309284131 0 0.1034275130798967 -0.44236327647026918 0 0.087725681442293715 -0.44638531562717182 0 0.1079776963149409 -0.43827186478075492 0 0.1034275130798967 -0.44236327647026918 0 0.1034275130798967 -0.44236327647026918 0 0.087725681442293715 -0.44638531562717182 0 0.092775330804302003 -0.43156684495924852 0 0.11073240272465119 -0.45022666798061439 0 0.1079776963149409 -0.43827186478075492 0 0.1034275130798967 -0.44236327647026918 0 0.087725681442293715 -0.44638531562717182 0 0.079614178137196873 -0.43506068448760549 0 0.092775330804302003 -0.43156684495924852 0 0.087725681442293715 -0.44638531562717182 0 0.083246455836931632 -0.46455811698400939 0 0.066618833321472198 -0.44771587494770521 0 0.095730905051747181 -0.48054952207926371 0 0.099341140043946577 -0.45822405309284131 0 0.083246455836931632 -0.46455811698400939 0 0.099341140043946577 -0.45822405309284131 0 0.087725681442293715 -0.44638531562717182 0 0.083246455836931632 -0.46455811698400939 0 0.066450745843098652 -0.47297506758585067 0 0.083246455836931632 -0.46455811698400939 0 0.066618833321472198 -0.44771587494770521 0 0.087725681442293715 -0.44638531562717182 0 0.066618833321472198 -0.44771587494770521 0 0.079614178137196873 -0.43506068448760549 0 0.066618833321472198 -0.44771587494770521 0 0.069089451329788915 -0.42119935658914021 0 0.079614178137196873 -0.43506068448760549 0 0.069089451329788915 -0.42119935658914021 0 0.087108259644590097 -0.41907880042124213 0 0.076004209027174224 -0.40197645420861039 0 0.069089451329788915 -0.42119935658914021 0 0.076004209027174224 -0.40197645420861039 0 0.056049969811074178 -0.4036190170207814 0 0.087108259644590097 -0.41907880042124213 0 0.10046198581365461 -0.40219484262099969 0 0.076004209027174224 -0.40197645420861039 0 0.087108259644590097 -0.41907880042124213 0 0.079614178137196873 -0.43506068448760549 0 0.092775330804302003 -0.43156684495924852 0 0.069089451329788915 -0.42119935658914021 0 0.087108259644590097 -0.41907880042124213 0 0.079614178137196873 -0.43506068448760549 0 0.087108259644590097 -0.41907880042124213 0 0.092775330804302003 -0.43156684495924852 0 0.10507367822392499 -0.42181603084614427 0 0.1079776963149409 -0.43827186478075492 0 0.092775330804302003 -0.43156684495924852 0 0.1079776963149409 -0.43827186478075492 0 0.092775330804302003 -0.43156684495924852 0 0.10507367822392499 -0.42181603084614427 0 0.1079776963149409 -0.43827186478075492 0 0.1034275130798967 -0.44236327647026918 0 0.092775330804302003 -0.43156684495924852 0 0.128579978079915 -0.41974680499971451 0 0.1079776963149409 -0.43827186478075492 0 0.128579978079915 -0.41974680499971451 0 0.128230662296104 -0.43392855666343189 0 0.1079776963149409 -0.43827186478075492 0 0.128579978079915 -0.41974680499971451 0 0.1079776963149409 -0.43827186478075492 0 0.10507367822392499 -0.42181603084614427 0 0.128579978079915 -0.41974680499971451 0 0.10507367822392499 -0.42181603084614427 0 0.10046198581365461 -0.40219484262099969 0 0.087108259644590097 -0.41907880042124213 0 0.10507367822392499 -0.42181603084614427 0 0.10046198581365461 -0.40219484262099969 0 0.128579978079915 -0.41974680499971451 0 0.10046198581365461 -0.40219484262099969 0 0.1184520032127041 -0.38876161973235129 0 0.1184520032127041 -0.38876161973235129 0 0.098881159277319941 -0.37618242767903559 0 0.1208413660832037 -0.36226135863831821 0 0.10046198581365461 -0.40219484262099969 0 0.1184520032127041 -0.38876161973235129 0 0.098881159277319941 -0.37618242767903559 0 0.10046198581365461 -0.40219484262099969 0 0.098881159277319941 -0.37618242767903559 0 0.079405287033449568 -0.38171494322584443 0 0.10046198581365461 -0.40219484262099969 0 0.079405287033449568 -0.38171494322584443 0 0.076004209027174224 -0.40197645420861039 0 0.076004209027174224 -0.40197645420861039 0 0.058892699543167247 -0.38210051170537018 0 0.056049969811074178 -0.4036190170207814 0 0.079405287033449568 -0.38171494322584443 0 0.076004209027174224 -0.40197645420861039 0 0.058892699543167247 -0.38210051170537018 0 0.079405287033449568 -0.38171494322584443 0 0.058892699543167247 -0.38210051170537018 0 0.080598454787140783 -0.36150369193734733 0 0.058892699543167247 -0.38210051170537018 0 0.056049969811074178 -0.4036190170207814 0 0.032548254299569347 -0.39808541797554398 0 0.058892699543167247 -0.38210051170537018 0 0.032548254299569347 -0.39808541797554398 0 0.039434335524610169 -0.36984377185063522 0 0.032548254299569347 -0.39808541797554398 0 0.039434335524610169 -0.36984377185063522 0 0.015512964788617779 -0.37327018948946311 0 0.032548254299569347 -0.39808541797554398 0 0.015512964788617779 -0.37327018948946311 0 -0.0033031809835240762 -0.3827111190810556 0 0.0098767038162855415 -0.40124885723371501 0 0.015512964788617779 -0.37327018948946311 0 0.032548254299569347 -0.39808541797554398 0 0.0098767038162855415 -0.40124885723371501 0 0.015512964788617779 -0.37327018948946311 0 0.032548254299569347 -0.39808541797554398 0 0.0098767038162855415 -0.40124885723371501 0 0.02255762737047963 -0.4289069313827053 0 -0.0073203970132289953 -0.40291480216420089 0 -0.0019565050565652298 -0.42196811447285137 0 0.0098767038162855415 -0.40124885723371501 0 -0.0019565050565652298 -0.42196811447285137 0 0.0098767038162855415 -0.40124885723371501 0 0.02255762737047963 -0.4289069313827053 0 -0.0019565050565652298 -0.42196811447285137 0 0.02255762737047963 -0.4289069313827053 0 0.002655025436317683 -0.44533851880689329 0 0.02255762737047963 -0.4289069313827053 0 0.049583543810520783 -0.42290064646162451 0 0.041715956209165878 -0.44584966551245753 0 0.032548254299569347 -0.39808541797554398 0 0.049583543810520783 -0.42290064646162451 0 0.032548254299569347 -0.39808541797554398 0 0.02255762737047963 -0.4289069313827053 0 0.049583543810520783 -0.42290064646162451 0 0.056049969811074178 -0.4036190170207814 0 0.032548254299569347 -0.39808541797554398 0 0.049583543810520783 -0.42290064646162451 0 0.069089451329788915 -0.42119935658914021 0 0.056049969811074178 -0.4036190170207814 0 0.049583543810520783 -0.42290064646162451 0 0.066618833321472198 -0.44771587494770521 0 0.069089451329788915 -0.42119935658914021 0 0.049583543810520783 -0.42290064646162451 0 0.066618833321472198 -0.44771587494770521 0 0.049583543810520783 -0.42290064646162451 0 0.066618833321472198 -0.44771587494770521 0 0.049583543810520783 -0.42290064646162451 0 0.041715956209165878 -0.44584966551245753 0 0.066618833321472198 -0.44771587494770521 0 0.041715956209165878 -0.44584966551245753 0 0.045994529174092552 -0.46995932526519463 0 0.066450745843098652 -0.47297506758585067 0 0.066618833321472198 -0.44771587494770521 0 0.045994529174092552 -0.46995932526519463 0 0.041715956209165878 -0.44584966551245753 0 0.023825247369264241 -0.45976554950505821 0 0.045994529174092552 -0.46995932526519463 0 0.02255762737047963 -0.4289069313827053 0 0.002655025436317683 -0.44533851880689329 0 0.023825247369264241 -0.45976554950505821 0 0.02255762737047963 -0.4289069313827053 0 0.041715956209165878 -0.44584966551245753 0 0.023825247369264241 -0.45976554950505821 0 -0.003129068968718052 -0.46659805368126961 0 0.002655025436317683 -0.44533851880689329 0 0.023825247369264241 -0.45976554950505821 0 0.023825247369264241 -0.45976554950505821 0 0.02737887094244448 -0.47986691014704302 0 0.0082302100783460709 -0.48347212125408712 0 -0.003129068968718052 -0.46659805368126961 0 0.023825247369264241 -0.45976554950505821 0 0.0082302100783460709 -0.48347212125408712 0 -0.0069237393158930183 -0.5 0 0.0082302100783460709 -0.48347212125408712 0 0.020461881984823242 -0.5 0 0.02737887094244448 -0.47986691014704302 0 0.020461881984823242 -0.5 0 0.037638939873936197 -0.48662853018212432 0 0.02737887094244448 -0.47986691014704302 0 0.0082302100783460709 -0.48347212125408712 0 0.020461881984823242 -0.5 0 0.020461881984823242 -0.5 0 0.037638939873936197 -0.48662853018212432 0 0.040933938906261971 -0.49759329898049898 0 0.020461881984823242 -0.5 0 0.040933938906261971 -0.49759329898049898 0 0.04784750328553955 -0.5 0 0.037638939873936197 -0.48662853018212432 0 0.040933938906261971 -0.49759329898049898 0 0.053425478362058763 -0.48572311651788458 0 0.02737887094244448 -0.47986691014704302 0 0.037638939873936197 -0.48662853018212432 0 0.045994529174092552 -0.46995932526519463 0 0.037638939873936197 -0.48662853018212432 0 0.045994529174092552 -0.46995932526519463 0 0.053425478362058763 -0.48572311651788458 0 0.023825247369264241 -0.45976554950505821 0 0.02737887094244448 -0.47986691014704302 0 0.045994529174092552 -0.46995932526519463 0 0.066450745843098652 -0.47297506758585067 0 0.045994529174092552 -0.46995932526519463 0 0.053425478362058763 -0.48572311651788458 0 0.067621638624908817 -0.4874476272432311 0 0.059756779632175121 -0.49720889362976839 0 0.053425478362058763 -0.48572311651788458 0 0.040933938906261971 -0.49759329898049898 0 0.059756779632175121 -0.49720889362976839 0 0.040933938906261971 -0.49759329898049898 0 0.059756779632175121 -0.49720889362976839 0 0.053425478362058763 -0.48572311651788458 0 0.075233124586255612 -0.49999999999999928 0 0.04784750328553955 -0.5 0 0.059756779632175121 -0.49720889362976839 0 0.040933938906261971 -0.49759329898049898 0 0.04784750328553955 -0.5 0 0.059756779632175121 -0.49720889362976839 0 0.078786809583180573 -0.28404992318985772 0 0.092692513382286179 -0.29538171851450262 0 0.077080779690401946 -0.30059345489909861 0 0.078786809583180573 -0.28404992318985772 0 0.093051164465520642 -0.28625788559004067 0 0.094014516502784057 -0.27598455054647381 0 0.078786809583180573 -0.28404992318985772 0 0.093051164465520642 -0.28625788559004067 0 0.092692513382286179 -0.29538171851450262 0 0.092692513382286179 -0.29538171851450262 0 0.090832559687494069 -0.30458783120428079 0 0.077080779690401946 -0.30059345489909861 0 0.090832559687494069 -0.30458783120428079 0 0.078411487862114382 -0.31485163539022548 0 0.090832559687494069 -0.30458783120428079 0 0.077080779690401946 -0.30059345489909861 0 0.078411487862114382 -0.31485163539022548 0 0.077080779690401946 -0.30059345489909861 0 0.063255378338087268 -0.3131287576427218 0 0.057311083243857898 -0.29979598655542339 0 0.077080779690401946 -0.30059345489909861 0 0.078411487862114382 -0.31485163539022548 0 0.063255378338087268 -0.3131287576427218 0 0.077080779690401946 -0.30059345489909861 0 0.062977212405442712 -0.28555515433662831 0 0.057311083243857898 -0.29979598655542339 0 0.078786809583180573 -0.28404992318985772 0 0.077080779690401946 -0.30059345489909861 0 0.062977212405442712 -0.28555515433662831 0 0.078786809583180573 -0.28404992318985772 0 0.063587369619326123 -0.26692110390884138 0 0.083082301640972051 -0.26063081754583461 0 0.078786809583180573 -0.28404992318985772 0 0.062977212405442712 -0.28555515433662831 0 0.063587369619326123 -0.26692110390884138 0 0.063587369619326123 -0.26692110390884138 0 0.055006190034608812 -0.25061937791984112 0 0.071541937672972511 -0.24916003153368491 0 0.063587369619326123 -0.26692110390884138 0 0.083082301640972051 -0.26063081754583461 0 0.071541937672972511 -0.24916003153368491 0 0.083082301640972051 -0.26063081754583461 0 0.1098468467805719 -0.25534289514537423 0 0.08808261842313625 -0.23979414114399519 0 0.083082301640972051 -0.26063081754583461 0 0.08808261842313625 -0.23979414114399519 0 0.078786809583180573 -0.28404992318985772 0 0.083082301640972051 -0.26063081754583461 0 0.094014516502784057 -0.27598455054647381 0 0.083082301640972051 -0.26063081754583461 0 0.094014516502784057 -0.27598455054647381 0 0.10577481072427181 -0.26937036142346787 0 0.094014516502784057 -0.27598455054647381 0 0.103240399036115 -0.28268183609758502 0 0.097909921373154574 -0.28415646148471052 0 0.094014516502784057 -0.27598455054647381 0 0.10577481072427181 -0.26937036142346787 0 0.103240399036115 -0.28268183609758502 0 0.10577481072427181 -0.26937036142346787 0 0.1174323533254415 -0.28260783808254508 0 0.103240399036115 -0.28268183609758502 0 0.083082301640972051 -0.26063081754583461 0 0.10577481072427181 -0.26937036142346787 0 0.1098468467805719 -0.25534289514537423 0 0.13161107513800779 -0.27089164914675262 0 0.13030530462117779 -0.25171385039249911 0 0.1098468467805719 -0.25534289514537423 0 0.13161107513800779 -0.27089164914675262 0 0.1098468467805719 -0.25534289514537423 0 0.13161107513800779 -0.27089164914675262 0 0.10577481072427181 -0.26937036142346787 0 0.1098468467805719 -0.25534289514537423 0 0.13161107513800779 -0.27089164914675262 0 0.10577481072427181 -0.26937036142346787 0 0.1174323533254415 -0.28260783808254508 0 0.13161107513800779 -0.27089164914675262 0 0.1174323533254415 -0.28260783808254508 0 0.1282379217895048 -0.2860663123777078 0 0.1174323533254415 -0.28260783808254508 0 0.1197459798455955 -0.29742202926321543 0 0.1174323533254415 -0.28260783808254508 0 0.1032536315128721 -0.29432402701833399 0 0.1197459798455955 -0.29742202926321543 0 0.1174323533254415 -0.28260783808254508 0 0.1032536315128721 -0.29432402701833399 0 0.1174323533254415 -0.28260783808254508 0 0.103240399036115 -0.28268183609758502 0 0.1032536315128721 -0.29432402701833399 0 0.103240399036115 -0.28268183609758502 0 0.1032536315128721 -0.29432402701833399 0 0.1013336054881986 -0.29170157370474248 0 0.1032536315128721 -0.29432402701833399 0 0.1013336054881986 -0.29170157370474248 0 0.092692513382286179 -0.29538171851450262 0 0.1032536315128721 -0.29432402701833399 0 0.1013336054881986 -0.29170157370474248 0 0.093051164465520642 -0.28625788559004067 0 0.092692513382286179 -0.29538171851450262 0 0.1013336054881986 -0.29170157370474248 0 0.093051164465520642 -0.28625788559004067 0 0.1013336054881986 -0.29170157370474248 0 0.097909921373154574 -0.28415646148471052 0 0.103240399036115 -0.28268183609758502 0 0.1013336054881986 -0.29170157370474248 0 0.097909921373154574 -0.28415646148471052 0 0.093051164465520642 -0.28625788559004067 0 0.094014516502784057 -0.27598455054647381 0 0.097909921373154574 -0.28415646148471052 0 0.1032536315128721 -0.29432402701833399 0 0.1022452834594552 -0.31220365538272798 0 0.1164362786382771 -0.31232944787808981 0 0.090832559687494069 -0.30458783120428079 0 0.1032536315128721 -0.29432402701833399 0 0.1022452834594552 -0.31220365538272798 0 0.092692513382286179 -0.29538171851450262 0 0.090832559687494069 -0.30458783120428079 0 0.1032536315128721 -0.29432402701833399 0 0.090832559687494069 -0.30458783120428079 0 0.1032536315128721 -0.29432402701833399 0 0.13592818618865821 -0.31132803863965253 0 0.1164362786382771 -0.31232944787808981 0 0.1197459798455955 -0.29742202926321543 0 0.1032536315128721 -0.29432402701833399 0 0.1164362786382771 -0.31232944787808981 0 0.1197459798455955 -0.29742202926321543 0 0.1032536315128721 -0.29432402701833399 0 0.1164362786382771 -0.31232944787808981 0 0.12961892576368231 -0.33033486873784551 0 0.1164362786382771 -0.31232944787808981 0 0.1086939787796854 -0.32725239269498069 0 0.12961892576368231 -0.33033486873784551 0 0.1164362786382771 -0.31232944787808981 0 0.12961892576368231 -0.33033486873784551 0 0.1086939787796854 -0.32725239269498069 0 0.11699351622576951 -0.34403361455389231 0 0.095965052697899678 -0.34175391614329809 0 0.1086939787796854 -0.32725239269498069 0 0.11699351622576951 -0.34403361455389231 0 0.095965052697899678 -0.34175391614329809 0 0.1086939787796854 -0.32725239269498069 0 0.090904815893028693 -0.32285885347403098 0 0.090832559687494069 -0.30458783120428079 0 0.1022452834594552 -0.31220365538272798 0 0.090904815893028693 -0.32285885347403098 0 0.1022452834594552 -0.31220365538272798 0 0.1086939787796854 -0.32725239269498069 0 0.090904815893028693 -0.32285885347403098 0 0.1022452834594552 -0.31220365538272798 0 0.1164362786382771 -0.31232944787808981 0 0.1086939787796854 -0.32725239269498069 0 0.098881159277319941 -0.37618242767903559 0 0.1208413660832037 -0.36226135863831821 0 0.1208413660832037 -0.36226135863831821 0 0.11699351622576951 -0.34403361455389231 0 0.1026559098142667 -0.35714700179037828 0 0.095965052697899678 -0.34175391614329809 0 0.11699351622576951 -0.34403361455389231 0 0.1026559098142667 -0.35714700179037828 0 0.098881159277319941 -0.37618242767903559 0 0.1026559098142667 -0.35714700179037828 0 0.080598454787140783 -0.36150369193734733 0 0.098881159277319941 -0.37618242767903559 0 0.1208413660832037 -0.36226135863831821 0 0.1026559098142667 -0.35714700179037828 0 0.098881159277319941 -0.37618242767903559 0 0.079405287033449568 -0.38171494322584443 0 0.080598454787140783 -0.36150369193734733 0 0.095965052697899678 -0.34175391614329809 0 0.1026559098142667 -0.35714700179037828 0 0.080598454787140783 -0.36150369193734733 0 0.095965052697899678 -0.34175391614329809 0 0.080598454787140783 -0.36150369193734733 0 0.076386891631226722 -0.34120732859642111 0 0.076386891631226722 -0.34120732859642111 0 0.058473573311552653 -0.33976282313837258 0 0.057326200029171617 -0.35628872104035458 0 0.080598454787140783 -0.36150369193734733 0 0.076386891631226722 -0.34120732859642111 0 0.057326200029171617 -0.35628872104035458 0 0.058892699543167247 -0.38210051170537018 0 0.080598454787140783 -0.36150369193734733 0 0.057326200029171617 -0.35628872104035458 0 0.090904815893028693 -0.32285885347403098 0 0.078411487862114382 -0.31485163539022548 0 0.069423681705011744 -0.32632521931379471 0 0.090832559687494069 -0.30458783120428079 0 0.090904815893028693 -0.32285885347403098 0 0.078411487862114382 -0.31485163539022548 0 0.090904815893028693 -0.32285885347403098 0 0.076386891631226722 -0.34120732859642111 0 0.069423681705011744 -0.32632521931379471 0 0.095965052697899678 -0.34175391614329809 0 0.090904815893028693 -0.32285885347403098 0 0.076386891631226722 -0.34120732859642111 0 0.076386891631226722 -0.34120732859642111 0 0.069423681705011744 -0.32632521931379471 0 0.058473573311552653 -0.33976282313837258 0 0.078411487862114382 -0.31485163539022548 0 0.069423681705011744 -0.32632521931379471 0 0.063255378338087268 -0.3131287576427218 0 0.069423681705011744 -0.32632521931379471 0 0.063255378338087268 -0.3131287576427218 0 0.048466419085722183 -0.32594737542750829 0 0.063255378338087268 -0.3131287576427218 0 0.048466419085722183 -0.32594737542750829 0 0.048858215904659483 -0.30923048582986801 0 0.069423681705011744 -0.32632521931379471 0 0.048466419085722183 -0.32594737542750829 0 0.058473573311552653 -0.33976282313837258 0 0.048466419085722183 -0.32594737542750829 0 0.058473573311552653 -0.33976282313837258 0 0.035153143881918307 -0.3473490632121678 0 0.048466419085722183 -0.32594737542750829 0 0.035153143881918307 -0.3473490632121678 0 0.01928507559378537 -0.32584128227888859 0 0.048466419085722183 -0.32594737542750829 0 0.01928507559378537 -0.32584128227888859 0 0.032013010228698152 -0.30882035418032278 0 0.048466419085722183 -0.32594737542750829 0 0.032013010228698152 -0.30882035418032278 0 0.048858215904659483 -0.30923048582986801 0 0.058892699543167247 -0.38210051170537018 0 0.057326200029171617 -0.35628872104035458 0 0.039434335524610169 -0.36984377185063522 0 0.058473573311552653 -0.33976282313837258 0 0.057326200029171617 -0.35628872104035458 0 0.035153143881918307 -0.3473490632121678 0 0.057326200029171617 -0.35628872104035458 0 0.035153143881918307 -0.3473490632121678 0 0.039434335524610169 -0.36984377185063522 0 0.035153143881918307 -0.3473490632121678 0 0.039434335524610169 -0.36984377185063522 0 0.015512964788617779 -0.37327018948946311 0 0.035153143881918307 -0.3473490632121678 0 0.0088522424624832632 -0.34392834343935302 0 0.015512964788617779 -0.37327018948946311 0 -0.0066744630276010571 -0.35903915010010617 0 0.0088522424624832632 -0.34392834343935302 0 0.015512964788617779 -0.37327018948946311 0 -0.0066744630276010571 -0.35903915010010617 0 -0.0033031809835240762 -0.3827111190810556 0 0.015512964788617779 -0.37327018948946311 0 0.01928507559378537 -0.32584128227888859 0 0.01451522172916052 -0.30742571072036368 0 0.032013010228698152 -0.30882035418032278 0 0.035153143881918307 -0.3473490632121678 0 0.0088522424624832632 -0.34392834343935302 0 0.01928507559378537 -0.32584128227888859 0 -0.010618265006350439 -0.33417493371896828 0 0.0088522424624832632 -0.34392834343935302 0 0.0039377926388811518 -0.32867857509459741 0 0.0088522424624832632 -0.34392834343935302 0 0.01928507559378537 -0.32584128227888859 0 0.0039377926388811518 -0.32867857509459741 0 0.01928507559378537 -0.32584128227888859 0 0.001896595321517253 -0.30626555096780689 0 -0.0054517495712185357 -0.31972239223645271 0 0.0039377926388811518 -0.32867857509459741 0 0.001896595321517253 -0.30626555096780689 0 0.01928507559378537 -0.32584128227888859 0 0.001896595321517253 -0.30626555096780689 0 0.01451522172916052 -0.30742571072036368 0 0.01928507559378537 -0.32584128227888859 0 0.0039377926388811518 -0.32867857509459741 0 0.001896595321517253 -0.30626555096780689 0 0.001517707357284237 -0.29753028005066512 0 0.0071567827838350216 -0.30225242114915951 0 0.010697606727378069 -0.29778814285780197 0 0.001896595321517253 -0.30626555096780689 0 0.001517707357284237 -0.29753028005066512 0 0.0071567827838350216 -0.30225242114915951 0 0.0071567827838350216 -0.30225242114915951 0 0.010697606727378069 -0.29778814285780197 0 0.01451522172916052 -0.30742571072036368 0 0.010697606727378069 -0.29778814285780197 0 0.01451522172916052 -0.30742571072036368 0 0.020493658677995581 -0.299138835525327 0 0.001896595321517253 -0.30626555096780689 0 0.0071567827838350216 -0.30225242114915951 0 0.01451522172916052 -0.30742571072036368 0 -0.002143095001078794 -0.290631109880501 0 -0.00061854659909016591 -0.28173529456410179 0 0.0059463542994063218 -0.28984664885058059 0 -0.00061854659909016591 -0.28173529456410179 0 0.0059463542994063218 -0.28984664885058059 0 0.0095238089825411196 -0.28197987305398498 0 -0.002143095001078794 -0.290631109880501 0 0.001517707357284237 -0.29753028005066512 0 0.0059463542994063218 -0.28984664885058059 0 0.001517707357284237 -0.29753028005066512 0 0.010697606727378069 -0.29778814285780197 0 0.0059463542994063218 -0.28984664885058059 0 0.010697606727378069 -0.29778814285780197 0 0.0059463542994063218 -0.28984664885058059 0 0.01670064432940346 -0.28941519269642901 0 0.0095238089825411196 -0.28197987305398498 0 0.01670064432940346 -0.28941519269642901 0 0.017993141228656719 -0.27876552226540968 0 0.0059463542994063218 -0.28984664885058059 0 0.0095238089825411196 -0.28197987305398498 0 0.01670064432940346 -0.28941519269642901 0 0.01670064432940346 -0.28941519269642901 0 0.027495298033050598 -0.2825029497503142 0 0.017993141228656719 -0.27876552226540968 0 0.01670064432940346 -0.28941519269642901 0 0.030528670468323839 -0.29327985325038292 0 0.020493658677995581 -0.299138835525327 0 0.010697606727378069 -0.29778814285780197 0 0.01670064432940346 -0.28941519269642901 0 0.020493658677995581 -0.299138835525327 0 0.01670064432940346 -0.28941519269642901 0 0.030528670468323839 -0.29327985325038292 0 0.027495298033050598 -0.2825029497503142 0 0.01451522172916052 -0.30742571072036368 0 0.020493658677995581 -0.299138835525327 0 0.032013010228698152 -0.30882035418032278 0 0.030528670468323839 -0.29327985325038292 0 0.020493658677995581 -0.299138835525327 0 0.032013010228698152 -0.30882035418032278 0 0.032013010228698152 -0.30882035418032278 0 0.043245188626931899 -0.29845995534336339 0 0.048858215904659483 -0.30923048582986801 0 0.030528670468323839 -0.29327985325038292 0 0.032013010228698152 -0.30882035418032278 0 0.043245188626931899 -0.29845995534336339 0 0.030528670468323839 -0.29327985325038292 0 0.043245188626931899 -0.29845995534336339 0 0.039600818023285217 -0.28569512366302469 0 0.030528670468323839 -0.29327985325038292 0 0.027495298033050598 -0.2825029497503142 0 0.039600818023285217 -0.28569512366302469 0 0.039600818023285217 -0.28569512366302469 0 0.050511482169300063 -0.28926085278735453 0 0.049423108546982578 -0.27679804403833252 0 0.043245188626931899 -0.29845995534336339 0 0.039600818023285217 -0.28569512366302469 0 0.050511482169300063 -0.28926085278735453 0 0.043245188626931899 -0.29845995534336339 0 0.050511482169300063 -0.28926085278735453 0 0.057311083243857898 -0.29979598655542339 0 0.062977212405442712 -0.28555515433662831 0 0.050511482169300063 -0.28926085278735453 0 0.049423108546982578 -0.27679804403833252 0 0.062977212405442712 -0.28555515433662831 0 0.050511482169300063 -0.28926085278735453 0 0.057311083243857898 -0.29979598655542339 0 0.063255378338087268 -0.3131287576427218 0 0.057311083243857898 -0.29979598655542339 0 0.048858215904659483 -0.30923048582986801 0 0.043245188626931899 -0.29845995534336339 0 0.057311083243857898 -0.29979598655542339 0 0.048858215904659483 -0.30923048582986801 0 0.063587369619326123 -0.26692110390884138 0 0.055006190034608812 -0.25061937791984112 0 0.043612288887988883 -0.26303608612114587 0 0.055006190034608812 -0.25061937791984112 0 0.043612288887988883 -0.26303608612114587 0 0.042136001546295578 -0.2498832487319777 0 0.062977212405442712 -0.28555515433662831 0 0.063587369619326123 -0.26692110390884138 0 0.049423108546982578 -0.27679804403833252 0 0.063587369619326123 -0.26692110390884138 0 0.049423108546982578 -0.27679804403833252 0 0.043612288887988883 -0.26303608612114587 0 0.049423108546982578 -0.27679804403833252 0 0.036874691267038892 -0.2745934285912956 0 0.043612288887988883 -0.26303608612114587 0 0.039600818023285217 -0.28569512366302469 0 0.049423108546982578 -0.27679804403833252 0 0.036874691267038892 -0.2745934285912956 0 0.027495298033050598 -0.2825029497503142 0 0.039600818023285217 -0.28569512366302469 0 0.036874691267038892 -0.2745934285912956 0 0.036874691267038892 -0.2745934285912956 0 0.043612288887988883 -0.26303608612114587 0 0.03105688555174967 -0.26590956058621079 0 0.043612288887988883 -0.26303608612114587 0 0.029516995170592659 -0.25497614273622449 0 0.03105688555174967 -0.26590956058621079 0 0.043612288887988883 -0.26303608612114587 0 0.029516995170592659 -0.25497614273622449 0 0.042136001546295578 -0.2498832487319777 0 0.029516995170592659 -0.25497614273622449 0 0.02086438516426669 -0.26271644999538551 0 0.03105688555174967 -0.26590956058621079 0 0.02086438516426669 -0.26271644999538551 0 0.018709301569582611 -0.25425504481858802 0 0.0081533097536586052 -0.26020052113139391 0 0.029516995170592659 -0.25497614273622449 0 0.02086438516426669 -0.26271644999538551 0 0.018709301569582611 -0.25425504481858802 0 0.029516995170592659 -0.25497614273622449 0 0.018709301569582611 -0.25425504481858802 0 0.02007133138543964 -0.24343626663881091 0 0.027495298033050598 -0.2825029497503142 0 0.036874691267038892 -0.2745934285912956 0 0.02514783221625019 -0.27269145245421827 0 0.027495298033050598 -0.2825029497503142 0 0.02514783221625019 -0.27269145245421827 0 0.017993141228656719 -0.27876552226540968 0 0.036874691267038892 -0.2745934285912956 0 0.03105688555174967 -0.26590956058621079 0 0.02514783221625019 -0.27269145245421827 0 0.02086438516426669 -0.26271644999538551 0 0.03105688555174967 -0.26590956058621079 0 0.02514783221625019 -0.27269145245421827 0 0.02086438516426669 -0.26271644999538551 0 0.02514783221625019 -0.27269145245421827 0 0.015630933957010758 -0.26969011144979721 0 0.02514783221625019 -0.27269145245421827 0 0.015630933957010758 -0.26969011144979721 0 0.017993141228656719 -0.27876552226540968 0 0.0095238089825411196 -0.28197987305398498 0 0.017993141228656719 -0.27876552226540968 0 0.01191074809938529 -0.27550372852481508 0 0.015630933957010758 -0.26969011144979721 0 0.017993141228656719 -0.27876552226540968 0 0.01191074809938529 -0.27550372852481508 0 0.0095238089825411196 -0.28197987305398498 0 0.01191074809938529 -0.27550372852481508 0 0.0057298139636822289 -0.27243225013154498 0 0.015630933957010758 -0.26969011144979721 0 0.01191074809938529 -0.27550372852481508 0 0.0057298139636822289 -0.27243225013154498 0 0.015630933957010758 -0.26969011144979721 0 0.0057298139636822289 -0.27243225013154498 0 0.0081533097536586052 -0.26020052113139391 0 -0.0047259481970078534 -0.27211653938485081 0 -0.00033550809608256442 -0.26383920917593712 0 0.0057298139636822289 -0.27243225013154498 0 -0.00061854659909016591 -0.28173529456410179 0 0.0095238089825411196 -0.28197987305398498 0 0.0057298139636822289 -0.27243225013154498 0 -0.00061854659909016591 -0.28173529456410179 0 -0.0047259481970078534 -0.27211653938485081 0 0.0057298139636822289 -0.27243225013154498 0 0.018709301569582611 -0.25425504481858802 0 0.01038187310882447 -0.2507308967861106 0 0.0081533097536586052 -0.26020052113139391 0 0.02086438516426669 -0.26271644999538551 0 0.015630933957010758 -0.26969011144979721 0 0.0081533097536586052 -0.26020052113139391 0 -0.00033550809608256442 -0.26383920917593712 0 0.0057298139636822289 -0.27243225013154498 0 0.0081533097536586052 -0.26020052113139391 0 -0.00033550809608256442 -0.26383920917593712 0 -0.001510810221741861 -0.25277351325326169 0 0.0081533097536586052 -0.26020052113139391 0 -0.001510810221741861 -0.25277351325326169 0 0.01038187310882447 -0.2507308967861106 0 0.0081533097536586052 -0.26020052113139391 0 -0.001510810221741861 -0.25277351325326169 0 0.01038187310882447 -0.2507308967861106 0 0.0052747466537700453 -0.24115656626209361 0 0.01038187310882447 -0.2507308967861106 0 0.0052747466537700453 -0.24115656626209361 0 0.02007133138543964 -0.24343626663881091 0 0.0052747466537700453 -0.24115656626209361 0 0.013140527425882609 -0.2312571003786717 0 0.02007133138543964 -0.24343626663881091 0 -0.003310131863981752 -0.22776613528545361 0 0.0067424713127868388 -0.2197088683924541 0 0.013140527425882609 -0.2312571003786717 0 -0.003310131863981752 -0.22776613528545361 0 0.0052747466537700453 -0.24115656626209361 0 0.013140527425882609 -0.2312571003786717 0 0.0067424713127868388 -0.2197088683924541 0 0.013140527425882609 -0.2312571003786717 0 0.02346195161109944 -0.21442964345982621 0 -0.003310131863981752 -0.22776613528545361 0 -0.0008570401538518773 -0.2183905809676181 0 0.0067424713127868388 -0.2197088683924541 0 0.013140527425882609 -0.2312571003786717 0 0.027681030635628549 -0.22813293009691341 0 0.02346195161109944 -0.21442964345982621 0 0.013140527425882609 -0.2312571003786717 0 0.027681030635628549 -0.22813293009691341 0 0.02007133138543964 -0.24343626663881091 0 0.027681030635628549 -0.22813293009691341 0 0.02007133138543964 -0.24343626663881091 0 0.033933036399965713 -0.2412473602047697 0 0.029516995170592659 -0.25497614273622449 0 0.02007133138543964 -0.24343626663881091 0 0.033933036399965713 -0.2412473602047697 0 0.018709301569582611 -0.25425504481858802 0 0.01038187310882447 -0.2507308967861106 0 0.02007133138543964 -0.24343626663881091 0 0.009934474062321506 -0.19420878118598259 0 0.016064684456023891 -0.201845230883683 0 0.016052248221291841 -0.18591827819781401 0 0.009934474062321506 -0.19420878118598259 0 0.0016359862684524481 -0.18942911992672809 0 0.016052248221291841 -0.18591827819781401 0 0.009934474062321506 -0.19420878118598259 0 0.0016359862684524481 -0.18942911992672809 0 0.0020611929109856921 -0.1983331527584985 0 0.009934474062321506 -0.19420878118598259 0 0.0020611929109856921 -0.1983331527584985 0 0.0081567933779213547 -0.20325359858947459 0 -0.0030319487190633601 -0.20154657226741399 0 0.0020611929109856921 -0.1983331527584985 0 0.0010677199834254151 -0.20298869294895081 0 0.0020611929109856921 -0.1983331527584985 0 0.0010677199834254151 -0.20298869294895081 0 0.0081567933779213547 -0.20325359858947459 0 0.009934474062321506 -0.19420878118598259 0 0.0081567933779213547 -0.20325359858947459 0 0.016064684456023891 -0.201845230883683 0 -0.0036492627563278128 -0.2077160902999064 0 0.02346195161109944 -0.21442964345982621 0 -0.0036492627563278128 -0.2077160902999064 0 0.0067424713127868388 -0.2197088683924541 0 0.02346195161109944 -0.21442964345982621 0 -0.0036492627563278128 -0.2077160902999064 0 0.0081567933779213547 -0.20325359858947459 0 0.02346195161109944 -0.21442964345982621 0 -0.0036492627563278128 -0.2077160902999064 0 0.0010677199834254151 -0.20298869294895081 0 0.0081567933779213547 -0.20325359858947459 0 -0.0008570401538518773 -0.2183905809676181 0 -0.0036492627563278128 -0.2077160902999064 0 0.0067424713127868388 -0.2197088683924541 0 0.02346195161109944 -0.21442964345982621 0 0.016064684456023891 -0.201845230883683 0 0.043854561874136291 -0.19872708903919631 0 0.0081567933779213547 -0.20325359858947459 0 0.02346195161109944 -0.21442964345982621 0 0.016064684456023891 -0.201845230883683 0 0.016064684456023891 -0.201845230883683 0 0.02954590911613578 -0.18860894302987399 0 0.016052248221291841 -0.18591827819781401 0 0.016064684456023891 -0.201845230883683 0 0.043854561874136291 -0.19872708903919631 0 0.016064684456023891 -0.201845230883683 0 0.02954590911613578 -0.18860894302987399 0 0.043854561874136291 -0.19872708903919631 0 0.02954590911613578 -0.18860894302987399 0 0.043854561874136291 -0.19872708903919631 0 0.044649510354758323 -0.1823768106776435 0 0.02346195161109944 -0.21442964345982621 0 0.050573165978526458 -0.22114319661974591 0 0.02346195161109944 -0.21442964345982621 0 0.041934635303736478 -0.21057013626147669 0 0.050573165978526458 -0.22114319661974591 0 0.02346195161109944 -0.21442964345982621 0 0.043854561874136291 -0.19872708903919631 0 0.041934635303736478 -0.21057013626147669 0 0.043854561874136291 -0.19872708903919631 0 0.041934635303736478 -0.21057013626147669 0 0.05249202869639303 -0.20567270686166089 0 0.041934635303736478 -0.21057013626147669 0 0.05249202869639303 -0.20567270686166089 0 0.050573165978526458 -0.22114319661974591 0 0.05249202869639303 -0.20567270686166089 0 0.050573165978526458 -0.22114319661974591 0 0.065606919616716136 -0.21114470828192061 0 0.043854561874136291 -0.19872708903919631 0 0.05249202869639303 -0.20567270686166089 0 0.071644439292248702 -0.19560894719470959 0 0.043854561874136291 -0.19872708903919631 0 0.056623924105620893 -0.1901020529857062 0 0.044649510354758323 -0.1823768106776435 0 0.043854561874136291 -0.19872708903919631 0 0.056623924105620893 -0.1901020529857062 0 0.071644439292248702 -0.19560894719470959 0 0.043854561874136291 -0.19872708903919631 0 0.071644439292248702 -0.19560894719470959 0 0.033933036399965713 -0.2412473602047697 0 0.040196226550087928 -0.23208329888507059 0 0.049211647499877678 -0.23875557133123859 0 0.042136001546295578 -0.2498832487319777 0 0.033933036399965713 -0.2412473602047697 0 0.049211647499877678 -0.23875557133123859 0 0.029516995170592659 -0.25497614273622449 0 0.042136001546295578 -0.2498832487319777 0 0.033933036399965713 -0.2412473602047697 0 0.027681030635628549 -0.22813293009691341 0 0.033933036399965713 -0.2412473602047697 0 0.040196226550087928 -0.23208329888507059 0 0.027681030635628549 -0.22813293009691341 0 0.02346195161109944 -0.21442964345982621 0 0.050573165978526458 -0.22114319661974591 0 0.040196226550087928 -0.23208329888507059 0 0.050573165978526458 -0.22114319661974591 0 0.049211647499877678 -0.23875557133123859 0 0.027681030635628549 -0.22813293009691341 0 0.040196226550087928 -0.23208329888507059 0 0.050573165978526458 -0.22114319661974591 0 0.050573165978526458 -0.22114319661974591 0 0.0624529034501419 -0.2387045228316976 0 0.049211647499877678 -0.23875557133123859 0 0.050573165978526458 -0.22114319661974591 0 0.0624529034501419 -0.2387045228316976 0 0.06902465290202528 -0.2323520585357883 0 0.055006190034608812 -0.25061937791984112 0 0.042136001546295578 -0.2498832487319777 0 0.049211647499877678 -0.23875557133123859 0 0.055006190034608812 -0.25061937791984112 0 0.0624529034501419 -0.2387045228316976 0 0.049211647499877678 -0.23875557133123859 0 0.074340968449072453 -0.2392043673375126 0 0.071541937672972511 -0.24916003153368491 0 0.08808261842313625 -0.23979414114399519 0 0.0624529034501419 -0.2387045228316976 0 0.074340968449072453 -0.2392043673375126 0 0.071541937672972511 -0.24916003153368491 0 0.055006190034608812 -0.25061937791984112 0 0.0624529034501419 -0.2387045228316976 0 0.071541937672972511 -0.24916003153368491 0 0.0624529034501419 -0.2387045228316976 0 0.074340968449072453 -0.2392043673375126 0 0.06902465290202528 -0.2323520585357883 0 0.074340968449072453 -0.2392043673375126 0 0.079540962775777088 -0.23369182957824389 0 0.06902465290202528 -0.2323520585357883 0 0.083082301640972051 -0.26063081754583461 0 0.071541937672972511 -0.24916003153368491 0 0.08808261842313625 -0.23979414114399519 0 0.08808261842313625 -0.23979414114399519 0 0.079540962775777088 -0.23369182957824389 0 0.074340968449072453 -0.2392043673375126 0 0.08808261842313625 -0.23979414114399519 0 0.079540962775777088 -0.23369182957824389 0 0.08808261842313625 -0.23979414114399519 0 0.083741997388150816 -0.2286354101243791 0 0.093196993264602859 -0.21848217668020131 0 0.08808261842313625 -0.23979414114399519 0 0.093196993264602859 -0.21848217668020131 0 0.083741997388150816 -0.2286354101243791 0 0.084806132123397937 -0.22108811044632601 0 0.093196993264602859 -0.21848217668020131 0 0.08808261842313625 -0.23979414114399519 0 0.083741997388150816 -0.2286354101243791 0 0.079540962775777088 -0.23369182957824389 0 0.083741997388150816 -0.2286354101243791 0 0.079540962775777088 -0.23369182957824389 0 0.077684380345953485 -0.22785674977966561 0 0.083741997388150816 -0.2286354101243791 0 0.080166477115863721 -0.2219835307207749 0 0.077684380345953485 -0.22785674977966561 0 0.083741997388150816 -0.2286354101243791 0 0.084806132123397937 -0.22108811044632601 0 0.080166477115863721 -0.2219835307207749 0 0.084806132123397937 -0.22108811044632601 0 0.080166477115863721 -0.2219835307207749 0 0.082753820686789187 -0.2145945089102605 0 0.080166477115863721 -0.2219835307207749 0 0.077684380345953485 -0.22785674977966561 0 0.071846055035027112 -0.2177428743432436 0 0.050573165978526458 -0.22114319661974591 0 0.077684380345953485 -0.22785674977966561 0 0.071846055035027112 -0.2177428743432436 0 0.050573165978526458 -0.22114319661974591 0 0.077684380345953485 -0.22785674977966561 0 0.06902465290202528 -0.2323520585357883 0 0.050573165978526458 -0.22114319661974591 0 0.077684380345953485 -0.22785674977966561 0 0.079540962775777088 -0.23369182957824389 0 0.077684380345953485 -0.22785674977966561 0 0.06902465290202528 -0.2323520585357883 0 0.05249202869639303 -0.20567270686166089 0 0.065606919616716136 -0.21114470828192061 0 0.075667459502108222 -0.20031401409099181 0 0.050573165978526458 -0.22114319661974591 0 0.065606919616716136 -0.21114470828192061 0 0.071846055035027112 -0.2177428743432436 0 0.075434209303281652 -0.20984905818233041 0 0.075667459502108222 -0.20031401409099181 0 0.082478647670641003 -0.20770434643211849 0 0.065606919616716136 -0.21114470828192061 0 0.075434209303281652 -0.20984905818233041 0 0.075667459502108222 -0.20031401409099181 0 0.075434209303281652 -0.20984905818233041 0 0.071846055035027112 -0.2177428743432436 0 0.082753820686789187 -0.2145945089102605 0 0.065606919616716136 -0.21114470828192061 0 0.075434209303281652 -0.20984905818233041 0 0.071846055035027112 -0.2177428743432436 0 0.05249202869639303 -0.20567270686166089 0 0.075667459502108222 -0.20031401409099181 0 0.05249202869639303 -0.20567270686166089 0 0.075667459502108222 -0.20031401409099181 0 0.071644439292248702 -0.19560894719470959 0 0.056623924105620893 -0.1901020529857062 0 0.065568378450866494 -0.1881086293542453 0 0.071644439292248702 -0.19560894719470959 0 0.065568378450866494 -0.1881086293542453 0 0.071644439292248702 -0.19560894719470959 0 0.070528021250506848 -0.1885513602907895 0 0.071644439292248702 -0.19560894719470959 0 0.085106694511227751 -0.1866457479314714 0 0.075438220569768233 -0.18735393523980201 0 0.071644439292248702 -0.19560894719470959 0 0.070528021250506848 -0.1885513602907895 0 0.075438220569768233 -0.18735393523980201 0 0.075667459502108222 -0.20031401409099181 0 0.088463972738714119 -0.2028625118372471 0 0.098842890307823117 -0.19495532132032159 0 0.075667459502108222 -0.20031401409099181 0 0.098842890307823117 -0.19495532132032159 0 0.099434316710360737 -0.1924908053502207 0 0.075667459502108222 -0.20031401409099181 0 0.071644439292248702 -0.19560894719470959 0 0.099434316710360737 -0.1924908053502207 0 0.071644439292248702 -0.19560894719470959 0 0.099434316710360737 -0.1924908053502207 0 0.085106694511227751 -0.1866457479314714 0 0.071644439292248702 -0.19560894719470959 0 0.099434316710360737 -0.1924908053502207 0 0.075667459502108222 -0.20031401409099181 0 0.098842890307823117 -0.19495532132032159 0 0.088463972738714119 -0.2028625118372471 0 0.089601066332210905 -0.2092782380664297 0 0.098842890307823117 -0.19495532132032159 0 0.080166477115863721 -0.2219835307207749 0 0.071846055035027112 -0.2177428743432436 0 0.082753820686789187 -0.2145945089102605 0 0.075667459502108222 -0.20031401409099181 0 0.088463972738714119 -0.2028625118372471 0 0.082478647670641003 -0.20770434643211849 0 0.075434209303281652 -0.20984905818233041 0 0.082753820686789187 -0.2145945089102605 0 0.082478647670641003 -0.20770434643211849 0 0.082753820686789187 -0.2145945089102605 0 0.082478647670641003 -0.20770434643211849 0 0.089601066332210905 -0.2092782380664297 0 0.088463972738714119 -0.2028625118372471 0 0.082478647670641003 -0.20770434643211849 0 0.089601066332210905 -0.2092782380664297 0 0.084806132123397937 -0.22108811044632601 0 0.082753820686789187 -0.2145945089102605 0 0.093196993264602859 -0.21848217668020131 0 0.082753820686789187 -0.2145945089102605 0 0.089601066332210905 -0.2092782380664297 0 0.093196993264602859 -0.21848217668020131 0 0.082753820686789187 -0.2145945089102605 0 0.093196993264602859 -0.21848217668020131 0 0.093196993264602859 -0.21848217668020131 0 0.1026714455760776 -0.2047030860291309 0 0.098842890307823117 -0.19495532132032159 0 0.093196993264602859 -0.21848217668020131 0 0.1026714455760776 -0.2047030860291309 0 0.10335825320856901 -0.21409497954000159 0 0.093196993264602859 -0.21848217668020131 0 0.098842890307823117 -0.19495532132032159 0 0.089601066332210905 -0.2092782380664297 0 0.093196993264602859 -0.21848217668020131 0 0.098842890307823117 -0.19495532132032159 0 0.1026714455760776 -0.2047030860291309 0 0.1114947258553544 -0.20096329752596731 0 0.1099552228531985 -0.21004751916210559 0 0.1026714455760776 -0.2047030860291309 0 0.10335825320856901 -0.21409497954000159 0 0.1099552228531985 -0.21004751916210559 0 0.099434316710360737 -0.1924908053502207 0 0.1189922780306391 -0.19029631932683899 0 0.098842890307823117 -0.19495532132032159 0 0.1189922780306391 -0.19029631932683899 0 0.098842890307823117 -0.19495532132032159 0 0.099434316710360737 -0.1924908053502207 0 0.1189922780306391 -0.19029631932683899 0 0.098842890307823117 -0.19495532132032159 0 0.099434316710360737 -0.1924908053502207 0 0.1026714455760776 -0.2047030860291309 0 0.098842890307823117 -0.19495532132032159 0 0.1114947258553544 -0.20096329752596731 0 0.099434316710360737 -0.1924908053502207 0 0.1189922780306391 -0.19029631932683899 0 0.1103370924281132 -0.18214034869537429 0 0.1196688226134556 -0.19852928657166671 0 0.1230002356096771 -0.1898466095260338 0 0.12801886311926899 -0.2063418920433803 0 0.098842890307823117 -0.19495532132032159 0 0.1114947258553544 -0.20096329752596731 0 0.1189922780306391 -0.19029631932683899 0 0.1114947258553544 -0.20096329752596731 0 0.1196688226134556 -0.19852928657166671 0 0.1189922780306391 -0.19029631932683899 0 0.1196688226134556 -0.19852928657166671 0 0.1230002356096771 -0.1898466095260338 0 0.1189922780306391 -0.19029631932683899 0 0.1230002356096771 -0.1898466095260338 0 0.1211701728431092 -0.1866805178411062 0 0.1230002356096771 -0.1898466095260338 0 0.1189922780306391 -0.19029631932683899 0 0.1230002356096771 -0.1898466095260338 0 0.1189922780306391 -0.19029631932683899 0 0.1211701728431092 -0.1866805178411062 0 0.10335825320856901 -0.21409497954000159 0 0.1099552228531985 -0.21004751916210559 0 0.11730726476013251 -0.2274576795476651 0 0.1099552228531985 -0.21004751916210559 0 0.11885045916928309 -0.21032894989521769 0 0.11730726476013251 -0.2274576795476651 0 0.1114947258553544 -0.20096329752596731 0 0.1196688226134556 -0.19852928657166671 0 0.11885045916928309 -0.21032894989521769 0 0.1114947258553544 -0.20096329752596731 0 0.1099552228531985 -0.21004751916210559 0 0.11885045916928309 -0.21032894989521769 0 0.1196688226134556 -0.19852928657166671 0 0.11885045916928309 -0.21032894989521769 0 0.12801886311926899 -0.2063418920433803 0 0.11885045916928309 -0.21032894989521769 0 0.12665785581428871 -0.21863402452052111 0 0.12801886311926899 -0.2063418920433803 0 0.11885045916928309 -0.21032894989521769 0 0.11730726476013251 -0.2274576795476651 0 0.12665785581428871 -0.21863402452052111 0 0.13030530462117779 -0.25171385039249911 0 0.1098468467805719 -0.25534289514537423 0 0.11730726476013251 -0.2274576795476651 0 0.1098468467805719 -0.25534289514537423 0 0.08808261842313625 -0.23979414114399519 0 0.1098468467805719 -0.25534289514537423 0 0.08808261842313625 -0.23979414114399519 0 0.11730726476013251 -0.2274576795476651 0 0.093196993264602859 -0.21848217668020131 0 0.11730726476013251 -0.2274576795476651 0 0.093196993264602859 -0.21848217668020131 0 0.10335825320856901 -0.21409497954000159 0 0.11730726476013251 -0.2274576795476651 0 0.08808261842313625 -0.23979414114399519 0 0.093196993264602859 -0.21848217668020131 0 0.11730726476013251 -0.2274576795476651 0 0.1067962713686072 -0.1618130156057751 0 0.095092007601663947 -0.1619273605000115 0 0.093045979163769027 -0.13802438572357231 0 0.10912614706383771 -0.1521042575344623 0 0.1067962713686072 -0.1618130156057751 0 0.093045979163769027 -0.13802438572357231 0 0.1067962713686072 -0.1618130156057751 0 0.093045979163769027 -0.13802438572357231 0 0.10912614706383771 -0.1521042575344623 0 0.1045890502912101 -0.13907905799389031 0 0.093045979163769027 -0.13802438572357231 0 0.10912614706383771 -0.1521042575344623 0 0.1045890502912101 -0.13907905799389031 0 0.1120874786856708 -0.13976417761338111 0 0.10912614706383771 -0.1521042575344623 0 0.1045890502912101 -0.13907905799389031 0 0.099909680728835923 -0.12564541852609071 0 0.1092046311408834 -0.12993949508832059 0 0.11642293311030801 -0.1216980300398442 0 0.1045890502912101 -0.13907905799389031 0 0.093045979163769027 -0.13802438572357231 0 0.099909680728835923 -0.12564541852609071 0 0.1045890502912101 -0.13907905799389031 0 0.093045979163769027 -0.13802438572357231 0 0.099909680728835923 -0.12564541852609071 0 0.089953618102384558 -0.13267446067066899 0 0.093045979163769027 -0.13802438572357231 0 0.099909680728835923 -0.12564541852609071 0 0.1092046311408834 -0.12993949508832059 0 0.1045890502912101 -0.13907905799389031 0 0.099909680728835923 -0.12564541852609071 0 0.1045890502912101 -0.13907905799389031 0 0.1092046311408834 -0.12993949508832059 0 0.1045890502912101 -0.13907905799389031 0 0.1120874786856708 -0.13976417761338111 0 0.1045890502912101 -0.13907905799389031 0 0.1120874786856708 -0.13976417761338111 0 0.1120874786856708 -0.13976417761338111 0 0.11642293311030801 -0.1216980300398442 0 0.12953710980066629 -0.12747703992295739 0 0.1120874786856708 -0.13976417761338111 0 0.11642293311030801 -0.1216980300398442 0 0.1092046311408834 -0.12993949508832059 0 0.1120874786856708 -0.13976417761338111 0 0.11642293311030801 -0.1216980300398442 0 0.10912614706383771 -0.1521042575344623 0 0.1120874786856708 -0.13976417761338111 0 0.1248017938381641 -0.15425177601001139 0 0.10912614706383771 -0.1521042575344623 0 0.1120874786856708 -0.13976417761338111 0 0.10912614706383771 -0.1521042575344623 0 0.1248017938381641 -0.15425177601001139 0 0.11514815995347311 -0.16939238768778439 0 0.1248017938381641 -0.15425177601001139 0 0.11514815995347311 -0.16939238768778439 0 0.1279792061784 -0.17002182338065941 0 0.10912614706383771 -0.1521042575344623 0 0.11514815995347311 -0.16939238768778439 0 0.1067962713686072 -0.1618130156057751 0 0.10912614706383771 -0.1521042575344623 0 0.11514815995347311 -0.16939238768778439 0 0.11514815995347311 -0.16939238768778439 0 0.1211701728431092 -0.1866805178411062 0 0.11514815995347311 -0.16939238768778439 0 0.1211701728431092 -0.1866805178411062 0 0.1279792061784 -0.17002182338065941 0 0.11514815995347311 -0.16939238768778439 0 0.1211701728431092 -0.1866805178411062 0 0.1067962713686072 -0.1618130156057751 0 0.1211701728431092 -0.1866805178411062 0 0.1103370924281132 -0.18214034869537429 0 0.1067962713686072 -0.1618130156057751 0 0.1211701728431092 -0.1866805178411062 0 0.1067962713686072 -0.1618130156057751 0 0.1189922780306391 -0.19029631932683899 0 0.1211701728431092 -0.1866805178411062 0 0.1103370924281132 -0.18214034869537429 0 0.1103370924281132 -0.18214034869537429 0 0.1031152940394847 -0.17715191047799811 0 0.1067962713686072 -0.1618130156057751 0 0.099434316710360737 -0.1924908053502207 0 0.1103370924281132 -0.18214034869537429 0 0.1031152940394847 -0.17715191047799811 0 0.1031152940394847 -0.17715191047799811 0 0.094028805343758196 -0.1830701304432793 0 0.088458916113960409 -0.17599205801342749 0 0.099434316710360737 -0.1924908053502207 0 0.1031152940394847 -0.17715191047799811 0 0.094028805343758196 -0.1830701304432793 0 0.099434316710360737 -0.1924908053502207 0 0.1031152940394847 -0.17715191047799811 0 0.10912614706383771 -0.1521042575344623 0 0.1067962713686072 -0.1618130156057751 0 0.1031152940394847 -0.17715191047799811 0 0.1067962713686072 -0.1618130156057751 0 0.1031152940394847 -0.17715191047799811 0 0.1067962713686072 -0.1618130156057751 0 0.095092007601663947 -0.1619273605000115 0 0.1031152940394847 -0.17715191047799811 0 0.095092007601663947 -0.1619273605000115 0 0.088458916113960409 -0.17599205801342749 0 0.095092007601663947 -0.1619273605000115 0 0.083733085923098582 -0.1659454228371062 0 0.071562325435092944 -0.15283575867917309 0 0.095092007601663947 -0.1619273605000115 0 0.071562325435092944 -0.15283575867917309 0 0.095092007601663947 -0.1619273605000115 0 0.083733085923098582 -0.1659454228371062 0 0.088458916113960409 -0.17599205801342749 0 0.083733085923098582 -0.1659454228371062 0 0.077081072526664102 -0.17439132914455169 0 0.073800279114056927 -0.16623731737256159 0 0.099434316710360737 -0.1924908053502207 0 0.094028805343758196 -0.1830701304432793 0 0.085106694511227751 -0.1866457479314714 0 0.094028805343758196 -0.1830701304432793 0 0.088458916113960409 -0.17599205801342749 0 0.085106694511227751 -0.1866457479314714 0 0.088458916113960409 -0.17599205801342749 0 0.080027175477577733 -0.1814174910341825 0 0.077081072526664102 -0.17439132914455169 0 0.083733085923098582 -0.1659454228371062 0 0.088458916113960409 -0.17599205801342749 0 0.077081072526664102 -0.17439132914455169 0 0.080027175477577733 -0.1814174910341825 0 0.085106694511227751 -0.1866457479314714 0 0.075438220569768233 -0.18735393523980201 0 0.088458916113960409 -0.17599205801342749 0 0.080027175477577733 -0.1814174910341825 0 0.085106694511227751 -0.1866457479314714 0 0.080027175477577733 -0.1814174910341825 0 0.075438220569768233 -0.18735393523980201 0 0.069461046689143949 -0.18313392937440121 0 0.070528021250506848 -0.1885513602907895 0 0.075438220569768233 -0.18735393523980201 0 0.069461046689143949 -0.18313392937440121 0 0.080027175477577733 -0.1814174910341825 0 0.077081072526664102 -0.17439132914455169 0 0.069461046689143949 -0.18313392937440121 0 0.077081072526664102 -0.17439132914455169 0 0.068143690751484881 -0.1744169183866198 0 0.069461046689143949 -0.18313392937440121 0 0.068143690751484881 -0.1744169183866198 0 0.069461046689143949 -0.18313392937440121 0 0.059483787581547869 -0.18170442396962291 0 0.065568378450866494 -0.1881086293542453 0 0.069461046689143949 -0.18313392937440121 0 0.059483787581547869 -0.18170442396962291 0 0.065568378450866494 -0.1881086293542453 0 0.070528021250506848 -0.1885513602907895 0 0.069461046689143949 -0.18313392937440121 0 0.065373691870598633 -0.16531244469758219 0 0.071562325435092944 -0.15283575867917309 0 0.052836605555974157 -0.15988614651918651 0 0.083733085923098582 -0.1659454228371062 0 0.073800279114056927 -0.16623731737256159 0 0.071562325435092944 -0.15283575867917309 0 0.077081072526664102 -0.17439132914455169 0 0.068143690751484881 -0.1744169183866198 0 0.073800279114056927 -0.16623731737256159 0 0.068143690751484881 -0.1744169183866198 0 0.065373691870598633 -0.16531244469758219 0 0.055082877238436009 -0.17219775707248419 0 0.068143690751484881 -0.1744169183866198 0 0.073800279114056927 -0.16623731737256159 0 0.065373691870598633 -0.16531244469758219 0 0.073800279114056927 -0.16623731737256159 0 0.065373691870598633 -0.16531244469758219 0 0.071562325435092944 -0.15283575867917309 0 0.071562325435092944 -0.15283575867917309 0 0.071190964369257453 -0.1360275273644162 0 0.048032643268521857 -0.14374415685833469 0 0.071562325435092944 -0.15283575867917309 0 0.085919091417936494 -0.1506734821475692 0 0.071190964369257453 -0.1360275273644162 0 0.085919091417936494 -0.1506734821475692 0 0.093045979163769027 -0.13802438572357231 0 0.071190964369257453 -0.1360275273644162 0 0.095092007601663947 -0.1619273605000115 0 0.085919091417936494 -0.1506734821475692 0 0.093045979163769027 -0.13802438572357231 0 0.095092007601663947 -0.1619273605000115 0 0.071562325435092944 -0.15283575867917309 0 0.085919091417936494 -0.1506734821475692 0 0.093045979163769027 -0.13802438572357231 0 0.071190964369257453 -0.1360275273644162 0 0.089953618102384558 -0.13267446067066899 0 0.093045979163769027 -0.13802438572357231 0 0.071190964369257453 -0.1360275273644162 0 0.089953618102384558 -0.13267446067066899 0 0.071190964369257453 -0.1360275273644162 0 0.080644562032837777 -0.1244758852451953 0 0.089953618102384558 -0.13267446067066899 0 0.090698233209482337 -0.1236934023489155 0 0.080644562032837777 -0.1244758852451953 0 0.099909680728835923 -0.12564541852609071 0 0.089953618102384558 -0.13267446067066899 0 0.090698233209482337 -0.1236934023489155 0 0.089953618102384558 -0.13267446067066899 0 0.093045979163769027 -0.13802438572357231 0 0.071190964369257453 -0.1360275273644162 0 0.080644562032837777 -0.1244758852451953 0 0.067731122654181797 -0.12127159924659529 0 0.071190964369257453 -0.1360275273644162 0 0.055802210644273167 -0.12941661148143671 0 0.067731122654181797 -0.12127159924659529 0 0.055802210644273167 -0.12941661148143671 0 0.048032643268521857 -0.14374415685833469 0 0.039891130144471078 -0.12770678273307881 0 0.071190964369257453 -0.1360275273644162 0 0.055802210644273167 -0.12941661148143671 0 0.048032643268521857 -0.14374415685833469 0 0.055802210644273167 -0.12941661148143671 0 0.039891130144471078 -0.12770678273307881 0 0.052165192784933617 -0.1183329912047585 0 0.071562325435092944 -0.15283575867917309 0 0.048032643268521857 -0.14374415685833469 0 0.071562325435092944 -0.15283575867917309 0 0.048032643268521857 -0.14374415685833469 0 0.052836605555974157 -0.15988614651918651 0 0.048032643268521857 -0.14374415685833469 0 0.031500123299621333 -0.1555229434395303 0 0.02450296110195082 -0.13465255503749629 0 0.048032643268521857 -0.14374415685833469 0 0.031500123299621333 -0.1555229434395303 0 0.052836605555974157 -0.15988614651918651 0 0.048032643268521857 -0.14374415685833469 0 0.039891130144471078 -0.12770678273307881 0 0.02450296110195082 -0.13465255503749629 0 0.048032643268521857 -0.14374415685833469 0 0.02450296110195082 -0.13465255503749629 0 0.056623924105620893 -0.1901020529857062 0 0.059483787581547869 -0.18170442396962291 0 0.044649510354758323 -0.1823768106776435 0 0.056623924105620893 -0.1901020529857062 0 0.065568378450866494 -0.1881086293542453 0 0.059483787581547869 -0.18170442396962291 0 0.068143690751484881 -0.1744169183866198 0 0.059483787581547869 -0.18170442396962291 0 0.055082877238436009 -0.17219775707248419 0 0.059483787581547869 -0.18170442396962291 0 0.055082877238436009 -0.17219775707248419 0 0.044649510354758323 -0.1823768106776435 0 0.055082877238436009 -0.17219775707248419 0 0.052836605555974157 -0.15988614651918651 0 0.040712396138330047 -0.1679434181381787 0 0.065373691870598633 -0.16531244469758219 0 0.055082877238436009 -0.17219775707248419 0 0.052836605555974157 -0.15988614651918651 0 0.031500123299621333 -0.1555229434395303 0 0.052836605555974157 -0.15988614651918651 0 0.040712396138330047 -0.1679434181381787 0 0.031500123299621333 -0.1555229434395303 0 0.040712396138330047 -0.1679434181381787 0 0.02710854067446853 -0.1741773063510329 0 0.040712396138330047 -0.1679434181381787 0 0.044649510354758323 -0.1823768106776435 0 0.02710854067446853 -0.1741773063510329 0 0.02954590911613578 -0.18860894302987399 0 0.044649510354758323 -0.1823768106776435 0 0.02710854067446853 -0.1741773063510329 0 0.055082877238436009 -0.17219775707248419 0 0.040712396138330047 -0.1679434181381787 0 0.044649510354758323 -0.1823768106776435 0 0.02954590911613578 -0.18860894302987399 0 0.016052248221291841 -0.18591827819781401 0 0.02710854067446853 -0.1741773063510329 0 0.016052248221291841 -0.18591827819781401 0 0.02710854067446853 -0.1741773063510329 0 0.016392003450230359 -0.17525439745689431 0 0.031500123299621333 -0.1555229434395303 0 0.02710854067446853 -0.1741773063510329 0 0.01360675259132159 -0.1620405147820331 0 0.02710854067446853 -0.1741773063510329 0 0.016392003450230359 -0.17525439745689431 0 0.01360675259132159 -0.1620405147820331 0 -0.0071662117369407511 -0.1594573083500663 0 -0.0027936417271558888 -0.17160499997831419 0 0.01360675259132159 -0.1620405147820331 0 -0.0027936417271558888 -0.17160499997831419 0 0.01360675259132159 -0.1620405147820331 0 0.0065003541806678677 -0.17804971003118211 0 0.016392003450230359 -0.17525439745689431 0 0.01360675259132159 -0.1620405147820331 0 0.0065003541806678677 -0.17804971003118211 0 0.016052248221291841 -0.18591827819781401 0 0.016392003450230359 -0.17525439745689431 0 0.0065003541806678677 -0.17804971003118211 0 0.0016359862684524481 -0.18942911992672809 0 0.016052248221291841 -0.18591827819781401 0 0.0065003541806678677 -0.17804971003118211 0 0.039891130144471078 -0.12770678273307881 0 0.02450296110195082 -0.13465255503749629 0 0.020845984505675989 -0.1194030207111056 0 0.031500123299621333 -0.1555229434395303 0 0.02450296110195082 -0.13465255503749629 0 0.01370096376678231 -0.1462165063904502 0 0.031500123299621333 -0.1555229434395303 0 0.01360675259132159 -0.1620405147820331 0 0.01370096376678231 -0.1462165063904502 0 -0.001961638116720686 -0.14592762570770251 0 0.01360675259132159 -0.1620405147820331 0 0.01370096376678231 -0.1462165063904502 0 -0.001961638116720686 -0.14592762570770251 0 -0.0071662117369407511 -0.1594573083500663 0 0.01360675259132159 -0.1620405147820331 0 -0.001961638116720686 -0.14592762570770251 0 0.01370096376678231 -0.1462165063904502 0 0.00097327893537976773 -0.12556095321665789 0 0.02450296110195082 -0.13465255503749629 0 0.01370096376678231 -0.1462165063904502 0 0.00097327893537976773 -0.12556095321665789 0 0.02450296110195082 -0.13465255503749629 0 0.00097327893537976773 -0.12556095321665789 0 0.02450296110195082 -0.13465255503749629 0 0.00097327893537976773 -0.12556095321665789 0 0.020845984505675989 -0.1194030207111056 0 0.00097327893537976773 -0.12556095321665789 0 0.0095766616345365624 -0.10943407541438099 0 0.020845984505675989 -0.1194030207111056 0 -0.0046917501264864738 -0.109536999488592 0 0.00097327893537976773 -0.12556095321665789 0 0.0095766616345365624 -0.10943407541438099 0 0.020845984505675989 -0.1194030207111056 0 0.02085337372521083 -0.1024308000074553 0 0.031805264648228797 -0.11288590966288919 0 0.039891130144471078 -0.12770678273307881 0 0.020845984505675989 -0.1194030207111056 0 0.031805264648228797 -0.11288590966288919 0 0.0095766616345365624 -0.10943407541438099 0 0.020845984505675989 -0.1194030207111056 0 0.02085337372521083 -0.1024308000074553 0 0.024655703728210712 -0.096716846110623908 0 0.02085337372521083 -0.1024308000074553 0 0.031535960934079718 -0.1005255860970397 0 0.024655703728210712 -0.096716846110623908 0 0.022818295740610561 -0.091759033940260679 0 0.028895372701738961 -0.093268235264061944 0 0.024655703728210712 -0.096716846110623908 0 0.028895372701738961 -0.093268235264061944 0 0.031535960934079718 -0.1005255860970397 0 0.02085337372521083 -0.1024308000074553 0 0.031805264648228797 -0.11288590966288919 0 0.031535960934079718 -0.1005255860970397 0 0.02085337372521083 -0.1024308000074553 0 0.01917551553941349 -0.095600575244301877 0 0.0111763630251587 -0.096810521470360789 0 0.024655703728210712 -0.096716846110623908 0 0.02085337372521083 -0.1024308000074553 0 0.01917551553941349 -0.095600575244301877 0 0.024655703728210712 -0.096716846110623908 0 0.01917551553941349 -0.095600575244301877 0 0.022818295740610561 -0.091759033940260679 0 0.0095766616345365624 -0.10943407541438099 0 0.02085337372521083 -0.1024308000074553 0 0.0111763630251587 -0.096810521470360789 0 0.0095766616345365624 -0.10943407541438099 0 0.0111763630251587 -0.096810521470360789 0 0.0035020423419337321 -0.1027647645242631 0 -0.0046917501264864738 -0.109536999488592 0 0.0095766616345365624 -0.10943407541438099 0 0.0035020423419337321 -0.1027647645242631 0 -0.001486005788280897 -0.093836698563745463 0 0.0111763630251587 -0.096810521470360789 0 0.0035020423419337321 -0.1027647645242631 0 -0.001486005788280897 -0.093836698563745463 0 0.020814034016459759 -0.087066173058126056 0 0.02006960007356872 -0.085323124788611621 0 -0.0043940961991456237 -0.077827853152212106 0 -0.001486005788280897 -0.093836698563745463 0 0.02006960007356872 -0.085323124788611621 0 -0.0043940961991456237 -0.077827853152212106 0 0.02006960007356872 -0.085323124788611621 0 -0.001486005788280897 -0.093836698563745463 0 0.0111763630251587 -0.096810521470360789 0 0.020814034016459759 -0.087066173058126056 0 -0.001486005788280897 -0.093836698563745463 0 0.020814034016459759 -0.087066173058126056 0 -0.002270358342688527 -0.056514906294131563 0 -0.0047140835063668339 -0.066015472085641277 0 0.01144204195165649 -0.06512220515280509 0 -0.0043940961991456237 -0.077827853152212106 0 0.01144204195165649 -0.06512220515280509 0 0.02006960007356872 -0.085323124788611621 0 -0.0047140835063668339 -0.066015472085641277 0 -0.0043940961991456237 -0.077827853152212106 0 0.01144204195165649 -0.06512220515280509 0 0.01144204195165649 -0.06512220515280509 0 0.02006960007356872 -0.085323124788611621 0 0.01144204195165649 -0.06512220515280509 0 0.022878622359135389 -0.075619399335460497 0 0.02006960007356872 -0.085323124788611621 0 0.01144204195165649 -0.06512220515280509 0 0.022878622359135389 -0.075619399335460497 0 0.02755138982372889 -0.068586609577214949 0 0.01144204195165649 -0.06512220515280509 0 0.02755138982372889 -0.068586609577214949 0 0.026778446426370509 -0.053980078351522437 0 0.022878622359135389 -0.075619399335460497 0 0.024700539017092741 -0.081015053061872525 0 0.031956862744491991 -0.076831087845115123 0 0.022878622359135389 -0.075619399335460497 0 0.02755138982372889 -0.068586609577214949 0 0.031956862744491991 -0.076831087845115123 0 0.023297609656272419 -0.086312133497581003 0 0.028895372701738961 -0.093268235264061944 0 0.039863527649355947 -0.091387656586172622 0 0.01917551553941349 -0.095600575244301877 0 0.020814034016459759 -0.087066173058126056 0 0.022818295740610561 -0.091759033940260679 0 0.01917551553941349 -0.095600575244301877 0 0.0111763630251587 -0.096810521470360789 0 0.020814034016459759 -0.087066173058126056 0 0.020814034016459759 -0.087066173058126056 0 0.023297609656272419 -0.086312133497581003 0 0.022818295740610561 -0.091759033940260679 0 0.020814034016459759 -0.087066173058126056 0 0.022818295740610561 -0.091759033940260679 0 0.020814034016459759 -0.087066173058126056 0 0.023297609656272419 -0.086312133497581003 0 0.02006960007356872 -0.085323124788611621 0 0.020814034016459759 -0.087066173058126056 0 0.02006960007356872 -0.085323124788611621 0 0.020814034016459759 -0.087066173058126056 0 0.023297609656272419 -0.086312133497581003 0 0.022878622359135389 -0.075619399335460497 0 0.02006960007356872 -0.085323124788611621 0 0.024700539017092741 -0.081015053061872525 0 0.023297609656272419 -0.086312133497581003 0 0.02006960007356872 -0.085323124788611621 0 0.024700539017092741 -0.081015053061872525 0 0.023297609656272419 -0.086312133497581003 0 0.02006960007356872 -0.085323124788611621 0 0.023297609656272419 -0.086312133497581003 0 0.024700539017092741 -0.081015053061872525 0 0.031956862744491991 -0.076831087845115123 0 0.023297609656272419 -0.086312133497581003 0 0.022818295740610561 -0.091759033940260679 0 0.028895372701738961 -0.093268235264061944 0 0.023297609656272419 -0.086312133497581003 0 0.039863527649355947 -0.091387656586172622 0 0.023297609656272419 -0.086312133497581003 0 0.04008312528245412 -0.081215875254676273 0 0.039863527649355947 -0.091387656586172622 0 0.023297609656272419 -0.086312133497581003 0 0.04008312528245412 -0.081215875254676273 0 0.031956862744491991 -0.076831087845115123 0 0.023297609656272419 -0.086312133497581003 0 0.04008312528245412 -0.081215875254676273 0 0.04008312528245412 -0.081215875254676273 0 0.039863527649355947 -0.091387656586172622 0 0.04935130387097339 -0.086498463696628128 0 0.02755138982372889 -0.068586609577214949 0 0.043009316057681157 -0.068672787519302933 0 0.026778446426370509 -0.053980078351522437 0 0.02755138982372889 -0.068586609577214949 0 0.031956862744491991 -0.076831087845115123 0 0.043009316057681157 -0.068672787519302933 0 0.04008312528245412 -0.081215875254676273 0 0.031956862744491991 -0.076831087845115123 0 0.043009316057681157 -0.068672787519302933 0 0.04008312528245412 -0.081215875254676273 0 0.043009316057681157 -0.068672787519302933 0 0.051865116811548567 -0.077113111900188519 0 0.043009316057681157 -0.068672787519302933 0 0.051865116811548567 -0.077113111900188519 0 0.055882918556785677 -0.064076933684176288 0 0.051865116811548567 -0.077113111900188519 0 0.055882918556785677 -0.064076933684176288 0 0.065482978514314033 -0.075136164058993302 0 0.039863527649355947 -0.091387656586172622 0 0.04935130387097339 -0.086498463696628128 0 0.056429445642439187 -0.096463179674765254 0 0.051865116811548567 -0.077113111900188519 0 0.04935130387097339 -0.086498463696628128 0 0.058409596281319788 -0.085119105832688155 0 0.04008312528245412 -0.081215875254676273 0 0.051865116811548567 -0.077113111900188519 0 0.04935130387097339 -0.086498463696628128 0 0.051865116811548567 -0.077113111900188519 0 0.058409596281319788 -0.085119105832688155 0 0.065482978514314033 -0.075136164058993302 0 0.058409596281319788 -0.085119105832688155 0 0.056429445642439187 -0.096463179674765254 0 0.068707721191825111 -0.087997831363566009 0 0.04935130387097339 -0.086498463696628128 0 0.058409596281319788 -0.085119105832688155 0 0.056429445642439187 -0.096463179674765254 0 0.039863527649355947 -0.091387656586172622 0 0.056429445642439187 -0.096463179674765254 0 0.04522948421418977 -0.1045656175993928 0 0.039863527649355947 -0.091387656586172622 0 0.056429445642439187 -0.096463179674765254 0 0.056429445642439187 -0.096463179674765254 0 0.062081714646220851 -0.1094368546060762 0 0.04522948421418977 -0.1045656175993928 0 0.062081714646220851 -0.1094368546060762 0 0.052165192784933617 -0.1183329912047585 0 0.04522948421418977 -0.1045656175993928 0 0.062081714646220851 -0.1094368546060762 0 0.052165192784933617 -0.1183329912047585 0 0.067731122654181797 -0.12127159924659529 0 0.055802210644273167 -0.12941661148143671 0 0.052165192784933617 -0.1183329912047585 0 0.067731122654181797 -0.12127159924659529 0 0.039891130144471078 -0.12770678273307881 0 0.052165192784933617 -0.1183329912047585 0 0.031805264648228797 -0.11288590966288919 0 0.052165192784933617 -0.1183329912047585 0 0.031805264648228797 -0.11288590966288919 0 0.04522948421418977 -0.1045656175993928 0 0.031805264648228797 -0.11288590966288919 0 0.031535960934079718 -0.1005255860970397 0 0.04522948421418977 -0.1045656175993928 0 0.039863527649355947 -0.091387656586172622 0 0.031535960934079718 -0.1005255860970397 0 0.04522948421418977 -0.1045656175993928 0 0.028895372701738961 -0.093268235264061944 0 0.039863527649355947 -0.091387656586172622 0 0.031535960934079718 -0.1005255860970397 0 0.015761146306078541 -0.0038236511103695108 0 0.031887799945019148 -0.025934730650830101 0 0.043869542357556447 -0.0077626595509977673 0 -0.005813074292167866 -0.02472036588119195 0 -0.003591099751689746 -0.01018299648410826 0 0.015761146306078541 -0.0038236511103695108 0 -0.005813074292167866 -0.02472036588119195 0 0.015761146306078541 -0.0038236511103695108 0 -0.003591099751689746 -0.01018299648410826 0 -0.0052482603672307157 0.002057095947941197 0 0.015761146306078541 -0.0038236511103695108 0 -0.005813074292167866 -0.02472036588119195 0 0.01198857887871106 -0.021384126848161409 0 0.01054757679505991 -0.039287369183742003 0 -0.005813074292167866 -0.02472036588119195 0 0.015761146306078541 -0.0038236511103695108 0 0.01198857887871106 -0.021384126848161409 0 0.01198857887871106 -0.021384126848161409 0 0.019951715723025541 -0.031256228063693173 0 0.01054757679505991 -0.039287369183742003 0 0.01198857887871106 -0.021384126848161409 0 0.019951715723025541 -0.031256228063693173 0 0.031887799945019148 -0.025934730650830101 0 0.015761146306078541 -0.0038236511103695108 0 0.01198857887871106 -0.021384126848161409 0 0.031887799945019148 -0.025934730650830101 0 0.01054757679505991 -0.039287369183742003 0 0.026778446426370509 -0.053980078351522437 0 0.025382907273312019 -0.038418685572039202 0 0.01054757679505991 -0.039287369183742003 0 0.026778446426370509 -0.053980078351522437 0 0.025382907273312019 -0.038418685572039202 0 0.019951715723025541 -0.031256228063693173 0 0.031887799945019148 -0.025934730650830101 0 0.025382907273312019 -0.038418685572039202 0 0.026778446426370509 -0.053980078351522437 0 0.039978175599103841 -0.039853641726578973 0 0.025382907273312019 -0.038418685572039202 0 0.019951715723025541 -0.031256228063693173 0 0.01054757679505991 -0.039287369183742003 0 -0.005813074292167866 -0.02472036588119195 0 0.01054757679505991 -0.039287369183742003 0 -0.005813074292167866 -0.02472036588119195 0 0.00046642337409628362 -0.033380920149473532 0 0.01054757679505991 -0.039287369183742003 0 0.00046642337409628362 -0.033380920149473532 0 0.002814483829744151 -0.044921285516998553 0 0.01054757679505991 -0.039287369183742003 0 0.002814483829744151 -0.044921285516998553 0 0.01054757679505991 -0.039287369183742003 0 0.01385249237214156 -0.051947849959649899 0 0.01144204195165649 -0.06512220515280509 0 0.002814483829744151 -0.044921285516998553 0 -0.002270358342688527 -0.056514906294131563 0 0.01144204195165649 -0.06512220515280509 0 0.002814483829744151 -0.044921285516998553 0 0.01144204195165649 -0.06512220515280509 0 0.002814483829744151 -0.044921285516998553 0 0.01385249237214156 -0.051947849959649899 0 0.01144204195165649 -0.06512220515280509 0 0.01385249237214156 -0.051947849959649899 0 0.026778446426370509 -0.053980078351522437 0 0.01054757679505991 -0.039287369183742003 0 0.01385249237214156 -0.051947849959649899 0 0.026778446426370509 -0.053980078351522437 0 0.043009316057681157 -0.068672787519302933 0 0.026778446426370509 -0.053980078351522437 0 0.043009316057681157 -0.068672787519302933 0 0.026778446426370509 -0.053980078351522437 0 0.043460674673095723 -0.052950365682729407 0 0.026778446426370509 -0.053980078351522437 0 0.043460674673095723 -0.052950365682729407 0 0.039978175599103841 -0.039853641726578973 0 0.055882918556785677 -0.064076933684176288 0 0.043460674673095723 -0.052950365682729407 0 0.058025021219869327 -0.048116690935826878 0 0.043009316057681157 -0.068672787519302933 0 0.055882918556785677 -0.064076933684176288 0 0.043460674673095723 -0.052950365682729407 0 0.043460674673095723 -0.052950365682729407 0 0.058025021219869327 -0.048116690935826878 0 0.039978175599103841 -0.039853641726578973 0 0.058025021219869327 -0.048116690935826878 0 0.039978175599103841 -0.039853641726578973 0 0.054907284378519217 -0.029782588519674458 0 0.039978175599103841 -0.039853641726578973 0 0.031887799945019148 -0.025934730650830101 0 0.054907284378519217 -0.029782588519674458 0 0.025382907273312019 -0.038418685572039202 0 0.039978175599103841 -0.039853641726578973 0 0.031887799945019148 -0.025934730650830101 0 0.031887799945019148 -0.025934730650830101 0 0.054907284378519217 -0.029782588519674458 0 0.031887799945019148 -0.025934730650830101 0 0.054907284378519217 -0.029782588519674458 0 0.043869542357556447 -0.0077626595509977673 0 0.054907284378519217 -0.029782588519674458 0 0.043869542357556447 -0.0077626595509977673 0 0.067144851277335119 -0.007206669998643612 0 0.053889019005023207 0.0042927930963859544 0 0.043869542357556447 -0.0077626595509977673 0 0.067144851277335119 -0.007206669998643612 0 0.084556828012583282 0.01000373329485589 0 0.089186898378300156 -0.01154008688884384 0 0.067144851277335119 -0.007206669998643612 0 0.089186898378300156 -0.01154008688884384 0 0.067144851277335119 -0.007206669998643612 0 0.077926768812019404 -0.033630446388518843 0 0.054907284378519217 -0.029782588519674458 0 0.067144851277335119 -0.007206669998643612 0 0.077926768812019404 -0.033630446388518843 0 0.089186898378300156 -0.01154008688884384 0 0.077926768812019404 -0.033630446388518843 0 0.09459958342136604 -0.025150419533090801 0 0.077926768812019404 -0.033630446388518843 0 0.1009462532455197 -0.037478304257363239 0 0.09459958342136604 -0.025150419533090801 0 0.077926768812019404 -0.033630446388518843 0 0.091386014674011709 -0.052624314090671448 0 0.1009462532455197 -0.037478304257363239 0 0.077926768812019404 -0.033630446388518843 0 0.1009462532455197 -0.037478304257363239 0 0.058025021219869327 -0.048116690935826878 0 0.054907284378519217 -0.029782588519674458 0 0.077926768812019404 -0.033630446388518843 0 0.054907284378519217 -0.029782588519674458 0 0.077926768812019404 -0.033630446388518843 0 0.058025021219869327 -0.048116690935826878 0 0.077926768812019404 -0.033630446388518843 0 0.074437849199509451 -0.060610489339682973 0 0.055882918556785677 -0.064076933684176288 0 0.058025021219869327 -0.048116690935826878 0 0.074437849199509451 -0.060610489339682973 0 0.077926768812019404 -0.033630446388518843 0 0.074437849199509451 -0.060610489339682973 0 0.091386014674011709 -0.052624314090671448 0 0.074437849199509451 -0.060610489339682973 0 0.091386014674011709 -0.052624314090671448 0 0.093152874319708576 -0.072279773013425155 0 0.091386014674011709 -0.052624314090671448 0 0.10625652198515689 -0.051961469844469102 0 0.10463441127537471 -0.063286570905653844 0 0.091386014674011709 -0.052624314090671448 0 0.10625652198515689 -0.051961469844469102 0 0.1009462532455197 -0.037478304257363239 0 0.10625652198515689 -0.051961469844469102 0 0.1169753620245431 -0.058876438298848838 0 0.10463441127537471 -0.063286570905653844 0 0.1169753620245431 -0.058876438298848838 0 0.12753710148152739 -0.064064359383813885 0 0.1263896195983534 -0.05526283316926122 0 0.1169753620245431 -0.058876438298848838 0 0.11870082575561661 -0.04838313961075396 0 0.1263896195983534 -0.05526283316926122 0 0.10625652198515689 -0.051961469844469102 0 0.1169753620245431 -0.058876438298848838 0 0.11870082575561661 -0.04838313961075396 0 0.1239657376790199 -0.041326162126207627 0 0.1141737357032048 -0.032983190586059162 0 0.1009462532455197 -0.037478304257363239 0 0.1239657376790199 -0.041326162126207627 0 0.1009462532455197 -0.037478304257363239 0 0.11870082575561661 -0.04838313961075396 0 0.1239657376790199 -0.041326162126207627 0 0.1009462532455197 -0.037478304257363239 0 0.1239657376790199 -0.041326162126207627 0 0.1141737357032048 -0.032983190586059162 0 0.1226539808874151 -0.030496225948438659 0 0.10625652198515689 -0.051961469844469102 0 0.11870082575561661 -0.04838313961075396 0 0.1009462532455197 -0.037478304257363239 0 0.1141737357032048 -0.032983190586059162 0 0.1009462532455197 -0.037478304257363239 0 0.1087586669489151 -0.0216652839100068 0 0.089186898378300156 -0.01154008688884384 0 0.09459958342136604 -0.025150419533090801 0 0.1087586669489151 -0.0216652839100068 0 0.1009462532455197 -0.037478304257363239 0 0.09459958342136604 -0.025150419533090801 0 0.1087586669489151 -0.0216652839100068 0 0.1141737357032048 -0.032983190586059162 0 0.1087586669489151 -0.0216652839100068 0 0.1226539808874151 -0.030496225948438659 0 0.1087586669489151 -0.0216652839100068 0 0.1226539808874151 -0.030496225948438659 0 0.12393650221369951 -0.021609014464034629 0 0.12393650221369951 -0.021609014464034629 0 0.11675377676727081 -0.01480818933591692 0 0.12841031517753559 -0.01227045841761109 0 0.1087586669489151 -0.0216652839100068 0 0.12393650221369951 -0.021609014464034629 0 0.11675377676727081 -0.01480818933591692 0 0.1056520675443042 0.003104773780823032 0 0.11675377676727081 -0.01480818933591692 0 0.11984634273594361 -0.0067088348150204646 0 0.1056520675443042 0.003104773780823032 0 0.12420808900298839 -0.002963763179494149 0 0.11984634273594361 -0.0067088348150204646 0 0.1056520675443042 0.003104773780823032 0 0.1087586669489151 -0.0216652839100068 0 0.11675377676727081 -0.01480818933591692 0 0.11675377676727081 -0.01480818933591692 0 0.11984634273594361 -0.0067088348150204646 0 0.12841031517753559 -0.01227045841761109 0 0.12420808900298839 -0.002963763179494149 0 0.11984634273594361 -0.0067088348150204646 0 0.12841031517753559 -0.01227045841761109 0 0.12420808900298839 -0.002963763179494149 0 0.11984634273594361 -0.0067088348150204646 0 0.1056520675443042 0.003104773780823032 0 0.1087586669489151 -0.0216652839100068 0 0.1056520675443042 0.003104773780823032 0 0.089186898378300156 -0.01154008688884384 0 0.1087586669489151 -0.0216652839100068 0 0.088462600597529292 -0.10515032802088679 0 0.072020560235780809 -0.1006098817121214 0 0.080179901683113369 -0.091831994740481676 0 0.088462600597529292 -0.10515032802088679 0 0.076086717765334516 -0.1136521205118496 0 0.072020560235780809 -0.1006098817121214 0 0.088462600597529292 -0.10515032802088679 0 0.080179901683113369 -0.091831994740481676 0 0.09207905740015801 -0.090266576987082806 0 0.088462600597529292 -0.10515032802088679 0 0.086635719936435568 -0.1178407640630784 0 0.097566293966351386 -0.1168253179435232 0 0.086635719936435568 -0.1178407640630784 0 0.090698233209482337 -0.1236934023489155 0 0.097566293966351386 -0.1168253179435232 0 0.086635719936435568 -0.1178407640630784 0 0.090698233209482337 -0.1236934023489155 0 0.080644562032837777 -0.1244758852451953 0 0.086635719936435568 -0.1178407640630784 0 0.080644562032837777 -0.1244758852451953 0 0.076086717765334516 -0.1136521205118496 0 0.088462600597529292 -0.10515032802088679 0 0.086635719936435568 -0.1178407640630784 0 0.076086717765334516 -0.1136521205118496 0 0.080644562032837777 -0.1244758852451953 0 0.076086717765334516 -0.1136521205118496 0 0.067731122654181797 -0.12127159924659529 0 0.062081714646220851 -0.1094368546060762 0 0.076086717765334516 -0.1136521205118496 0 0.067731122654181797 -0.12127159924659529 0 0.062081714646220851 -0.1094368546060762 0 0.076086717765334516 -0.1136521205118496 0 0.072020560235780809 -0.1006098817121214 0 0.056429445642439187 -0.096463179674765254 0 0.062081714646220851 -0.1094368546060762 0 0.072020560235780809 -0.1006098817121214 0 0.056429445642439187 -0.096463179674765254 0 0.072020560235780809 -0.1006098817121214 0 0.068707721191825111 -0.087997831363566009 0 0.058409596281319788 -0.085119105832688155 0 0.068707721191825111 -0.087997831363566009 0 0.065482978514314033 -0.075136164058993302 0 0.068707721191825111 -0.087997831363566009 0 0.065482978514314033 -0.075136164058993302 0 0.079404325850840618 -0.078888239618752021 0 0.068707721191825111 -0.087997831363566009 0 0.080179901683113369 -0.091831994740481676 0 0.079404325850840618 -0.078888239618752021 0 0.072020560235780809 -0.1006098817121214 0 0.068707721191825111 -0.087997831363566009 0 0.080179901683113369 -0.091831994740481676 0 0.074437849199509451 -0.060610489339682973 0 0.065482978514314033 -0.075136164058993302 0 0.079404325850840618 -0.078888239618752021 0 0.055882918556785677 -0.064076933684176288 0 0.074437849199509451 -0.060610489339682973 0 0.065482978514314033 -0.075136164058993302 0 0.074437849199509451 -0.060610489339682973 0 0.093152874319708576 -0.072279773013425155 0 0.079404325850840618 -0.078888239618752021 0 0.093152874319708576 -0.072279773013425155 0 0.079404325850840618 -0.078888239618752021 0 0.09207905740015801 -0.090266576987082806 0 0.080179901683113369 -0.091831994740481676 0 0.079404325850840618 -0.078888239618752021 0 0.09207905740015801 -0.090266576987082806 0 0.093152874319708576 -0.072279773013425155 0 0.09207905740015801 -0.090266576987082806 0 0.1080060457342391 -0.086525161866627481 0 0.091386014674011709 -0.052624314090671448 0 0.093152874319708576 -0.072279773013425155 0 0.10463441127537471 -0.063286570905653844 0 0.093152874319708576 -0.072279773013425155 0 0.1060235501964035 -0.073833675858822903 0 0.10463441127537471 -0.063286570905653844 0 0.093152874319708576 -0.072279773013425155 0 0.1080060457342391 -0.086525161866627481 0 0.1060235501964035 -0.073833675858822903 0 0.1169753620245431 -0.058876438298848838 0 0.10463441127537471 -0.063286570905653844 0 0.1183008694562916 -0.073243197649585201 0 0.1060235501964035 -0.073833675858822903 0 0.10463441127537471 -0.063286570905653844 0 0.1183008694562916 -0.073243197649585201 0 0.1080060457342391 -0.086525161866627481 0 0.1060235501964035 -0.073833675858822903 0 0.1183008694562916 -0.073243197649585201 0 0.1169753620245431 -0.058876438298848838 0 0.1183008694562916 -0.073243197649585201 0 0.12753710148152739 -0.064064359383813885 0 0.1080060457342391 -0.086525161866627481 0 0.1235955556178156 -0.084357848161504656 0 0.1272061832629191 -0.098103058097758461 0 0.1080060457342391 -0.086525161866627481 0 0.1183008694562916 -0.073243197649585201 0 0.1235955556178156 -0.084357848161504656 0 0.1183008694562916 -0.073243197649585201 0 0.1235955556178156 -0.084357848161504656 0 0.1321625882477756 -0.077281253642364545 0 0.1080060457342391 -0.086525161866627481 0 0.1032685962155173 -0.10692396466232371 0 0.1272061832629191 -0.098103058097758461 0 0.1032685962155173 -0.10692396466232371 0 0.11642293311030801 -0.1216980300398442 0 0.1272061832629191 -0.098103058097758461 0 0.1032685962155173 -0.10692396466232371 0 0.1272061832629191 -0.098103058097758461 0 0.09207905740015801 -0.090266576987082806 0 0.1080060457342391 -0.086525161866627481 0 0.1032685962155173 -0.10692396466232371 0 0.088462600597529292 -0.10515032802088679 0 0.09207905740015801 -0.090266576987082806 0 0.1032685962155173 -0.10692396466232371 0 0.1032685962155173 -0.10692396466232371 0 0.097566293966351386 -0.1168253179435232 0 0.11642293311030801 -0.1216980300398442 0 0.099909680728835923 -0.12564541852609071 0 0.097566293966351386 -0.1168253179435232 0 0.11642293311030801 -0.1216980300398442 0 0.099909680728835923 -0.12564541852609071 0 0.090698233209482337 -0.1236934023489155 0 0.097566293966351386 -0.1168253179435232 0 0.088462600597529292 -0.10515032802088679 0 0.1032685962155173 -0.10692396466232371 0 0.097566293966351386 -0.1168253179435232 0 0.13248068896082241 -0.1146307798341423 0 0.14627069365861661 -0.1189389935120195 0 0.12953710980066629 -0.12747703992295739 0 0.11642293311030801 -0.1216980300398442 0 0.13248068896082241 -0.1146307798341423 0 0.12953710980066629 -0.12747703992295739 0 0.11642293311030801 -0.1216980300398442 0 0.13248068896082241 -0.1146307798341423 0 0.1272061832629191 -0.098103058097758461 0 0.13248068896082241 -0.1146307798341423 0 0.14627069365861661 -0.1189389935120195 0 0.1423033060714782 -0.1044530059177648 0 0.14627069365861661 -0.1189389935120195 0 0.15567141389554681 -0.1023731318731408 0 0.1628793649655452 -0.11421648091732629 0 0.14627069365861661 -0.1189389935120195 0 0.15567141389554681 -0.1023731318731408 0 0.1423033060714782 -0.1044530059177648 0 0.15567141389554681 -0.1023731318731408 0 0.1423033060714782 -0.1044530059177648 0 0.15114377031032089 -0.089282151533193202 0 0.1423033060714782 -0.1044530059177648 0 0.1272061832629191 -0.098103058097758461 0 0.15114377031032089 -0.089282151533193202 0 0.13248068896082241 -0.1146307798341423 0 0.1423033060714782 -0.1044530059177648 0 0.1272061832629191 -0.098103058097758461 0 0.1272061832629191 -0.098103058097758461 0 0.15114377031032089 -0.089282151533193202 0 0.1272061832629191 -0.098103058097758461 0 0.14165450669000521 -0.086365046262992851 0 0.15114377031032089 -0.089282151533193202 0 0.1235955556178156 -0.084357848161504656 0 0.1272061832629191 -0.098103058097758461 0 0.1311547084546289 -0.086526801541155121 0 0.1235955556178156 -0.084357848161504656 0 0.1311547084546289 -0.086526801541155121 0 0.1321625882477756 -0.077281253642364545 0 0.1321625882477756 -0.077281253642364545 0 0.1442231078475644 -0.071964549884660611 0 0.14165450669000521 -0.086365046262992851 0 0.1311547084546289 -0.086526801541155121 0 0.1321625882477756 -0.077281253642364545 0 0.14165450669000521 -0.086365046262992851 0 0.1272061832629191 -0.098103058097758461 0 0.1311547084546289 -0.086526801541155121 0 0.14165450669000521 -0.086365046262992851 0 0.12753710148152739 -0.064064359383813885 0 0.1321625882477756 -0.077281253642364545 0 0.13862626605661779 -0.065843042537825552 0 0.1183008694562916 -0.073243197649585201 0 0.12753710148152739 -0.064064359383813885 0 0.1321625882477756 -0.077281253642364545 0 0.1321625882477756 -0.077281253642364545 0 0.13862626605661779 -0.065843042537825552 0 0.1442231078475644 -0.071964549884660611 0 0.1442231078475644 -0.071964549884660611 0 0.14165450669000521 -0.086365046262992851 0 0.15927827233784619 -0.070055488041857905 0 0.13862626605661779 -0.065843042537825552 0 0.1442231078475644 -0.071964549884660611 0 0.14796246809155339 -0.061430138299126837 0 0.1442231078475644 -0.071964549884660611 0 0.15927827233784619 -0.070055488041857905 0 0.14796246809155339 -0.061430138299126837 0 0.14165450669000521 -0.086365046262992851 0 0.15114377031032089 -0.089282151533193202 0 0.15927827233784619 -0.070055488041857905 0 0.14165450669000521 -0.086365046262992851 0 0.15927827233784619 -0.070055488041857905 0 0.15114377031032089 -0.089282151533193202 0 0.17508135735772279 -0.080461244968627887 0 0.16297700752441319 -0.093246359137574591 0 0.17508135735772279 -0.080461244968627887 0 0.17001148853406239 -0.1008689081753366 0 0.15114377031032089 -0.089282151533193202 0 0.15927827233784619 -0.070055488041857905 0 0.17508135735772279 -0.080461244968627887 0 0.15114377031032089 -0.089282151533193202 0 0.16297700752441319 -0.093246359137574591 0 0.17508135735772279 -0.080461244968627887 0 0.15927827233784619 -0.070055488041857905 0 0.17566099730552059 -0.068123746586664174 0 0.17508135735772279 -0.080461244968627887 0 0.15927827233784619 -0.070055488041857905 0 0.17566099730552059 -0.068123746586664174 0 0.17690203798568721 -0.053745929820722932 0 0.17566099730552059 -0.068123746586664174 0 0.17508135735772279 -0.080461244968627887 0 0.19138232154082629 -0.068232323515447932 0 0.17566099730552059 -0.068123746586664174 0 0.17690203798568721 -0.053745929820722932 0 0.19138232154082629 -0.068232323515447932 0 0.17508135735772279 -0.080461244968627887 0 0.18864089953473381 -0.081556978129937827 0 0.19138232154082629 -0.068232323515447932 0 0.17508135735772279 -0.080461244968627887 0 0.17001148853406239 -0.1008689081753366 0 0.18783886002431541 -0.095543680570539483 0 0.17508135735772279 -0.080461244968627887 0 0.18783886002431541 -0.095543680570539483 0 0.18864089953473381 -0.081556978129937827 0 0.17766990605787211 -0.1208315161390057 0 0.17001148853406239 -0.1008689081753366 0 0.18783886002431541 -0.095543680570539483 0 0.14627069365861661 -0.1189389935120195 0 0.1628793649655452 -0.11421648091732629 0 0.16013015137076411 -0.12831723327391331 0 0.17766990605787211 -0.1208315161390057 0 0.1628793649655452 -0.11421648091732629 0 0.16013015137076411 -0.12831723327391331 0 0.17766990605787211 -0.1208315161390057 0 0.1628793649655452 -0.11421648091732629 0 0.17001148853406239 -0.1008689081753366 0 0.15567141389554681 -0.1023731318731408 0 0.1628793649655452 -0.11421648091732629 0 0.17001148853406239 -0.1008689081753366 0 0.15567141389554681 -0.1023731318731408 0 0.16297700752441319 -0.093246359137574591 0 0.17001148853406239 -0.1008689081753366 0 0.15567141389554681 -0.1023731318731408 0 0.15114377031032089 -0.089282151533193202 0 0.16297700752441319 -0.093246359137574591 0 0.1384549886407869 -0.0076230505819373006 0 0.1392062105592371 -0.02646710384452387 0 0.1597115953628577 -0.004551068078293679 0 0.15185178981994291 0.0051732104260197066 0 0.1384549886407869 -0.0076230505819373006 0 0.1597115953628577 -0.004551068078293679 0 0.1392062105592371 -0.02646710384452387 0 0.1597115953628577 -0.004551068078293679 0 0.1384549886407869 -0.0076230505819373006 0 0.12841031517753559 -0.01227045841761109 0 0.1392062105592371 -0.02646710384452387 0 0.12420808900298839 -0.002963763179494149 0 0.1384549886407869 -0.0076230505819373006 0 0.12841031517753559 -0.01227045841761109 0 0.12420808900298839 -0.002963763179494149 0 0.1384549886407869 -0.0076230505819373006 0 0.1226539808874151 -0.030496225948438659 0 0.12393650221369951 -0.021609014464034629 0 0.1392062105592371 -0.02646710384452387 0 0.12393650221369951 -0.021609014464034629 0 0.12841031517753559 -0.01227045841761109 0 0.1392062105592371 -0.02646710384452387 0 0.1392062105592371 -0.02646710384452387 0 0.15860008587995661 -0.024584637107986581 0 0.1597115953628577 -0.004551068078293679 0 0.1392062105592371 -0.02646710384452387 0 0.14850597441633751 -0.036665465879592761 0 0.15860008587995661 -0.024584637107986581 0 0.1392062105592371 -0.02646710384452387 0 0.14850597441633751 -0.036665465879592761 0 0.1346394707701534 -0.047326478836501477 0 0.14850597441633751 -0.036665465879592761 0 0.1606162240999495 -0.036791718559952127 0 0.15860008587995661 -0.024584637107986581 0 0.14850597441633751 -0.036665465879592761 0 0.14946788077239101 -0.048157391048999729 0 0.1606162240999495 -0.036791718559952127 0 0.14850597441633751 -0.036665465879592761 0 0.1346394707701534 -0.047326478836501477 0 0.14946788077239101 -0.048157391048999729 0 0.11870082575561661 -0.04838313961075396 0 0.1392062105592371 -0.02646710384452387 0 0.1346394707701534 -0.047326478836501477 0 0.11870082575561661 -0.04838313961075396 0 0.1239657376790199 -0.041326162126207627 0 0.1392062105592371 -0.02646710384452387 0 0.11870082575561661 -0.04838313961075396 0 0.1392062105592371 -0.02646710384452387 0 0.1239657376790199 -0.041326162126207627 0 0.1226539808874151 -0.030496225948438659 0 0.1392062105592371 -0.02646710384452387 0 0.11870082575561661 -0.04838313961075396 0 0.1346394707701534 -0.047326478836501477 0 0.1263896195983534 -0.05526283316926122 0 0.1346394707701534 -0.047326478836501477 0 0.13743713446176609 -0.057014040545921449 0 0.14946788077239101 -0.048157391048999729 0 0.1346394707701534 -0.047326478836501477 0 0.1263896195983534 -0.05526283316926122 0 0.13743713446176609 -0.057014040545921449 0 0.12753710148152739 -0.064064359383813885 0 0.1263896195983534 -0.05526283316926122 0 0.13743713446176609 -0.057014040545921449 0 0.12753710148152739 -0.064064359383813885 0 0.13862626605661779 -0.065843042537825552 0 0.13743713446176609 -0.057014040545921449 0 0.13743713446176609 -0.057014040545921449 0 0.14796246809155339 -0.061430138299126837 0 0.14946788077239101 -0.048157391048999729 0 0.13862626605661779 -0.065843042537825552 0 0.13743713446176609 -0.057014040545921449 0 0.14796246809155339 -0.061430138299126837 0 0.14796246809155339 -0.061430138299126837 0 0.14946788077239101 -0.048157391048999729 0 0.16208394357497449 -0.054896608565029328 0 0.15927827233784619 -0.070055488041857905 0 0.16208394357497449 -0.054896608565029328 0 0.17690203798568721 -0.053745929820722932 0 0.15927827233784619 -0.070055488041857905 0 0.17690203798568721 -0.053745929820722932 0 0.15927827233784619 -0.070055488041857905 0 0.14796246809155339 -0.061430138299126837 0 0.16208394357497449 -0.054896608565029328 0 0.14946788077239101 -0.048157391048999729 0 0.16208394357497449 -0.054896608565029328 0 0.1634140009256374 -0.04614834212851076 0 0.16208394357497449 -0.054896608565029328 0 0.17690203798568721 -0.053745929820722932 0 0.1733745462274856 -0.050216949592563287 0 0.16208394357497449 -0.054896608565029328 0 0.1733745462274856 -0.050216949592563287 0 0.1634140009256374 -0.04614834212851076 0 0.17690203798568721 -0.053745929820722932 0 0.1733745462274856 -0.050216949592563287 0 0.1768197240792993 -0.037512748509512667 0 0.17690203798568721 -0.053745929820722932 0 0.19138232154082629 -0.068232323515447932 0 0.17690203798568721 -0.053745929820722932 0 0.1733745462274856 -0.050216949592563287 0 0.17690203798568721 -0.053745929820722932 0 0.1768197240792993 -0.037512748509512667 0 0.19645679041635619 -0.035649378854219822 0 0.1733745462274856 -0.050216949592563287 0 0.1768197240792993 -0.037512748509512667 0 0.16866766007277989 -0.039682028207505222 0 0.17690203798568721 -0.053745929820722932 0 0.19645679041635619 -0.035649378854219822 0 0.16866766007277989 -0.039682028207505222 0 0.1606162240999495 -0.036791718559952127 0 0.1676494897986677 -0.03112318801030611 0 0.1768197240792993 -0.037512748509512667 0 0.16866766007277989 -0.039682028207505222 0 0.1676494897986677 -0.03112318801030611 0 0.16866766007277989 -0.039682028207505222 0 0.1634140009256374 -0.04614834212851076 0 0.1606162240999495 -0.036791718559952127 0 0.1733745462274856 -0.050216949592563287 0 0.16866766007277989 -0.039682028207505222 0 0.1634140009256374 -0.04614834212851076 0 0.14946788077239101 -0.048157391048999729 0 0.1634140009256374 -0.04614834212851076 0 0.1606162240999495 -0.036791718559952127 0 0.1606162240999495 -0.036791718559952127 0 0.15860008587995661 -0.024584637107986581 0 0.1676494897986677 -0.03112318801030611 0 0.15860008587995661 -0.024584637107986581 0 0.1676494897986677 -0.03112318801030611 0 0.17354375486135309 -0.017044807666573961 0 0.1768197240792993 -0.037512748509512667 0 0.17354375486135309 -0.017044807666573961 0 0.19645679041635619 -0.035649378854219822 0 0.17354375486135309 -0.017044807666573961 0 0.19645679041635619 -0.035649378854219822 0 0.1768197240792993 -0.037512748509512667 0 0.1676494897986677 -0.03112318801030611 0 0.17354375486135309 -0.017044807666573961 0 0.17354375486135309 -0.017044807666573961 0 0.19227370544106259 -0.01984634992719516 0 0.19645679041635619 -0.035649378854219822 0 0.17354375486135309 -0.017044807666573961 0 0.18535099892293991 -0.0051935449981599657 0 0.17393796579135701 -0.0054750346567773583 0 0.17354375486135309 -0.017044807666573961 0 0.18535099892293991 -0.0051935449981599657 0 0.19227370544106259 -0.01984634992719516 0 0.17713446895202581 0.0027071555325514931 0 0.18535099892293991 -0.0051935449981599657 0 0.17393796579135701 -0.0054750346567773583 0 0.15860008587995661 -0.024584637107986581 0 0.17354375486135309 -0.017044807666573961 0 0.1597115953628577 -0.004551068078293679 0 0.17713446895202581 0.0027071555325514931 0 0.17393796579135701 -0.0054750346567773583 0 0.1597115953628577 -0.004551068078293679 0 0.17354375486135309 -0.017044807666573961 0 0.17393796579135701 -0.0054750346567773583 0 0.1597115953628577 -0.004551068078293679 0 0.2041377938698247 0.0071157717978486829 0 0.2238187354208786 -0.01032781909156914 0 0.2041377938698247 0.0071157717978486829 0 0.20338492562482849 -0.01140941543972431 0 0.2238187354208786 -0.01032781909156914 0 0.2041377938698247 0.0071157717978486829 0 0.20338492562482849 -0.01140941543972431 0 0.18535099892293991 -0.0051935449981599657 0 0.20338492562482849 -0.01140941543972431 0 0.19227370544106259 -0.01984634992719516 0 0.2041377938698247 0.0071157717978486829 0 0.1947445826830477 0.0025945221424396271 0 0.20338492562482849 -0.01140941543972431 0 0.1947445826830477 0.0025945221424396271 0 0.18535099892293991 -0.0051935449981599657 0 0.20338492562482849 -0.01140941543972431 0 0.20338492562482849 -0.01140941543972431 0 0.19227370544106259 -0.01984634992719516 0 0.20263205737983489 -0.029934602677297469 0 0.20338492562482849 -0.01140941543972431 0 0.20263205737983489 -0.029934602677297469 0 0.19227370544106259 -0.01984634992719516 0 0.20263205737983489 -0.029934602677297469 0 0.19645679041635619 -0.035649378854219822 0 0.20263205737983489 -0.029934602677297469 0 0.2238187354208786 -0.01032781909156914 0 0.20338492562482849 -0.01140941543972431 0 0.20263205737983489 -0.029934602677297469 0 0.2238187354208786 -0.01032781909156914 0 0.20263205737983489 -0.029934602677297469 0 0.2194181678878504 -0.035818444948399177 0 0.2238187354208786 -0.01032781909156914 0 0.20220996176644879 -0.040320749685056161 0 0.2185452913768402 -0.053584457231829717 0 0.2194181678878504 -0.035818444948399177 0 0.20263205737983489 -0.029934602677297469 0 0.20220996176644879 -0.040320749685056161 0 0.2194181678878504 -0.035818444948399177 0 0.20263205737983489 -0.029934602677297469 0 0.19645679041635619 -0.035649378854219822 0 0.17690203798568721 -0.053745929820722932 0 0.19645679041635619 -0.035649378854219822 0 0.19421774693546701 -0.051056260771790568 0 0.20263205737983489 -0.029934602677297469 0 0.20220996176644879 -0.040320749685056161 0 0.20263205737983489 -0.029934602677297469 0 0.19645679041635619 -0.035649378854219822 0 0.20220996176644879 -0.040320749685056161 0 0.19645679041635619 -0.035649378854219822 0 0.20220996176644879 -0.040320749685056161 0 0.19645679041635619 -0.035649378854219822 0 0.20220996176644879 -0.040320749685056161 0 0.19421774693546701 -0.051056260771790568 0 0.17690203798568721 -0.053745929820722932 0 0.19421774693546701 -0.051056260771790568 0 0.19431803812055451 -0.060440136285540229 0 0.20220996176644879 -0.040320749685056161 0 0.20120190638829091 -0.065125109213411081 0 0.20220996176644879 -0.040320749685056161 0 0.19421774693546701 -0.051056260771790568 0 0.20120190638829091 -0.065125109213411081 0 0.17690203798568721 -0.053745929820722932 0 0.19431803812055451 -0.060440136285540229 0 0.19138232154082629 -0.068232323515447932 0 0.19421774693546701 -0.051056260771790568 0 0.19431803812055451 -0.060440136285540229 0 0.20120190638829091 -0.065125109213411081 0 0.20220996176644879 -0.040320749685056161 0 0.2185452913768402 -0.053584457231829717 0 0.20220996176644879 -0.040320749685056161 0 0.2185452913768402 -0.053584457231829717 0 0.20120190638829091 -0.065125109213411081 0 0.2185452913768402 -0.053584457231829717 0 0.23737902666398189 -0.045605343769507187 0 0.23488062098723411 -0.066848164778600283 0 0.2185452913768402 -0.053584457231829717 0 0.23488062098723411 -0.066848164778600283 0 0.25384440802733849 -0.059479789847577097 0 0.23737902666398189 -0.045605343769507187 0 0.23488062098723411 -0.066848164778600283 0 0.25384440802733849 -0.059479789847577097 0 0.25696371130683121 -0.039704838371586719 0 0.23737902666398189 -0.045605343769507187 0 0.25696371130683121 -0.039704838371586719 0 0.24039122336385491 -0.025016328731577941 0 0.25696371130683121 -0.039704838371586719 0 0.23737902666398189 -0.045605343769507187 0 0.24039122336385491 -0.025016328731577941 0 0.23737902666398189 -0.045605343769507187 0 0.2194181678878504 -0.035818444948399177 0 0.24039122336385491 -0.025016328731577941 0 0.2185452913768402 -0.053584457231829717 0 0.23737902666398189 -0.045605343769507187 0 0.2194181678878504 -0.035818444948399177 0 0.24039122336385491 -0.025016328731577941 0 0.2238187354208786 -0.01032781909156914 0 0.2194181678878504 -0.035818444948399177 0 0.24039122336385491 -0.025016328731577941 0 0.2238187354208786 -0.01032781909156914 0 0.25726128205146648 -0.02472902709960445 0 0.24039122336385491 -0.025016328731577941 0 0.2478997660749088 -0.01199357295348687 0 0.24039122336385491 -0.025016328731577941 0 0.2478997660749088 -0.01199357295348687 0 0.2238187354208786 -0.01032781909156914 0 0.2478997660749088 -0.01199357295348687 0 0.2443368381618172 -0.0014217291461706941 0 0.2238187354208786 -0.01032781909156914 0 0.2437956037903577 0.0081593705510081757 0 0.2443368381618172 -0.0014217291461706941 0 0.2238187354208786 -0.01032781909156914 0 0.25697511401342082 -0.00131748339547743 0 0.2478997660749088 -0.01199357295348687 0 0.2443368381618172 -0.0014217291461706941 0 0.2437956037903577 0.0081593705510081757 0 0.2238187354208786 -0.01032781909156914 0 0.21344301176287619 -0.1101109283824409 0 0.19900639735448639 -0.1090183135219544 0 0.22034288865110011 -0.097205110904902109 0 0.19900639735448639 -0.1090183135219544 0 0.22034288865110011 -0.097205110904902109 0 0.2032626877814673 -0.096121455551891707 0 0.19900639735448639 -0.1090183135219544 0 0.22034288865110011 -0.097205110904902109 0 0.21344301176287619 -0.1101109283824409 0 0.20991070107458101 -0.1215509306863536 0 0.22302685312332929 -0.12412706388543859 0 0.21344301176287619 -0.1101109283824409 0 0.20991070107458101 -0.1215509306863536 0 0.19900639735448639 -0.1090183135219544 0 0.17766990605787211 -0.1208315161390057 0 0.19900639735448639 -0.1090183135219544 0 0.17766990605787211 -0.1208315161390057 0 0.1957950833416526 -0.1231777916593905 0 0.19900639735448639 -0.1090183135219544 0 0.20991070107458101 -0.1215509306863536 0 0.1957950833416526 -0.1231777916593905 0 0.19900639735448639 -0.1090183135219544 0 0.17766990605787211 -0.1208315161390057 0 0.19900639735448639 -0.1090183135219544 0 0.18783886002431541 -0.095543680570539483 0 0.2032626877814673 -0.096121455551891707 0 0.19900639735448639 -0.1090183135219544 0 0.18783886002431541 -0.095543680570539483 0 0.2032626877814673 -0.096121455551891707 0 0.18783886002431541 -0.095543680570539483 0 0.2058626050959646 -0.082718717210173626 0 0.18783886002431541 -0.095543680570539483 0 0.18864089953473381 -0.081556978129937827 0 0.2058626050959646 -0.082718717210173626 0 0.18864089953473381 -0.081556978129937827 0 0.19138232154082629 -0.068232323515447932 0 0.2058626050959646 -0.082718717210173626 0 0.19138232154082629 -0.068232323515447932 0 0.20120190638829091 -0.065125109213411081 0 0.2058626050959646 -0.082718717210173626 0 0.19138232154082629 -0.068232323515447932 0 0.2058626050959646 -0.082718717210173626 0 0.19431803812055451 -0.060440136285540229 0 0.19138232154082629 -0.068232323515447932 0 0.20120190638829091 -0.065125109213411081 0 0.20120190638829091 -0.065125109213411081 0 0.21664252532771189 -0.070313053729094951 0 0.2058626050959646 -0.082718717210173626 0 0.2185452913768402 -0.053584457231829717 0 0.20120190638829091 -0.065125109213411081 0 0.21664252532771189 -0.070313053729094951 0 0.2032626877814673 -0.096121455551891707 0 0.2058626050959646 -0.082718717210173626 0 0.22034288865110011 -0.097205110904902109 0 0.2058626050959646 -0.082718717210173626 0 0.22271169725300799 -0.082196926046216187 0 0.22034288865110011 -0.097205110904902109 0 0.21664252532771189 -0.070313053729094951 0 0.2058626050959646 -0.082718717210173626 0 0.22271169725300799 -0.082196926046216187 0 0.2058626050959646 -0.082718717210173626 0 0.22034288865110011 -0.097205110904902109 0 0.22271169725300799 -0.082196926046216187 0 0.23488062098723411 -0.066848164778600283 0 0.23577941962436391 -0.088658491615138085 0 0.22271169725300799 -0.082196926046216187 0 0.23577941962436391 -0.088658491615138085 0 0.22034288865110011 -0.097205110904902109 0 0.23577941962436391 -0.088658491615138085 0 0.22034288865110011 -0.097205110904902109 0 0.2185452913768402 -0.053584457231829717 0 0.21664252532771189 -0.070313053729094951 0 0.23488062098723411 -0.066848164778600283 0 0.21664252532771189 -0.070313053729094951 0 0.22271169725300799 -0.082196926046216187 0 0.23488062098723411 -0.066848164778600283 0 0.25121595059762658 -0.08011187232537241 0 0.25384440802733849 -0.059479789847577097 0 0.23488062098723411 -0.066848164778600283 0 0.25121595059762658 -0.08011187232537241 0 0.23488062098723411 -0.066848164778600283 0 0.25088523712609029 -0.098719265181599597 0 0.25121595059762658 -0.08011187232537241 0 0.23577941962436391 -0.088658491615138085 0 0.25121595059762658 -0.08011187232537241 0 0.23488062098723411 -0.066848164778600283 0 0.23577941962436391 -0.088658491615138085 0 0.25121595059762658 -0.08011187232537241 0 0.23577941962436391 -0.088658491615138085 0 0.25088523712609029 -0.098719265181599597 0 0.25413929515139538 -0.1150592892124483 0 0.23598277127828821 -0.11285159297923079 0 0.25088523712609029 -0.098719265181599597 0 0.23577941962436391 -0.088658491615138085 0 0.23598277127828821 -0.11285159297923079 0 0.22034288865110011 -0.097205110904902109 0 0.23598277127828821 -0.11285159297923079 0 0.21344301176287619 -0.1101109283824409 0 0.22034288865110011 -0.097205110904902109 0 0.23598277127828821 -0.11285159297923079 0 0.23577941962436391 -0.088658491615138085 0 0.22034288865110011 -0.097205110904902109 0 0.23598277127828821 -0.11285159297923079 0 0.21344301176287619 -0.1101109283824409 0 0.22302685312332929 -0.12412706388543859 0 0.23598277127828821 -0.11285159297923079 0 0.21344301176287619 -0.1101109283824409 0 0.23598277127828821 -0.11285159297923079 0 0.22302685312332929 -0.12412706388543859 0 0.23598277127828821 -0.11285159297923079 0 0.23711718823758229 -0.12800382464396981 0 0.25413929515139538 -0.1150592892124483 0 0.23598277127828821 -0.11285159297923079 0 0.2536752578795437 -0.1305515451499529 0 0.23598277127828821 -0.11285159297923079 0 0.23711718823758229 -0.12800382464396981 0 0.2536752578795437 -0.1305515451499529 0 0.23598277127828821 -0.11285159297923079 0 0.25413929515139538 -0.1150592892124483 0 0.2536752578795437 -0.1305515451499529 0 0.23598277127828821 -0.11285159297923079 0 0.2536752578795437 -0.1305515451499529 0 0.2407238810529406 -0.1399409945337359 0 0.23711718823758229 -0.12800382464396981 0 0.2536752578795437 -0.1305515451499529 0 0.25258679472742501 -0.1513124129151564 0 0.2407238810529406 -0.1399409945337359 0 0.2407238810529406 -0.1399409945337359 0 0.23711718823758229 -0.12800382464396981 0 0.23051355761009731 -0.13373110771628921 0 0.25258679472742501 -0.1513124129151564 0 0.2407238810529406 -0.1399409945337359 0 0.2321516193331272 -0.1535695099892376 0 0.2321516193331272 -0.1535695099892376 0 0.22053204028897599 -0.14457382111267661 0 0.21468341490965659 -0.15235386668679499 0 0.2407238810529406 -0.1399409945337359 0 0.2321516193331272 -0.1535695099892376 0 0.2297990705382775 -0.14171854300237419 0 0.2321516193331272 -0.1535695099892376 0 0.2297990705382775 -0.14171854300237419 0 0.22053204028897599 -0.14457382111267661 0 0.22302685312332929 -0.12412706388543859 0 0.23711718823758229 -0.12800382464396981 0 0.23051355761009731 -0.13373110771628921 0 0.2297990705382775 -0.14171854300237419 0 0.23051355761009731 -0.13373110771628921 0 0.2219007950983567 -0.13486511251592781 0 0.2407238810529406 -0.1399409945337359 0 0.2297990705382775 -0.14171854300237419 0 0.23051355761009731 -0.13373110771628921 0 0.2297990705382775 -0.14171854300237419 0 0.22053204028897599 -0.14457382111267661 0 0.2219007950983567 -0.13486511251592781 0 0.22053204028897599 -0.14457382111267661 0 0.2219007950983567 -0.13486511251592781 0 0.21450521118360549 -0.13929385700909611 0 0.22302685312332929 -0.12412706388543859 0 0.2219007950983567 -0.13486511251592781 0 0.2131080246667528 -0.13122572029999599 0 0.22302685312332929 -0.12412706388543859 0 0.23051355761009731 -0.13373110771628921 0 0.2219007950983567 -0.13486511251592781 0 0.20991070107458101 -0.1215509306863536 0 0.22302685312332929 -0.12412706388543859 0 0.2131080246667528 -0.13122572029999599 0 0.20991070107458101 -0.1215509306863536 0 0.2131080246667528 -0.13122572029999599 0 0.20359828524033241 -0.13118360287497599 0 0.2131080246667528 -0.13122572029999599 0 0.20359828524033241 -0.13118360287497599 0 0.2058734790392146 -0.13968974436457271 0 0.2219007950983567 -0.13486511251592781 0 0.2131080246667528 -0.13122572029999599 0 0.21450521118360549 -0.13929385700909611 0 0.2131080246667528 -0.13122572029999599 0 0.2058734790392146 -0.13968974436457271 0 0.21450521118360549 -0.13929385700909611 0 0.22053204028897599 -0.14457382111267661 0 0.21468341490965659 -0.15235386668679499 0 0.2101521306708323 -0.14564203747262899 0 0.22053204028897599 -0.14457382111267661 0 0.21450521118360549 -0.13929385700909611 0 0.2101521306708323 -0.14564203747262899 0 0.21468341490965659 -0.15235386668679499 0 0.2101521306708323 -0.14564203747262899 0 0.2028928992505897 -0.14831390970459349 0 0.2058734790392146 -0.13968974436457271 0 0.21450521118360549 -0.13929385700909611 0 0.2101521306708323 -0.14564203747262899 0 0.2101521306708323 -0.14564203747262899 0 0.20409134553884009 -0.14523900984867771 0 0.2028928992505897 -0.14831390970459349 0 0.2058734790392146 -0.13968974436457271 0 0.2101521306708323 -0.14564203747262899 0 0.20409134553884009 -0.14523900984867771 0 0.2058734790392146 -0.13968974436457271 0 0.20409134553884009 -0.14523900984867771 0 0.19709630639239981 -0.1475313006194382 0 0.2028928992505897 -0.14831390970459349 0 0.19709630639239981 -0.1475313006194382 0 0.20409134553884009 -0.14523900984867771 0 0.2028928992505897 -0.14831390970459349 0 0.19709630639239981 -0.1475313006194382 0 0.2028928992505897 -0.14831390970459349 0 0.19709630639239981 -0.1475313006194382 0 0.19818186565042481 -0.1613491031913816 0 0.20359828524033241 -0.13118360287497599 0 0.2058734790392146 -0.13968974436457271 0 0.19709630639239981 -0.1475313006194382 0 0.20359828524033241 -0.13118360287497599 0 0.19709630639239981 -0.1475313006194382 0 0.20359828524033241 -0.13118360287497599 0 0.19709630639239981 -0.1475313006194382 0 0.1881147108597376 -0.13324331501142259 0 0.1957950833416526 -0.1231777916593905 0 0.20359828524033241 -0.13118360287497599 0 0.1881147108597376 -0.13324331501142259 0 0.20991070107458101 -0.1215509306863536 0 0.1957950833416526 -0.1231777916593905 0 0.20359828524033241 -0.13118360287497599 0 0.20181005721681869 -0.1756914542622372 0 0.18790258179823979 -0.17064676043964 0 0.19260579946460249 -0.1938196557189214 0 0.20181005721681869 -0.1756914542622372 0 0.20425217046891209 -0.19009466573396969 0 0.19260579946460249 -0.1938196557189214 0 0.19709630639239981 -0.1475313006194382 0 0.18790258179823979 -0.17064676043964 0 0.19818186565042481 -0.1613491031913816 0 0.19709630639239981 -0.1475313006194382 0 0.18790258179823979 -0.17064676043964 0 0.1821306795807231 -0.15496505609552921 0 0.19709630639239981 -0.1475313006194382 0 0.18790258179823979 -0.17064676043964 0 0.20181005721681869 -0.1756914542622372 0 0.18790258179823979 -0.17064676043964 0 0.19818186565042481 -0.1613491031913816 0 0.20181005721681869 -0.1756914542622372 0 0.19818186565042481 -0.1613491031913816 0 0.2175604591609234 -0.16992533168553101 0 0.2028928992505897 -0.14831390970459349 0 0.19818186565042481 -0.1613491031913816 0 0.2175604591609234 -0.16992533168553101 0 0.2028928992505897 -0.14831390970459349 0 0.2175604591609234 -0.16992533168553101 0 0.21468341490965659 -0.15235386668679499 0 0.2028928992505897 -0.14831390970459349 0 0.2175604591609234 -0.16992533168553101 0 0.2175604591609234 -0.16992533168553101 0 0.20425217046891209 -0.19009466573396969 0 0.21699321330563781 -0.1964939377595965 0 0.20181005721681869 -0.1756914542622372 0 0.2175604591609234 -0.16992533168553101 0 0.20425217046891209 -0.19009466573396969 0 0.2175604591609234 -0.16992533168553101 0 0.23222801907125701 -0.1915367536664683 0 0.2175604591609234 -0.16992533168553101 0 0.2437523598962367 -0.16819249339514139 0 0.23222801907125701 -0.1915367536664683 0 0.2175604591609234 -0.16992533168553101 0 0.23222801907125701 -0.1915367536664683 0 0.21699321330563781 -0.1964939377595965 0 0.2321516193331272 -0.1535695099892376 0 0.2175604591609234 -0.16992533168553101 0 0.2437523598962367 -0.16819249339514139 0 0.2321516193331272 -0.1535695099892376 0 0.21468341490965659 -0.15235386668679499 0 0.2175604591609234 -0.16992533168553101 0 0.25258679472742501 -0.1513124129151564 0 0.2321516193331272 -0.1535695099892376 0 0.2437523598962367 -0.16819249339514139 0 0.25259120948828062 -0.1836903746716112 0 0.2437523598962367 -0.16819249339514139 0 0.23222801907125701 -0.1915367536664683 0 0.25504538993481529 -0.1984662779270023 0 0.2468955789815907 -0.21314817564740571 0 0.23222801907125701 -0.1915367536664683 0 0.25504538993481529 -0.1984662779270023 0 0.25259120948828062 -0.1836903746716112 0 0.23222801907125701 -0.1915367536664683 0 0.2468955789815907 -0.21314817564740571 0 0.23222801907125701 -0.1915367536664683 0 0.2468955789815907 -0.21314817564740571 0 0.22531291264289921 -0.2081213038046833 0 0.23222801907125701 -0.1915367536664683 0 0.2468955789815907 -0.21314817564740571 0 0.22531291264289921 -0.2081213038046833 0 0.23059901592795901 -0.22571101176558811 0 0.22531291264289921 -0.2081213038046833 0 0.23059901592795901 -0.22571101176558811 0 0.21567345788980111 -0.21708927468345299 0 0.22531291264289921 -0.2081213038046833 0 0.23222801907125701 -0.1915367536664683 0 0.21699321330563781 -0.1964939377595965 0 0.22824002358951981 -0.25691824546728609 0 0.2487016031953268 -0.24242778360998679 0 0.22824002358951981 -0.25691824546728609 0 0.2487016031953268 -0.24242778360998679 0 0.23059115938570091 -0.24204298695603699 0 0.2487016031953268 -0.24242778360998679 0 0.23059901592795901 -0.22571101176558811 0 0.23059115938570091 -0.24204298695603699 0 0.2468955789815907 -0.21314817564740571 0 0.2487016031953268 -0.24242778360998679 0 0.23059901592795901 -0.22571101176558811 0 0.23059901592795901 -0.22571101176558811 0 0.21319992675173241 -0.22945581010827351 0 0.21567345788980111 -0.21708927468345299 0 0.23059901592795901 -0.22571101176558811 0 0.22207787739876991 -0.2372379276628046 0 0.21319992675173241 -0.22945581010827351 0 0.23059901592795901 -0.22571101176558811 0 0.23059115938570091 -0.24204298695603699 0 0.22207787739876991 -0.2372379276628046 0 0.23059115938570091 -0.24204298695603699 0 0.22207787739876991 -0.2372379276628046 0 0.2222449605538882 -0.24652785509083011 0 0.22824002358951981 -0.25691824546728609 0 0.23059115938570091 -0.24204298695603699 0 0.2222449605538882 -0.24652785509083011 0 0.21125366396953049 -0.2414276983028423 0 0.1994226524838594 -0.24016626540683139 0 0.20273920809173551 -0.24965645729264649 0 0.21687744589983871 -0.25222819469780228 0 0.21125366396953049 -0.2414276983028423 0 0.20273920809173551 -0.24965645729264649 0 0.21687744589983871 -0.25222819469780228 0 0.2222449605538882 -0.24652785509083011 0 0.21125366396953049 -0.2414276983028423 0 0.22207787739876991 -0.2372379276628046 0 0.2222449605538882 -0.24652785509083011 0 0.21125366396953049 -0.2414276983028423 0 0.22207787739876991 -0.2372379276628046 0 0.21125366396953049 -0.2414276983028423 0 0.21319992675173241 -0.22945581010827351 0 0.21125366396953049 -0.2414276983028423 0 0.20151580374597741 -0.23146358643493539 0 0.1994226524838594 -0.24016626540683139 0 0.21125366396953049 -0.2414276983028423 0 0.21319992675173241 -0.22945581010827351 0 0.20151580374597741 -0.23146358643493539 0 0.21319992675173241 -0.22945581010827351 0 0.20277471561377719 -0.21943766541282439 0 0.20151580374597741 -0.23146358643493539 0 0.21319992675173241 -0.22945581010827351 0 0.20277471561377719 -0.21943766541282439 0 0.21567345788980111 -0.21708927468345299 0 0.20277471561377719 -0.21943766541282439 0 0.1925121267991656 -0.2249474255391529 0 0.20151580374597741 -0.23146358643493539 0 0.20277471561377719 -0.21943766541282439 0 0.1925121267991656 -0.2249474255391529 0 0.1898855314343347 -0.21290923876441009 0 0.1925121267991656 -0.2249474255391529 0 0.1898855314343347 -0.21290923876441009 0 0.18171214921474149 -0.2207021570344784 0 0.1925121267991656 -0.2249474255391529 0 0.19445174101440951 -0.2324463769964443 0 0.18435638102863561 -0.23320823060485751 0 0.1925121267991656 -0.2249474255391529 0 0.19445174101440951 -0.2324463769964443 0 0.20151580374597741 -0.23146358643493539 0 0.1994226524838594 -0.24016626540683139 0 0.20273920809173551 -0.24965645729264649 0 0.18435638102863561 -0.23320823060485751 0 0.18963807924671869 -0.25438418815006431 0 0.20273920809173551 -0.24965645729264649 0 0.18435638102863561 -0.23320823060485751 0 0.20273920809173551 -0.24965645729264649 0 0.18435638102863561 -0.23320823060485751 0 0.19445174101440951 -0.2324463769964443 0 0.20151580374597741 -0.23146358643493539 0 0.1994226524838594 -0.24016626540683139 0 0.19445174101440951 -0.2324463769964443 0 0.1994226524838594 -0.24016626540683139 0 0.18435638102863561 -0.23320823060485751 0 0.20425217046891209 -0.19009466573396969 0 0.21699321330563781 -0.1964939377595965 0 0.20586015535942159 -0.20575281611075991 0 0.22531291264289921 -0.2081213038046833 0 0.21567345788980111 -0.21708927468345299 0 0.20586015535942159 -0.20575281611075991 0 0.22531291264289921 -0.2081213038046833 0 0.21699321330563781 -0.1964939377595965 0 0.20586015535942159 -0.20575281611075991 0 0.20277471561377719 -0.21943766541282439 0 0.21567345788980111 -0.21708927468345299 0 0.20586015535942159 -0.20575281611075991 0 0.20586015535942159 -0.20575281611075991 0 0.1898855314343347 -0.21290923876441009 0 0.19260579946460249 -0.1938196557189214 0 0.20277471561377719 -0.21943766541282439 0 0.20586015535942159 -0.20575281611075991 0 0.1898855314343347 -0.21290923876441009 0 0.20425217046891209 -0.19009466573396969 0 0.20586015535942159 -0.20575281611075991 0 0.19260579946460249 -0.1938196557189214 0 0.19260579946460249 -0.1938196557189214 0 0.1787088572040792 -0.19376222025984161 0 0.1798212427704117 -0.2078804344615918 0 0.1787088572040792 -0.19376222025984161 0 0.1798212427704117 -0.2078804344615918 0 0.16951513260991849 -0.21687768008004321 0 0.1787088572040792 -0.19376222025984161 0 0.16951513260991849 -0.21687768008004321 0 0.1787088572040792 -0.19376222025984161 0 0.16951513260991849 -0.21687768008004321 0 0.1682044875046167 -0.20297035398981361 0 0.1898855314343347 -0.21290923876441009 0 0.19260579946460249 -0.1938196557189214 0 0.1798212427704117 -0.2078804344615918 0 0.1898855314343347 -0.21290923876441009 0 0.1798212427704117 -0.2078804344615918 0 0.1802335140073516 -0.21459237758513089 0 0.1898855314343347 -0.21290923876441009 0 0.1802335140073516 -0.21459237758513089 0 0.18171214921474149 -0.2207021570344784 0 0.1802335140073516 -0.21459237758513089 0 0.16951513260991849 -0.21687768008004321 0 0.18171214921474149 -0.2207021570344784 0 0.1798212427704117 -0.2078804344615918 0 0.1802335140073516 -0.21459237758513089 0 0.16951513260991849 -0.21687768008004321 0 0.16531866582609059 -0.20995258274366521 0 0.16037188326044069 -0.2017072286698578 0 0.1682044875046167 -0.20297035398981361 0 0.16531866582609059 -0.20995258274366521 0 0.16951513260991849 -0.21687768008004321 0 0.1682044875046167 -0.20297035398981361 0 0.16531866582609059 -0.20995258274366521 0 0.16951513260991849 -0.21687768008004321 0 0.16597355396553559 -0.21676000391706829 0 0.16531866582609059 -0.20995258274366521 0 0.16597355396553559 -0.21676000391706829 0 0.16265231873839489 -0.2139219031546542 0 0.1620376193041089 -0.21853343835979999 0 0.16265231873839489 -0.2139219031546542 0 0.1589819305709492 -0.21585604681955661 0 0.16597355396553559 -0.21676000391706829 0 0.1620376193041089 -0.21853343835979999 0 0.16265231873839489 -0.2139219031546542 0 0.16265231873839489 -0.2139219031546542 0 0.1589819305709492 -0.21585604681955661 0 0.15920764536416471 -0.20955514080880711 0 0.16531866582609059 -0.20995258274366521 0 0.16265231873839489 -0.2139219031546542 0 0.15920764536416471 -0.20955514080880711 0 0.1589819305709492 -0.21585604681955661 0 0.15920764536416471 -0.20955514080880711 0 0.1516808606228417 -0.21557402889087041 0 0.1589819305709492 -0.21585604681955661 0 0.15825504833840409 -0.22195895300688631 0 0.1516808606228417 -0.21557402889087041 0 0.15920764536416471 -0.20955514080880711 0 0.16037188326044069 -0.2017072286698578 0 0.15246262096527469 -0.20233072266827351 0 0.16531866582609059 -0.20995258274366521 0 0.15920764536416471 -0.20955514080880711 0 0.16037188326044069 -0.2017072286698578 0 0.1787088572040792 -0.19376222025984161 0 0.15962038856545019 -0.19364073800167861 0 0.1682044875046167 -0.20297035398981361 0 0.1787088572040792 -0.19376222025984161 0 0.15962038856545019 -0.19364073800167861 0 0.16486120847217459 -0.17969036735917329 0 0.16037188326044069 -0.2017072286698578 0 0.15962038856545019 -0.19364073800167861 0 0.1682044875046167 -0.20297035398981361 0 0.16037188326044069 -0.2017072286698578 0 0.15962038856545019 -0.19364073800167861 0 0.15246262096527469 -0.20233072266827351 0 0.18963807924671869 -0.25438418815006431 0 0.17437765487915691 -0.2356889873159777 0 0.1655278077511898 -0.24540868528259829 0 0.18963807924671869 -0.25438418815006431 0 0.17437765487915691 -0.2356889873159777 0 0.18435638102863561 -0.23320823060485751 0 0.18963807924671869 -0.25438418815006431 0 0.17437765487915691 -0.2356889873159777 0 0.18963807924671869 -0.25438418815006431 0 0.1655278077511898 -0.24540868528259829 0 0.16951513260991849 -0.21687768008004321 0 0.18435638102863561 -0.23320823060485751 0 0.18171214921474149 -0.2207021570344784 0 0.16597355396553559 -0.21676000391706829 0 0.18435638102863561 -0.23320823060485751 0 0.16915118825133879 -0.22826289763894941 0 0.16597355396553559 -0.21676000391706829 0 0.18435638102863561 -0.23320823060485751 0 0.16951513260991849 -0.21687768008004321 0 0.16597355396553559 -0.21676000391706829 0 0.18435638102863561 -0.23320823060485751 0 0.17437765487915691 -0.2356889873159777 0 0.18435638102863561 -0.23320823060485751 0 0.16915118825133879 -0.22826289763894941 0 0.1925121267991656 -0.2249474255391529 0 0.18435638102863561 -0.23320823060485751 0 0.18171214921474149 -0.2207021570344784 0 0.16597355396553559 -0.21676000391706829 0 0.16350496028218511 -0.22312781164252249 0 0.16915118825133879 -0.22826289763894941 0 0.15825504833840409 -0.22195895300688631 0 0.16350496028218511 -0.22312781164252249 0 0.15923251532496999 -0.23069058228423689 0 0.16597355396553559 -0.21676000391706829 0 0.1620376193041089 -0.21853343835979999 0 0.16350496028218511 -0.22312781164252249 0 0.1620376193041089 -0.21853343835979999 0 0.15825504833840409 -0.22195895300688631 0 0.16350496028218511 -0.22312781164252249 0 0.1620376193041089 -0.21853343835979999 0 0.1589819305709492 -0.21585604681955661 0 0.15825504833840409 -0.22195895300688631 0 0.16350496028218511 -0.22312781164252249 0 0.15923251532496999 -0.23069058228423689 0 0.16915118825133879 -0.22826289763894941 0 0.15923251532496999 -0.23069058228423689 0 0.16915118825133879 -0.22826289763894941 0 0.16707229155166389 -0.23501278813044049 0 0.17437765487915691 -0.2356889873159777 0 0.16915118825133879 -0.22826289763894941 0 0.16707229155166389 -0.23501278813044049 0 0.17437765487915691 -0.2356889873159777 0 0.16707229155166389 -0.23501278813044049 0 0.1655278077511898 -0.24540868528259829 0 0.15923251532496999 -0.23069058228423689 0 0.16707229155166389 -0.23501278813044049 0 0.1655278077511898 -0.24540868528259829 0 0.1655278077511898 -0.24540868528259829 0 0.14141753625566111 -0.2364331824151317 0 0.15542942967836421 -0.25121002018023469 0 0.1655278077511898 -0.24540868528259829 0 0.14141753625566111 -0.2364331824151317 0 0.15923251532496999 -0.23069058228423689 0 0.1655278077511898 -0.24540868528259829 0 0.14141753625566111 -0.2364331824151317 0 0.1422398969336455 -0.25095148979243781 0 0.15542942967836421 -0.25121002018023469 0 0.14141753625566111 -0.2364331824151317 0 0.15923251532496999 -0.23069058228423689 0 0.14141753625566111 -0.2364331824151317 0 0.14938049960250219 -0.2250116107355013 0 0.14141753625566111 -0.2364331824151317 0 0.14938049960250219 -0.2250116107355013 0 0.13801379981802839 -0.2158207573364738 0 0.15825504833840409 -0.22195895300688631 0 0.15923251532496999 -0.23069058228423689 0 0.14938049960250219 -0.2250116107355013 0 0.15825504833840409 -0.22195895300688631 0 0.14938049960250219 -0.2250116107355013 0 0.1516808606228417 -0.21557402889087041 0 0.14938049960250219 -0.2250116107355013 0 0.1516808606228417 -0.21557402889087041 0 0.13801379981802839 -0.2158207573364738 0 0.11730726476013251 -0.2274576795476651 0 0.14141753625566111 -0.2364331824151317 0 0.11730726476013251 -0.2274576795476651 0 0.14141753625566111 -0.2364331824151317 0 0.12665785581428871 -0.21863402452052111 0 0.14141753625566111 -0.2364331824151317 0 0.13801379981802839 -0.2158207573364738 0 0.12665785581428871 -0.21863402452052111 0 0.13030530462117779 -0.25171385039249911 0 0.11730726476013251 -0.2274576795476651 0 0.14141753625566111 -0.2364331824151317 0 0.13030530462117779 -0.25171385039249911 0 0.1422398969336455 -0.25095148979243781 0 0.14141753625566111 -0.2364331824151317 0 0.15962038856545019 -0.19364073800167861 0 0.14589038176850869 -0.19609620411326481 0 0.14380911140509309 -0.18455809652056501 0 0.14589038176850869 -0.19609620411326481 0 0.15246262096527469 -0.20233072266827351 0 0.14556927830709429 -0.2079763090320281 0 0.14589038176850869 -0.19609620411326481 0 0.14556927830709429 -0.2079763090320281 0 0.1366589558386106 -0.19857388464600351 0 0.14589038176850869 -0.19609620411326481 0 0.13917976737193299 -0.19206223211926091 0 0.14380911140509309 -0.18455809652056501 0 0.15962038856545019 -0.19364073800167861 0 0.14589038176850869 -0.19609620411326481 0 0.15246262096527469 -0.20233072266827351 0 0.15920764536416471 -0.20955514080880711 0 0.15246262096527469 -0.20233072266827351 0 0.1522293494280349 -0.2089938276168386 0 0.1522293494280349 -0.2089938276168386 0 0.1516808606228417 -0.21557402889087041 0 0.14556927830709429 -0.2079763090320281 0 0.15246262096527469 -0.20233072266827351 0 0.1522293494280349 -0.2089938276168386 0 0.14556927830709429 -0.2079763090320281 0 0.15920764536416471 -0.20955514080880711 0 0.1522293494280349 -0.2089938276168386 0 0.1516808606228417 -0.21557402889087041 0 0.1516808606228417 -0.21557402889087041 0 0.14556927830709429 -0.2079763090320281 0 0.13801379981802839 -0.2158207573364738 0 0.14556927830709429 -0.2079763090320281 0 0.13801379981802839 -0.2158207573364738 0 0.1366589558386106 -0.19857388464600351 0 0.1230002356096771 -0.1898466095260338 0 0.13801379981802839 -0.2158207573364738 0 0.12801886311926899 -0.2063418920433803 0 0.13801379981802839 -0.2158207573364738 0 0.12665785581428871 -0.21863402452052111 0 0.12801886311926899 -0.2063418920433803 0 0.1230002356096771 -0.1898466095260338 0 0.12801886311926899 -0.2063418920433803 0 0.1230002356096771 -0.1898466095260338 0 0.13036062047551969 -0.18902074319721049 0 0.14380911140509309 -0.18455809652056501 0 0.1230002356096771 -0.1898466095260338 0 0.13801379981802839 -0.2158207573364738 0 0.1366589558386106 -0.19857388464600351 0 0.1230002356096771 -0.1898466095260338 0 0.13801379981802839 -0.2158207573364738 0 0.14589038176850869 -0.19609620411326481 0 0.1366589558386106 -0.19857388464600351 0 0.13917976737193299 -0.19206223211926091 0 0.13917976737193299 -0.19206223211926091 0 0.13036062047551969 -0.18902074319721049 0 0.14380911140509309 -0.18455809652056501 0 0.1366589558386106 -0.19857388464600351 0 0.13917976737193299 -0.19206223211926091 0 0.13036062047551969 -0.18902074319721049 0 0.1230002356096771 -0.1898466095260338 0 0.1366589558386106 -0.19857388464600351 0 0.13036062047551969 -0.18902074319721049 0 0.1230002356096771 -0.1898466095260338 0 0.13036062047551969 -0.18902074319721049 0 0.1230002356096771 -0.1898466095260338 0 0.14380911140509309 -0.18455809652056501 0 0.1230002356096771 -0.1898466095260338 0 0.13216500604533599 -0.18215655632593081 0 0.14380911140509309 -0.18455809652056501 0 0.13216500604533599 -0.18215655632593081 0 0.14380911140509309 -0.18455809652056501 0 0.14130304454448009 -0.16475291672229031 0 0.13216500604533599 -0.18215655632593081 0 0.14130304454448009 -0.16475291672229031 0 0.1279792061784 -0.17002182338065941 0 0.1230002356096771 -0.1898466095260338 0 0.1211701728431092 -0.1866805178411062 0 0.13216500604533599 -0.18215655632593081 0 0.1211701728431092 -0.1866805178411062 0 0.13216500604533599 -0.18215655632593081 0 0.1279792061784 -0.17002182338065941 0 0.15228279219331961 -0.17324809204811131 0 0.14380911140509309 -0.18455809652056501 0 0.14130304454448009 -0.16475291672229031 0 0.15228279219331961 -0.17324809204811131 0 0.14380911140509309 -0.18455809652056501 0 0.16486120847217459 -0.17969036735917329 0 0.15962038856545019 -0.19364073800167861 0 0.14380911140509309 -0.18455809652056501 0 0.16486120847217459 -0.17969036735917329 0 0.14380911140509309 -0.18455809652056501 0 0.16486120847217459 -0.17969036735917329 0 0.15228279219331961 -0.17324809204811131 0 0.14130304454448009 -0.16475291672229031 0 0.16156902937000711 -0.16156432400480919 0 0.1248017938381641 -0.15425177601001139 0 0.14130304454448009 -0.16475291672229031 0 0.1279792061784 -0.17002182338065941 0 0.1120874786856708 -0.13976417761338111 0 0.1248017938381641 -0.15425177601001139 0 0.1404237545879137 -0.14235321861540001 0 0.1248017938381641 -0.15425177601001139 0 0.14130304454448009 -0.16475291672229031 0 0.1404237545879137 -0.14235321861540001 0 0.1120874786856708 -0.13976417761338111 0 0.1404237545879137 -0.14235321861540001 0 0.1120874786856708 -0.13976417761338111 0 0.1404237545879137 -0.14235321861540001 0 0.12953710980066629 -0.12747703992295739 0 0.14627069365861661 -0.1189389935120195 0 0.1404237545879137 -0.14235321861540001 0 0.12953710980066629 -0.12747703992295739 0 0.14627069365861661 -0.1189389935120195 0 0.1404237545879137 -0.14235321861540001 0 0.16013015137076411 -0.12831723327391331 0 0.1404237545879137 -0.14235321861540001 0 0.16876003049015681 -0.14494225961741899 0 0.14130304454448009 -0.16475291672229031 0 0.1404237545879137 -0.14235321861540001 0 0.16156902937000711 -0.16156432400480919 0 0.1404237545879137 -0.14235321861540001 0 0.16876003049015681 -0.14494225961741899 0 0.16156902937000711 -0.16156432400480919 0 0.16876003049015681 -0.14494225961741899 0 0.1821306795807231 -0.15496505609552921 0 0.16156902937000711 -0.16156432400480919 0 0.17766990605787211 -0.1208315161390057 0 0.16876003049015681 -0.14494225961741899 0 0.16013015137076411 -0.12831723327391331 0 0.1404237545879137 -0.14235321861540001 0 0.16876003049015681 -0.14494225961741899 0 0.16013015137076411 -0.12831723327391331 0 0.17766990605787211 -0.1208315161390057 0 0.1957950833416526 -0.1231777916593905 0 0.1881147108597376 -0.13324331501142259 0 0.17766990605787211 -0.1208315161390057 0 0.1881147108597376 -0.13324331501142259 0 0.16876003049015681 -0.14494225961741899 0 0.19709630639239981 -0.1475313006194382 0 0.16876003049015681 -0.14494225961741899 0 0.19709630639239981 -0.1475313006194382 0 0.16876003049015681 -0.14494225961741899 0 0.1821306795807231 -0.15496505609552921 0 0.19709630639239981 -0.1475313006194382 0 0.1881147108597376 -0.13324331501142259 0 0.16876003049015681 -0.14494225961741899 0 0.18790258179823979 -0.17064676043964 0 0.1821306795807231 -0.15496505609552921 0 0.16156902937000711 -0.16156432400480919 0 0.18790258179823979 -0.17064676043964 0 0.1787088572040792 -0.19376222025984161 0 0.16486120847217459 -0.17969036735917329 0 0.18790258179823979 -0.17064676043964 0 0.1787088572040792 -0.19376222025984161 0 0.18790258179823979 -0.17064676043964 0 0.19260579946460249 -0.1938196557189214 0 0.1787088572040792 -0.19376222025984161 0 0.18790258179823979 -0.17064676043964 0 0.16486120847217459 -0.17969036735917329 0 0.16156902937000711 -0.16156432400480919 0 0.15228279219331961 -0.17324809204811131 0 0.16486120847217459 -0.17969036735917329 0 0.16156902937000711 -0.16156432400480919 0 
</DataArray>
</Points>
<Cells>
<DataArray type="UInt32" Name="connectivity" format="ascii">
0 1 2 3 4 5 6 7 8 9 10 11 12 13 14 15 16 17 18 19 20 21 22 23 24 25 26 27 28 29 30 31 32 33 34 35 36 37 38 39 40 41 42 43 44 45 46 47 48 49 50 51 52 53 54 55 56 57 58 59 60 61 62 63 64 65 66 67 68 69 70 71 72 73 74 75 76 77 78 79 80 81 82 83 84 85 86 87 88 89 90 91 92 93 94 95 96 97 98 99 100 101 102 103 104 105 106 107 108 109 110 111 112 113 114 115 116 117 118 119 120 121 122 123 124 125 126 127 128 129 130 131 132 133 134 135 136 137 138 139 140 141 142 143 144 145 146 147 148 149 150 151 152 153 154 155 156 157 158 159 160 161 162 163 164 165 166 167 168 169 170 171 172 173 174 175 176 177 178 179 180 181 182 183 184 185 186 187 188 189 190 191 192 193 194 195 196 197 198 199 200 201 202 203 204 205 206 207 208 209 210 211 212 213 214 215 216 217 218 219 220 221 222 223 224 225 226 227 228 229 230 231 232 233 234 235 236 237 238 239 240 241 242 243 244 245 246 247 248 249 250 251 252 253 254 255 256 257 258 259 260 261 262 263 264 265 266 267 268 269 270 271 272 273 274 275 276 277 278 279 280 281 282 283 284 285 286 287 288 289 290 291 292 293 294 295 296 297 298 299 300 301 302 303 304 305 306 307 308 309 310 311 312 313 314 315 316 317 318 319 320 321 322 323 324 325 326 327 328 329 330 331 332 333 334 335 336 337 338 339 340 341 342 343 344 345 346 347 348 349 350 351 352 353 354 355 356 357 358 359 360 361 362 363 364 365 366 367 368 369 370 371 372 373 374 375 376 377 378 379 380 381 382 383 384 385 386 387 388 389 390 391 392 393 394 395 396 397 398 399 400 401 402 403 404 405 406 407 408 409 410 411 412 413 414 415 416 417 418 419 420 421 422 423 424 425 426 427 428 429 430 431 432 433 434 435 436 437 438 439 440 441 442 443 444 445 446 447 448 449 450 451 452 453 454 455 456 457 458 459 460 461 462 463 464 465 466 467 468 469 470 471 472 473 474 475 476 477 478 479 480 481 482 483 484 485 486 487 488 489 490 491 492 493 494 495 496 497 498 499 500 501 502 503 504 505 506 507 508 509 510 511 512 513 514 515 516 517 518 519 520 521 522 523 524 525 526 527 528 529 530 531 532 533 534 535 536 537 538 539 540 541 542 543 544 545 546 547 548 549 550 551 552 553 554 555 556 557 558 559 560 561 562 563 564 565 566 567 568 569 570 571 572 573 574 575 576 577 578 579 580 581 582 583 584 585 586 587 588 589 590 591 592 593 594 595 596 597 598 599 600 601 602 603 604 605 606 607 608 609 610 611 612 613 614 615 616 617 618 619 620 621 622 623 624 625 626 627 628 629 630 631 632 633 634 635 636 637 638 639 640 641 642 643 644 645 646 647 648 649 650 651 652 653 654 655 656 657 658 659 660 661 662 663 664 665 666 667 668 669 670 671 672 673 674 675 676 677 678 679 680 681 682 683 684 685 686 687 688 689 690 691 692 693 694 695 696 697 698 699 700 701 702 703 704 705 706 707 708 709 710 711 712 713 714 715 716 717 718 719 720 721 722 723 724 725 726 727 728 729 730 731 732 733 734 735 736 737 738 739 740 741 742 743 744 745 746 747 748 749 750 751 752 753 754 755 756 757 758 759 760 761 762 763 764 765 766 767 768 769 770 771 772 773 774 775 776 777 778 779 780 781 782 783 784 785 786 787 788 789 790 791 792 793 794 795 796 797 798 799 800 801 802 803 804 805 806 807 808 809 810 811 812 813 814 815 816 817 818 819 820 821 822 823 824 825 826 827 828 829 830 831 832 833 834 835 836 837 838 839 840 841 842 843 844 845 846 847 848 849 850 851 852 853 854 855 856 857 858 859 860 861 862 863 864 865 866 867 868 869 870 871 872 873 874 875 876 877 878 879 880 881 882 883 884 885 886 887 888 889 890 891 892 893 894 895 896 897 898 899 900 901 902 903 904 905 906 907 908 909 910 911 912 913 914 915 916 917 918 919 920 921 922 923 924 925 926 927 928 929 930 931 932 933 934 935 936 937 938 939 940 941 942 943 944 945 946 947 948 949 950 951 952 953 954 955 956 957 958 959 960 961 962 963 964 965 966 967 968 969 970 971 972 973 974 975 976 977 978 979 980 981 982 983 984 985 986 987 988 989 990 991 992 993 994 995 996 997 998 999 1000 1001 1002 1003 1004 1005 1006 1007 1008 1009 1010 1011 1012 1013 1014 1015 1016 1017 1018 1019 1020 1021 1022 1023 1024 1025 1026 1027 1028 1029 1030 1031 1032 1033 1034 1035 1036 1037 1038 1039 1040 1041 1042 1043 1044 1045 1046 1047 1048 1049 1050 1051 1052 1053 1054 1055 1056 1057 1058 1059 1060 1061 1062 1063 1064 1065 1066 1067 1068 1069 1070 1071 1072 1073 1074 1075 1076 1077 1078 1079 1080 1081 1082 1083 1084 1085 1086 1087 1088 1089 1090 1091 1092 1093 1094 1095 1096 1097 1098 1099 1100 1101 1102 1103 1104 1105 1106 1107 1108 1109 1110 1111 1112 1113 1114 1115 1116 1117 1118 1119 1120 1121 1122 1123 1124 1125 1126 1127 1128 1129 1130 1131 1132 1133 1134 1135 1136 1137 1138 1139 1140 1141 1142 1143 1144 1145 1146 1147 1148 1149 1150 1151 1152 1153 1154 1155 1156 1157 1158 1159 1160 1161 1162 1163 1164 1165 1166 1167 1168 1169 1170 1171 1172 1173 1174 1175 1176 1177 1178 1179 1180 1181 1182 1183 1184 1185 1186 1187 1188 1189 1190 1191 1192 1193 1194 1195 1196 1197 1198 1199 1200 1201 1202 1203 1204 1205 1206 1207 1208 1209 1210 1211 1212 1213 1214 1215 1216 1217 1218 1219 1220 1221 1222 1223 1224 1225 1226 1227 1228 1229 1230 1231 1232 1233 1234 1235 1236 1237 1238 1239 1240 1241 1242 1243 1244 1245 1246 1247 1248 1249 1250 1251 1252 1253 1254 1255 1256 1257 1258 1259 1260 1261 1262 1263 1264 1265 1266 1267 1268 1269 1270 1271 1272 1273 1274 1275 1276 1277 1278 1279 1280 1281 1282 1283 1284 1285 1286 1287 1288 1289 1290 1291 1292 1293 1294 1295 1296 1297 1298 1299 1300 1301 1302 1303 1304 1305 1306 1307 1308 1309 1310 1311 1312 1313 1314 1315 1316 1317 1318 1319 1320 1321 1322 1323 1324 1325 1326 1327 1328 1329 1330 1331 1332 1333 1334 1335 1336 1337 1338 1339 1340 1341 1342 1343 1344 1345 1346 1347 1348 1349 1350 1351 1352 1353 1354 1355 1356 1357 1358 1359 1360 1361 1362 1363 1364 1365 1366 1367 1368 1369 1370 1371 1372 1373 1374 1375 1376 1377 1378 1379 1380 1381 1382 1383 1384 1385 1386 1387 1388 1389 1390 1391 1392 1393 1394 1395 1396 1397 1398 1399 1400 1401 1402 1403 1404 1405 1406 1407 1408 1409 1410 1411 1412 1413 1414 1415 1416 1417 1418 1419 1420 1421 1422 1423 1424 1425 1426 1427 1428 1429 1430 1431 1432 1433 1434 1435 1436 1437 1438 1439 1440 1441 1442 1443 1444 1445 1446 1447 1448 1449 1450 1451 1452 1453 1454 1455 1456 1457 1458 1459 1460 1461 1462 1463 1464 1465 1466 1467 1468 1469 1470 1471 1472 1473 1474 1475 1476 1477 1478 1479 1480 1481 1482 1483 1484 1485 1486 1487 1488 1489 1490 1491 1492 1493 1494 1495 1496 1497 1498 1499 1500 1501 1502 1503 1504 1505 1506 1507 1508 1509 1510 1511 1512 1513 1514 1515 1516 1517 1518 1519 1520 1521 1522 1523 1524 1525 1526 1527 1528 1529 1530 1531 1532 1533 1534 1535 1536 1537 1538 1539 1540 1541 1542 1543 1544 1545 1546 1547 1548 1549 1550 1551 1552 1553 1554 1555 1556 1557 1558 1559 1560 1561 1562 1563 1564 1565 1566 1567 1568 1569 1570 1571 1572 1573 1574 1575 1576 1577 1578 1579 1580 1581 1582 1583 1584 1585 1586 1587 1588 1589 1590 1591 1592 1593 1594 1595 1596 1597 1598 1599 1600 1601 1602 1603 1604 1605 1606 1607 1608 1609 1610 1611 1612 1613 1614 1615 1616 1617 1618 1619 1620 1621 1622 1623 1624 1625 1626 1627 1628 1629 1630 1631 1632 1633 1634 1635 1636 1637 1638 1639 1640 1641 1642 1643 1644 1645 1646 1647 1648 1649 1650 1651 1652 1653 1654 1655 1656 1657 1658 1659 1660 1661 1662 1663 1664 1665 1666 1667 1668 1669 1670 1671 1672 1673 1674 1675 1676 1677 1678 1679 1680 1681 1682 1683 1684 1685 1686 1687 1688 1689 1690 1691 1692 1693 1694 1695 1696 1697 1698 1699 1700 1701 1702 1703 1704 1705 1706 1707 1708 1709 1710 1711 1712 1713 1714 1715 1716 1717 1718 1719 1720 1721 1722 1723 1724 1725 1726 1727 1728 1729 1730 1731 1732 1733 1734 1735 1736 1737 1738 1739 1740 1741 1742 1743 1744 1745 1746 1747 1748 1749 1750 1751 1752 1753 1754 1755 1756 1757 1758 1759 1760 1761 1762 1763 1764 1765 1766 1767 1768 1769 1770 1771 1772 1773 1774 1775 1776 1777 1778 1779 1780 1781 1782 1783 1784 1785 1786 1787 1788 1789 1790 1791 1792 1793 1794 1795 1796 1797 1798 1799 1800 1801 1802 1803 1804 1805 1806 1807 1808 1809 1810 1811 1812 1813 1814 1815 1816 1817 1818 1819 1820 1821 1822 1823 1824 1825 1826 1827 1828 1829 1830 1831 1832 1833 1834 1835 1836 1837 1838 1839 1840 1841 1842 1843 1844 1845 1846 1847 1848 1849 1850 1851 1852 1853 1854 1855 1856 1857 1858 1859 1860 1861 1862 1863 1864 1865 1866 1867 1868 1869 1870 1871 1872 1873 1874 1875 1876 1877 1878 1879 1880 1881 1882 1883 1884 1885 1886 1887 1888 1889 1890 1891 1892 1893 1894 1895 1896 1897 1898 1899 1900 1901 1902 1903 1904 1905 1906 1907 1908 1909 1910 1911 1912 1913 1914 1915 1916 1917 1918 1919 1920 1921 1922 1923 1924 1925 1926 1927 1928 1929 1930 1931 1932 1933 1934 1935 1936 1937 1938 1939 1940 1941 1942 1943 1944 1945 1946 1947 1948 1949 1950 1951 1952 1953 1954 1955 1956 1957 1958 1959 1960 1961 1962 1963 1964 1965 1966 1967 1968 1969 1970 1971 1972 1973 1974 1975 1976 1977 1978 1979 1980 1981 1982 1983 1984 1985 1986 1987 1988 1989 1990 1991 1992 1993 1994 1995 1996 1997 1998 1999 2000 2001 2002 2003 2004 2005 2006 2007 2008 2009 2010 2011 2012 2013 2014 2015 2016 2017 2018 2019 2020 2021 2022 2023 2024 2025 2026 2027 2028 2029 2030 2031 2032 2033 2034 2035 2036 2037 2038 2039 2040 2041 2042 2043 2044 2045 2046 2047 2048 2049 2050 2051 2052 2053 2054 2055 2056 2057 2058 2059 2060 2061 2062 2063 2064 2065 2066 2067 2068 2069 2070 2071 2072 2073 2074 2075 2076 2077 2078 2079 2080 2081 2082 2083 2084 2085 2086 2087 2088 2089 2090 2091 2092 2093 2094 2095 2096 2097 2098 2099 2100 2101 2102 2103 2104 2105 2106 2107 2108 2109 2110 2111 2112 2113 2114 2115 2116 2117 2118 2119 2120 2121 2122 2123 2124 2125 2126 2127 2128 2129 2130 2131 2132 2133 2134 2135 2136 2137 2138 2139 2140 2141 2142 2143 2144 2145 2146 2147 2148 2149 2150 2151 2152 2153 2154 2155 2156 2157 2158 2159 2160 2161 2162 2163 2164 2165 2166 2167 2168 2169 2170 2171 2172 2173 2174 2175 2176 2177 2178 2179 2180 2181 2182 2183 2184 2185 2186 2187 2188 2189 2190 2191 2192 2193 2194 2195 2196 2197 2198 2199 2200 2201 2202 2203 2204 2205 2206 2207 2208 2209 2210 2211 2212 2213 2214 2215 2216 2217 2218 2219 2220 2221 2222 2223 2224 2225 2226 2227 2228 2229 2230 2231 2232 2233 2234 2235 2236 2237 2238 2239 2240 2241 2242 2243 2244 2245 2246 2247 2248 2249 2250 2251 2252 2253 2254 2255 2256 2257 2258 2259 2260 2261 2262 2263 2264 2265 2266 2267 2268 2269 2270 2271 2272 2273 2274 2275 2276 2277 2278 2279 2280 2281 2282 2283 2284 2285 2286 2287 2288 2289 2290 2291 2292 2293 2294 2295 2296 2297 2298 2299 2300 2301 2302 2303 2304 2305 2306 2307 2308 2309 2310 2311 2312 2313 2314 2315 2316 2317 2318 2319 2320 2321 2322 2323 2324 2325 2326 2327 2328 2329 2330 2331 2332 2333 2334 2335 2336 2337 2338 2339 2340 2341 2342 2343 2344 2345 2346 2347 2348 2349 2350 2351 2352 2353 2354 2355 2356 2357 2358 2359 2360 2361 2362 2363 2364 2365 2366 2367 2368 2369 2370 2371 2372 2373 2374 2375 2376 2377 2378 2379 2380 2381 2382 2383 2384 2385 2386 2387 2388 2389 2390 2391 2392 2393 2394 2395 2396 2397 2398 2399 2400 2401 2402 2403 2404 2405 2406 2407 2408 2409 2410 2411 2412 2413 2414 2415 2416 2417 2418 2419 2420 2421 2422 2423 2424 2425 2426 2427 2428 2429 2430 2431 2432 2433 2434 2435 2436 2437 2438 2439 2440 2441 2442 2443 2444 2445 2446 2447 2448 2449 2450 2451 2452 2453 2454 2455 2456 2457 2458 2459 2460 2461 2462 2463 2464 2465 2466 2467 2468 2469 2470 2471 2472 2473 2474 2475 2476 2477 2478 2479 2480 2481 2482 2483 2484 2485 2486 2487 2488 2489 2490 2491 2492 2493 2494 2495 2496 2497 2498 2499 2500 2501 2502 2503 2504 2505 2506 2507 2508 2509 2510 2511 2512 2513 2514 2515 2516 2517 2518 2519 2520 2521 2522 2523 2524 2525 2526 2527 2528 2529 2530 2531 2532 2533 2534 2535 2536 2537 2538 2539 2540 2541 2542 2543 2544 2545 2546 2547 2548 2549 2550 2551 2552 2553 2554 2555 2556 2557 2558 2559 2560 2561 2562 2563 2564 2565 2566 2567 2568 2569 2570 2571 2572 2573 2574 2575 2576 2577 2578 2579 2580 2581 2582 2583 2584 2585 2586 2587 2588 2589 2590 2591 2592 2593 2594 2595 2596 2597 2598 2599 2600 2601 2602 2603 2604 2605 2606 2607 2608 2609 2610 2611 2612 2613 2614 2615 2616 2617 2618 2619 2620 2621 2622 2623 2624 2625 2626 2627 2628 2629 2630 2631 2632 2633 2634 2635 2636 2637 2638 2639 2640 2641 2642 2643 2644 2645 2646 2647 2648 2649 2650 2651 2652 2653 2654 2655 2656 2657 2658 2659 2660 2661 2662 2663 2664 2665 2666 2667 2668 2669 2670 2671 2672 2673 2674 2675 2676 2677 2678 2679 2680 2681 2682 2683 2684 2685 2686 2687 2688 2689 2690 2691 2692 2693 2694 2695 2696 2697 2698 2699 2700 2701 2702 2703 2704 2705 2706 2707 2708 2709 2710 2711 2712 2713 2714 2715 2716 2717 2718 2719 2720 2721 2722 2723 2724 2725 2726 2727 2728 2729 2730 2731 2732 2733 2734 2735 2736 2737 2738 2739 2740 2741 2742 2743 2744 2745 2746 2747 2748 2749 2750 2751 2752 2753 2754 2755 2756 2757 2758 2759 2760 2761 2762 2763 2764 2765 2766 2767 2768 2769 2770 2771 2772 2773 2774 2775 2776 2777 2778 2779 2780 2781 2782 2783 2784 2785 2786 2787 2788 2789 2790 2791 2792 2793 2794 2795 2796 2797 2798 2799 2800 2801 2802 2803 2804 2805 2806 2807 2808 2809 2810 2811 2812 2813 2814 2815 2816 2817 2818 2819 2820 2821 2822 2823 2824 2825 2826 2827 2828 2829 2830 2831 2832 2833 2834 2835 2836 2837 2838 2839 2840 2841 2842 2843 2844 2845 2846 2847 2848 2849 2850 2851 2852 2853 2854 2855 2856 2857 2858 2859 2860 2861 2862 2863 2864 2865 2866 2867 2868 2869 2870 2871 2872 2873 2874 2875 2876 2877 2878 2879 2880 2881 2882 2883 2884 2885 2886 2887 2888 2889 2890 2891 2892 2893 2894 2895 2896 2897 2898 2899 2900 2901 2902 2903 2904 2905 2906 2907 2908 2909 2910 2911 2912 2913 2914 2915 2916 2917 2918 2919 2920 2921 2922 2923 2924 2925 2926 2927 2928 2929 2930 2931 2932 2933 2934 2935 2936 2937 2938 2939 2940 2941 2942 2943 2944 2945 2946 2947 2948 2949 2950 2951 2952 2953 2954 2955 2956 2957 2958 2959 2960 2961 2962 2963 2964 2965 2966 2967 2968 2969 2970 2971 2972 2973 2974 2975 2976 2977 2978 2979 2980 2981 2982 2983 2984 2985 2986 2987 2988 2989 2990 2991 2992 2993 2994 2995 2996 2997 2998 2999 3000 3001 3002 3003 3004 3005 3006 3007 3008 3009 3010 3011 3012 3013 3014 3015 3016 3017 3018 3019 3020 3021 3022 3023 3024 3025 3026 3027 3028 3029 3030 3031 3032 3033 3034 3035 3036 3037 3038 3039 3040 3041 3042 3043 3044 3045 3046 3047 3048 3049 3050 3051 3052 3053 3054 3055 3056 3057 3058 3059 3060 3061 3062 3063 3064 3065 3066 3067 3068 3069 3070 3071 3072 3073 3074 3075 3076 3077 3078 3079 3080 3081 3082 3083 3084 3085 3086 3087 3088 3089 3090 3091 3092 3093 3094 3095 3096 3097 3098 3099 3100 3101 3102 3103 3104 3105 3106 3107 3108 3109 3110 3111 3112 3113 3114 3115 3116 3117 3118 3119 3120 3121 3122 3123 3124 3125 3126 3127 3128 3129 3130 3131 3132 3133 3134 3135 3136 3137 3138 3139 3140 3141 3142 3143 3144 3145 3146 3147 3148 3149 3150 3151 3152 3153 3154 3155 3156 3157 3158 3159 3160 3161 3162 3163 3164 3165 3166 3167 3168 3169 3170 3171 3172 3173 3174 3175 3176 3177 3178 3179 3180 3181 3182 3183 3184 3185 3186 3187 3188 3189 3190 3191 3192 3193 3194 3195 3196 3197 3198 3199 3200 3201 3202 3203 3204 3205 3206 3207 3208 3209 3210 3211 3212 3213 3214 3215 3216 3217 3218 3219 3220 3221 3222 3223 3224 3225 3226 3227 3228 3229 3230 3231 3232 3233 3234 3235 3236 3237 3238 3239 3240 3241 3242 3243 3244 3245 3246 3247 3248 3249 3250 3251 3252 3253 3254 3255 3256 3257 3258 3259 3260 3261 3262 3263 3264 3265 3266 3267 3268 3269 3270 3271 3272 3273 3274 3275 3276 3277 3278 3279 3280 3281 3282 3283 3284 3285 3286 3287 3288 3289 3290 3291 3292 3293 3294 3295 3296 3297 3298 3299 3300 3301 3302 3303 3304 3305 3306 3307 3308 3309 3310 3311 3312 3313 3314 3315 3316 3317 3318 3319 3320 3321 3322 3323 3324 3325 3326 3327 3328 3329 3330 3331 3332 3333 3334 3335 3336 3337 3338 3339 3340 3341 3342 3343 3344 3345 3346 3347 3348 3349 3350 3351 3352 3353 3354 3355 3356 3357 3358 3359 3360 3361 3362 3363 3364 3365 3366 3367 3368 3369 3370 3371 3372 3373 3374 3375 3376 3377 3378 3379 3380 3381 3382 3383 3384 3385 3386 3387 3388 3389 3390 3391 3392 3393 3394 3395 3396 3397 3398 3399 3400 3401 3402 3403 3404 3405 3406 3407 3408 3409 3410 3411 3412 3413 3414 3415 3416 3417 3418 3419 3420 3421 3422 3423 3424 3425 3426 3427 3428 3429 3430 3431 3432 3433 3434 3435 3436 3437 3438 3439 3440 3441 3442 3443 3444 3445 3446 3447 3448 3449 3450 3451 3452 3453 3454 3455 3456 3457 3458 3459 3460 3461 3462 3463 3464 3465 3466 3467 3468 3469 3470 3471 3472 3473 3474 3475 3476 3477 3478 3479 3480 3481 3482 3483 3484 3485 3486 3487 3488 3489 3490 3491 3492 3493 3494 3495 3496 3497 3498 3499 3500 3501 3502 3503 3504 3505 3506 3507 3508 3509 3510 3511 3512 3513 3514 3515 3516 3517 3518 3519 3520 3521 3522 3523 3524 3525 3526 3527 3528 3529 3530 3531 3532 3533 3534 3535 3536 3537 3538 3539 3540 3541 3542 3543 3544 3545 3546 3547 3548 3549 3550 3551 3552 3553 3554 3555 3556 3557 3558 3559 3560 3561 3562 3563 3564 3565 3566 3567 3568 3569 3570 3571 3572 3573 3574 3575 3576 3577 3578 3579 3580 3581 3582 3583 3584 3585 3586 3587 3588 3589 3590 3591 3592 3593 3594 3595 3596 3597 3598 3599 3600 3601 3602 3603 3604 3605 3606 3607 3608 3609 3610 3611 3612 3613 3614 3615 3616 3617 3618 3619 3620 3621 3622 3623 3624 3625 3626 3627 3628 3629 3630 3631 3632 3633 3634 3635 3636 3637 3638 3639 3640 3641 3642 3643 3644 3645 3646 3647 3648 3649 3650 3651 3652 3653 3654 3655 3656 3657 3658 3659 3660 3661 3662 3663 3664 3665 3666 3667 3668 3669 3670 3671 3672 3673 3674 3675 3676 3677 3678 3679 3680 3681 3682 3683 3684 3685 3686 3687 3688 3689 3690 3691 3692 3693 3694 3695 3696 3697 3698 3699 3700 3701 3702 3703 3704 3705 3706 3707 3708 3709 3710 3711 3712 3713 3714 3715 3716 3717 3718 3719 3720 3721 3722 3723 3724 3725 3726 3727 3728 3729 3730 3731 3732 3733 3734 3735 3736 3737 3738 3739 3740 3741 3742 3743 3744 3745 3746 3747 3748 3749 3750 3751 3752 3753 3754 3755 3756 3757 3758 3759 3760 3761 3762 3763 3764 3765 3766 3767 3768 3769 3770 3771 3772 3773 3774 3775 3776 3777 3778 3779 3780 3781 3782 3783 3784 3785 3786 3787 3788 3789 3790 3791 3792 3793 3794 3795 3796 3797 3798 3799 3800 3801 3802 3803 3804 3805 3806 3807 3808 3809 3810 3811 3812 3813 3814 3815 3816 3817 3818 3819 3820 3821 3822 3823 3824 3825 3826 3827 3828 3829 3830 3831 3832 3833 3834 3835 3836 3837 3838 3839 3840 3841 3842 3843 3844 3845 3846 3847 3848 3849 3850 3851 3852 3853 3854 3855 3856 3857 3858 3859 3860 3861 3862 3863 3864 3865 3866 3867 3868 3869 3870 3871 3872 3873 3874 3875 3876 3877 3878 3879 3880 3881 3882 3883 3884 3885 3886 3887 3888 3889 3890 3891 3892 3893 3894 3895 3896 3897 3898 3899 3900 3901 3902 3903 3904 3905 3906 3907 3908 3909 3910 3911 3912 3913 3914 3915 3916 3917 3918 3919 3920 3921 3922 3923 3924 3925 3926 3927 3928 3929 3930 3931 3932 3933 3934 3935 3936 3937 3938 3939 3940 3941 3942 3943 3944 3945 3946 3947 3948 3949 3950 3951 3952 3953 3954 3955 3956 3957 3958 3959 3960 3961 3962 3963 3964 3965 3966 3967 3968 3969 3970 3971 3972 3973 3974 3975 3976 3977 3978 3979 3980 3981 3982 3983 3984 3985 3986 3987 3988 3989 3990 3991 3992 3993 3994 3995 3996 3997 3998 3999 4000 4001 4002 4003 4004 4005 4006 4007 4008 4009 4010 4011 4012 4013 4014 4015 4016 4017 4018 4019 4020 4021 4022 4023 4024 4025 4026 4027 4028 4029 4030 4031 4032 4033 4034 4035 4036 4037 4038 4039 4040 4041 4042 4043 4044 4045 4046 4047 4048 4049 4050 4051 4052 4053 4054 4055 4056 4057 4058 4059 4060 4061 4062 4063 4064 4065 4066 4067 4068 4069 4070 4071 4072 4073 4074 4075 4076 4077 4078 4079 4080 4081 4082 4083 4084 4085 4086 4087 4088 4089 4090 4091 4092 4093 4094 4095 4096 4097 4098 4099 4100 4101 4102 4103 4104 4105 4106 4107 4108 4109 4110 4111 4112 4113 4114 4115 4116 4117 4118 4119 4120 4121 4122 4123 4124 4125 4126 4127 4128 4129 4130 4131 4132 4133 4134 4135 4136 4137 4138 4139 4140 4141 4142 4143 4144 4145 4146 4147 4148 4149 4150 4151 4152 4153 4154 4155 4156 4157 4158 4159 4160 4161 4162 4163 4164 4165 4166 4167 4168 4169 4170 4171 4172 4173 4174 4175 4176 4177 4178 4179 4180 4181 4182 4183 4184 4185 4186 4187 4188 4189 4190 4191 4192 4193 4194 4195 4196 4197 4198 4199 4200 4201 4202 4203 4204 4205 4206 4207 4208 4209 4210 4211 4212 4213 4214 4215 4216 4217 4218 4219 4220 4221 4222 4223 4224 4225 4226 4227 4228 4229 4230 4231 4232 4233 4234 4235 4236 4237 4238 4239 4240 4241 4242 4243 4244 4245 4246 4247 4248 4249 4250 4251 4252 4253 4254 4255 4256 4257 4258 4259 4260 4261 4262 4263 4264 4265 4266 4267 4268 4269 4270 4271 4272 4273 4274 4275 4276 4277 4278 4279 4280 4281 4282 4283 4284 4285 4286 4287 4288 4289 4290 4291 4292 4293 4294 4295 4296 4297 4298 4299 4300 4301 4302 4303 4304 4305 4306 4307 4308 4309 4310 4311 4312 4313 4314 4315 4316 4317 4318 4319 4320 4321 4322 4323 4324 4325 4326 4327 4328 4329 4330 4331 4332 4333 4334 4335 4336 4337 4338 4339 4340 4341 4342 4343 4344 4345 4346 4347 4348 4349 4350 4351 4352 4353 4354 4355 4356 4357 4358 4359 4360 4361 4362 4363 4364 4365 4366 4367 4368 4369 4370 4371 4372 4373 4374 4375 4376 4377 4378 4379 4380 4381 4382 4383 4384 4385 4386 4387 4388 4389 4390 4391 4392 4393 4394 4395 4396 4397 4398 4399 4400 4401 4402 4403 4404 4405 4406 4407 4408 4409 4410 4411 4412 4413 4414 4415 4416 4417 4418 4419 4420 4421 4422 4423 4424 4425 4426 4427 4428 4429 4430 4431 4432 4433 4434 4435 4436 4437 4438 4439 4440 4441 4442 4443 4444 4445 4446 4447 4448 4449 4450 4451 4452 4453 4454 4455 4456 4457 4458 4459 4460 4461 4462 4463 4464 4465 4466 4467 4468 4469 4470 4471 4472 4473 4474 4475 4476 4477 4478 4479 4480 4481 4482 4483 4484 4485 4486 4487 4488 4489 4490 4491 4492 4493 4494 4495 4496 4497 4498 4499 4500 4501 4502 4503 4504 4505 4506 4507 4508 4509 4510 4511 4512 4513 4514 4515 4516 4517 4518 4519 4520 4521 4522 4523 4524 4525 4526 4527 4528 4529 4530 4531 4532 4533 4534 4535 4536 4537 4538 4539 4540 4541 4542 4543 4544 4545 4546 4547 4548 4549 4550 4551 4552 4553 4554 4555 4556 4557 4558 4559 4560 4561 4562 4563 4564 4565 4566 4567 4568 4569 4570 4571 4572 4573 4574 4575 4576 4577 4578 4579 4580 4581 4582 4583 4584 4585 4586 4587 4588 4589 4590 4591 4592 4593 4594 4595 4596 4597 4598 4599 4600 4601 4602 4603 4604 4605 4606 4607 4608 4609 4610 4611 4612 4613 4614 4615 4616 4617 4618 4619 4620 4621 4622 4623 4624 4625 4626 4627 4628 4629 4630 4631 4632 4633 4634 4635 4636 4637 4638 4639 4640 4641 4642 4643 4644 4645 4646 4647 4648 4649 4650 4651 4652 4653 4654 4655 4656 4657 4658 4659 4660 4661 4662 4663 4664 4665 4666 4667 4668 4669 4670 4671 4672 4673 4674 4675 4676 4677 4678 4679 4680 4681 4682 4683 4684 4685 4686 4687 4688 4689 4690 4691 4692 4693 4694 4695 4696 4697 4698 4699 4700 4701 4702 4703 4704 4705 4706 4707 4708 4709 4710 4711 4712 4713 4714 4715 4716 4717 4718 4719 4720 4721 4722 4723 4724 4725 4726 4727 4728 4729 4730 4731 4732 4733 4734 4735 4736 4737 4738 4739 4740 4741 4742 4743 4744 4745 4746 4747 4748 4749 4750 4751 4752 4753 4754 4755 4756 4757 4758 4759 4760 4761 4762 4763 4764 4765 4766 4767 4768 4769 4770 4771 4772 4773 4774 4775 4776 4777 4778 4779 4780 4781 4782 4783 4784 4785 4786 4787 4788 4789 4790 4791 4792 4793 4794 4795 4796 4797 4798 4799 4800 4801 4802 4803 4804 4805 4806 4807 4808 4809 4810 4811 4812 4813 4814 4815 4816 4817 4818 4819 4820 4821 4822 4823 4824 4825 4826 4827 4828 4829 4830 4831 4832 4833 4834 4835 4836 4837 4838 4839 4840 4841 4842 4843 4844 4845 4846 4847 4848 4849 4850 4851 4852 4853 4854 4855 4856 4857 4858 4859 4860 4861 4862 4863 4864 4865 4866 4867 4868 4869 4870 4871 4872 4873 4874 4875 4876 4877 4878 4879 4880 4881 4882 4883 4884 4885 4886 4887 4888 4889 4890 4891 4892 4893 4894 4895 4896 4897 4898 4899 4900 4901 4902 4903 4904 4905 4906 4907 4908 4909 4910 4911 4912 4913 4914 4915 4916 4917 4918 4919 4920 4921 4922 4923 4924 4925 4926 4927 4928 4929 4930 4931 4932 4933 4934 4935 4936 4937 4938 4939 4940 4941 4942 4943 4944 4945 4946 4947 4948 4949 4950 4951 4952 4953 4954 4955 4956 4957 4958 4959 4960 4961 4962 4963 4964 4965 4966 4967 4968 4969 4970 4971 4972 4973 4974 4975 4976 4977 4978 4979 4980 4981 4982 4983 4984 4985 4986 4987 4988 4989 4990 4991 4992 4993 4994 4995 4996 4997 4998 4999 5000 5001 5002 5003 5004 5005 5006 5007 5008 5009 5010 5011 5012 5013 5014 5015 5016 5017 5018 5019 5020 5021 5022 5023 5024 5025 5026 5027 5028 5029 5030 5031 5032 5033 5034 5035 5036 5037 5038 5039 5040 5041 5042 5043 5044 5045 5046 5047 5048 5049 5050 5051 5052 5053 5054 5055 5056 5057 5058 5059 5060 5061 5062 5063 5064 5065 5066 5067 5068 5069 5070 5071 5072 5073 5074 5075 5076 5077 5078 5079 5080 5081 5082 5083 5084 5085 5086 5087 5088 5089 5090 5091 5092 5093 5094 5095 5096 5097 5098 5099 5100 5101 5102 5103 5104 5105 5106 5107 5108 5109 5110 5111 5112 5113 5114 5115 5116 5117 5118 5119 5120 5121 5122 5123 5124 5125 5126 5127 5128 5129 5130 5131 5132 5133 5134 5135 5136 5137 5138 5139 5140 5141 5142 5143 5144 5145 5146 5147 5148 5149 5150 5151 5152 5153 5154 5155 5156 5157 5158 5159 5160 5161 5162 5163 5164 5165 5166 5167 5168 5169 5170 5171 5172 5173 5174 5175 5176 5177 5178 5179 5180 5181 5182 5183 5184 5185 5186 5187 5188 5189 5190 5191 5192 5193 5194 5195 5196 5197 5198 5199 5200 5201 5202 5203 5204 5205 5206 5207 5208 5209 5210 5211 5212 5213 5214 5215 5216 5217 5218 5219 5220 5221 5222 5223 5224 5225 5226 5227 5228 5229 5230 5231 5232 5233 5234 5235 5236 5237 5238 5239 5240 5241 5242 5243 5244 5245 5246 5247 5248 5249 5250 5251 5252 5253 5254 5255 5256 5257 5258 5259 5260 5261 5262 5263 5264 5265 5266 5267 5268 5269 5270 5271 5272 5273 5274 5275 5276 5277 5278 5279 5280 5281 5282 5283 5284 5285 5286 5287 5288 5289 5290 5291 5292 5293 5294 5295 5296 5297 5298 5299 5300 5301 5302 5303 5304 5305 5306 5307 5308 5309 5310 5311 5312 5313 5314 5315 5316 5317 5318 5319 5320 5321 5322 5323 5324 5325 5326 5327 5328 5329 5330 5331 5332 5333 5334 5335 5336 5337 5338 5339 5340 5341 5342 5343 5344 5345 5346 5347 5348 5349 5350 5351 5352 5353 5354 5355 5356 5357 5358 5359 5360 5361 5362 5363 5364 5365 5366 5367 5368 5369 5370 5371 5372 5373 5374 5375 5376 5377 5378 5379 5380 5381 5382 5383 5384 5385 5386 5387 5388 5389 5390 5391 5392 5393 5394 5395 5396 5397 5398 5399 5400 5401 5402 5403 5404 5405 5406 5407 5408 5409 5410 5411 5412 5413 5414 5415 5416 5417 5418 5419 5420 5421 5422 5423 5424 5425 5426 5427 5428 5429 5430 5431 5432 5433 5434 5435 5436 5437 5438 5439 5440 5441 5442 5443 5444 5445 5446 5447 5448 5449 5450 5451 5452 5453 5454 5455 5456 5457 5458 5459 5460 5461 5462 5463 5464 5465 5466 5467 5468 5469 5470 5471 5472 5473 5474 5475 5476 5477 5478 5479 5480 5481 5482 5483 5484 5485 5486 5487 5488 5489 5490 5491 5492 5493 5494 5495 5496 5497 5498 5499 5500 5501 5502 5503 5504 5505 5506 5507 5508 5509 5510 5511 5512 5513 5514 5515 5516 5517 5518 5519 5520 5521 5522 5523 5524 5525 5526 5527 5528 5529 5530 5531 5532 5533 5534 5535 5536 5537 5538 5539 5540 5541 5542 5543 5544 5545 5546 5547 5548 5549 5550 5551 5552 5553 5554 5555 5556 5557 5558 5559 5560 5561 5562 5563 5564 5565 5566 5567 5568 5569 5570 5571 5572 5573 5574 5575 5576 5577 5578 5579 5580 5581 5582 5583 5584 5585 5586 5587 5588 5589 5590 5591 5592 5593 5594 5595 5596 5597 5598 5599 5600 5601 5602 5603 5604 5605 5606 5607 5608 5609 5610 5611 5612 5613 5614 5615 5616 5617 5618 5619 5620 5621 5622 5623 5624 5625 5626 5627 5628 5629 5630 5631 5632 5633 5634 5635 5636 5637 5638 5639 5640 5641 5642 5643 5644 5645 5646 5647 5648 5649 5650 5651 5652 5653 5654 5655 5656 5657 5658 5659 5660 5661 5662 5663 5664 5665 5666 5667 5668 5669 5670 5671 5672 5673 5674 5675 5676 5677 5678 5679 5680 5681 5682 5683 5684 5685 5686 5687 5688 5689 5690 5691 5692 5693 5694 5695 5696 5697 5698 5699 5700 5701 5702 5703 5704 5705 5706 5707 5708 5709 5710 5711 5712 5713 5714 5715 5716 5717 5718 5719 5720 5721 5722 5723 5724 5725 5726 5727 5728 5729 5730 5731 5732 5733 5734 5735 5736 5737 5738 5739 5740 5741 5742 5743 5744 5745 5746 5747 5748 5749 5750 5751 5752 5753 5754 5755 5756 5757 5758 5759 5760 5761 5762 5763 5764 5765 5766 5767 5768 5769 5770 5771 5772 5773 5774 5775 5776 5777 5778 5779 5780 5781 5782 5783 5784 5785 5786 5787 5788 5789 5790 5791 5792 5793 5794 5795 5796 5797 5798 5799 5800 5801 5802 5803 5804 5805 5806 5807 5808 5809 5810 5811 5812 5813 5814 5815 5816 5817 5818 5819 5820 5821 5822 5823 5824 5825 5826 5827 5828 5829 5830 5831 5832 5833 5834 5835 5836 5837 5838 5839 5840 5841 5842 5843 5844 5845 5846 5847 5848 5849 5850 5851 5852 5853 5854 5855 5856 5857 5858 5859 5860 5861 5862 5863 5864 5865 5866 5867 5868 5869 5870 5871 5872 5873 5874 5875 5876 5877 5878 5879 5880 5881 5882 5883 5884 5885 5886 5887 5888 5889 5890 5891 5892 5893 5894 5895 5896 5897 5898 5899 5900 5901 5902 5903 5904 5905 5906 5907 5908 5909 5910 5911 5912 5913 5914 5915 5916 5917 5918 5919 5920 5921 5922 5923 5924 5925 5926 5927 5928 5929 5930 5931 5932 5933 5934 5935 5936 5937 5938 5939 5940 5941 5942 5943 5944 5945 5946 5947 5948 5949 5950 5951 5952 5953 5954 5955 5956 5957 5958 5959 5960 5961 5962 5963 5964 5965 5966 5967 5968 5969 5970 5971 5972 5973 5974 5975 5976 5977 5978 5979 5980 5981 5982 5983 5984 5985 5986 5987 5988 5989 5990 5991 5992 5993 5994 5995 5996 5997 5998 5999 6000 6001 6002 6003 6004 6005 6006 6007 6008 6009 6010 6011 6012 6013 6014 6015 6016 6017 6018 6019 6020 6021 6022 6023 6024 6025 6026 6027 6028 6029 6030 6031 6032 6033 6034 6035 6036 6037 6038 6039 6040 6041 6042 6043 6044 6045 6046 6047 6048 6049 6050 6051 6052 6053 6054 6055 6056 6057 6058 6059 6060 6061 6062 6063 6064 6065 6066 6067 6068 6069 6070 6071 6072 6073 6074 6075 6076 6077 6078 6079 6080 6081 6082 6083 6084 6085 6086 6087 6088 6089 6090 6091 6092 6093 6094 6095 6096 6097 6098 6099 6100 6101 6102 6103 6104 6105 6106 6107 6108 6109 6110 6111 6112 6113 6114 6115 6116 6117 6118 6119 6120 6121 6122 6123 6124 6125 6126 6127 6128 6129 6130 6131 6132 6133 6134 6135 6136 6137 6138 6139 6140 6141 6142 6143 6144 6145 6146 6147 6148 6149 6150 6151 6152 6153 6154 6155 6156 6157 6158 6159 6160 6161 6162 6163 6164 6165 6166 6167 6168 6169 6170 6171 6172 6173 6174 6175 6176 6177 6178 6179 6180 6181 6182 6183 6184 6185 6186 6187 6188 6189 6190 6191 6192 6193 6194 6195 6196 6197 6198 6199 6200 6201 6202 6203 6204 6205 6206 6207 6208 6209 6210 6211 6212 6213 6214 6215 6216 6217 6218 6219 6220 6221 6222 6223 6224 6225 6226 6227 6228 6229 6230 6231 6232 6233 6234 6235 6236 6237 6238 6239 6240 6241 6242 6243 6244 6245 6246 6247 6248 6249 6250 6251 6252 6253 6254 6255 6256 6257 6258 6259 6260 6261 6262 6263 6264 6265 6266 6267 6268 6269 6270 6271 6272 6273 6274 6275 6276 6277 6278 6279 6280 6281 6282 6283 6284 6285 6286 6287 6288 6289 6290 6291 6292 6293 6294 6295 6296 6297 6298 6299 6300 6301 6302 6303 6304 6305 6306 6307 6308 6309 6310 6311 6312 6313 6314 6315 6316 6317 6318 6319 6320 6321 6322 6323 6324 6325 6326 6327 6328 6329 6330 6331 6332 6333 6334 6335 6336 6337 6338 6339 6340 6341 6342 6343 6344 6345 6346 6347 6348 6349 6350 6351 6352 6353 6354 6355 6356 6357 6358 6359 6360 6361 6362 6363 6364 6365 6366 6367 6368 6369 6370 6371 6372 6373 6374 6375 6376 6377 6378 6379 6380 6381 6382 6383 6384 6385 6386 6387 6388 6389 6390 6391 6392 6393 6394 6395 6396 6397 6398 6399 6400 6401 6402 6403 6404 6405 6406 6407 6408 6409 6410 6411 6412 6413 6414 6415 6416 6417 6418 6419 6420 6421 6422 6423 6424 6425 6426 6427 6428 6429 6430 6431 6432 6433 6434 6435 6436 6437 6438 6439 6440 6441 6442 6443 6444 6445 6446 6447 6448 6449 6450 6451 6452 6453 6454 6455 6456 6457 6458 6459 6460 6461 6462 6463 6464 6465 6466 6467 6468 6469 6470 6471 6472 6473 6474 6475 6476 6477 6478 6479 6480 6481 6482 6483 6484 6485 6486 6487 6488 6489 6490 6491 6492 6493 6494 6495 6496 6497 6498 6499 6500 6501 6502 6503 6504 6505 6506 6507 6508 6509 6510 6511 6512 6513 6514 6515 6516 6517 6518 6519 6520 6521 6522 6523 6524 6525 6526 6527 6528 6529 6530 6531 6532 6533 6534 6535 6536 6537 6538 6539 6540 6541 6542 6543 6544 6545 6546 6547 6548 6549 6550 6551 6552 6553 6554 6555 6556 6557 6558 6559 6560 6561 6562 6563 6564 6565 6566 6567 6568 6569 6570 6571 6572 6573 6574 6575 6576 6577 6578 6579 6580 6581 6582 6583 6584 6585 6586 6587 6588 6589 6590 6591 6592 6593 6594 6595 6596 6597 6598 6599 6600 6601 6602 6603 6604 6605 6606 6607 6608 6609 6610 6611 6612 6613 6614 6615 6616 6617 6618 6619 6620 6621 6622 6623 6624 6625 6626 6627 6628 6629 6630 6631 6632 6633 6634 6635 6636 6637 6638 6639 6640 6641 6642 6643 6644 6645 6646 6647 6648 6649 6650 6651 6652 6653 6654 6655 6656 6657 6658 6659 6660 6661 6662 6663 6664 6665 6666 6667 6668 6669 6670 6671 6672 6673 6674 6675 6676 6677 6678 6679 6680 6681 6682 6683 6684 6685 6686 6687 6688 6689 6690 6691 6692 6693 6694 6695 6696 6697 6698 6699 6700 6701 6702 6703 6704 6705 6706 6707 6708 6709 6710 6711 6712 6713 6714 6715 6716 6717 6718 6719 6720 6721 6722 6723 6724 6725 6726 6727 6728 6729 6730 6731 6732 6733 6734 6735 6736 6737 6738 6739 6740 6741 6742 6743 6744 6745 6746 6747 6748 6749 6750 6751 6752 6753 6754 6755 6756 6757 6758 6759 6760 6761 6762 6763 6764 6765 6766 6767 6768 6769 6770 6771 6772 6773 6774 6775 6776 6777 6778 6779 6780 6781 6782 6783 6784 6785 6786 6787 6788 6789 6790 6791 6792 6793 6794 6795 6796 6797 6798 6799 6800 6801 6802 6803 6804 6805 6806 6807 6808 6809 6810 6811 6812 6813 6814 6815 6816 6817 6818 6819 6820 6821 6822 6823 6824 6825 6826 6827 6828 6829 6830 6831 6832 6833 6834 6835 6836 6837 6838 6839 6840 6841 6842 6843 6844 6845 6846 6847 6848 6849 6850 6851 6852 6853 6854 6855 6856 6857 6858 6859 6860 6861 6862 6863 6864 6865 6866 6867 6868 6869 6870 6871 6872 6873 6874 6875 6876 6877 6878 6879 6880 6881 6882 6883 6884 6885 6886 6887 6888 6889 6890 6891 6892 6893 6894 6895 6896 6897 6898 6899 6900 6901 6902 6903 6904 6905 6906 6907 6908 6909 6910 6911 6912 6913 6914 6915 6916 6917 6918 6919 6920 6921 6922 6923 6924 6925 6926 6927 6928 6929 6930 6931 6932 6933 6934 6935 6936 6937 6938 6939 6940 6941 6942 6943 6944 6945 6946 6947 6948 6949 6950 6951 6952 6953 6954 6955 6956 6957 6958 6959 6960 6961 6962 6963 6964 6965 6966 6967 6968 6969 6970 6971 6972 6973 6974 6975 6976 6977 6978 6979 6980 6981 6982 6983 6984 6985 6986 6987 6988 6989 6990 6991 6992 6993 6994 6995 6996 6997 6998 6999 7000 7001 7002 7003 7004 7005 7006 7007 7008 7009 7010 7011 7012 7013 7014 7015 7016 7017 7018 7019 7020 7021 7022 7023 7024 7025 7026 7027 7028 7029 7030 7031 7032 7033 7034 7035 7036 7037 7038 7039 7040 7041 7042 7043 7044 7045 7046 7047 7048 7049 7050 7051 7052 7053 7054 7055 7056 7057 7058 7059 7060 7061 7062 7063 7064 7065 7066 7067 7068 7069 7070 7071 7072 7073 7074 7075 7076 7077 7078 7079 7080 7081 7082 7083 7084 7085 7086 7087 7088 7089 7090 7091 7092 7093 7094 7095 7096 7097 7098 7099 7100 7101 7102 7103 7104 7105 7106 7107 7108 7109 7110 7111 7112 7113 7114 7115 7116 7117 7118 7119 7120 7121 7122 7123 7124 7125 7126 7127 7128 7129 7130 7131 7132 7133 7134 7135 7136 7137 7138 7139 7140 7141 7142 7143 7144 7145 7146 7147 7148 7149 7150 7151 7152 7153 7154 7155 7156 7157 7158 7159 7160 7161 7162 7163 7164 7165 7166 7167 7168 7169 7170 7171 7172 7173 7174 7175 7176 7177 7178 7179 7180 7181 7182 7183 7184 7185 7186 7187 7188 7189 7190 7191 7192 7193 7194 7195 7196 7197 7198 7199 7200 7201 7202 7203 7204 7205 7206 7207 7208 7209 7210 7211 7212 7213 7214 7215 7216 7217 7218 7219 7220 7221 7222 7223 7224 7225 7226 7227 7228 7229 7230 7231 7232 7233 7234 7235 7236 7237 7238 7239 7240 7241 7242 7243 7244 7245 7246 7247 7248 7249 7250 7251 7252 7253 7254 7255 7256 7257 7258 7259 7260 7261 7262 7263 7264 7265 7266 7267 7268 7269 7270 7271 7272 7273 7274 7275 7276 7277 7278 7279 7280 7281 7282 7283 7284 7285 7286 7287 7288 7289 7290 7291 7292 7293 7294 7295 7296 7297 7298 7299 7300 7301 7302 7303 7304 7305 7306 7307 7308 7309 7310 7311 7312 7313 7314 7315 7316 7317 7318 7319 7320 7321 7322 7323 7324 7325 7326 7327 7328 7329 7330 7331 7332 7333 7334 7335 7336 7337 7338 7339 7340 7341 7342 7343 7344 7345 7346 7347 7348 7349 7350 7351 7352 7353 7354 7355 7356 7357 7358 7359 7360 7361 7362 7363 7364 7365 7366 7367 7368 7369 7370 7371 7372 7373 7374 7375 7376 7377 7378 7379 7380 7381 7382 7383 7384 7385 7386 7387 7388 7389 7390 7391 7392 7393 7394 7395 7396 7397 7398 7399 7400 7401 7402 7403 7404 7405 7406 7407 7408 7409 7410 7411 7412 7413 7414 7415 7416 7417 7418 7419 7420 7421 7422 7423 7424 7425 7426 7427 7428 7429 7430 7431 7432 7433 7434 7435 7436 7437 7438 7439 7440 7441 7442 7443 7444 7445 7446 7447 7448 7449 7450 7451 7452 7453 7454 7455 7456 7457 7458 7459 7460 7461 7462 7463 7464 7465 7466 7467 7468 7469 7470 7471 7472 7473 7474 7475 7476 7477 7478 7479 7480 7481 7482 7483 7484 7485 7486 7487 7488 7489 7490 7491 7492 7493 7494 7495 7496 7497 7498 7499 7500 7501 7502 7503 7504 7505 7506 7507 7508 7509 7510 7511 7512 7513 7514 7515 7516 7517 7518 7519 7520 7521 7522 7523 7524 7525 7526 7527 7528 7529 7530 7531 7532 7533 7534 7535 7536 7537 7538 7539 7540 7541 7542 7543 7544 7545 7546 7547 7548 7549 7550 7551 7552 7553 7554 7555 7556 7557 7558 7559 7560 7561 7562 7563 7564 7565 7566 7567 7568 7569 7570 7571 7572 7573 7574 7575 7576 7577 7578 7579 7580 7581 7582 7583 7584 7585 7586 7587 7588 7589 7590 7591 7592 7593 7594 7595 7596 7597 7598 7599 7600 7601 7602 7603 7604 7605 7606 7607 7608 7609 7610 7611 7612 7613 7614 7615 7616 7617 7618 7619 7620 7621 7622 7623 7624 7625 7626 7627 7628 7629 7630 7631 7632 7633 7634 7635 7636 7637 7638 7639 7640 7641 7642 7643 7644 7645 7646 7647 7648 7649 7650 7651 7652 7653 7654 7655 7656 7657 7658 7659 7660 7661 7662 7663 7664 7665 7666 7667 7668 7669 7670 7671 7672 7673 7674 7675 7676 7677 7678 7679 7680 7681 7682 7683 7684 7685 7686 7687 7688 7689 7690 7691 7692 7693 7694 7695 7696 7697 7698 7699 7700 7701 7702 7703 7704 7705 7706 7707 7708 7709 7710 7711 7712 7713 7714 7715 7716 7717 7718 7719 7720 7721 7722 7723 7724 7725 7726 7727 7728 7729 7730 7731 7732 7733 7734 7735 7736 7737 7738 7739 7740 7741 7742 7743 7744 7745 7746 7747 7748 7749 7750 7751 7752 7753 7754 7755 7756 7757 7758 7759 7760 7761 7762 7763 7764 7765 7766 7767 7768 7769 7770 7771 7772 7773 7774 7775 7776 7777 7778 7779 7780 7781 7782 7783 7784 7785 7786 7787 7788 7789 7790 7791 7792 7793 7794 7795 7796 7797 7798 7799 7800 7801 7802 7803 7804 7805 7806 7807 7808 7809 7810 7811 7812 7813 7814 7815 7816 7817 7818 7819 7820 7821 7822 7823 7824 7825 7826 7827 7828 7829 7830 7831 7832 7833 7834 7835 7836 7837 7838 7839 7840 7841 7842 7843 7844 7845 7846 7847 7848 7849 7850 7851 7852 7853 7854 7855 7856 7857 7858 7859 7860 7861 7862 7863 7864 7865 7866 7867 7868 7869 7870 7871 7872 7873 7874 7875 7876 7877 7878 7879 7880 7881 7882 7883 7884 7885 7886 7887 7888 7889 7890 7891 7892 7893 7894 7895 7896 7897 7898 7899 7900 7901 7902 7903 7904 7905 7906 7907 7908 7909 7910 7911 7912 7913 7914 7915 7916 7917 7918 7919 7920 7921 7922 7923 7924 7925 7926 7927 7928 7929 7930 7931 7932 7933 7934 7935 7936 7937 7938 7939 7940 7941 7942 7943 7944 7945 7946 7947 7948 7949 7950 7951 7952 7953 7954 7955 7956 7957 7958 7959 7960 7961 7962 7963 7964 7965 7966 7967 7968 7969 7970 7971 7972 7973 7974 7975 7976 7977 7978 7979 7980 7981 7982 7983 7984 7985 7986 7987 7988 7989 7990 7991 7992 7993 7994 7995 7996 7997 7998 7999 8000 8001 8002 8003 8004 8005 8006 8007 8008 8009 8010 8011 8012 8013 8014 8015 8016 8017 8018 8019 8020 8021 8022 8023 8024 8025 8026 8027 8028 8029 8030 8031 8032 8033 8034 8035 8036 8037 8038 8039 8040 8041 8042 8043 8044 8045 8046 8047 8048 8049 8050 8051 8052 8053 8054 8055 8056 8057 8058 8059 8060 8061 8062 8063 8064 8065 8066 8067 8068 8069 8070 8071 8072 8073 8074 8075 8076 8077 8078 8079 8080 8081 8082 8083 8084 8085 8086 8087 8088 8089 8090 8091 8092 8093 8094 8095 8096 8097 8098 8099 8100 8101 8102 8103 8104 8105 8106 8107 8108 8109 8110 8111 8112 8113 8114 8115 8116 8117 8118 8119 8120 8121 8122 8123 8124 8125 8126 8127 8128 8129 8130 8131 8132 8133 8134 8135 8136 8137 8138 8139 8140 8141 8142 8143 8144 8145 8146 8147 8148 8149 8150 8151 8152 8153 8154 8155 8156 8157 8158 8159 8160 8161 8162 8163 8164 8165 8166 8167 8168 8169 8170 8171 8172 8173 8174 8175 8176 8177 8178 8179 8180 8181 8182 8183 8184 8185 8186 8187 8188 8189 8190 8191 8192 8193 8194 8195 8196 8197 8198 8199 8200 8201 8202 8203 8204 8205 8206 8207 8208 8209 8210 8211 8212 8213 8214 8215 8216 8217 8218 8219 8220 8221 8222 8223 8224 8225 8226 8227 8228 8229 8230 8231 8232 8233 8234 8235 8236 8237 8238 8239 8240 8241 8242 8243 8244 8245 8246 8247 8248 8249 8250 8251 8252 8253 8254 8255 8256 8257 8258 8259 8260 8261 8262 8263 8264 8265 8266 8267 8268 8269 8270 8271 8272 8273 8274 8275 8276 8277 8278 8279 8280 8281 8282 8283 8284 8285 8286 8287 8288 8289 8290 8291 8292 8293 8294 8295 8296 8297 8298 8299 8300 8301 8302 8303 8304 8305 8306 8307 8308 8309 8310 8311 8312 8313 8314 8315 8316 8317 8318 8319 8320 8321 8322 8323 8324 8325 8326 8327 8328 8329 8330 8331 8332 8333 8334 8335 8336 8337 8338 8339 8340 8341 8342 8343 8344 8345 8346 8347 8348 8349 8350 8351 8352 8353 8354 8355 8356 8357 8358 8359 8360 8361 8362 8363 8364 8365 8366 8367 8368 8369 8370 8371 8372 8373 8374 8375 8376 8377 8378 8379 8380 8381 8382 8383 8384 8385 8386 8387 8388 8389 8390 8391 8392 8393 8394 8395 8396 8397 8398 8399 8400 8401 8402 8403 8404 8405 8406 8407 8408 8409 8410 8411 8412 8413 8414 8415 8416 8417 8418 8419 8420 8421 8422 8423 8424 8425 8426 8427 8428 8429 8430 8431 8432 8433 8434 8435 8436 8437 8438 8439 8440 8441 8442 8443 8444 8445 8446 8447 8448 8449 8450 8451 8452 8453 8454 8455 8456 8457 8458 8459 8460 8461 8462 8463 8464 8465 8466 8467 8468 8469 8470 8471 8472 8473 8474 8475 8476 8477 8478 8479 8480 8481 8482 8483 8484 8485 8486 8487 8488 8489 8490 8491 8492 8493 8494 8495 8496 8497 8498 8499 8500 8501 8502 8503 8504 8505 8506 8507 8508 8509 8510 8511 8512 8513 8514 8515 8516 8517 8518 8519 8520 8521 8522 8523 8524 8525 8526 8527 8528 8529 8530 8531 8532 8533 8534 8535 8536 8537 8538 8539 8540 8541 8542 8543 8544 8545 8546 8547 8548 8549 8550 8551 8552 8553 8554 8555 8556 8557 8558 8559 8560 8561 8562 8563 8564 8565 8566 8567 8568 8569 8570 8571 8572 8573 8574 8575 8576 8577 8578 8579 8580 8581 8582 8583 8584 8585 8586 8587 8588 8589 8590 8591 8592 8593 8594 8595 8596 8597 8598 8599 8600 8601 8602 8603 8604 8605 8606 8607 8608 8609 8610 8611 8612 8613 8614 8615 8616 8617 8618 8619 8620 8621 8622 8623 8624 8625 8626 8627 8628 8629 8630 8631 8632 8633 8634 8635 8636 8637 8638 8639 8640 8641 8642 8643 8644 8645 8646 8647 8648 8649 8650 8651 8652 8653 8654 8655 8656 8657 8658 8659 8660 8661 8662 8663 8664 8665 8666 8667 8668 8669 8670 8671 8672 8673 8674 8675 8676 8677 8678 8679 8680 8681 8682 8683 8684 8685 8686 8687 8688 8689 8690 8691 8692 8693 8694 8695 8696 8697 8698 8699 8700 8701 8702 8703 8704 8705 8706 8707 8708 8709 8710 8711 8712 8713 8714 8715 8716 8717 8718 8719 8720 8721 8722 8723 8724 8725 8726 8727 8728 8729 8730 8731 8732 8733 8734 8735 8736 8737 8738 8739 8740 8741 8742 8743 8744 8745 8746 8747 8748 8749 8750 8751 8752 8753 8754 8755 8756 8757 8758 8759 8760 8761 8762 8763 8764 8765 8766 8767 8768 8769 8770 8771 8772 8773 8774 8775 8776 8777 8778 8779 8780 8781 8782 8783 8784 8785 8786 8787 8788 8789 8790 8791 8792 8793 8794 8795 8796 8797 8798 8799 8800 8801 8802 8803 8804 8805 8806 8807 8808 8809 8810 8811 8812 8813 8814 8815 8816 8817 8818 8819 8820 8821 8822 8823 8824 8825 8826 8827 8828 8829 8830 8831 8832 8833 8834 8835 8836 8837 8838 8839 8840 8841 8842 8843 8844 8845 8846 8847 8848 8849 8850 8851 8852 8853 8854 8855 8856 8857 8858 8859 8860 8861 8862 8863 8864 8865 8866 8867 8868 8869 8870 8871 8872 8873 8874 8875 8876 8877 8878 8879 8880 8881 8882 8883 8884 8885 8886 8887 8888 8889 8890 8891 8892 8893 8894 8895 8896 8897 8898 8899 8900 8901 8902 8903 8904 8905 8906 8907 8908 8909 8910 8911 8912 8913 8914 8915 8916 8917 8918 8919 8920 8921 8922 8923 8924 8925 8926 8927 8928 8929 8930 8931 8932 8933 8934 8935 8936 8937 8938 8939 8940 8941 8942 8943 8944 8945 8946 8947 8948 8949 8950 8951 8952 8953 8954 8955 8956 8957 8958 8959 8960 8961 8962 8963 8964 8965 8966 8967 8968 8969 8970 8971 8972 8973 8974 8975 8976 8977 8978 8979 8980 8981 8982 8983 8984 8985 8986 8987 8988 8989 8990 8991 8992 8993 8994 8995 8996 8997 8998 8999 9000 9001 9002 9003 9004 9005 9006 9007 9008 9009 9010 9011 9012 9013 9014 9015 9016 9017 9018 9019 9020 9021 9022 9023 9024 9025 9026 9027 9028 9029 9030 9031 9032 9033 9034 9035 9036 9037 9038 9039 9040 9041 9042 9043 9044 9045 9046 9047 9048 9049 9050 9051 9052 9053 9054 9055 9056 9057 9058 9059 9060 9061 9062 9063 9064 9065 9066 9067 9068 9069 9070 9071 9072 9073 9074 9075 9076 9077 9078 9079 9080 9081 9082 9083 9084 9085 9086 9087 9088 9089 9090 9091 9092 9093 9094 9095 9096 9097 9098 9099 9100 9101 9102 9103 9104 9105 9106 9107 9108 9109 9110 9111 9112 9113 9114 9115 9116 9117 9118 9119 9120 9121 9122 9123 9124 9125 9126 9127 9128 9129 9130 9131 9132 9133 9134 9135 9136 9137 9138 9139 9140 9141 9142 9143 9144 9145 9146 9147 9148 9149 9150 9151 9152 9153 9154 9155 9156 9157 9158 9159 9160 9161 9162 9163 9164 9165 9166 9167 9168 9169 9170 9171 9172 9173 9174 9175 9176 9177 9178 9179 9180 9181 9182 9183 9184 9185 9186 9187 9188 9189 9190 9191 9192 9193 9194 9195 9196 9197 9198 9199 9200 9201 9202 9203 9204 9205 9206 9207 9208 9209 9210 9211 9212 9213 9214 9215 9216 9217 9218 9219 9220 9221 9222 9223 9224 9225 9226 9227 9228 9229 9230 9231 9232 9233 9234 9235 9236 9237 9238 9239 9240 9241 9242 9243 9244 9245 9246 9247 9248 9249 9250 9251 9252 9253 9254 9255 9256 9257 9258 9259 9260 9261 9262 9263 9264 9265 9266 9267 9268 9269 9270 9271 9272 9273 9274 9275 9276 9277 9278 9279 9280 9281 9282 9283 9284 9285 9286 9287 9288 9289 9290 9291 9292 9293 9294 9295 9296 9297 9298 9299 9300 9301 9302 9303 9304 9305 9306 9307 9308 9309 9310 9311 9312 9313 9314 9315 9316 9317 9318 9319 9320 9321 9322 9323 9324 9325 9326 9327 9328 9329 9330 9331 9332 9333 9334 9335 9336 9337 9338 9339 9340 9341 9342 9343 9344 9345 9346 9347 9348 9349 9350 9351 9352 9353 9354 9355 9356 9357 9358 9359 9360 9361 9362 9363 9364 9365 9366 9367 9368 9369 9370 9371 9372 9373 9374 9375 9376 9377 9378 9379 9380 9381 9382 9383 9384 9385 9386 9387 9388 9389 9390 9391 9392 9393 9394 9395 9396 9397 9398 9399 9400 9401 9402 9403 9404 9405 9406 9407 9408 9409 9410 9411 9412 9413 9414 9415 9416 9417 9418 9419 9420 9421 9422 9423 9424 9425 9426 9427 9428 9429 9430 9431 9432 9433 9434 9435 9436 9437 9438 9439 9440 9441 9442 9443 9444 9445 9446 9447 9448 9449 9450 9451 9452 9453 9454 9455 9456 9457 9458 9459 9460 9461 9462 9463 9464 9465 9466 9467 9468 9469 9470 9471 9472 9473 9474 9475 9476 9477 9478 9479 9480 9481 9482 9483 9484 9485 9486 9487 9488 9489 9490 9491 9492 9493 9494 9495 9496 9497 9498 9499 9500 9501 9502 9503 9504 9505 9506 9507 9508 9509 9510 9511 9512 9513 9514 9515 9516 9517 9518 9519 9520 9521 9522 9523 9524 9525 9526 9527 9528 9529 9530 9531 9532 9533 9534 9535 9536 9537 9538 9539 9540 9541 9542 9543 9544 9545 9546 9547 9548 9549 9550 9551 9552 9553 9554 9555 9556 9557 9558 9559 9560 9561 9562 9563 9564 9565 9566 9567 9568 9569 9570 9571 9572 9573 9574 9575 9576 9577 9578 9579 9580 9581 9582 9583 9584 9585 9586 9587 9588 9589 9590 9591 9592 9593 9594 9595 9596 9597 9598 9599 9600 9601 9602 9603 9604 9605 9606 9607 9608 9609 9610 9611 9612 9613 9614 9615 9616 9617 9618 9619 9620 9621 9622 9623 9624 9625 9626 9627 9628 9629 9630 9631 9632 9633 9634 9635 9636 9637 9638 9639 9640 9641 9642 9643 9644 9645 9646 9647 9648 9649 9650 9651 9652 9653 9654 9655 9656 9657 9658 9659 9660 9661 9662 9663 9664 9665 9666 9667 9668 9669 9670 9671 9672 9673 9674 9675 9676 9677 9678 9679 9680 9681 9682 9683 9684 9685 9686 9687 9688 9689 9690 9691 9692 9693 9694 9695 9696 9697 9698 9699 9700 9701 9702 9703 9704 9705 9706 9707 9708 9709 9710 9711 9712 9713 9714 9715 9716 9717 9718 9719 9720 9721 9722 9723 9724 9725 9726 9727 9728 9729 9730 9731 9732 9733 9734 9735 9736 9737 9738 9739 9740 9741 9742 9743 9744 9745 9746 9747 9748 9749 9750 9751 9752 9753 9754 9755 9756 9757 9758 9759 9760 9761 9762 9763 9764 9765 9766 9767 9768 9769 9770 9771 9772 9773 9774 9775 9776 9777 9778 9779 9780 9781 9782 9783 9784 9785 9786 9787 9788 9789 9790 9791 9792 9793 9794 9795 9796 9797 9798 9799 9800 9801 9802 9803 9804 9805 9806 9807 9808 9809 9810 9811 9812 9813 9814 9815 9816 9817 9818 9819 9820 9821 9822 9823 9824 9825 9826 9827 9828 9829 9830 9831 9832 9833 9834 9835 9836 9837 9838 9839 9840 9841 9842 9843 9844 9845 9846 9847 9848 9849 9850 9851 9852 9853 9854 9855 9856 9857 9858 9859 9860 9861 9862 9863 9864 9865 9866 9867 9868 9869 9870 9871 9872 9873 9874 9875 9876 9877 9878 9879 9880 9881 9882 9883 9884 9885 9886 9887 9888 9889 9890 9891 9892 9893 9894 9895 9896 9897 9898 9899 9900 9901 9902 9903 9904 9905 9906 9907 9908 9909 9910 9911 9912 9913 9914 9915 9916 9917 9918 9919 9920 9921 9922 9923 9924 9925 9926 9927 9928 9929 9930 9931 9932 9933 9934 9935 9936 9937 9938 9939 9940 9941 9942 9943 9944 9945 9946 9947 9948 9949 9950 9951 9952 9953 9954 9955 9956 9957 9958 9959 9960 9961 9962 9963 9964 9965 9966 9967 9968 9969 9970 9971 9972 9973 9974 9975 9976 9977 9978 9979 9980 9981 9982 9983 9984 9985 9986 9987 9988 9989 9990 9991 9992 9993 9994 9995 9996 9997 9998 9999 10000 10001 10002 10003 10004 10005 10006 10007 10008 10009 10010 10011 10012 10013 10014 10015 10016 10017 10018 10019 10020 10021 10022 10023 10024 10025 10026 10027 10028 10029 10030 10031 10032 10033 10034 10035 10036 10037 10038 10039 10040 10041 10042 10043 10044 10045 10046 10047 10048 10049 10050 10051 10052 10053 10054 10055 10056 10057 10058 10059 10060 10061 10062 10063 10064 10065 10066 10067 10068 10069 10070 10071 10072 10073 10074 10075 10076 10077 10078 10079 10080 10081 10082 10083 10084 10085 10086 10087 10088 10089 10090 10091 10092 10093 10094 10095 10096 10097 10098 10099 10100 10101 10102 10103 10104 10105 10106 10107 10108 10109 10110 10111 10112 10113 10114 10115 10116 10117 10118 10119 10120 10121 10122 10123 10124 10125 10126 10127 10128 10129 10130 10131 10132 10133 10134 10135 10136 10137 10138 10139 10140 10141 10142 10143 10144 10145 10146 10147 10148 10149 10150 10151 10152 10153 10154 10155 10156 10157 10158 10159 10160 10161 10162 10163 10164 10165 10166 10167 10168 10169 10170 10171 10172 10173 10174 10175 10176 10177 10178 10179 10180 10181 10182 10183 10184 10185 10186 10187 10188 10189 10190 10191 10192 10193 10194 10195 10196 10197 10198 10199 10200 10201 10202 10203 10204 10205 10206 10207 10208 10209 10210 10211 10212 10213 10214 10215 10216 10217 10218 10219 10220 10221 10222 10223 10224 10225 10226 10227 10228 10229 10230 10231 10232 10233 10234 10235 10236 10237 10238 10239 10240 10241 10242 10243 10244 10245 10246 10247 10248 10249 10250 10251 10252 10253 10254 10255 10256 10257 10258 10259 10260 10261 10262 10263 10264 10265 10266 10267 10268 10269 10270 10271 10272 10273 10274 10275 10276 10277 10278 10279 10280 10281 10282 10283 10284 10285 10286 10287 10288 10289 10290 10291 10292 10293 10294 10295 10296 10297 10298 10299 10300 10301 10302 10303 10304 10305 10306 10307 10308 10309 10310 10311 10312 10313 10314 10315 10316 10317 10318 10319 10320 10321 10322 10323 10324 10325 10326 10327 10328 10329 10330 10331 10332 10333 10334 10335 10336 10337 10338 10339 10340 10341 10342 10343 10344 10345 10346 10347 10348 10349 10350 10351 10352 10353 10354 10355 10356 10357 10358 10359 10360 10361 10362 10363 10364 10365 10366 10367 10368 10369 10370 10371 10372 10373 10374 10375 10376 10377 10378 10379 10380 10381 10382 10383 10384 10385 10386 10387 10388 10389 10390 10391 10392 10393 10394 10395 10396 10397 10398 10399 10400 10401 10402 10403 10404 10405 10406 10407 10408 10409 10410 10411 10412 10413 10414 10415 10416 10417 10418 10419 10420 10421 10422 10423 10424 10425 10426 10427 10428 10429 10430 10431 10432 10433 10434 10435 10436 10437 10438 10439 10440 10441 10442 10443 10444 10445 10446 10447 10448 10449 10450 10451 10452 10453 10454 10455 10456 10457 10458 10459 10460 10461 10462 10463 10464 10465 10466 10467 10468 10469 10470 10471 10472 10473 10474 10475 10476 10477 10478 10479 10480 10481 10482 10483 10484 10485 10486 10487 10488 10489 10490 10491 10492 10493 10494 10495 10496 10497 10498 10499 10500 10501 10502 10503 10504 10505 10506 10507 10508 10509 10510 10511 10512 10513 10514 10515 10516 10517 10518 10519 10520 10521 10522 10523 10524 10525 10526 10527 10528 10529 10530 10531 10532 10533 10534 10535 10536 10537 10538 10539 10540 10541 10542 10543 10544 10545 10546 10547 10548 10549 10550 10551 10552 10553 10554 10555 10556 10557 10558 10559 10560 10561 10562 10563 10564 10565 10566 10567 10568 10569 10570 10571 10572 10573 10574 10575 10576 10577 10578 10579 10580 10581 10582 10583 10584 10585 10586 10587 10588 10589 10590 10591 10592 10593 10594 10595 10596 10597 10598 10599 10600 10601 10602 10603 10604 10605 10606 10607 10608 10609 10610 10611 10612 10613 10614 10615 10616 10617 10618 10619 10620 10621 10622 10623 10624 10625 10626 10627 10628 10629 10630 10631 10632 10633 10634 10635 10636 10637 10638 10639 10640 10641 10642 10643 10644 10645 10646 10647 10648 10649 10650 10651 10652 10653 10654 10655 10656 10657 10658 10659 10660 10661 10662 10663 10664 10665 10666 10667 10668 10669 10670 10671 10672 10673 10674 10675 10676 10677 10678 10679 10680 10681 10682 10683 10684 10685 10686 10687 10688 10689 10690 10691 10692 10693 10694 10695 10696 10697 10698 10699 10700 10701 10702 10703 10704 10705 10706 10707 10708 10709 10710 10711 10712 10713 10714 10715 10716 10717 10718 10719 10720 10721 10722 10723 10724 10725 10726 10727 10728 10729 10730 10731 10732 10733 10734 10735 10736 10737 10738 10739 10740 10741 10742 10743 10744 10745 10746 10747 10748 10749 10750 10751 10752 10753 10754 10755 10756 10757 10758 10759 10760 10761 10762 10763 10764 10765 10766 10767 10768 10769 10770 10771 10772 10773 10774 10775 10776 10777 10778 10779 10780 10781 10782 10783 10784 10785 10786 10787 10788 10789 10790 10791 10792 10793 10794 10795 10796 10797 10798 10799 10800 10801 10802 10803 10804 10805 10806 10807 10808 10809 10810 10811 10812 10813 10814 10815 10816 10817 10818 10819 10820 10821 10822 10823 10824 10825 10826 10827 10828 10829 10830 10831 10832 10833 10834 10835 10836 10837 10838 10839 10840 10841 10842 10843 10844 10845 10846 10847 10848 10849 10850 10851 10852 10853 10854 10855 10856 10857 10858 10859 10860 10861 10862 10863 10864 10865 10866 10867 10868 10869 10870 10871 10872 10873 10874 10875 10876 10877 10878 10879 10880 10881 10882 10883 10884 10885 10886 10887 10888 10889 10890 10891 10892 10893 10894 10895 10896 10897 10898 10899 10900 10901 10902 10903 10904 10905 10906 10907 10908 10909 10910 10911 10912 10913 10914 10915 10916 10917 10918 10919 10920 10921 10922 10923 10924 10925 10926 10927 10928 10929 10930 10931 10932 10933 10934 10935 10936 10937 10938 10939 10940 10941 10942 10943 10944 10945 10946 10947 10948 10949 10950 10951 10952 10953 10954 10955 10956 10957 10958 10959 10960 10961 10962 10963 10964 10965 10966 10967 10968 10969 10970 10971 10972 10973 10974 10975 10976 10977 10978 10979 10980 10981 10982 10983 10984 10985 10986 10987 10988 10989 10990 10991 10992 10993 10994 10995 10996 10997 10998 10999 11000 11001 11002 11003 11004 11005 11006 11007 11008 11009 11010 11011 11012 11013 11014 11015 11016 11017 11018 11019 11020 11021 11022 11023 11024 11025 11026 11027 11028 11029 11030 11031 11032 11033 11034 11035 11036 11037 11038 11039 11040 11041 11042 11043 11044 11045 11046 11047 11048 11049 11050 11051 11052 11053 11054 11055 11056 11057 11058 11059 11060 11061 11062 11063 11064 11065 11066 11067 11068 11069 11070 11071 11072 11073 11074 11075 11076 11077 11078 11079 11080 11081 11082 11083 11084 11085 11086 11087 11088 11089 11090 11091 11092 11093 11094 11095 11096 11097 11098 11099 11100 11101 11102 11103 11104 11105 11106 11107 11108 11109 11110 11111 11112 11113 11114 11115 11116 11117 11118 11119 11120 11121 11122 11123 11124 11125 11126 11127 11128 11129 11130 11131 11132 11133 11134 11135 11136 11137 11138 11139 11140 11141 11142 11143 11144 11145 11146 11147 11148 11149 11150 11151 11152 11153 11154 11155 11156 11157 11158 11159 11160 11161 11162 11163 11164 11165 11166 11167 11168 11169 11170 11171 11172 11173 11174 11175 11176 11177 11178 11179 11180 11181 11182 11183 11184 11185 11186 11187 11188 11189 11190 11191 11192 11193 11194 11195 11196 11197 11198 11199 11200 11201 11202 11203 11204 11205 11206 11207 11208 11209 11210 11211 11212 11213 11214 11215 11216 11217 11218 11219 11220 11221 11222 11223 11224 11225 11226 11227 11228 11229 11230 11231 11232 11233 11234 11235 11236 11237 11238 11239 11240 11241 11242 11243 11244 11245 11246 11247 11248 11249 11250 11251 11252 11253 11254 11255 11256 11257 11258 11259 11260 11261 11262 11263 11264 11265 11266 11267 11268 11269 11270 11271 11272 11273 11274 11275 11276 11277 11278 11279 11280 11281 11282 11283 11284 11285 11286 11287 11288 11289 11290 11291 11292 11293 11294 11295 11296 11297 11298 11299 11300 11301 11302 11303 11304 11305 11306 11307 11308 11309 11310 11311 11312 11313 11314 11315 11316 11317 11318 11319 11320 11321 11322 11323 11324 11325 11326 11327 11328 11329 11330 11331 11332 11333 11334 11335 11336 11337 11338 11339 11340 11341 11342 11343 11344 11345 11346 11347 11348 11349 11350 11351 11352 11353 11354 11355 11356 11357 11358 11359 11360 11361 11362 11363 11364 11365 11366 11367 11368 11369 11370 11371 11372 11373 11374 11375 11376 11377 11378 11379 11380 11381 11382 11383 11384 11385 11386 11387 11388 11389 11390 11391 11392 11393 11394 11395 11396 11397 11398 11399 11400 11401 11402 11403 11404 11405 11406 11407 11408 11409 11410 11411 11412 11413 11414 11415 11416 11417 11418 11419 11420 11421 11422 11423 11424 11425 11426 11427 11428 11429 11430 11431 11432 11433 11434 11435 11436 11437 11438 11439 11440 11441 11442 11443 11444 11445 11446 11447 11448 11449 11450 11451 11452 11453 11454 11455 11456 11457 11458 11459 11460 11461 11462 11463 11464 11465 11466 11467 11468 11469 11470 11471 11472 11473 11474 11475 11476 11477 11478 11479 11480 11481 11482 11483 11484 11485 11486 11487 11488 11489 11490 11491 11492 11493 11494 11495 11496 11497 11498 11499 11500 11501 11502 11503 11504 11505 11506 11507 11508 11509 11510 11511 11512 11513 11514 11515 11516 11517 11518 11519 11520 11521 11522 11523 11524 11525 11526 11527 11528 11529 11530 11531 11532 11533 11534 11535 11536 11537 11538 11539 11540 11541 11542 11543 11544 11545 11546 11547 11548 11549 11550 11551 11552 11553 11554 11555 11556 11557 11558 11559 11560 11561 11562 11563 11564 11565 11566 11567 11568 11569 11570 11571 11572 11573 11574 11575 11576 11577 11578 11579 11580 11581 11582 11583 11584 11585 11586 11587 11588 11589 11590 11591 11592 11593 11594 11595 11596 11597 11598 11599 11600 11601 11602 11603 11604 11605 11606 11607 11608 11609 11610 11611 11612 11613 11614 11615 11616 11617 11618 11619 11620 11621 11622 11623 11624 11625 11626 11627 11628 11629 11630 11631 11632 11633 11634 11635 11636 11637 11638 11639 11640 11641 11642 11643 11644 11645 11646 11647 11648 11649 11650 11651 11652 11653 11654 11655 11656 11657 11658 11659 11660 11661 11662 11663 11664 11665 11666 11667 11668 11669 11670 11671 11672 11673 11674 11675 11676 11677 11678 11679 11680 11681 11682 11683 11684 11685 11686 11687 11688 11689 11690 11691 11692 11693 11694 11695 11696 11697 11698 11699 11700 11701 11702 11703 11704 11705 11706 11707 11708 11709 11710 11711 11712 11713 11714 11715 11716 11717 11718 11719 11720 11721 11722 11723 11724 11725 11726 11727 11728 11729 11730 11731 11732 11733 11734 11735 11736 11737 11738 11739 11740 11741 11742 11743 11744 11745 11746 11747 11748 11749 11750 11751 11752 11753 11754 11755 11756 11757 11758 11759 11760 11761 11762 11763 11764 11765 11766 11767 11768 11769 11770 11771 11772 11773 11774 11775 11776 11777 11778 11779 11780 11781 11782 11783 11784 11785 11786 11787 11788 11789 11790 11791 11792 11793 11794 11795 11796 11797 11798 11799 11800 11801 11802 11803 11804 11805 11806 11807 11808 11809 11810 11811 11812 11813 11814 11815 11816 11817 11818 11819 11820 11821 11822 11823 11824 11825 11826 11827 11828 11829 11830 11831 11832 11833 11834 11835 11836 11837 11838 11839 11840 11841 11842 11843 11844 11845 11846 11847 11848 11849 11850 11851 11852 11853 11854 11855 11856 11857 11858 11859 11860 11861 11862 11863 11864 11865 11866 11867 11868 11869 11870 11871 11872 11873 11874 11875 11876 11877 11878 11879 11880 11881 11882 11883 11884 11885 11886 11887 11888 11889 11890 11891 11892 11893 11894 11895 11896 11897 11898 11899 11900 11901 11902 11903 11904 11905 11906 11907 11908 11909 11910 11911 11912 11913 11914 11915 11916 11917 11918 11919 11920 11921 11922 11923 11924 11925 11926 11927 11928 11929 11930 11931 11932 11933 11934 11935 11936 11937 11938 11939 11940 11941 11942 11943 11944 11945 11946 11947 11948 11949 11950 11951 11952 11953 11954 11955 11956 11957 11958 11959 11960 11961 11962 11963 11964 11965 11966 11967 11968 11969 11970 11971 11972 11973 11974 11975 11976 11977 11978 11979 11980 11981 11982 11983 11984 11985 11986 11987 11988 11989 11990 11991 11992 11993 11994 11995 11996 11997 11998 11999 12000 12001 12002 12003 12004 12005 12006 12007 12008 12009 12010 12011 12012 12013 12014 12015 12016 12017 12018 12019 12020 12021 12022 12023 12024 12025 12026 12027 12028 12029 12030 12031 12032 12033 12034 12035 12036 12037 12038 12039 12040 12041 12042 12043 12044 12045 12046 12047 12048 12049 12050 12051 12052 12053 12054 12055 12056 12057 12058 12059 12060 12061 12062 12063 12064 12065 12066 12067 12068 12069 12070 12071 12072 12073 12074 12075 12076 12077 12078 12079 12080 12081 12082 12083 12084 12085 12086 12087 12088 12089 12090 12091 12092 12093 12094 12095 12096 12097 12098 12099 12100 12101 12102 12103 12104 12105 12106 12107 12108 12109 12110 12111 12112 12113 12114 12115 12116 12117 12118 12119 12120 12121 12122 12123 12124 12125 12126 12127 12128 12129 12130 12131 12132 12133 12134 12135 12136 12137 12138 12139 12140 12141 12142 12143 12144 12145 12146 12147 12148 12149 12150 12151 12152 12153 12154 12155 12156 12157 12158 12159 12160 12161 12162 12163 12164 12165 12166 12167 12168 12169 12170 12171 12172 12173 12174 12175 12176 12177 12178 12179 12180 12181 12182 12183 12184 12185 12186 12187 12188 12189 12190 12191 12192 12193 12194 12195 12196 12197 12198 12199 12200 12201 12202 12203 12204 12205 12206 12207 12208 12209 12210 12211 12212 12213 12214 12215 12216 12217 12218 12219 12220 12221 12222 12223 12224 12225 12226 12227 12228 12229 12230 12231 12232 12233 12234 12235 12236 12237 12238 12239 12240 12241 12242 12243 12244 12245 12246 12247 12248 12249 12250 12251 12252 12253 12254 12255 12256 12257 12258 12259 12260 12261 12262 12263 12264 12265 12266 12267 12268 12269 12270 12271 12272 12273 12274 12275 12276 12277 12278 12279 12280 12281 12282 12283 12284 12285 12286 12287 12288 12289 12290 12291 12292 12293 12294 12295 12296 12297 12298 12299 12300 12301 12302 12303 12304 12305 12306 12307 12308 12309 12310 12311 12312 12313 12314 12315 12316 12317 12318 12319 12320 12321 12322 12323 12324 12325 12326 12327 12328 12329 12330 12331 12332 12333 12334 12335 12336 12337 12338 12339 12340 12341 12342 12343 12344 12345 12346 12347 12348 12349 12350 12351 12352 12353 12354 12355 12356 12357 12358 12359 12360 12361 12362 12363 12364 12365 12366 12367 12368 12369 12370 12371 12372 12373 12374 12375 12376 12377 12378 12379 12380 12381 12382 12383 12384 12385 12386 12387 12388 12389 12390 12391 12392 12393 12394 12395 12396 12397 12398 12399 12400 12401 12402 12403 12404 12405 12406 12407 12408 12409 12410 12411 12412 12413 12414 12415 12416 12417 12418 12419 12420 12421 12422 12423 12424 12425 12426 12427 12428 12429 12430 12431 12432 12433 12434 12435 12436 12437 12438 12439 12440 12441 12442 12443 12444 12445 12446 12447 12448 12449 12450 12451 12452 12453 12454 12455 12456 12457 12458 12459 12460 12461 12462 12463 12464 12465 12466 12467 12468 12469 12470 12471 12472 12473 12474 12475 12476 12477 12478 12479 12480 12481 12482 12483 12484 12485 12486 12487 12488 12489 12490 12491 12492 12493 12494 12495 12496 12497 12498 12499 12500 12501 12502 12503 12504 12505 12506 12507 12508 12509 12510 12511 12512 12513 12514 12515 12516 12517 12518 12519 12520 12521 12522 12523 12524 12525 12526 12527 12528 12529 12530 12531 12532 12533 12534 12535 12536 12537 12538 12539 12540 12541 12542 12543 12544 12545 12546 12547 12548 12549 12550 12551 12552 12553 12554 12555 12556 12557 12558 12559 12560 12561 12562 12563 12564 12565 12566 12567 12568 12569 12570 12571 12572 12573 12574 12575 12576 12577 12578 12579 12580 12581 12582 12583 12584 12585 12586 12587 12588 12589 12590 12591 12592 12593 12594 12595 12596 12597 12598 12599 12600 12601 12602 12603 12604 12605 12606 12607 12608 12609 12610 12611 12612 12613 12614 12615 12616 12617 12618 12619 12620 12621 12622 12623 12624 12625 12626 12627 12628 12629 12630 12631 12632 12633 12634 12635 12636 12637 12638 12639 12640 12641 12642 12643 12644 12645 12646 12647 12648 12649 12650 12651 12652 12653 12654 12655 12656 12657 12658 12659 12660 12661 12662 12663 12664 12665 12666 12667 12668 12669 12670 12671 12672 12673 12674 12675 12676 12677 12678 12679 12680 12681 12682 12683 12684 12685 12686 12687 12688 12689 12690 12691 12692 12693 12694 12695 12696 12697 12698 12699 12700 12701 12702 12703 12704 12705 12706 12707 12708 12709 12710 12711 12712 12713 12714 12715 12716 12717 12718 12719 12720 12721 12722 12723 12724 12725 12726 12727 12728 12729 12730 12731 12732 12733 12734 12735 12736 12737 12738 12739 12740 12741 12742 12743 12744 12745 12746 12747 12748 12749 12750 12751 12752 12753 12754 12755 12756 12757 12758 12759 12760 12761 12762 12763 12764 12765 12766 12767 12768 12769 12770 12771 12772 12773 12774 12775 12776 12777 12778 12779 12780 12781 12782 12783 12784 12785 12786 12787 12788 12789 12790 12791 12792 12793 12794 12795 12796 12797 12798 12799 12800 12801 12802 12803 12804 12805 12806 12807 12808 12809 12810 12811 12812 12813 12814 12815 12816 12817 12818 12819 12820 12821 12822 12823 12824 12825 12826 12827 12828 12829 12830 12831 12832 12833 12834 12835 12836 12837 12838 12839 12840 12841 12842 12843 12844 12845 12846 12847 12848 12849 12850 12851 12852 12853 12854 12855 12856 12857 12858 12859 12860 12861 12862 12863 12864 12865 12866 12867 12868 12869 12870 12871 12872 12873 12874 12875 12876 12877 12878 12879 12880 12881 12882 12883 12884 12885 12886 12887 12888 12889 12890 12891 12892 12893 12894 12895 12896 12897 12898 12899 12900 12901 12902 12903 12904 12905 12906 12907 12908 12909 12910 12911 12912 12913 12914 12915 12916 12917 12918 12919 12920 12921 12922 12923 12924 12925 12926 12927 12928 12929 12930 12931 12932 12933 12934 12935 12936 12937 12938 12939 12940 12941 12942 12943 12944 12945 12946 12947 12948 12949 12950 12951 12952 12953 12954 12955 12956 12957 12958 12959 12960 12961 12962 12963 12964 12965 12966 12967 12968 12969 12970 12971 12972 12973 12974 12975 12976 12977 12978 12979 12980 12981 12982 12983 12984 12985 12986 12987 12988 12989 12990 12991 12992 12993 12994 12995 12996 12997 12998 12999 13000 13001 13002 13003 13004 13005 13006 13007 13008 13009 13010 13011 13012 13013 13014 13015 13016 13017 13018 13019 13020 13021 13022 13023 13024 13025 13026 13027 13028 13029 13030 13031 13032 13033 13034 13035 13036 13037 13038 13039 13040 13041 13042 13043 13044 13045 13046 13047 13048 13049 13050 13051 13052 13053 13054 13055 13056 13057 13058 13059 13060 13061 13062 13063 13064 13065 13066 13067 13068 13069 13070 13071 13072 13073 13074 13075 13076 13077 13078 13079 13080 13081 13082 13083 13084 13085 13086 13087 13088 13089 13090 13091 13092 13093 13094 13095 13096 13097 13098 13099 13100 13101 13102 13103 13104 13105 13106 13107 13108 13109 13110 13111 13112 13113 13114 13115 13116 13117 13118 13119 13120 13121 13122 13123 13124 13125 13126 13127 13128 13129 13130 13131 13132 13133 13134 13135 13136 13137 13138 13139 13140 13141 13142 13143 13144 13145 13146 13147 13148 13149 13150 13151 13152 13153 13154 13155 13156 13157 13158 13159 13160 13161 13162 13163 13164 13165 13166 13167 13168 13169 13170 13171 13172 13173 13174 13175 13176 13177 13178 13179 13180 13181 13182 13183 13184 13185 13186 13187 13188 13189 13190 13191 13192 13193 13194 13195 13196 13197 13198 13199 13200 13201 13202 13203 13204 13205 13206 13207 13208 13209 13210 13211 13212 13213 13214 13215 13216 13217 13218 13219 13220 13221 13222 13223 13224 13225 13226 13227 13228 13229 13230 13231 13232 13233 13234 13235 13236 13237 13238 13239 13240 13241 13242 13243 13244 13245 13246 13247 13248 13249 13250 13251 13252 13253 13254 13255 13256 13257 13258 13259 13260 13261 13262 13263 13264 13265 13266 13267 13268 13269 13270 13271 13272 13273 13274 13275 13276 13277 13278 13279 13280 13281 13282 13283 13284 13285 13286 13287 13288 13289 13290 13291 13292 13293 13294 13295 13296 13297 13298 13299 13300 13301 13302 13303 13304 13305 13306 13307 13308 13309 13310 13311 13312 13313 13314 13315 13316 13317 13318 13319 13320 13321 13322 13323 13324 13325 13326 13327 13328 13329 13330 13331 13332 13333 13334 13335 13336 13337 13338 13339 13340 13341 13342 13343 13344 13345 13346 13347 13348 13349 13350 13351 13352 13353 13354 13355 13356 13357 13358 13359 13360 13361 13362 13363 13364 13365 13366 13367 13368 13369 13370 13371 13372 13373 13374 13375 13376 13377 13378 13379 13380 13381 13382 13383 13384 13385 13386 13387 13388 13389 13390 13391 13392 13393 13394 13395 13396 13397 13398 13399 13400 13401 13402 13403 13404 13405 13406 13407 13408 13409 13410 13411 13412 13413 13414 13415 13416 13417 13418 13419 13420 13421 13422 13423 13424 13425 13426 13427 13428 13429 13430 13431 13432 13433 13434 13435 13436 13437 13438 13439 13440 13441 13442 13443 13444 13445 13446 13447 13448 13449 13450 13451 13452 13453 13454 13455 13456 13457 13458 13459 13460 13461 13462 13463 13464 13465 13466 13467 13468 13469 13470 13471 13472 13473 13474 13475 13476 13477 13478 13479 13480 13481 13482 13483 13484 13485 13486 13487 13488 13489 13490 13491 13492 13493 13494 13495 13496 13497 13498 13499 13500 13501 13502 13503 13504 13505 13506 13507 13508 13509 13510 13511 13512 13513 13514 13515 13516 13517 13518 13519 13520 13521 13522 13523 13524 13525 13526 13527 13528 13529 13530 13531 13532 13533 13534 13535 13536 13537 13538 13539 13540 13541 13542 13543 13544 13545 13546 13547 13548 13549 13550 13551 13552 13553 13554 13555 13556 13557 13558 13559 13560 13561 13562 13563 13564 13565 13566 13567 13568 13569 13570 13571 13572 13573 13574 13575 13576 13577 13578 13579 13580 13581 13582 13583 13584 13585 13586 13587 13588 13589 13590 13591 13592 13593 13594 13595 13596 13597 13598 13599 13600 13601 13602 13603 13604 13605 13606 13607 13608 13609 13610 13611 13612 13613 13614 13615 13616 13617 13618 13619 13620 13621 13622 13623 13624 13625 13626 13627 13628 13629 13630 13631 13632 13633 13634 13635 13636 13637 13638 13639 13640 13641 13642 13643 13644 13645 13646 13647 13648 13649 13650 13651 13652 13653 13654 13655 13656 13657 13658 13659 13660 13661 13662 13663 13664 13665 13666 13667 13668 13669 13670 13671 13672 13673 13674 13675 13676 13677 13678 13679 13680 13681 13682 13683 13684 13685 13686 13687 13688 13689 13690 13691 13692 13693 13694 13695 13696 13697 13698 13699 13700 13701 13702 13703 13704 13705 13706 13707 13708 13709 13710 13711 13712 13713 13714 13715 13716 13717 13718 13719 13720 13721 13722 13723 13724 13725 13726 13727 13728 13729 13730 13731 13732 13733 13734 13735 13736 13737 13738 13739 13740 13741 13742 13743 13744 13745 13746 13747 13748 13749 13750 13751 13752 13753 13754 13755 13756 13757 13758 13759 13760 13761 13762 13763 13764 13765 13766 13767 13768 13769 13770 13771 13772 13773 13774 13775 13776 13777 13778 13779 13780 13781 13782 13783 13784 13785 13786 13787 13788 13789 13790 13791 13792 13793 13794 13795 13796 13797 13798 13799 13800 13801 13802 13803 13804 13805 13806 13807 13808 13809 13810 13811 13812 13813 13814 13815 13816 13817 13818 13819 13820 13821 13822 13823 13824 13825 13826 13827 13828 13829 13830 13831 13832 13833 13834 13835 13836 13837 13838 13839 13840 13841 13842 13843 13844 13845 13846 13847 13848 13849 13850 13851 13852 13853 13854 13855 13856 13857 13858 13859 13860 13861 13862 13863 13864 13865 13866 13867 13868 13869 13870 13871 13872 13873 13874 13875 13876 13877 13878 13879 13880 13881 13882 13883 13884 13885 13886 13887 13888 13889 13890 13891 13892 13893 13894 13895 13896 13897 13898 13899 13900 13901 13902 13903 13904 13905 13906 13907 13908 13909 13910 13911 13912 13913 13914 13915 13916 13917 13918 13919 13920 13921 13922 13923 13924 13925 13926 13927 13928 13929 13930 13931 13932 13933 13934 13935 13936 13937 13938 13939 13940 13941 13942 13943 13944 13945 13946 13947 13948 13949 13950 13951 13952 13953 13954 13955 13956 13957 13958 13959 13960 13961 13962 13963 13964 13965 13966 13967 13968 13969 13970 13971 13972 13973 13974 13975 13976 13977 13978 13979 13980 13981 13982 13983 13984 13985 13986 13987 13988 13989 13990 13991 13992 13993 13994 13995 13996 13997 13998 13999 14000 14001 14002 14003 14004 14005 14006 14007 14008 14009 14010 14011 14012 14013 14014 14015 14016 14017 14018 14019 14020 14021 14022 14023 14024 14025 14026 14027 14028 14029 14030 14031 14032 14033 14034 14035 14036 14037 14038 14039 14040 14041 14042 14043 14044 14045 14046 14047 14048 14049 14050 14051 14052 14053 14054 14055 14056 14057 14058 14059 14060 14061 14062 14063 14064 14065 14066 14067 14068 14069 14070 14071 14072 14073 14074 14075 14076 14077 14078 14079 14080 14081 14082 14083 14084 14085 14086 14087 14088 14089 14090 14091 14092 14093 14094 14095 14096 14097 14098 14099 14100 14101 14102 14103 14104 14105 14106 14107 14108 14109 14110 14111 14112 14113 14114 14115 14116 14117 14118 14119 14120 14121 14122 14123 14124 14125 14126 14127 14128 14129 14130 14131 14132 14133 14134 14135 14136 14137 14138 14139 14140 14141 14142 14143 14144 14145 14146 14147 14148 14149 14150 14151 14152 14153 14154 14155 14156 14157 14158 14159 14160 14161 14162 14163 14164 14165 14166 14167 14168 14169 14170 14171 14172 14173 14174 14175 14176 14177 14178 14179 14180 14181 14182 14183 14184 14185 14186 14187 14188 14189 14190 14191 14192 14193 14194 14195 14196 14197 14198 14199 14200 14201 14202 14203 14204 14205 14206 14207 14208 14209 14210 14211 14212 14213 14214 14215 14216 14217 14218 14219 14220 14221 14222 14223 14224 14225 14226 14227 14228 14229 14230 14231 14232 14233 14234 14235 14236 14237 14238 14239 14240 14241 14242 14243 14244 14245 14246 14247 14248 14249 14250 14251 14252 14253 14254 14255 14256 14257 14258 14259 14260 14261 14262 14263 14264 14265 14266 14267 14268 14269 14270 14271 14272 14273 14274 14275 14276 14277 14278 14279 14280 14281 14282 14283 14284 14285 14286 14287 14288 14289 14290 14291 14292 14293 14294 14295 14296 14297 14298 14299 14300 14301 14302 14303 14304 14305 14306 14307 14308 14309 14310 14311 14312 14313 14314 14315 14316 14317 14318 14319 14320 14321 14322 14323 14324 14325 14326 14327 14328 14329 14330 14331 14332 14333 14334 14335 14336 14337 14338 14339 14340 14341 14342 14343 14344 14345 14346 14347 14348 14349 14350 14351 14352 14353 14354 14355 14356 14357 14358 14359 14360 14361 14362 14363 14364 14365 14366 14367 14368 14369 14370 14371 14372 14373 14374 14375 14376 14377 14378 14379 14380 14381 14382 14383 14384 14385 14386 14387 14388 14389 14390 14391 14392 14393 14394 14395 14396 14397 14398 14399 14400 14401 14402 14403 14404 14405 14406 14407 14408 14409 14410 14411 14412 14413 14414 14415 14416 14417 14418 14419 14420 14421 14422 14423 14424 14425 14426 14427 14428 14429 14430 14431 14432 14433 14434 14435 14436 14437 14438 14439 14440 14441 14442 14443 14444 14445 14446 14447 14448 14449 14450 14451 14452 14453 14454 14455 14456 14457 14458 14459 14460 14461 14462 14463 14464 14465 14466 14467 14468 14469 14470 14471 14472 14473 14474 14475 14476 14477 14478 14479 14480 14481 14482 14483 14484 14485 14486 14487 14488 14489 14490 14491 14492 14493 14494 14495 14496 14497 14498 14499 14500 14501 14502 14503 14504 14505 14506 14507 14508 14509 14510 14511 14512 14513 14514 14515 14516 14517 14518 14519 14520 14521 14522 14523 14524 14525 14526 14527 14528 14529 14530 14531 14532 14533 14534 14535 14536 14537 14538 14539 14540 14541 14542 14543 14544 14545 14546 14547 14548 14549 14550 14551 14552 14553 14554 14555 14556 14557 14558 14559 14560 14561 14562 14563 14564 14565 14566 14567 14568 14569 14570 14571 14572 14573 14574 14575 14576 14577 14578 14579 14580 14581 14582 14583 14584 14585 14586 14587 14588 14589 14590 14591 14592 14593 14594 14595 14596 14597 14598 14599 14600 14601 14602 14603 14604 14605 14606 14607 14608 14609 14610 14611 14612 14613 14614 14615 14616 14617 14618 14619 14620 14621 14622 14623 14624 14625 14626 14627 14628 14629 14630 14631 14632 14633 14634 14635 14636 14637 14638 14639 14640 14641 14642 14643 14644 14645 14646 14647 14648 14649 14650 14651 14652 14653 14654 14655 14656 14657 14658 14659 14660 14661 14662 14663 14664 14665 14666 14667 14668 14669 14670 14671 14672 14673 14674 14675 14676 14677 14678 14679 14680 14681 14682 14683 14684 14685 14686 14687 14688 14689 14690 14691 14692 14693 14694 14695 14696 14697 14698 14699 14700 14701 14702 14703 14704 14705 14706 14707 14708 14709 14710 14711 14712 14713 14714 14715 14716 14717 14718 14719 14720 14721 14722 14723 14724 14725 14726 14727 14728 14729 14730 14731 14732 14733 14734 14735 14736 14737 14738 14739 14740 14741 14742 14743 14744 14745 14746 14747 14748 14749 14750 14751 14752 14753 14754 14755 14756 14757 14758 14759 14760 14761 14762 14763 14764 14765 14766 14767 14768 14769 14770 14771 14772 14773 14774 14775 14776 14777 14778 14779 14780 14781 14782 14783 14784 14785 14786 14787 14788 14789 14790 14791 14792 14793 14794 14795 14796 14797 14798 14799 14800 14801 14802 14803 14804 14805 14806 14807 14808 14809 14810 14811 14812 14813 14814 14815 14816 14817 14818 14819 14820 14821 14822 14823 14824 14825 14826 14827 14828 14829 14830 14831 14832 14833 14834 14835 14836 14837 14838 14839 14840 14841 14842 14843 14844 14845 14846 14847 14848 14849 14850 14851 14852 14853 14854 14855 14856 14857 14858 14859 14860 14861 14862 14863 14864 14865 14866 14867 14868 14869 14870 14871 14872 14873 14874 14875 14876 14877 14878 14879 14880 14881 14882 14883 14884 14885 14886 14887 14888 14889 14890 14891 14892 14893 14894 14895 14896 14897 14898 14899 14900 14901 14902 14903 14904 14905 14906 14907 14908 14909 14910 14911 14912 14913 14914 14915 14916 14917 14918 14919 14920 14921 14922 14923 14924 14925 14926 14927 14928 14929 14930 14931 14932 14933 14934 14935 14936 14937 14938 14939 14940 14941 14942 14943 14944 14945 14946 14947 14948 14949 14950 14951 14952 14953 14954 14955 14956 14957 14958 14959 14960 14961 14962 14963 14964 14965 14966 14967 14968 14969 14970 14971 14972 14973 14974 14975 14976 14977 14978 14979 14980 14981 14982 14983 14984 14985 14986 14987 14988 14989 14990 14991 14992 14993 14994 14995 14996 14997 14998 14999 15000 15001 15002 15003 15004 15005 15006 15007 15008 15009 15010 15011 15012 15013 15014 15015 15016 15017 15018 15019 15020 15021 15022 15023 15024 15025 15026 15027 15028 15029 15030 15031 15032 15033 15034 15035 15036 15037 15038 15039 15040 15041 15042 15043 15044 15045 15046 15047 15048 15049 15050 15051 15052 15053 15054 15055 15056 15057 15058 15059 15060 15061 15062 15063 15064 15065 15066 15067 15068 15069 15070 15071 15072 15073 15074 15075 15076 15077 15078 15079 15080 15081 15082 15083 15084 15085 15086 15087 15088 15089 15090 15091 15092 15093 15094 15095 15096 15097 15098 15099 15100 15101 15102 15103 15104 15105 15106 15107 15108 15109 15110 15111 15112 15113 15114 15115 15116 15117 15118 15119 15120 15121 15122 15123 15124 15125 15126 15127 15128 15129 15130 15131 15132 15133 15134 15135 15136 15137 15138 15139 15140 15141 15142 15143 15144 15145 15146 15147 15148 15149 15150 15151 15152 15153 15154 15155 15156 15157 15158 15159 15160 15161 15162 15163 15164 15165 15166 15167 15168 15169 15170 15171 15172 15173 15174 15175 15176 15177 15178 15179 15180 15181 15182 15183 15184 15185 15186 15187 15188 15189 15190 15191 15192 15193 15194 15195 15196 15197 15198 15199 15200 15201 15202 15203 15204 15205 15206 15207 15208 15209 15210 15211 15212 15213 15214 15215 15216 15217 15218 15219 15220 15221 15222 15223 15224 15225 15226 15227 15228 15229 15230 15231 15232 15233 15234 15235 15236 15237 15238 15239 15240 15241 15242 15243 15244 15245 15246 15247 15248 15249 15250 15251 15252 15253 15254 15255 15256 15257 15258 15259 15260 15261 15262 15263 15264 15265 15266 15267 15268 15269 15270 15271 15272 15273 15274 15275 15276 15277 15278 15279 15280 15281 15282 15283 15284 15285 15286 15287 15288 15289 15290 15291 15292 15293 15294 15295 15296 15297 15298 15299 15300 15301 15302 15303 15304 15305 15306 15307 15308 15309 15310 15311 15312 15313 15314 15315 15316 15317 15318 15319 15320 15321 15322 15323 15324 15325 15326 15327 15328 15329 15330 15331 15332 15333 15334 15335 15336 15337 15338 15339 15340 15341 15342 15343 15344 15345 15346 15347 15348 15349 15350 15351 15352 15353 15354 15355 15356 15357 15358 15359 15360 15361 15362 15363 15364 15365 15366 15367 15368 15369 15370 15371 15372 15373 15374 15375 15376 15377 15378 15379 15380 15381 15382 15383 15384 15385 15386 15387 15388 15389 15390 15391 15392 15393 15394 15395 15396 15397 15398 15399 15400 15401 15402 15403 15404 15405 15406 15407 15408 15409 15410 15411 15412 15413 15414 15415 15416 15417 15418 15419 15420 15421 15422 15423 15424 15425 15426 15427 15428 15429 15430 15431 15432 15433 15434 15435 15436 15437 15438 15439 15440 15441 15442 15443 15444 15445 15446 15447 15448 15449 15450 15451 15452 15453 15454 15455 15456 15457 15458 15459 15460 15461 15462 15463 15464 15465 15466 15467 15468 15469 15470 15471 15472 15473 15474 15475 15476 15477 15478 15479 15480 15481 15482 15483 15484 15485 15486 15487 15488 15489 15490 15491 15492 15493 15494 15495 15496 15497 15498 15499 15500 15501 15502 15503 15504 15505 15506 15507 15508 15509 15510 15511 15512 15513 15514 15515 15516 15517 15518 15519 15520 15521 15522 15523 15524 15525 15526 15527 15528 15529 15530 15531 15532 15533 15534 15535 15536 15537 15538 15539 15540 15541 15542 15543 15544 15545 15546 15547 15548 15549 15550 15551 15552 15553 15554 15555 15556 15557 15558 15559 15560 15561 15562 15563 15564 15565 15566 15567 15568 15569 15570 15571 15572 15573 15574 15575 15576 15577 15578 15579 15580 15581 15582 15583 15584 15585 15586 15587 15588 15589 15590 15591 15592 15593 15594 15595 15596 15597 15598 15599 15600 15601 15602 15603 15604 15605 15606 15607 15608 15609 15610 15611 15612 15613 15614 15615 15616 15617 15618 15619 15620 15621 15622 15623 15624 15625 15626 15627 15628 15629 15630 15631 15632 15633 15634 15635 15636 15637 15638 15639 15640 15641 15642 15643 15644 15645 15646 15647 15648 15649 15650 15651 15652 15653 15654 15655 15656 15657 15658 15659 15660 15661 15662 15663 15664 15665 15666 15667 15668 15669 15670 15671 15672 15673 15674 15675 15676 15677 15678 15679 15680 15681 15682 15683 15684 15685 15686 15687 15688 15689 15690 15691 15692 15693 15694 15695 15696 15697 15698 15699 15700 15701 15702 15703 15704 15705 15706 15707 15708 15709 15710 15711 15712 15713 15714 15715 15716 15717 15718 15719 15720 15721 15722 15723 15724 15725 15726 15727 15728 15729 15730 15731 15732 15733 15734 15735 15736 15737 15738 15739 15740 15741 15742 15743 15744 15745 15746 15747 15748 15749 15750 15751 15752 15753 15754 15755 15756 15757 15758 15759 15760 15761 15762 15763 15764 15765 15766 15767 15768 15769 15770 15771 15772 15773 15774 15775 15776 15777 15778 15779 15780 15781 15782 15783 15784 15785 15786 15787 15788 15789 15790 15791 15792 15793 15794 15795 15796 15797 15798 15799 15800 15801 15802 15803 15804 15805 15806 15807 15808 15809 15810 15811 15812 15813 15814 15815 15816 15817 15818 15819 15820 15821 15822 15823 15824 15825 15826 15827 15828 15829 15830 15831 15832 15833 15834 15835 15836 15837 15838 15839 15840 15841 15842 15843 15844 15845 15846 15847 15848 15849 15850 15851 15852 15853 15854 15855 15856 15857 15858 15859 15860 15861 15862 15863 15864 15865 15866 15867 15868 15869 15870 15871 15872 15873 15874 15875 15876 15877 15878 15879 15880 15881 15882 15883 15884 15885 15886 15887 15888 15889 15890 15891 15892 15893 15894 15895 15896 15897 15898 15899 15900 15901 15902 15903 15904 15905 15906 15907 15908 15909 15910 15911 15912 15913 15914 15915 15916 15917 15918 15919 15920 15921 15922 15923 15924 15925 15926 15927 15928 15929 15930 15931 15932 15933 15934 15935 15936 15937 15938 15939 15940 15941 15942 15943 15944 15945 15946 15947 15948 15949 15950 15951 15952 15953 15954 15955 15956 15957 15958 15959 15960 15961 15962 15963 15964 15965 15966 15967 15968 15969 15970 15971 15972 15973 15974 15975 15976 15977 15978 15979 15980 15981 15982 15983 15984 15985 15986 15987 15988 15989 15990 15991 15992 15993 15994 15995 15996 15997 15998 15999 16000 16001 16002 16003 16004 16005 16006 16007 16008 16009 16010 16011 16012 16013 16014 16015 16016 16017 16018 16019 16020 16021 16022 16023 16024 16025 16026 16027 16028 16029 16030 16031 16032 16033 16034 16035 16036 16037 16038 16039 16040 16041 16042 16043 16044 16045 16046 16047 16048 16049 16050 16051 16052 16053 16054 16055 16056 16057 16058 16059 16060 16061 16062 16063 16064 16065 16066 16067 16068 16069 16070 16071 16072 16073 16074 16075 16076 16077 16078 16079 16080 16081 16082 16083 16084 16085 16086 16087 16088 16089 16090 16091 16092 16093 16094 16095 16096 16097 16098 16099 16100 16101 16102 16103 16104 16105 16106 16107 16108 16109 16110 16111 16112 16113 16114 16115 16116 16117 16118 16119 16120 16121 16122 16123 16124 16125 16126 16127 16128 16129 16130 16131 16132 16133 16134 16135 16136 16137 16138 16139 16140 16141 16142 16143 16144 16145 16146 16147 16148 16149 16150 16151 16152 16153 16154 16155 16156 16157 16158 16159 16160 16161 16162 16163 16164 16165 16166 16167 16168 16169 16170 16171 16172 16173 16174 16175 16176 16177 16178 16179 16180 16181 16182 16183 16184 16185 16186 16187 16188 16189 16190 16191 16192 16193 16194 16195 16196 16197 16198 16199 16200 16201 16202 16203 16204 16205 16206 16207 16208 16209 16210 16211 16212 16213 16214 16215 16216 16217 16218 16219 16220 16221 16222 16223 16224 16225 16226 16227 16228 16229 16230 16231 16232 16233 16234 16235 16236 16237 16238 16239 16240 16241 16242 16243 16244 16245 16246 16247 16248 16249 16250 16251 16252 16253 16254 16255 16256 16257 16258 16259 16260 16261 16262 16263 16264 16265 16266 16267 16268 16269 16270 16271 16272 16273 16274 16275 16276 16277 16278 16279 16280 16281 16282 16283 16284 16285 16286 16287 16288 16289 16290 16291 16292 16293 16294 16295 16296 16297 16298 16299 16300 16301 16302 16303 16304 16305 16306 16307 16308 16309 16310 16311 16312 16313 16314 16315 16316 16317 16318 16319 16320 16321 16322 16323 16324 16325 16326 16327 16328 16329 16330 16331 16332 16333 16334 16335 16336 16337 16338 16339 16340 16341 16342 16343 16344 16345 16346 16347 16348 16349 16350 16351 16352 16353 16354 16355 16356 16357 16358 16359 16360 16361 16362 16363 16364 16365 16366 16367 16368 16369 16370 16371 16372 16373 16374 16375 16376 16377 16378 16379 16380 16381 16382 16383 16384 16385 16386 16387 16388 16389 16390 16391 16392 16393 16394 16395 16396 16397 16398 16399 16400 16401 16402 16403 16404 16405 16406 16407 16408 16409 16410 16411 16412 16413 16414 16415 16416 16417 16418 16419 16420 16421 16422 16423 16424 16425 16426 16427 16428 16429 16430 16431 16432 16433 16434 16435 16436 16437 16438 16439 16440 16441 16442 16443 16444 16445 16446 16447 16448 16449 16450 16451 16452 16453 16454 16455 16456 16457 16458 16459 16460 16461 16462 16463 16464 16465 16466 16467 16468 16469 16470 16471 16472 16473 16474 16475 16476 16477 16478 16479 16480 16481 16482 16483 16484 16485 16486 16487 16488 16489 16490 16491 16492 16493 16494 16495 16496 16497 16498 16499 16500 16501 16502 16503 16504 16505 16506 16507 16508 16509 16510 16511 16512 16513 16514 16515 16516 16517 16518 16519 16520 16521 16522 16523 16524 16525 16526 16527 16528 16529 16530 16531 16532 16533 16534 16535 16536 16537 16538 16539 16540 16541 16542 16543 16544 16545 16546 16547 16548 16549 16550 16551 16552 16553 16554 16555 16556 16557 16558 16559 16560 16561 16562 16563 16564 16565 16566 16567 16568 16569 16570 16571 16572 16573 16574 16575 16576 16577 16578 16579 16580 16581 16582 16583 16584 16585 16586 16587 16588 16589 16590 16591 16592 16593 16594 16595 16596 16597 16598 16599 16600 16601 16602 16603 16604 16605 16606 16607 16608 16609 16610 16611 16612 16613 16614 16615 16616 16617 16618 16619 16620 16621 16622 16623 16624 16625 16626 16627 16628 16629 16630 16631 16632 16633 16634 16635 16636 16637 16638 16639 16640 16641 16642 16643 16644 16645 16646 16647 16648 16649 16650 16651 16652 16653 16654 16655 16656 16657 16658 16659 16660 16661 16662 16663 16664 16665 16666 16667 16668 16669 16670 16671 16672 16673 16674 16675 16676 16677 16678 16679 16680 16681 16682 16683 16684 16685 16686 16687 16688 16689 16690 16691 16692 16693 16694 16695 16696 16697 16698 16699 16700 16701 16702 16703 16704 16705 16706 16707 16708 16709 16710 16711 16712 16713 16714 16715 16716 16717 16718 16719 16720 16721 16722 16723 16724 16725 16726 16727 16728 16729 16730 16731 16732 16733 16734 16735 16736 16737 16738 16739 16740 16741 16742 16743 16744 16745 16746 16747 16748 16749 16750 16751 16752 16753 16754 16755 16756 16757 16758 16759 16760 16761 16762 16763 16764 16765 16766 16767 16768 16769 16770 16771 16772 16773 16774 16775 16776 16777 16778 16779 16780 16781 16782 16783 16784 16785 16786 16787 16788 16789 16790 16791 16792 16793 16794 16795 16796 16797 16798 16799 16800 16801 16802 16803 16804 16805 16806 16807 16808 16809 16810 16811 16812 16813 16814 16815 16816 16817 16818 16819 16820 16821 16822 16823 16824 16825 16826 16827 16828 16829 16830 16831 16832 16833 16834 16835 16836 16837 16838 16839 16840 16841 16842 16843 16844 16845 16846 16847 16848 16849 16850 16851 16852 16853 16854 16855 16856 16857 16858 16859 16860 16861 16862 16863 16864 16865 16866 16867 16868 16869 16870 16871 16872 16873 16874 16875 16876 16877 16878 16879 16880 16881 16882 16883 16884 16885 16886 16887 16888 16889 16890 16891 16892 16893 16894 16895 16896 16897 16898 16899 16900 16901 16902 16903 16904 16905 16906 16907 16908 16909 16910 16911 16912 16913 16914 16915 16916 16917 16918 16919 16920 16921 16922 16923 16924 16925 16926 16927 16928 16929 16930 16931 16932 16933 16934 16935 16936 16937 16938 16939 16940 16941 16942 16943 16944 16945 16946 16947 16948 16949 16950 16951 16952 16953 16954 16955 16956 16957 16958 16959 16960 16961 16962 16963 16964 16965 16966 16967 16968 16969 16970 16971 16972 16973 16974 16975 16976 16977 16978 16979 16980 16981 16982 16983 16984 16985 16986 16987 16988 16989 16990 16991 16992 16993 16994 16995 16996 16997 16998 16999 17000 17001 17002 17003 17004 17005 17006 17007 17008 17009 17010 17011 17012 17013 17014 17015 17016 17017 17018 17019 17020 17021 17022 17023 17024 17025 17026 17027 17028 17029 17030 17031 17032 17033 17034 17035 17036 17037 17038 17039 17040 17041 17042 17043 17044 17045 17046 17047 17048 17049 17050 17051 17052 17053 17054 17055 17056 17057 17058 17059 17060 17061 17062 17063 17064 17065 17066 17067 17068 17069 17070 17071 17072 17073 17074 17075 17076 17077 17078 17079 17080 17081 17082 17083 17084 17085 17086 17087 17088 17089 17090 17091 17092 17093 17094 17095 17096 17097 17098 17099 17100 17101 17102 17103 17104 17105 17106 17107 17108 17109 17110 17111 17112 17113 17114 17115 17116 17117 17118 17119 17120 17121 17122 17123 17124 17125 17126 17127 17128 17129 17130 17131 17132 17133 17134 17135 17136 17137 17138 17139 17140 17141 17142 17143 17144 17145 17146 17147 17148 17149 17150 17151 17152 17153 17154 17155 17156 17157 17158 17159 17160 17161 17162 17163 17164 17165 17166 17167 17168 17169 17170 17171 17172 17173 17174 17175 17176 17177 17178 17179 17180 17181 17182 17183 17184 17185 17186 17187 17188 17189 17190 17191 17192 17193 17194 17195 17196 17197 17198 17199 17200 17201 17202 17203 17204 17205 17206 17207 17208 17209 17210 17211 17212 17213 17214 17215 17216 17217 17218 17219 17220 17221 17222 17223 17224 17225 17226 17227 17228 17229 17230 17231 17232 17233 17234 17235 17236 17237 17238 17239 17240 17241 17242 17243 17244 17245 17246 17247 17248 17249 17250 17251 17252 17253 17254 17255 17256 17257 17258 17259 17260 17261 17262 17263 17264 17265 17266 17267 17268 17269 17270 17271 17272 17273 17274 17275 17276 17277 17278 17279 17280 17281 17282 17283 17284 17285 17286 17287 17288 17289 17290 17291 17292 17293 17294 17295 17296 17297 17298 17299 17300 17301 17302 17303 17304 17305 17306 17307 17308 17309 17310 17311 17312 17313 17314 17315 17316 17317 17318 17319 17320 17321 17322 17323 17324 17325 17326 17327 17328 17329 17330 17331 17332 17333 17334 17335 17336 17337 17338 17339 17340 17341 17342 17343 17344 17345 17346 17347 17348 17349 17350 17351 17352 17353 17354 17355 17356 17357 17358 17359 17360 17361 17362 17363 17364 17365 17366 17367 17368 17369 17370 17371 17372 17373 17374 17375 17376 17377 17378 17379 17380 17381 17382 17383 17384 17385 17386 17387 17388 17389 17390 17391 17392 17393 17394 17395 17396 17397 17398 17399 17400 17401 17402 17403 17404 17405 17406 17407 17408 17409 17410 17411 17412 17413 17414 17415 17416 17417 17418 17419 17420 17421 17422 17423 17424 17425 17426 17427 17428 17429 17430 17431 17432 17433 17434 17435 17436 17437 17438 17439 17440 17441 17442 17443 17444 17445 17446 17447 17448 17449 17450 17451 17452 17453 17454 17455 17456 17457 17458 17459 17460 17461 17462 17463 17464 17465 17466 17467 17468 17469 17470 17471 17472 17473 17474 17475 17476 17477 17478 17479 17480 17481 17482 17483 17484 17485 17486 17487 17488 17489 17490 17491 17492 17493 17494 17495 17496 17497 17498 17499 17500 17501 17502 17503 17504 17505 17506 17507 17508 17509 17510 17511 17512 17513 17514 17515 17516 17517 17518 17519 17520 17521 17522 17523 17524 17525 17526 17527 17528 17529 17530 17531 17532 17533 17534 17535 17536 17537 17538 17539 17540 17541 17542 17543 17544 17545 17546 17547 17548 17549 17550 17551 17552 17553 17554 17555 17556 17557 17558 17559 17560 17561 17562 17563 17564 17565 17566 17567 17568 17569 17570 17571 17572 17573 17574 17575 17576 17577 17578 17579 17580 17581 17582 17583 17584 17585 17586 17587 17588 17589 17590 17591 17592 17593 17594 17595 17596 17597 17598 17599 17600 17601 17602 17603 17604 17605 17606 17607 17608 17609 17610 17611 17612 17613 17614 17615 17616 17617 17618 17619 17620 17621 17622 17623 17624 17625 17626 17627 17628 17629 17630 17631 17632 17633 17634 17635 17636 17637 17638 17639 17640 17641 17642 17643 17644 17645 17646 17647 17648 17649 17650 17651 17652 17653 17654 17655 17656 17657 17658 17659 17660 17661 17662 17663 17664 17665 17666 17667 17668 17669 17670 17671 17672 17673 17674 17675 17676 17677 17678 17679 17680 17681 17682 17683 17684 17685 17686 17687 17688 17689 17690 17691 17692 17693 17694 17695 17696 17697 17698 17699 17700 17701 17702 17703 17704 17705 17706 17707 17708 17709 17710 17711 17712 17713 17714 17715 17716 17717 17718 17719 17720 17721 17722 17723 17724 17725 17726 17727 17728 17729 17730 17731 17732 17733 17734 17735 17736 17737 17738 17739 17740 17741 17742 17743 17744 17745 17746 17747 17748 17749 17750 17751 17752 17753 17754 17755 17756 17757 17758 17759 17760 17761 17762 17763 17764 17765 17766 17767 17768 17769 17770 17771 17772 17773 17774 17775 17776 17777 17778 17779 17780 17781 17782 17783 17784 17785 17786 17787 17788 17789 17790 17791 17792 17793 17794 17795 17796 17797 17798 17799 17800 17801 17802 17803 17804 17805 17806 17807 17808 17809 17810 17811 17812 17813 17814 17815 17816 17817 17818 17819 17820 17821 17822 17823 17824 17825 17826 17827 17828 17829 17830 17831 17832 17833 17834 17835 17836 17837 17838 17839 17840 17841 17842 17843 17844 17845 17846 17847 17848 17849 17850 17851 17852 17853 17854 17855 17856 17857 17858 17859 17860 17861 17862 17863 17864 17865 17866 17867 17868 17869 17870 17871 17872 17873 17874 17875 17876 17877 17878 17879 17880 17881 17882 17883 17884 17885 17886 17887 17888 17889 17890 17891 17892 17893 17894 17895 17896 17897 17898 17899 17900 17901 17902 17903 17904 17905 17906 17907 17908 17909 17910 17911 17912 17913 17914 17915 17916 17917 17918 17919 17920 17921 17922 17923 17924 17925 17926 17927 17928 17929 17930 17931 17932 17933 17934 17935 17936 17937 17938 17939 17940 17941 17942 17943 17944 17945 17946 17947 17948 17949 17950 17951 17952 17953 17954 17955 17956 17957 17958 17959 17960 17961 17962 17963 17964 17965 17966 17967 17968 17969 17970 17971 17972 17973 17974 17975 17976 17977 17978 17979 17980 17981 17982 17983 17984 17985 17986 17987 17988 17989 17990 17991 17992 17993 17994 17995 17996 17997 17998 17999 18000 18001 18002 18003 18004 18005 18006 18007 18008 18009 18010 18011 18012 18013 18014 18015 18016 18017 18018 18019 18020 18021 18022 18023 18024 18025 18026 18027 18028 18029 18030 18031 18032 18033 18034 18035 18036 18037 18038 18039 18040 18041 18042 18043 18044 18045 18046 18047 18048 18049 18050 18051 18052 18053 18054 18055 18056 18057 18058 18059 18060 18061 18062 18063 18064 18065 18066 18067 18068 18069 18070 18071 18072 18073 18074 18075 18076 18077 18078 18079 18080 18081 18082 18083 18084 18085 18086 18087 18088 18089 18090 18091 18092 18093 18094 18095 18096 18097 18098 18099 18100 18101 18102 18103 18104 18105 18106 18107 18108 18109 18110 18111 18112 18113 18114 18115 18116 18117 18118 18119 18120 18121 18122 18123 18124 18125 18126 18127 18128 18129 18130 18131 18132 18133 18134 18135 18136 18137 18138 18139 18140 18141 18142 18143 18144 18145 18146 18147 18148 18149 18150 18151 18152 18153 18154 18155 18156 18157 18158 18159 18160 18161 18162 18163 18164 18165 18166 18167 18168 18169 18170 18171 18172 18173 18174 18175 18176 18177 18178 18179 18180 18181 18182 18183 18184 18185 18186 18187 18188 18189 18190 18191 18192 18193 18194 18195 18196 18197 18198 18199 18200 18201 18202 18203 18204 18205 18206 18207 18208 18209 18210 18211 18212 18213 18214 18215 18216 18217 18218 18219 18220 18221 18222 18223 18224 18225 18226 18227 18228 18229 18230 18231 18232 18233 18234 18235 18236 18237 18238 18239 18240 18241 18242 18243 18244 18245 18246 18247 18248 18249 18250 18251 18252 18253 18254 18255 18256 18257 18258 18259 18260 18261 18262 18263 18264 18265 18266 18267 18268 18269 18270 18271 18272 18273 18274 18275 18276 18277 18278 18279 18280 18281 18282 18283 18284 18285 18286 18287 18288 18289 18290 18291 18292 18293 18294 18295 18296 18297 18298 18299 18300 18301 18302 18303 18304 18305 18306 18307 18308 18309 18310 18311 18312 18313 18314 18315 18316 18317 18318 18319 18320 18321 18322 18323 18324 18325 18326 18327 18328 18329 18330 18331 18332 18333 18334 18335 18336 18337 18338 18339 18340 18341 18342 18343 18344 18345 18346 18347 18348 18349 18350 18351 18352 18353 18354 18355 18356 18357 18358 18359 18360 18361 18362 18363 18364 18365 18366 18367 18368 18369 18370 18371 18372 18373 18374 18375 18376 18377 18378 18379 18380 18381 18382 18383 18384 18385 18386 18387 18388 18389 18390 18391 18392 18393 18394 18395 18396 18397 18398 18399 18400 18401 18402 18403 18404 18405 18406 18407 18408 18409 18410 18411 18412 18413 18414 18415 18416 18417 18418 18419 18420 18421 18422 18423 18424 18425 18426 18427 18428 18429 18430 18431 18432 18433 18434 18435 18436 18437 18438 18439 18440 18441 18442 18443 18444 18445 18446 18447 18448 18449 18450 18451 18452 18453 18454 18455 18456 18457 18458 18459 18460 18461 18462 18463 18464 18465 18466 18467 18468 18469 18470 18471 18472 18473 18474 18475 18476 18477 18478 18479 18480 18481 18482 18483 18484 18485 18486 18487 18488 18489 18490 18491 18492 18493 18494 18495 18496 18497 18498 18499 18500 18501 18502 18503 18504 18505 18506 18507 18508 18509 18510 18511 18512 18513 18514 18515 18516 18517 18518 18519 18520 18521 18522 18523 18524 18525 18526 18527 18528 18529 18530 18531 18532 18533 18534 18535 18536 18537 18538 18539 18540 18541 18542 18543 18544 18545 18546 18547 18548 18549 18550 18551 18552 18553 18554 18555 18556 18557 18558 18559 18560 18561 18562 18563 18564 18565 18566 18567 18568 18569 18570 18571 18572 18573 18574 18575 18576 18577 18578 18579 18580 18581 18582 18583 18584 18585 18586 18587 18588 18589 18590 18591 18592 18593 18594 18595 18596 18597 18598 18599 18600 18601 18602 18603 18604 18605 18606 18607 18608 18609 18610 18611 18612 18613 18614 18615 18616 18617 18618 18619 18620 18621 18622 18623 18624 18625 18626 18627 18628 18629 18630 18631 18632 18633 18634 18635 18636 18637 18638 18639 18640 18641 18642 18643 18644 18645 18646 18647 18648 18649 18650 18651 18652 18653 18654 18655 18656 18657 18658 18659 18660 18661 18662 18663 18664 18665 18666 18667 18668 18669 18670 18671 18672 18673 18674 18675 18676 18677 18678 18679 18680 18681 18682 18683 18684 18685 18686 18687 18688 18689 18690 18691 18692 18693 18694 18695 18696 18697 18698 18699 18700 18701 18702 18703 18704 18705 18706 18707 18708 18709 18710 18711 18712 18713 18714 18715 18716 18717 18718 18719 18720 18721 18722 18723 18724 18725 18726 18727 18728 18729 18730 18731 18732 18733 18734 18735 18736 18737 18738 18739 18740 18741 18742 18743 18744 18745 18746 18747 18748 18749 18750 18751 18752 18753 18754 18755 18756 18757 18758 18759 18760 18761 18762 18763 18764 18765 18766 18767 18768 18769 18770 18771 18772 18773 18774 18775 18776 18777 18778 18779 18780 18781 18782 18783 18784 18785 18786 18787 18788 18789 18790 18791 18792 18793 18794 18795 18796 18797 18798 18799 18800 18801 18802 18803 18804 18805 18806 18807 18808 18809 18810 18811 18812 18813 18814 18815 18816 18817 18818 18819 18820 18821 18822 18823 18824 18825 18826 18827 18828 18829 18830 18831 18832 18833 18834 18835 18836 18837 18838 18839 18840 18841 18842 18843 18844 18845 18846 18847 18848 18849 18850 18851 18852 18853 18854 18855 18856 18857 18858 18859 18860 18861 18862 18863 18864 18865 18866 18867 18868 18869 18870 18871 18872 18873 18874 18875 18876 18877 18878 18879 18880 18881 18882 18883 18884 18885 18886 18887 18888 18889 18890 18891 18892 18893 18894 18895 18896 18897 18898 18899 18900 18901 18902 18903 18904 18905 18906 18907 18908 18909 18910 18911 18912 18913 18914 18915 18916 18917 18918 18919 18920 18921 18922 18923 18924 18925 18926 18927 18928 18929 18930 18931 18932 18933 18934 18935 18936 18937 18938 18939 18940 18941 18942 18943 18944 18945 18946 18947 18948 18949 18950 18951 18952 18953 18954 18955 18956 18957 18958 18959 18960 18961 18962 18963 18964 18965 18966 18967 18968 18969 18970 18971 18972 18973 18974 18975 18976 18977 18978 18979 18980 18981 18982 18983 18984 18985 18986 18987 18988 18989 18990 18991 18992 18993 18994 18995 18996 18997 18998 18999 19000 19001 19002 19003 19004 19005 19006 19007 19008 19009 19010 19011 19012 19013 19014 19015 19016 19017 19018 19019 19020 19021 19022 19023 19024 19025 19026 19027 19028 19029 19030 19031 19032 19033 19034 19035 19036 19037 19038 19039 19040 19041 19042 19043 19044 19045 19046 19047 19048 19049 19050 19051 19052 19053 19054 19055 19056 19057 19058 19059 19060 19061 19062 19063 19064 19065 19066 19067 19068 19069 19070 19071 19072 19073 19074 19075 19076 19077 19078 19079 19080 19081 19082 19083 19084 19085 19086 19087 19088 19089 19090 19091 19092 19093 19094 19095 19096 19097 19098 19099 19100 19101 19102 19103 19104 19105 19106 19107 19108 19109 19110 19111 19112 19113 19114 19115 19116 19117 19118 19119 19120 19121 19122 19123 19124 19125 19126 19127 19128 19129 19130 19131 19132 19133 19134 19135 19136 19137 19138 19139 19140 19141 19142 19143 19144 19145 19146 19147 19148 19149 19150 19151 19152 19153 19154 19155 19156 19157 19158 19159 19160 19161 19162 19163 19164 19165 19166 19167 19168 19169 19170 19171 19172 19173 19174 19175 19176 19177 19178 19179 19180 19181 19182 19183 19184 19185 19186 19187 19188 19189 19190 19191 19192 19193 19194 19195 19196 19197 19198 19199 19200 19201 19202 19203 19204 19205 19206 19207 19208 19209 19210 19211 19212 19213 19214 19215 19216 19217 19218 19219 19220 19221 19222 19223 19224 19225 19226 19227 19228 19229 19230 19231 19232 19233 19234 19235 19236 19237 19238 19239 19240 19241 19242 19243 19244 19245 19246 19247 19248 19249 19250 19251 19252 19253 19254 19255 19256 19257 19258 19259 19260 19261 19262 19263 19264 19265 19266 19267 19268 19269 19270 19271 19272 19273 19274 19275 19276 19277 19278 19279 19280 19281 19282 19283 19284 19285 19286 19287 19288 19289 19290 19291 19292 19293 19294 19295 19296 19297 19298 19299 19300 19301 19302 19303 19304 19305 19306 19307 19308 19309 19310 19311 19312 19313 19314 19315 19316 19317 19318 19319 19320 19321 19322 19323 19324 19325 19326 19327 19328 19329 19330 19331 19332 19333 19334 19335 19336 19337 19338 19339 19340 19341 19342 19343 19344 19345 19346 19347 19348 19349 19350 19351 19352 19353 19354 19355 19356 19357 19358 19359 19360 19361 19362 19363 19364 19365 19366 19367 19368 19369 19370 19371 19372 19373 19374 19375 19376 19377 19378 19379 19380 19381 19382 19383 19384 19385 19386 19387 19388 19389 19390 19391 19392 19393 19394 19395 19396 19397 19398 19399 19400 19401 19402 19403 19404 19405 19406 19407 19408 19409 19410 19411 19412 19413 19414 19415 19416 19417 19418 19419 19420 19421 19422 19423 19424 19425 19426 19427 19428 19429 19430 19431 19432 19433 19434 19435 19436 19437 19438 19439 19440 19441 19442 19443 19444 19445 19446 19447 19448 19449 19450 19451 19452 19453 19454 19455 19456 19457 19458 19459 19460 19461 19462 19463 19464 19465 19466 19467 19468 19469 19470 19471 19472 19473 19474 19475 19476 19477 19478 19479 19480 19481 19482 19483 19484 19485 19486 19487 19488 19489 19490 19491 19492 19493 19494 19495 19496 19497 19498 19499 19500 19501 19502 19503 19504 19505 19506 19507 19508 19509 19510 19511 19512 19513 19514 19515 19516 19517 19518 19519 19520 19521 19522 19523 19524 19525 19526 19527 19528 19529 19530 19531 19532 19533 19534 19535 19536 19537 19538 19539 19540 19541 19542 19543 19544 19545 19546 19547 19548 19549 19550 19551 19552 19553 19554 19555 19556 19557 19558 19559 19560 19561 19562 19563 19564 19565 19566 19567 19568 19569 19570 19571 19572 19573 19574 19575 19576 19577 19578 19579 19580 19581 19582 19583 19584 19585 19586 19587 19588 19589 19590 19591 19592 19593 19594 19595 19596 19597 19598 19599 19600 19601 19602 19603 19604 19605 19606 19607 19608 19609 19610 19611 19612 19613 19614 19615 19616 19617 19618 19619 19620 19621 19622 19623 19624 19625 19626 19627 19628 19629 19630 19631 19632 19633 19634 19635 19636 19637 19638 19639 19640 19641 19642 19643 19644 19645 19646 19647 19648 19649 19650 19651 19652 19653 19654 19655 19656 19657 19658 19659 19660 19661 19662 19663 19664 19665 19666 19667 19668 19669 19670 19671 19672 19673 19674 19675 19676 19677 19678 19679 19680 19681 19682 19683 19684 19685 19686 19687 19688 19689 19690 19691 19692 19693 19694 19695 19696 19697 19698 19699 19700 19701 19702 19703 19704 19705 19706 19707 19708 19709 19710 19711 19712 19713 19714 19715 19716 19717 19718 19719 19720 19721 19722 19723 19724 19725 19726 19727 19728 19729 19730 19731 19732 19733 19734 19735 19736 19737 19738 19739 19740 19741 19742 19743 19744 19745 19746 19747 19748 19749 19750 19751 19752 19753 19754 19755 19756 19757 19758 19759 19760 19761 19762 19763 19764 19765 19766 19767 19768 19769 19770 19771 19772 19773 19774 19775 19776 19777 19778 19779 19780 19781 19782 19783 19784 19785 19786 19787 19788 19789 19790 19791 19792 19793 19794 19795 19796 19797 19798 19799 19800 19801 19802 19803 19804 19805 19806 19807 19808 19809 19810 19811 19812 19813 19814 19815 19816 19817 19818 19819 19820 19821 19822 19823 19824 19825 19826 19827 19828 19829 19830 19831 19832 19833 19834 19835 19836 19837 19838 19839 19840 19841 19842 19843 19844 19845 19846 19847 19848 19849 19850 19851 19852 19853 19854 19855 19856 19857 19858 19859 19860 19861 19862 19863 19864 19865 19866 19867 19868 19869 19870 19871 19872 19873 19874 19875 19876 19877 19878 19879 19880 19881 19882 19883 19884 19885 19886 19887 19888 19889 19890 19891 19892 19893 19894 19895 19896 19897 19898 19899 19900 19901 19902 19903 19904 19905 19906 19907 19908 19909 19910 19911 19912 19913 19914 19915 19916 19917 19918 19919 19920 19921 19922 19923 19924 19925 19926 19927 19928 19929 19930 19931 19932 19933 19934 19935 19936 19937 19938 19939 19940 19941 19942 19943 19944 19945 19946 19947 19948 19949 19950 19951 19952 19953 19954 19955 19956 19957 19958 19959 19960 19961 19962 19963 19964 19965 19966 19967 19968 19969 19970 19971 19972 19973 19974 19975 19976 19977 19978 19979 19980 19981 19982 19983 19984 19985 19986 19987 19988 19989 19990 19991 19992 19993 19994 19995 19996 19997 19998 19999 20000 20001 20002 20003 20004 20005 20006 20007 20008 20009 20010 20011 20012 20013 20014 20015 20016 20017 20018 20019 20020 20021 20022 20023 20024 20025 20026 20027 20028 20029 20030 20031 20032 20033 20034 20035 20036 20037 20038 20039 20040 20041 20042 20043 20044 20045 20046 20047 20048 20049 20050 20051 20052 20053 20054 20055 20056 20057 20058 20059 20060 20061 20062 20063 20064 20065 20066 20067 20068 20069 20070 20071 20072 20073 20074 20075 20076 20077 20078 20079 20080 20081 20082 20083 20084 20085 20086 20087 20088 20089 20090 20091 20092 20093 20094 20095 20096 20097 20098 20099 20100 20101 20102 20103 20104 20105 20106 20107 20108 20109 20110 20111 20112 20113 20114 20115 20116 20117 20118 20119 20120 20121 20122 20123 20124 20125 20126 20127 20128 20129 20130 20131 20132 20133 20134 20135 20136 20137 20138 20139 20140 20141 20142 20143 20144 20145 20146 20147 20148 20149 20150 20151 20152 20153 20154 20155 20156 20157 20158 20159 20160 20161 20162 20163 20164 20165 20166 20167 20168 20169 20170 20171 20172 20173 20174 20175 20176 20177 20178 20179 20180 20181 20182 20183 20184 20185 20186 20187 20188 20189 20190 20191 20192 20193 20194 20195 20196 20197 20198 20199 20200 20201 20202 20203 20204 20205 20206 20207 20208 20209 20210 20211 20212 20213 20214 20215 20216 20217 20218 20219 20220 20221 20222 20223 20224 20225 20226 20227 20228 20229 20230 20231 20232 20233 20234 20235 20236 20237 20238 20239 20240 20241 20242 20243 20244 20245 20246 20247 20248 20249 20250 20251 20252 20253 20254 20255 20256 20257 20258 20259 20260 20261 20262 20263 20264 20265 20266 20267 20268 20269 20270 20271 20272 20273 20274 20275 20276 20277 20278 20279 20280 20281 20282 20283 20284 20285 20286 20287 20288 20289 20290 20291 20292 20293 20294 20295 20296 20297 20298 20299 20300 20301 20302 20303 20304 20305 20306 20307 20308 20309 20310 20311 20312 20313 20314 20315 20316 20317 20318 20319 20320 20321 20322 20323 20324 20325 20326 20327 20328 20329 20330 20331 20332 20333 20334 20335 20336 20337 20338 20339 20340 20341 20342 20343 20344 20345 20346 20347 20348 20349 20350 20351 20352 20353 20354 20355 20356 20357 20358 20359 20360 20361 20362 20363 20364 20365 20366 20367 20368 20369 20370 20371 20372 20373 20374 20375 20376 20377 20378 20379 20380 20381 20382 20383 20384 20385 20386 20387 20388 20389 20390 20391 20392 20393 20394 20395 20396 20397 20398 20399 20400 20401 20402 20403 20404 20405 20406 20407 20408 20409 20410 20411 20412 20413 20414 20415 20416 20417 20418 20419 20420 20421 20422 20423 20424 20425 20426 20427 20428 20429 20430 20431 20432 20433 20434 20435 20436 20437 20438 20439 20440 20441 20442 20443 20444 20445 20446 20447 20448 20449 20450 20451 20452 20453 20454 20455 20456 20457 20458 20459 20460 20461 20462 20463 20464 20465 20466 20467 20468 20469 20470 20471 20472 20473 20474 20475 20476 20477 20478 20479 20480 20481 20482 20483 20484 20485 20486 20487 20488 20489 20490 20491 20492 20493 20494 20495 20496 20497 20498 20499 20500 20501 20502 20503 20504 20505 20506 20507 20508 20509 20510 20511 20512 20513 20514 20515 20516 20517 20518 20519 20520 20521 20522 20523 20524 20525 20526 20527 20528 20529 20530 20531 20532 20533 20534 20535 20536 20537 20538 20539 20540 20541 20542 20543 20544 20545 20546 20547 20548 20549 20550 20551 20552 20553 20554 20555 20556 20557 20558 20559 20560 20561 20562 20563 20564 20565 20566 20567 20568 20569 20570 20571 20572 20573 20574 20575 20576 20577 20578 20579 20580 20581 20582 20583 20584 20585 20586 20587 20588 20589 20590 20591 20592 20593 20594 20595 20596 20597 20598 20599 20600 20601 20602 20603 20604 20605 20606 20607 20608 20609 20610 20611 20612 20613 20614 20615 20616 20617 20618 20619 20620 20621 20622 20623 20624 20625 20626 20627 20628 20629 20630 20631 20632 20633 20634 20635 20636 20637 20638 20639 20640 20641 20642 20643 20644 20645 20646 20647 20648 20649 20650 20651 20652 20653 20654 20655 20656 20657 20658 20659 20660 20661 20662 20663 20664 20665 20666 20667 20668 20669 20670 20671 20672 20673 20674 20675 20676 20677 20678 20679 20680 20681 20682 20683 20684 20685 20686 20687 20688 20689 20690 20691 20692 20693 20694 20695 20696 20697 20698 20699 20700 20701 20702 20703 20704 20705 20706 20707 20708 20709 20710 20711 20712 20713 20714 20715 20716 20717 20718 20719 20720 20721 20722 20723 20724 20725 20726 20727 20728 20729 20730 20731 20732 20733 20734 20735 20736 20737 20738 20739 20740 20741 20742 20743 20744 20745 20746 20747 20748 20749 20750 20751 20752 20753 20754 20755 20756 20757 20758 20759 20760 20761 20762 20763 20764 20765 20766 20767 20768 20769 20770 20771 20772 20773 20774 20775 20776 20777 20778 20779 20780 20781 20782 20783 20784 20785 20786 20787 20788 20789 20790 20791 20792 20793 20794 20795 20796 20797 20798 20799 20800 20801 20802 20803 20804 20805 20806 20807 20808 20809 20810 20811 20812 20813 20814 20815 20816 20817 20818 20819 20820 20821 20822 20823 20824 20825 20826 20827 20828 20829 20830 20831 20832 20833 20834 20835 20836 20837 20838 20839 20840 20841 20842 20843 20844 20845 20846 20847 20848 20849 20850 20851 20852 20853 20854 20855 20856 20857 20858 20859 20860 20861 20862 20863 20864 20865 20866 20867 20868 20869 20870 20871 20872 20873 20874 20875 20876 20877 20878 20879 20880 20881 20882 20883 20884 20885 20886 20887 20888 20889 20890 20891 20892 20893 20894 20895 20896 20897 20898 20899 20900 20901 20902 20903 20904 20905 20906 20907 20908 20909 20910 20911 20912 20913 20914 20915 20916 20917 20918 20919 20920 20921 20922 20923 20924 20925 20926 20927 20928 20929 20930 20931 20932 20933 20934 20935 20936 20937 20938 20939 20940 20941 20942 20943 20944 20945 20946 20947 20948 20949 20950 20951 20952 20953 20954 20955 20956 20957 20958 20959 20960 20961 20962 20963 20964 20965 20966 20967 20968 20969 20970 20971 20972 20973 20974 20975 20976 20977 20978 20979 20980 20981 20982 20983 20984 20985 20986 20987 20988 20989 20990 20991 20992 20993 20994 20995 20996 20997 20998 20999 21000 21001 21002 21003 21004 21005 21006 21007 21008 21009 21010 21011 21012 21013 21014 21015 21016 21017 21018 21019 21020 21021 21022 21023 21024 21025 21026 21027 21028 21029 21030 21031 21032 21033 21034 21035 21036 21037 21038 21039 21040 21041 21042 21043 21044 21045 21046 21047 21048 21049 21050 21051 21052 21053 21054 21055 21056 21057 21058 21059 21060 21061 21062 21063 21064 21065 21066 21067 21068 21069 21070 21071 21072 21073 21074 21075 21076 21077 21078 21079 21080 21081 21082 21083 21084 21085 21086 21087 21088 21089 21090 21091 21092 21093 21094 21095 21096 21097 21098 21099 21100 21101 21102 21103 21104 21105 21106 21107 21108 21109 21110 21111 21112 21113 21114 21115 21116 21117 21118 21119 21120 21121 21122 21123 21124 21125 21126 21127 21128 21129 21130 21131 21132 21133 21134 21135 21136 21137 21138 21139 21140 21141 21142 21143 21144 21145 21146 21147 21148 21149 21150 21151 21152 21153 21154 21155 21156 21157 21158 21159 21160 21161 21162 21163 21164 21165 21166 21167 21168 21169 21170 21171 21172 21173 21174 21175 21176 21177 21178 21179 21180 21181 21182 21183 21184 21185 21186 21187 21188 21189 21190 21191 21192 21193 21194 21195 21196 21197 21198 21199 21200 21201 21202 21203 21204 21205 21206 21207 21208 21209 21210 21211 21212 21213 21214 21215 21216 21217 21218 21219 21220 21221 21222 21223 21224 21225 21226 21227 21228 21229 21230 21231 21232 21233 21234 21235 21236 21237 21238 21239 21240 21241 21242 21243 21244 21245 21246 21247 21248 21249 21250 21251 21252 21253 21254 21255 21256 21257 21258 21259 21260 21261 21262 21263 21264 21265 21266 21267 21268 21269 21270 21271 21272 21273 21274 21275 21276 21277 21278 21279 21280 21281 21282 21283 21284 21285 21286 21287 21288 21289 21290 21291 21292 21293 21294 21295 21296 21297 21298 21299 21300 21301 21302 21303 21304 21305 21306 21307 21308 21309 21310 21311 21312 21313 21314 21315 21316 21317 21318 21319 21320 21321 21322 21323 21324 21325 21326 21327 21328 21329 21330 21331 21332 21333 21334 21335 21336 21337 21338 21339 21340 21341 21342 21343 21344 21345 21346 21347 21348 21349 21350 21351 21352 21353 21354 21355 21356 21357 21358 21359 21360 21361 21362 21363 21364 21365 21366 21367 21368 21369 21370 21371 21372 21373 21374 21375 21376 21377 21378 21379 21380 21381 21382 21383 21384 21385 21386 21387 21388 21389 21390 21391 21392 21393 21394 21395 21396 21397 21398 21399 21400 21401 21402 21403 21404 21405 21406 21407 21408 21409 21410 21411 21412 21413 21414 21415 21416 21417 21418 21419 21420 21421 21422 21423 21424 21425 21426 21427 21428 21429 21430 21431 21432 21433 21434 21435 21436 21437 21438 21439 21440 21441 21442 21443 21444 21445 21446 21447 21448 21449 21450 21451 21452 21453 21454 21455 21456 21457 21458 21459 21460 21461 21462 21463 21464 21465 21466 21467 21468 21469 21470 21471 21472 21473 21474 21475 21476 21477 21478 21479 21480 21481 21482 21483 21484 21485 21486 21487 21488 21489 21490 21491 21492 21493 21494 21495 21496 21497 21498 21499 21500 21501 21502 21503 21504 21505 21506 21507 21508 21509 21510 21511 21512 21513 21514 21515 21516 21517 21518 21519 21520 21521 21522 21523 21524 21525 21526 21527 21528 21529 21530 21531 21532 21533 21534 21535 21536 21537 21538 21539 21540 21541 21542 21543 21544 21545 21546 21547 21548 21549 21550 21551 21552 21553 21554 21555 21556 21557 21558 21559 21560 21561 21562 21563 21564 21565 21566 21567 21568 21569 21570 21571 21572 21573 21574 21575 21576 21577 21578 21579 21580 21581 21582 21583 21584 21585 21586 21587 21588 21589 21590 21591 21592 21593 21594 21595 21596 21597 21598 21599 21600 21601 21602 21603 21604 21605 21606 21607 21608 21609 21610 21611 21612 21613 21614 21615 21616 21617 21618 21619 21620 21621 21622 21623 21624 21625 21626 21627 21628 21629 21630 21631 21632 21633 21634 21635 21636 21637 21638 21639 21640 21641 21642 21643 21644 21645 21646 21647 21648 21649 21650 21651 21652 21653 21654 21655 21656 21657 21658 21659 21660 21661 21662 21663 21664 21665 21666 21667 21668 21669 21670 21671 21672 21673 21674 21675 21676 21677 21678 21679 21680 21681 21682 21683 21684 21685 21686 21687 21688 21689 21690 21691 21692 21693 21694 21695 21696 21697 21698 21699 21700 21701 21702 21703 21704 21705 21706 21707 21708 21709 21710 21711 21712 21713 21714 21715 21716 21717 21718 21719 21720 21721 21722 21723 21724 21725 21726 21727 21728 21729 21730 21731 21732 21733 21734 21735 21736 21737 21738 21739 21740 21741 21742 21743 21744 21745 21746 21747 21748 21749 21750 21751 21752 21753 21754 21755 21756 21757 21758 21759 21760 21761 21762 21763 21764 21765 21766 21767 21768 21769 21770 21771 21772 21773 21774 21775 21776 21777 21778 21779 21780 21781 21782 21783 21784 21785 21786 21787 21788 21789 21790 21791 21792 21793 21794 21795 21796 21797 21798 21799 21800 21801 21802 21803 21804 21805 21806 21807 21808 21809 21810 21811 21812 21813 21814 21815 21816 21817 21818 21819 21820 21821 21822 21823 21824 21825 21826 21827 21828 21829 21830 21831 21832 21833 21834 21835 21836 21837 21838 21839 21840 21841 21842 21843 21844 21845 21846 21847 21848 21849 21850 21851 21852 21853 21854 21855 21856 21857 21858 21859 21860 21861 21862 21863 21864 21865 21866 21867 21868 21869 21870 21871 21872 21873 21874 21875 21876 21877 21878 21879 21880 21881 21882 21883 21884 21885 21886 21887 21888 21889 21890 21891 21892 21893 21894 21895 21896 21897 21898 21899 21900 21901 21902 21903 21904 21905 21906 21907 21908 21909 21910 21911 21912 21913 21914 21915 21916 21917 21918 21919 21920 21921 21922 21923 21924 21925 21926 21927 21928 21929 21930 21931 21932 21933 21934 21935 21936 21937 21938 21939 21940 21941 21942 21943 21944 21945 21946 21947 21948 21949 21950 21951 21952 21953 21954 21955 21956 21957 21958 21959 21960 21961 21962 21963 21964 21965 21966 21967 21968 21969 21970 21971 21972 21973 21974 21975 21976 21977 21978 21979 21980 21981 21982 21983 21984 21985 21986 21987 21988 21989 21990 21991 21992 21993 21994 21995 21996 21997 21998 21999 22000 22001 22002 22003 22004 22005 22006 22007 22008 22009 22010 22011 22012 22013 22014 22015 22016 22017 22018 22019 22020 22021 22022 22023 22024 22025 22026 22027 22028 22029 22030 22031 22032 22033 22034 22035 22036 22037 22038 22039 22040 22041 22042 22043 22044 22045 22046 22047 22048 22049 22050 22051 22052 22053 22054 22055 22056 22057 22058 22059 22060 22061 22062 22063 22064 22065 22066 22067 22068 22069 22070 22071 22072 22073 22074 22075 22076 22077 22078 22079 22080 22081 22082 22083 22084 22085 22086 22087 22088 22089 22090 22091 22092 22093 22094 22095 22096 22097 22098 22099 22100 22101 22102 22103 22104 22105 22106 22107 22108 22109 22110 22111 22112 22113 22114 22115 22116 22117 22118 22119 22120 22121 22122 22123 22124 22125 22126 22127 22128 22129 22130 22131 22132 22133 22134 22135 22136 22137 22138 22139 22140 22141 22142 22143 22144 22145 22146 22147 22148 22149 22150 22151 22152 22153 22154 22155 22156 22157 22158 22159 22160 22161 22162 22163 22164 22165 22166 22167 22168 22169 22170 22171 22172 22173 22174 22175 22176 22177 22178 22179 22180 22181 22182 22183 22184 22185 22186 22187 22188 22189 22190 22191 22192 22193 22194 22195 22196 22197 22198 22199 22200 22201 22202 22203 22204 22205 22206 22207 22208 22209 22210 22211 22212 22213 22214 22215 22216 22217 22218 22219 22220 22221 22222 22223 22224 22225 22226 22227 22228 22229 22230 22231 22232 22233 22234 22235 22236 22237 22238 22239 22240 22241 22242 22243 22244 22245 22246 22247 22248 22249 22250 22251 22252 22253 22254 22255 22256 22257 22258 22259 22260 22261 22262 22263 22264 22265 22266 22267 22268 22269 22270 22271 22272 22273 22274 22275 22276 22277 22278 22279 22280 22281 22282 22283 22284 22285 22286 22287 22288 22289 22290 22291 22292 22293 22294 22295 22296 22297 22298 22299 22300 22301 22302 22303 22304 22305 22306 22307 22308 22309 22310 22311 22312 22313 22314 22315 22316 22317 22318 22319 22320 22321 22322 22323 22324 22325 22326 22327 22328 22329 22330 22331 22332 22333 22334 22335 22336 22337 22338 22339 22340 22341 22342 22343 22344 22345 22346 22347 22348 22349 22350 22351 22352 22353 22354 22355 22356 22357 22358 22359 22360 22361 22362 22363 22364 22365 22366 22367 22368 22369 22370 22371 22372 22373 22374 22375 22376 22377 22378 22379 22380 22381 22382 22383 22384 22385 22386 22387 22388 22389 22390 22391 22392 22393 22394 22395 22396 22397 22398 22399 22400 22401 22402 22403 22404 22405 22406 22407 22408 22409 22410 22411 22412 22413 22414 22415 22416 22417 22418 22419 22420 22421 22422 22423 22424 22425 22426 22427 22428 22429 22430 22431 22432 22433 22434 22435 22436 22437 22438 22439 22440 22441 22442 22443 22444 22445 22446 22447 22448 22449 22450 22451 22452 22453 22454 22455 22456 22457 22458 22459 22460 22461 22462 22463 22464 22465 22466 22467 22468 22469 22470 22471 22472 22473 22474 22475 22476 22477 22478 22479 22480 22481 22482 22483 22484 22485 22486 22487 22488 22489 22490 22491 22492 22493 22494 22495 22496 22497 22498 22499 22500 22501 22502 22503 22504 22505 22506 22507 22508 22509 22510 22511 22512 22513 22514 22515 22516 22517 22518 22519 22520 22521 22522 22523 22524 22525 22526 22527 22528 22529 22530 22531 22532 22533 22534 22535 22536 22537 22538 22539 22540 22541 22542 22543 22544 22545 22546 22547 22548 22549 22550 22551 22552 22553 22554 22555 22556 22557 22558 22559 22560 22561 22562 22563 22564 22565 22566 22567 22568 22569 22570 22571 22572 22573 22574 22575 22576 22577 22578 22579 22580 22581 22582 22583 22584 22585 22586 22587 22588 22589 22590 22591 22592 22593 22594 22595 22596 22597 22598 22599 22600 22601 22602 22603 22604 22605 22606 22607 22608 22609 22610 22611 22612 22613 22614 22615 22616 22617 22618 22619 22620 22621 22622 22623 22624 22625 22626 22627 22628 22629 22630 22631 22632 22633 22634 22635 22636 22637 22638 22639 22640 22641 22642 22643 22644 22645 22646 22647 22648 22649 22650 22651 22652 22653 22654 22655 22656 22657 22658 22659 22660 22661 22662 22663 22664 22665 22666 22667 22668 22669 22670 22671 22672 22673 22674 22675 22676 22677 22678 22679 22680 22681 22682 22683 22684 22685 22686 22687 22688 22689 22690 22691 22692 22693 22694 22695 22696 22697 22698 22699 22700 22701 22702 22703 22704 22705 22706 22707 22708 22709 22710 22711 22712 22713 22714 22715 22716 22717 22718 22719 22720 22721 22722 22723 22724 22725 22726 22727 22728 22729 22730 22731 22732 22733 22734 22735 22736 22737 22738 22739 22740 22741 22742 22743 22744 22745 22746 22747 22748 22749 22750 22751 22752 22753 22754 22755 22756 22757 22758 22759 22760 22761 22762 22763 22764 22765 22766 22767 22768 22769 22770 22771 22772 22773 22774 22775 22776 22777 22778 22779 22780 22781 22782 22783 22784 22785 22786 22787 22788 22789 22790 22791 22792 22793 22794 22795 22796 22797 22798 22799 22800 22801 22802 22803 22804 22805 22806 22807 22808 22809 22810 22811 22812 22813 22814 22815 22816 22817 22818 22819 22820 22821 22822 22823 22824 22825 22826 22827 22828 22829 22830 22831 22832 22833 22834 22835 22836 22837 22838 22839 22840 22841 22842 22843 22844 22845 22846 22847 22848 22849 22850 22851 22852 22853 22854 22855 22856 22857 22858 22859 22860 22861 22862 22863 22864 22865 22866 22867 22868 22869 22870 22871 22872 22873 22874 22875 22876 22877 22878 22879 22880 22881 22882 22883 22884 22885 22886 22887 22888 22889 22890 22891 22892 22893 22894 22895 22896 22897 22898 22899 22900 22901 22902 22903 22904 22905 22906 22907 22908 22909 22910 22911 22912 22913 22914 22915 22916 22917 22918 22919 22920 22921 22922 22923 22924 22925 22926 22927 22928 22929 22930 22931 22932 22933 22934 22935 22936 22937 22938 22939 22940 22941 22942 22943 22944 22945 22946 22947 22948 22949 22950 22951 22952 22953 22954 22955 22956 22957 22958 22959 22960 22961 22962 22963 22964 22965 22966 22967 22968 22969 22970 22971 22972 22973 22974 22975 22976 22977 22978 22979 22980 22981 22982 22983 22984 22985 22986 22987 22988 22989 22990 22991 22992 22993 22994 22995 22996 22997 22998 22999 23000 23001 23002 23003 23004 23005 23006 23007 23008 23009 23010 23011 23012 23013 23014 23015 23016 23017 23018 23019 23020 23021 23022 23023 23024 23025 23026 23027 23028 23029 23030 23031 23032 23033 23034 23035 23036 23037 23038 23039 23040 23041 23042 23043 23044 23045 23046 23047 23048 23049 23050 23051 23052 23053 23054 23055 23056 23057 23058 23059 23060 23061 23062 23063 23064 23065 23066 23067 23068 23069 23070 23071 23072 23073 23074 23075 23076 23077 23078 23079 23080 23081 23082 23083 23084 23085 23086 23087 23088 23089 23090 23091 23092 23093 23094 23095 23096 23097 23098 23099 23100 23101 23102 23103 23104 23105 23106 23107 23108 23109 23110 23111 23112 23113 23114 23115 23116 23117 23118 23119 23120 23121 23122 23123 23124 23125 23126 23127 23128 23129 23130 23131 23132 23133 23134 23135 23136 23137 23138 23139 23140 23141 23142 23143 23144 23145 23146 23147 23148 23149 23150 23151 23152 23153 23154 23155 23156 23157 23158 23159 23160 23161 23162 23163 23164 23165 23166 23167 23168 23169 23170 23171 23172 23173 23174 23175 23176 23177 23178 23179 23180 23181 23182 23183 23184 23185 23186 23187 23188 23189 23190 23191 23192 23193 23194 23195 23196 23197 23198 23199 23200 23201 23202 23203 23204 23205 23206 23207 23208 23209 23210 23211 23212 23213 23214 23215 23216 23217 23218 23219 23220 23221 23222 23223 23224 23225 23226 23227 23228 23229 23230 23231 23232 23233 23234 23235 23236 23237 23238 23239 23240 23241 23242 23243 23244 23245 23246 23247 23248 23249 23250 23251 23252 23253 23254 23255 23256 23257 23258 23259 23260 23261 23262 23263 23264 23265 23266 23267 23268 23269 23270 23271 23272 23273 23274 23275 23276 23277 23278 23279 23280 23281 23282 23283 23284 23285 23286 23287 23288 23289 23290 23291 23292 23293 23294 23295 23296 23297 23298 23299 23300 23301 23302 23303 23304 23305 23306 23307 23308 23309 23310 23311 23312 23313 23314 23315 23316 23317 23318 23319 23320 23321 23322 23323 23324 23325 23326 23327 23328 23329 23330 23331 23332 23333 23334 23335 23336 23337 23338 23339 23340 23341 23342 23343 23344 23345 23346 23347 23348 23349 23350 23351 23352 23353 23354 23355 23356 23357 23358 23359 23360 23361 23362 23363 23364 23365 23366 23367 23368 23369 23370 23371 23372 23373 23374 23375 23376 23377 23378 23379 23380 23381 23382 23383 23384 23385 23386 23387 23388 23389 23390 23391 23392 23393 23394 23395 23396 23397 23398 23399 23400 23401 23402 23403 23404 23405 23406 23407 23408 23409 23410 23411 23412 23413 23414 23415 23416 23417 23418 23419 23420 23421 23422 23423 23424 23425 23426 23427 23428 23429 23430 23431 23432 23433 23434 23435 23436 23437 23438 23439 23440 23441 23442 23443 23444 23445 23446 23447 23448 23449 23450 23451 23452 23453 23454 23455 23456 23457 23458 23459 23460 23461 23462 23463 23464 23465 23466 23467 23468 23469 23470 23471 23472 23473 23474 23475 23476 23477 23478 23479 23480 23481 23482 23483 23484 23485 23486 23487 23488 23489 23490 23491 23492 23493 23494 23495 23496 23497 23498 23499 23500 23501 23502 23503 23504 23505 23506 23507 23508 23509 23510 23511 23512 23513 23514 23515 23516 23517 23518 23519 23520 23521 23522 23523 23524 23525 23526 23527 23528 23529 23530 23531 23532 23533 23534 23535 23536 23537 23538 23539 23540 23541 23542 23543 23544 23545 23546 23547 23548 23549 23550 23551 23552 23553 23554 23555 23556 23557 23558 23559 23560 23561 23562 23563 23564 23565 23566 23567 23568 23569 23570 23571 23572 23573 23574 23575 23576 23577 23578 23579 23580 23581 23582 23583 23584 23585 23586 23587 23588 23589 23590 23591 23592 23593 23594 23595 23596 23597 23598 23599 23600 23601 23602 23603 23604 23605 23606 23607 23608 23609 23610 23611 23612 23613 23614 23615 23616 23617 23618 23619 23620 23621 23622 23623 23624 23625 23626 23627 23628 23629 23630 23631 23632 23633 23634 23635 23636 23637 23638 23639 23640 23641 23642 23643 23644 23645 23646 23647 23648 23649 23650 23651 23652 23653 23654 23655 23656 23657 23658 23659 23660 23661 23662 23663 23664 23665 23666 23667 23668 23669 23670 23671 23672 23673 23674 23675 23676 23677 23678 23679 23680 23681 23682 23683 23684 23685 23686 23687 23688 23689 23690 23691 23692 23693 23694 23695 23696 23697 23698 23699 23700 23701 23702 23703 23704 23705 23706 23707 23708 23709 23710 23711 23712 23713 23714 23715 23716 23717 23718 23719 23720 23721 23722 23723 23724 23725 23726 23727 23728 23729 23730 23731 23732 23733 23734 23735 23736 23737 23738 23739 23740 23741 23742 23743 23744 23745 23746 23747 23748 23749 23750 23751 23752 23753 23754 23755 23756 23757 23758 23759 23760 23761 23762 23763 23764 23765 23766 23767 23768 23769 23770 23771 23772 23773 23774 23775 23776 23777 23778 23779 23780 23781 23782 23783 23784 23785 23786 23787 23788 23789 23790 23791 23792 23793 23794 23795 23796 23797 23798 23799 23800 23801 23802 23803 23804 23805 23806 23807 23808 23809 23810 23811 23812 23813 23814 23815 23816 23817 23818 23819 23820 23821 23822 23823 23824 23825 23826 23827 23828 23829 23830 23831 23832 23833 23834 23835 23836 23837 23838 23839 23840 23841 23842 23843 23844 23845 23846 23847 23848 23849 23850 23851 23852 23853 23854 23855 23856 23857 23858 23859 23860 23861 23862 23863 23864 23865 23866 23867 23868 23869 23870 23871 23872 23873 23874 23875 23876 23877 23878 23879 23880 23881 23882 23883 23884 23885 23886 23887 23888 23889 23890 23891 23892 23893 23894 23895 23896 23897 23898 23899 23900 23901 23902 23903 23904 23905 23906 23907 23908 23909 23910 23911 23912 23913 23914 23915 23916 23917 23918 23919 23920 23921 23922 23923 23924 23925 23926 23927 23928 23929 23930 23931 23932 23933 23934 23935 23936 23937 23938 23939 23940 23941 23942 23943 23944 23945 23946 23947 23948 23949 23950 23951 23952 23953 23954 23955 23956 23957 23958 23959 23960 23961 23962 23963 23964 23965 23966 23967 23968 23969 23970 23971 23972 23973 23974 23975 23976 23977 23978 23979 23980 23981 23982 23983 23984 23985 23986 23987 23988 23989 23990 23991 23992 23993 23994 23995 23996 23997 23998 23999 24000 24001 24002 24003 24004 24005 24006 24007 24008 24009 24010 24011 24012 24013 24014 24015 24016 24017 24018 24019 24020 24021 24022 24023 24024 24025 24026 24027 24028 24029 24030 24031 24032 24033 24034 24035 24036 24037 24038 24039 24040 24041 24042 24043 24044 24045 24046 24047 24048 24049 24050 24051 24052 24053 24054 24055 24056 24057 24058 24059 24060 24061 24062 24063 24064 24065 24066 24067 24068 24069 24070 24071 24072 24073 24074 24075 24076 24077 24078 24079 24080 24081 24082 24083 24084 24085 24086 24087 24088 24089 24090 24091 24092 24093 24094 24095 24096 24097 24098 24099 24100 24101 24102 24103 24104 24105 24106 24107 24108 24109 24110 24111 24112 24113 24114 24115 24116 24117 24118 24119 24120 24121 24122 24123 24124 24125 24126 24127 24128 24129 24130 24131 24132 24133 24134 24135 24136 24137 24138 24139 24140 24141 24142 24143 24144 24145 24146 24147 24148 24149 24150 24151 24152 24153 24154 24155 24156 24157 24158 24159 24160 24161 24162 24163 24164 24165 24166 24167 24168 24169 24170 24171 24172 24173 24174 24175 24176 24177 24178 24179 24180 24181 24182 24183 24184 24185 24186 24187 24188 24189 24190 24191 24192 24193 24194 24195 24196 24197 24198 24199 24200 24201 24202 24203 24204 24205 24206 24207 24208 24209 24210 24211 24212 24213 24214 24215 24216 24217 24218 24219 24220 24221 24222 24223 24224 24225 24226 24227 24228 24229 24230 24231 24232 24233 24234 24235 24236 24237 24238 24239 24240 24241 24242 24243 24244 24245 24246 24247 24248 24249 24250 24251 24252 24253 24254 24255 24256 24257 24258 24259 24260 24261 24262 24263 24264 24265 24266 24267 24268 24269 24270 24271 24272 24273 24274 24275 24276 24277 24278 24279 24280 24281 24282 24283 24284 24285 24286 24287 24288 24289 24290 24291 24292 24293 24294 24295 24296 24297 24298 24299 24300 24301 24302 24303 24304 24305 24306 24307 24308 24309 24310 24311 24312 24313 24314 24315 24316 24317 24318 24319 24320 24321 24322 24323 24324 24325 24326 24327 24328 24329 24330 24331 24332 24333 24334 24335 24336 24337 24338 24339 24340 24341 24342 24343 24344 24345 24346 24347 24348 24349 24350 24351 24352 24353 24354 24355 24356 24357 24358 24359 24360 24361 24362 24363 24364 24365 24366 24367 24368 24369 24370 24371 24372 24373 24374 24375 24376 24377 24378 24379 24380 24381 24382 24383 24384 24385 24386 24387 24388 24389 24390 24391 24392 24393 24394 24395 24396 24397 24398 24399 24400 24401 24402 24403 24404 24405 24406 24407 24408 24409 24410 24411 24412 24413 24414 24415 24416 24417 24418 24419 24420 24421 24422 24423 24424 24425 24426 24427 24428 24429 24430 24431 24432 24433 24434 24435 24436 24437 24438 24439 24440 24441 24442 24443 24444 24445 24446 24447 24448 24449 24450 24451 24452 24453 24454 24455 24456 24457 24458 24459 24460 24461 24462 24463 24464 24465 24466 24467 24468 24469 24470 24471 24472 24473 24474 24475 24476 24477 24478 24479 24480 24481 24482 24483 24484 24485 24486 24487 24488 24489 24490 24491 24492 24493 24494 24495 24496 24497 24498 24499 24500 24501 24502 24503 24504 24505 24506 24507 24508 24509 24510 24511 24512 24513 24514 24515 24516 24517 24518 24519 24520 24521 24522 24523 24524 24525 24526 24527 24528 24529 24530 24531 24532 24533 24534 24535 24536 24537 24538 24539 24540 24541 24542 24543 24544 24545 24546 24547 24548 24549 24550 24551 24552 24553 24554 24555 24556 24557 24558 24559 24560 24561 24562 24563 24564 24565 24566 24567 24568 24569 24570 24571 24572 24573 24574 24575 24576 24577 24578 24579 24580 24581 24582 24583 24584 24585 24586 24587 24588 24589 24590 24591 24592 24593 24594 24595 24596 24597 24598 24599 24600 24601 24602 24603 24604 24605 24606 24607 24608 24609 24610 24611 24612 24613 24614 24615 24616 24617 24618 24619 24620 24621 24622 24623 24624 24625 24626 24627 24628 24629 24630 24631 24632 24633 24634 24635 24636 24637 24638 24639 24640 24641 24642 24643 24644 24645 24646 24647 24648 24649 24650 24651 24652 24653 24654 24655 24656 24657 24658 24659 24660 24661 24662 24663 24664 24665 24666 24667 24668 24669 24670 24671 24672 24673 24674 24675 24676 24677 24678 24679 24680 24681 24682 24683 24684 24685 24686 24687 24688 24689 24690 24691 24692 24693 24694 24695 24696 24697 24698 24699 24700 24701 24702 24703 24704 24705 24706 24707 24708 24709 24710 24711 24712 24713 24714 24715 24716 24717 24718 24719 24720 24721 24722 24723 24724 24725 24726 24727 24728 24729 24730 24731 24732 24733 24734 24735 24736 24737 24738 24739 24740 24741 24742 24743 24744 24745 24746 24747 24748 24749 24750 24751 24752 24753 24754 24755 24756 24757 24758 24759 24760 24761 24762 24763 24764 24765 24766 24767 24768 24769 24770 24771 24772 24773 24774 24775 24776 24777 24778 24779 24780 24781 24782 24783 24784 24785 24786 24787 24788 24789 24790 24791 24792 24793 24794 24795 24796 24797 24798 24799 24800 24801 24802 24803 24804 24805 24806 24807 24808 24809 24810 24811 24812 24813 24814 24815 24816 24817 24818 24819 24820 24821 24822 24823 24824 24825 24826 24827 24828 24829 24830 24831 24832 24833 24834 24835 24836 24837 24838 24839 24840 24841 24842 24843 24844 24845 24846 24847 24848 24849 24850 24851 24852 24853 24854 24855 24856 24857 24858 24859 24860 24861 24862 24863 24864 24865 24866 24867 24868 24869 24870 24871 24872 24873 24874 24875 24876 24877 24878 24879 24880 24881 24882 24883 24884 24885 24886 24887 24888 24889 24890 24891 24892 24893 24894 24895 24896 24897 24898 24899 24900 24901 24902 24903 24904 24905 24906 24907 24908 24909 24910 24911 24912 24913 24914 24915 24916 24917 24918 24919 24920 24921 24922 24923 24924 24925 24926 24927 24928 24929 24930 24931 24932 24933 24934 24935 24936 24937 24938 24939 24940 24941 24942 24943 24944 24945 24946 24947 24948 24949 24950 24951 24952 24953 24954 24955 24956 24957 24958 24959 24960 24961 24962 24963 24964 24965 24966 24967 24968 24969 24970 24971 24972 24973 24974 24975 24976 24977 24978 24979 24980 24981 24982 24983 24984 24985 24986 24987 24988 24989 24990 24991 24992 24993 24994 24995 24996 24997 24998 24999 25000 25001 25002 25003 25004 25005 25006 25007 25008 25009 25010 25011 25012 25013 25014 25015 25016 25017 25018 25019 25020 25021 25022 25023 25024 25025 25026 25027 25028 25029 25030 25031 25032 25033 25034 25035 25036 25037 25038 25039 25040 25041 25042 25043 25044 25045 25046 25047 25048 25049 25050 25051 25052 25053 25054 25055 25056 25057 25058 25059 25060 25061 25062 25063 25064 25065 25066 25067 25068 25069 25070 25071 25072 25073 25074 25075 25076 25077 25078 25079 25080 25081 25082 25083 25084 25085 25086 25087 25088 25089 25090 25091 25092 25093 25094 25095 25096 25097 25098 25099 25100 25101 25102 25103 25104 25105 25106 25107 25108 25109 25110 25111 25112 25113 25114 25115 25116 25117 25118 25119 25120 25121 25122 25123 25124 25125 25126 25127 25128 25129 25130 25131 25132 25133 25134 25135 25136 25137 25138 25139 25140 25141 25142 25143 25144 25145 25146 25147 25148 25149 25150 25151 25152 25153 25154 25155 25156 25157 25158 25159 25160 25161 25162 25163 25164 25165 25166 25167 25168 25169 25170 25171 25172 25173 25174 25175 25176 25177 25178 25179 25180 25181 25182 25183 25184 25185 25186 25187 25188 25189 25190 25191 25192 25193 25194 25195 25196 25197 25198 25199 25200 25201 25202 25203 25204 25205 25206 25207 25208 25209 25210 25211 25212 25213 25214 25215 25216 25217 25218 25219 25220 25221 25222 25223 25224 25225 25226 25227 25228 25229 25230 25231 25232 25233 25234 25235 25236 25237 25238 25239 25240 25241 25242 25243 25244 25245 25246 25247 25248 25249 25250 25251 25252 25253 25254 25255 25256 25257 25258 25259 25260 25261 25262 25263 25264 25265 25266 25267 25268 25269 25270 25271 25272 25273 25274 25275 25276 25277 25278 25279 25280 25281 25282 25283 25284 25285 25286 25287 25288 25289 25290 25291 25292 25293 25294 25295 25296 25297 25298 25299 25300 25301 25302 25303 25304 25305 25306 25307 25308 25309 25310 25311 25312 25313 25314 25315 25316 25317 25318 25319 25320 25321 25322 25323 25324 25325 25326 25327 25328 25329 25330 25331 25332 25333 25334 25335 25336 25337 25338 25339 25340 25341 25342 25343 25344 25345 25346 25347 25348 25349 25350 25351 25352 25353 25354 25355 25356 25357 25358 25359 25360 25361 25362 25363 25364 25365 25366 25367 25368 25369 25370 25371 25372 25373 25374 25375 25376 25377 25378 25379 25380 25381 25382 25383 25384 25385 25386 25387 25388 25389 25390 25391 25392 25393 25394 25395 25396 25397 25398 25399 25400 25401 25402 25403 25404 25405 25406 25407 25408 25409 25410 25411 25412 25413 25414 25415 25416 25417 25418 25419 25420 25421 25422 25423 25424 25425 25426 25427 25428 25429 25430 25431 25432 25433 25434 25435 25436 25437 25438 25439 25440 25441 25442 25443 25444 25445 25446 25447 25448 25449 25450 25451 25452 25453 25454 25455 25456 25457 25458 25459 25460 25461 25462 25463 25464 25465 25466 25467 25468 25469 25470 25471 25472 25473 25474 25475 25476 25477 25478 25479 25480 25481 25482 25483 25484 25485 25486 25487 25488 25489 25490 25491 25492 25493 25494 25495 25496 25497 25498 25499 25500 25501 25502 25503 25504 25505 25506 25507 25508 25509 25510 25511 25512 25513 25514 25515 25516 25517 25518 25519 25520 25521 25522 25523 25524 25525 25526 25527 25528 25529 25530 25531 25532 25533 25534 25535 25536 25537 25538 25539 25540 25541 25542 25543 25544 25545 25546 25547 25548 25549 25550 25551 25552 25553 25554 25555 25556 25557 25558 25559 25560 25561 25562 25563 25564 25565 25566 25567 25568 25569 25570 25571 25572 25573 25574 25575 25576 25577 25578 25579 25580 25581 25582 25583 25584 25585 25586 25587 25588 25589 25590 25591 25592 25593 25594 25595 25596 25597 25598 25599 25600 25601 25602 25603 25604 25605 25606 25607 25608 25609 25610 25611 25612 25613 25614 25615 25616 25617 25618 25619 25620 25621 25622 25623 25624 25625 25626 25627 25628 25629 25630 25631 25632 25633 25634 25635 25636 25637 25638 25639 25640 25641 25642 25643 25644 25645 25646 25647 25648 25649 25650 25651 25652 25653 25654 25655 25656 25657 25658 25659 25660 25661 25662 25663 25664 25665 25666 25667 25668 25669 25670 25671 25672 25673 25674 25675 25676 25677 25678 25679 25680 25681 25682 25683 25684 25685 25686 25687 25688 25689 25690 25691 25692 25693 25694 25695 25696 25697 25698 25699 25700 25701 25702 25703 25704 25705 25706 25707 25708 25709 25710 25711 25712 25713 25714 25715 25716 25717 25718 25719 25720 25721 25722 25723 25724 25725 25726 25727 25728 25729 25730 25731 25732 25733 25734 25735 25736 25737 25738 25739 25740 25741 25742 25743 25744 25745 25746 25747 25748 25749 25750 25751 25752 25753 25754 25755 25756 25757 25758 25759 25760 25761 25762 25763 25764 25765 25766 25767 25768 25769 25770 25771 25772 25773 25774 25775 25776 25777 25778 25779 25780 25781 25782 25783 25784 25785 25786 25787 25788 25789 25790 25791 25792 25793 25794 25795 25796 25797 25798 25799 25800 25801 25802 25803 25804 25805 25806 25807 25808 25809 25810 25811 25812 25813 25814 25815 25816 25817 25818 25819 25820 25821 25822 25823 25824 25825 25826 25827 25828 25829 25830 25831 25832 25833 25834 25835 25836 25837 25838 25839 25840 25841 25842 25843 25844 25845 25846 25847 25848 25849 25850 25851 25852 25853 25854 25855 25856 25857 25858 25859 25860 25861 25862 25863 25864 25865 25866 25867 25868 25869 25870 25871 25872 25873 25874 25875 25876 25877 25878 25879 25880 25881 25882 25883 25884 25885 25886 25887 25888 25889 25890 25891 25892 25893 25894 25895 25896 25897 25898 25899 25900 25901 25902 25903 25904 25905 25906 25907 25908 25909 25910 25911 25912 25913 25914 25915 25916 25917 25918 25919 25920 25921 25922 25923 25924 25925 25926 25927 25928 25929 25930 25931 25932 25933 25934 25935 25936 25937 25938 25939 25940 25941 25942 25943 25944 25945 25946 25947 25948 25949 25950 25951 25952 25953 25954 25955 25956 25957 25958 25959 25960 25961 25962 25963 25964 25965 25966 25967 25968 25969 25970 25971 25972 25973 25974 25975 25976 25977 25978 25979 25980 25981 25982 25983 25984 25985 25986 25987 25988 25989 25990 25991 25992 25993 25994 25995 25996 25997 25998 25999 26000 26001 26002 26003 26004 26005 26006 26007 26008 26009 26010 26011 26012 26013 26014 26015 26016 26017 26018 26019 26020 26021 26022 26023 26024 26025 26026 26027 26028 26029 26030 26031 26032 26033 26034 26035 26036 26037 26038 26039 26040 26041 26042 26043 26044 26045 26046 26047 26048 26049 26050 26051 26052 26053 26054 26055 26056 26057 26058 26059 26060 26061 26062 26063 26064 26065 26066 26067 26068 26069 26070 26071 26072 26073 26074 26075 26076 26077 26078 26079 26080 26081 26082 26083 26084 26085 26086 26087 26088 26089 26090 26091 26092 26093 26094 26095 26096 26097 26098 26099 26100 26101 26102 26103 26104 26105 26106 26107 26108 26109 26110 26111 26112 26113 26114 26115 26116 26117 26118 26119 26120 26121 26122 26123 26124 26125 26126 26127 26128 26129 26130 26131 26132 26133 26134 26135 26136 26137 26138 26139 26140 26141 26142 26143 26144 26145 26146 26147 26148 26149 26150 26151 26152 26153 26154 26155 26156 26157 26158 26159 26160 26161 26162 26163 26164 26165 26166 26167 26168 26169 26170 26171 26172 26173 26174 26175 26176 26177 26178 26179 26180 26181 26182 26183 26184 26185 26186 26187 26188 26189 26190 26191 26192 26193 26194 26195 26196 26197 26198 26199 26200 26201 26202 26203 26204 26205 26206 26207 26208 26209 26210 26211 26212 26213 26214 26215 26216 26217 26218 26219 26220 26221 26222 26223 26224 26225 26226 26227 26228 26229 26230 26231 26232 26233 26234 26235 26236 26237 26238 26239 26240 26241 26242 26243 26244 26245 26246 26247 26248 26249 26250 26251 26252 26253 26254 26255 26256 26257 26258 26259 26260 26261 26262 26263 26264 26265 26266 26267 26268 26269 26270 26271 26272 26273 26274 26275 26276 26277 26278 26279 26280 26281 26282 26283 26284 26285 26286 26287 26288 26289 26290 26291 26292 26293 26294 26295 26296 26297 26298 26299 26300 26301 26302 26303 26304 26305 26306 26307 26308 26309 26310 26311 26312 26313 26314 26315 26316 26317 26318 26319 26320 26321 26322 26323 26324 26325 26326 26327 26328 26329 26330 26331 26332 26333 26334 26335 26336 26337 26338 26339 26340 26341 26342 26343 26344 26345 26346 26347 26348 26349 26350 26351 26352 26353 26354 26355 26356 26357 26358 26359 26360 26361 26362 26363 26364 26365 26366 26367 26368 26369 26370 26371 26372 26373 26374 26375 26376 26377 26378 26379 26380 26381 26382 26383 26384 26385 26386 26387 26388 26389 26390 26391 26392 26393 26394 26395 26396 26397 26398 26399 26400 26401 26402 26403 26404 26405 26406 26407 26408 26409 26410 26411 26412 26413 26414 26415 26416 26417 26418 26419 26420 26421 26422 26423 26424 26425 26426 26427 26428 26429 26430 26431 26432 26433 26434 26435 26436 26437 26438 26439 26440 26441 26442 26443 26444 26445 26446 26447 26448 26449 26450 26451 26452 26453 26454 26455 26456 26457 26458 26459 26460 26461 26462 26463 26464 26465 26466 26467 26468 26469 26470 26471 26472 26473 26474 26475 26476 26477 26478 26479 26480 26481 26482 26483 26484 26485 26486 26487 26488 26489 26490 26491 26492 26493 26494 26495 26496 26497 26498 26499 26500 26501 26502 26503 26504 26505 26506 26507 26508 26509 26510 26511 26512 26513 26514 26515 26516 26517 26518 26519 26520 26521 26522 26523 26524 26525 26526 26527 26528 26529 26530 26531 26532 26533 26534 26535 26536 26537 26538 26539 26540 26541 26542 26543 26544 26545 26546 26547 26548 26549 26550 26551 26552 26553 26554 26555 26556 26557 26558 26559 26560 26561 26562 26563 26564 26565 26566 26567 26568 26569 26570 26571 26572 26573 26574 26575 26576 26577 26578 26579 26580 26581 26582 26583 26584 26585 26586 26587 26588 26589 26590 26591 26592 26593 26594 26595 26596 26597 26598 26599 26600 26601 26602 26603 26604 26605 26606 26607 26608 26609 26610 26611 26612 26613 26614 26615 26616 26617 26618 26619 26620 26621 26622 26623 26624 26625 26626 26627 26628 26629 26630 26631 26632 26633 26634 26635 26636 26637 26638 26639 26640 26641 26642 26643 26644 26645 26646 26647 26648 26649 26650 26651 26652 26653 26654 26655 26656 26657 26658 26659 26660 26661 26662 26663 26664 26665 26666 26667 26668 26669 26670 26671 26672 26673 26674 26675 26676 26677 26678 26679 26680 26681 26682 26683 26684 26685 26686 26687 26688 26689 26690 26691 26692 26693 26694 26695 26696 26697 26698 26699 26700 26701 26702 26703 26704 26705 26706 26707 26708 26709 26710 26711 26712 26713 26714 26715 26716 26717 26718 26719 26720 26721 26722 26723 26724 26725 26726 26727 26728 26729 26730 26731 26732 26733 26734 26735 26736 26737 26738 26739 26740 26741 26742 26743 26744 26745 26746 26747 26748 26749 26750 26751 26752 26753 26754 26755 26756 26757 26758 26759 26760 26761 26762 26763 26764 26765 26766 26767 26768 26769 26770 26771 26772 26773 26774 26775 26776 26777 26778 26779 26780 26781 26782 26783 26784 26785 26786 26787 26788 26789 26790 26791 26792 26793 26794 26795 26796 26797 26798 26799 26800 26801 26802 26803 26804 26805 26806 26807 26808 26809 26810 26811 26812 26813 26814 26815 26816 26817 26818 26819 26820 26821 26822 26823 26824 26825 26826 26827 26828 26829 26830 26831 26832 26833 26834 26835 26836 26837 26838 26839 26840 26841 26842 26843 26844 26845 26846 26847 26848 26849 26850 26851 26852 26853 26854 26855 26856 26857 26858 26859 26860 26861 26862 26863 26864 26865 26866 26867 26868 26869 26870 26871 26872 26873 26874 26875 26876 26877 26878 26879 26880 26881 26882 26883 26884 26885 26886 26887 26888 26889 26890 26891 26892 26893 26894 26895 26896 26897 26898 26899 26900 26901 26902 26903 26904 26905 26906 26907 26908 26909 26910 26911 26912 26913 26914 26915 26916 26917 26918 26919 26920 26921 26922 26923 26924 26925 26926 26927 26928 26929 26930 26931 26932 26933 26934 26935 26936 26937 26938 26939 26940 26941 26942 26943 26944 26945 26946 26947 26948 26949 26950 26951 26952 26953 26954 26955 26956 26957 26958 26959 26960 26961 26962 26963 26964 26965 26966 26967 26968 26969 26970 26971 26972 26973 26974 26975 26976 26977 26978 26979 26980 26981 26982 26983 26984 26985 26986 26987 26988 26989 26990 26991 26992 26993 26994 26995 26996 26997 26998 26999 27000 27001 27002 27003 27004 27005 27006 27007 27008 27009 27010 27011 27012 27013 27014 27015 27016 27017 27018 27019 27020 27021 27022 27023 27024 27025 27026 27027 27028 27029 27030 27031 27032 27033 27034 27035 27036 27037 27038 27039 27040 27041 27042 27043 27044 27045 27046 27047 27048 27049 27050 27051 27052 27053 27054 27055 27056 27057 27058 27059 27060 27061 27062 27063 27064 27065 27066 27067 27068 27069 27070 27071 27072 27073 27074 27075 27076 27077 27078 27079 27080 27081 27082 27083 27084 27085 27086 27087 27088 27089 27090 27091 27092 27093 27094 27095 27096 27097 27098 27099 27100 27101 27102 27103 27104 27105 27106 27107 27108 27109 27110 27111 27112 27113 27114 27115 27116 27117 27118 27119 27120 27121 27122 27123 27124 27125 27126 27127 27128 27129 27130 27131 27132 27133 27134 27135 27136 27137 27138 27139 27140 27141 27142 27143 27144 27145 27146 27147 27148 27149 27150 27151 27152 27153 27154 27155 27156 27157 27158 27159 27160 27161 27162 27163 27164 27165 27166 27167 27168 27169 27170 27171 27172 27173 27174 27175 27176 27177 27178 27179 27180 27181 27182 27183 27184 27185 27186 27187 27188 27189 27190 27191 27192 27193 27194 27195 27196 27197 27198 27199 27200 27201 27202 27203 27204 27205 27206 27207 27208 27209 27210 27211 27212 27213 27214 27215 27216 27217 27218 27219 27220 27221 27222 27223 27224 27225 27226 27227 27228 27229 27230 27231 27232 27233 27234 27235 27236 27237 27238 27239 27240 27241 27242 27243 27244 27245 27246 27247 27248 27249 27250 27251 27252 27253 27254 27255 27256 27257 27258 27259 27260 27261 27262 27263 27264 27265 27266 27267 27268 27269 27270 27271 27272 27273 27274 27275 27276 27277 27278 27279 27280 27281 27282 27283 27284 27285 27286 27287 27288 27289 27290 27291 27292 27293 27294 27295 27296 27297 27298 27299 27300 27301 27302 27303 27304 27305 27306 27307 27308 27309 27310 27311 27312 27313 27314 27315 27316 27317 27318 27319 27320 27321 27322 27323 27324 27325 27326 27327 27328 27329 27330 27331 27332 27333 27334 27335 27336 27337 27338 27339 27340 27341 27342 27343 27344 27345 27346 27347 27348 27349 27350 27351 27352 27353 27354 27355 27356 27357 27358 27359 27360 27361 27362 27363 27364 27365 27366 27367 27368 27369 27370 27371 27372 27373 27374 27375 27376 27377 27378 27379 27380 27381 27382 27383 27384 27385 27386 27387 27388 27389 27390 27391 27392 27393 27394 27395 27396 27397 27398 27399 27400 27401 27402 27403 27404 27405 27406 27407 27408 27409 27410 27411 27412 27413 27414 27415 27416 27417 27418 27419 27420 27421 27422 27423 27424 27425 27426 27427 27428 27429 27430 27431 27432 27433 27434 27435 27436 27437 27438 27439 27440 27441 27442 27443 27444 27445 27446 27447 27448 27449 27450 27451 27452 27453 27454 27455 27456 27457 27458 27459 27460 27461 27462 27463 27464 27465 27466 27467 27468 27469 27470 27471 27472 27473 27474 27475 27476 27477 27478 27479 27480 27481 27482 27483 27484 27485 27486 27487 27488 27489 27490 27491 27492 27493 27494 27495 27496 27497 27498 27499 27500 27501 27502 27503 27504 27505 27506 27507 27508 27509 27510 27511 27512 27513 27514 27515 27516 27517 27518 27519 27520 27521 27522 27523 27524 27525 27526 27527 27528 27529 27530 27531 27532 27533 27534 27535 27536 27537 27538 27539 27540 27541 27542 27543 27544 27545 27546 27547 27548 27549 27550 27551 27552 27553 27554 27555 27556 27557 27558 27559 27560 27561 27562 27563 27564 27565 27566 27567 27568 27569 27570 27571 27572 27573 27574 27575 27576 27577 27578 27579 27580 27581 27582 27583 27584 27585 27586 27587 27588 27589 27590 27591 27592 27593 27594 27595 27596 27597 27598 27599 27600 27601 27602 27603 27604 27605 27606 27607 27608 27609 27610 27611 27612 27613 27614 27615 27616 27617 27618 27619 27620 27621 27622 27623 27624 27625 27626 27627 27628 27629 27630 27631 27632 27633 27634 27635 27636 27637 27638 27639 27640 27641 27642 27643 27644 27645 27646 27647 27648 27649 27650 27651 27652 27653 27654 27655 27656 27657 27658 27659 27660 27661 27662 27663 27664 27665 27666 27667 27668 27669 27670 27671 27672 27673 27674 27675 27676 27677 27678 27679 27680 27681 27682 27683 27684 27685 27686 27687 27688 27689 27690 27691 27692 27693 27694 27695 27696 27697 27698 27699 27700 27701 27702 27703 27704 27705 27706 27707 27708 27709 27710 27711 27712 27713 27714 27715 27716 27717 27718 27719 27720 27721 27722 27723 27724 27725 27726 27727 27728 27729 27730 27731 27732 27733 27734 27735 27736 27737 27738 27739 27740 27741 27742 27743 27744 27745 27746 27747 27748 27749 27750 27751 27752 27753 27754 27755 27756 27757 27758 27759 27760 27761 27762 27763 27764 27765 27766 27767 27768 27769 27770 27771 27772 27773 27774 27775 27776 27777 27778 27779 27780 27781 27782 27783 27784 27785 27786 27787 27788 27789 27790 27791 27792 27793 27794 27795 27796 27797 27798 27799 27800 27801 27802 27803 27804 27805 27806 27807 27808 27809 27810 27811 27812 27813 27814 27815 27816 27817 27818 27819 27820 27821 27822 27823 27824 27825 27826 27827 27828 27829 27830 27831 27832 27833 27834 27835 27836 27837 27838 27839 27840 27841 27842 27843 27844 27845 27846 27847 27848 27849 27850 27851 27852 27853 27854 27855 27856 27857 27858 27859 27860 27861 27862 27863 27864 27865 27866 27867 27868 27869 27870 27871 27872 27873 27874 27875 27876 27877 27878 27879 27880 27881 27882 27883 27884 27885 27886 27887 27888 27889 27890 27891 27892 27893 27894 27895 27896 27897 27898 27899 27900 27901 27902 27903 27904 27905 27906 27907 27908 27909 27910 27911 27912 27913 27914 27915 27916 27917 27918 27919 27920 27921 27922 27923 27924 27925 27926 27927 27928 27929 27930 27931 27932 27933 27934 27935 27936 27937 27938 27939 27940 27941 27942 27943 27944 27945 27946 27947 27948 27949 27950 27951 27952 27953 27954 27955 27956 27957 27958 27959 27960 27961 27962 27963 27964 27965 27966 27967 27968 27969 27970 27971 27972 27973 27974 27975 27976 27977 27978 27979 27980 27981 27982 27983 27984 27985 27986 27987 27988 27989 27990 27991 27992 27993 27994 27995 27996 27997 27998 27999 28000 28001 28002 28003 28004 28005 28006 28007 28008 28009 28010 28011 28012 28013 28014 28015 28016 28017 28018 28019 28020 28021 28022 28023 28024 28025 28026 28027 28028 28029 28030 28031 28032 28033 28034 28035 28036 28037 28038 28039 28040 28041 28042 28043 28044 28045 28046 28047 28048 28049 28050 28051 28052 28053 28054 28055 28056 28057 28058 28059 28060 28061 28062 28063 28064 28065 28066 28067 28068 28069 28070 28071 28072 28073 28074 28075 28076 28077 28078 28079 28080 28081 28082 28083 28084 28085 28086 28087 28088 28089 28090 28091 28092 28093 28094 28095 28096 28097 28098 28099 28100 28101 28102 28103 28104 28105 28106 28107 28108 28109 28110 28111 28112 28113 28114 28115 28116 28117 28118 28119 28120 28121 28122 28123 28124 28125 28126 28127 28128 28129 28130 28131 28132 28133 28134 28135 28136 28137 28138 28139 28140 28141 28142 28143 28144 28145 28146 28147 28148 28149 28150 28151 28152 28153 28154 28155 28156 28157 28158 28159 28160 28161 28162 28163 28164 28165 28166 28167 28168 28169 28170 28171 28172 28173 28174 28175 28176 28177 28178 28179 28180 28181 28182 28183 28184 28185 28186 28187 28188 28189 28190 28191 28192 28193 28194 28195 28196 28197 28198 28199 28200 28201 28202 28203 28204 28205 28206 28207 28208 28209 28210 28211 28212 28213 28214 28215 28216 28217 28218 28219 28220 28221 28222 28223 28224 28225 28226 28227 28228 28229 28230 28231 28232 28233 28234 28235 28236 28237 28238 28239 28240 28241 28242 28243 28244 28245 28246 28247 28248 28249 28250 28251 28252 28253 28254 28255 28256 28257 28258 28259 28260 28261 28262 28263 28264 28265 28266 28267 28268 28269 28270 28271 28272 28273 28274 28275 28276 28277 28278 28279 28280 28281 28282 28283 28284 28285 28286 28287 28288 28289 28290 28291 28292 28293 28294 28295 28296 28297 28298 28299 28300 28301 28302 28303 28304 28305 28306 28307 28308 28309 28310 28311 28312 28313 28314 28315 28316 28317 28318 28319 28320 28321 28322 28323 28324 28325 28326 28327 28328 28329 28330 28331 28332 28333 28334 28335 28336 28337 28338 28339 28340 28341 28342 28343 28344 28345 28346 28347 28348 28349 28350 28351 28352 28353 28354 28355 28356 28357 28358 28359 28360 28361 28362 28363 28364 28365 28366 28367 28368 28369 28370 28371 28372 28373 28374 28375 28376 28377 28378 28379 28380 28381 28382 28383 28384 28385 28386 28387 28388 28389 28390 28391 28392 28393 28394 28395 28396 28397 28398 28399 28400 28401 28402 28403 28404 28405 28406 28407 28408 28409 28410 28411 28412 28413 28414 28415 28416 28417 28418 28419 28420 28421 28422 28423 28424 28425 28426 28427 28428 28429 28430 28431 28432 28433 28434 28435 28436 28437 28438 28439 28440 28441 28442 28443 28444 28445 28446 28447 28448 28449 28450 28451 28452 28453 28454 28455 28456 28457 28458 28459 28460 28461 28462 28463 28464 28465 28466 28467 28468 28469 28470 28471 28472 28473 28474 28475 28476 28477 28478 28479 28480 28481 28482 28483 28484 28485 28486 28487 28488 28489 28490 28491 28492 28493 28494 28495 28496 28497 28498 28499 28500 28501 28502 28503 28504 28505 28506 28507 28508 28509 28510 28511 28512 28513 28514 28515 28516 28517 28518 28519 28520 28521 28522 28523 28524 28525 28526 28527 28528 28529 28530 28531 28532 28533 28534 28535 28536 28537 28538 28539 28540 28541 28542 28543 28544 28545 28546 28547 28548 28549 28550 28551 28552 28553 28554 28555 28556 28557 28558 28559 28560 28561 28562 28563 28564 28565 28566 28567 28568 28569 28570 28571 28572 28573 28574 28575 28576 28577 28578 28579 28580 28581 28582 28583 28584 28585 28586 28587 28588 28589 28590 28591 28592 28593 28594 28595 28596 28597 28598 28599 28600 28601 28602 28603 28604 28605 28606 28607 28608 28609 28610 28611 28612 28613 28614 28615 28616 28617 28618 28619 28620 28621 28622 28623 28624 28625 28626 28627 28628 28629 28630 28631 28632 28633 28634 28635 28636 28637 28638 28639 28640 28641 28642 28643 28644 28645 28646 28647 28648 28649 28650 28651 28652 28653 28654 28655 28656 28657 28658 28659 28660 28661 28662 28663 28664 28665 28666 28667 28668 28669 28670 28671 28672 28673 28674 28675 28676 28677 28678 28679 28680 28681 28682 28683 28684 28685 28686 28687 28688 28689 28690 28691 28692 28693 28694 28695 28696 28697 28698 28699 28700 28701 28702 28703 28704 28705 28706 28707 28708 28709 28710 28711 28712 28713 28714 28715 28716 28717 28718 28719 28720 28721 28722 28723 28724 28725 28726 28727 28728 28729 28730 28731 28732 28733 28734 28735 28736 28737 28738 28739 28740 28741 28742 28743 28744 28745 28746 28747 28748 28749 28750 28751 28752 28753 28754 28755 28756 28757 28758 28759 28760 28761 28762 28763 28764 28765 28766 28767 28768 28769 28770 28771 28772 28773 28774 28775 28776 28777 28778 28779 28780 28781 28782 28783 28784 28785 28786 28787 28788 28789 28790 28791 28792 28793 28794 28795 28796 28797 28798 28799 28800 28801 28802 28803 28804 28805 28806 28807 28808 28809 28810 28811 28812 28813 28814 28815 28816 28817 28818 28819 28820 28821 28822 28823 28824 28825 28826 28827 28828 28829 28830 28831 28832 28833 28834 28835 28836 28837 28838 28839 28840 28841 28842 28843 28844 28845 28846 28847 28848 28849 28850 28851 28852 28853 28854 28855 28856 28857 28858 28859 28860 28861 28862 28863 28864 28865 28866 28867 28868 28869 28870 28871 28872 28873 28874 28875 28876 28877 28878 28879 28880 28881 28882 28883 28884 28885 28886 28887 28888 28889 28890 28891 28892 28893 28894 28895 28896 28897 28898 28899 28900 28901 28902 28903 28904 28905 28906 28907 28908 28909 28910 28911 28912 28913 28914 28915 28916 28917 28918 28919 28920 28921 28922 28923 28924 28925 28926 28927 28928 28929 28930 28931 28932 28933 28934 28935 28936 28937 28938 28939 28940 28941 28942 28943 28944 28945 28946 28947 28948 28949 28950 28951 28952 28953 28954 28955 28956 28957 28958 28959 28960 28961 28962 28963 28964 28965 28966 28967 28968 28969 28970 28971 28972 28973 28974 28975 28976 28977 28978 28979 28980 28981 28982 28983 28984 28985 28986 28987 28988 28989 28990 28991 28992 28993 28994 28995 28996 28997 28998 28999 29000 29001 29002 29003 29004 29005 29006 29007 29008 29009 29010 29011 29012 29013 29014 29015 29016 29017 29018 29019 29020 29021 29022 29023 29024 29025 29026 29027 29028 29029 29030 29031 29032 29033 29034 29035 29036 29037 29038 29039 29040 29041 29042 29043 29044 29045 29046 29047 29048 29049 29050 29051 29052 29053 29054 29055 29056 29057 29058 29059 29060 29061 29062 29063 29064 29065 29066 29067 29068 29069 29070 29071 29072 29073 29074 29075 29076 29077 29078 29079 29080 29081 29082 29083 29084 29085 29086 29087 29088 29089 29090 29091 29092 29093 29094 29095 29096 29097 29098 29099 29100 29101 29102 29103 29104 29105 29106 29107 29108 29109 29110 29111 29112 29113 29114 29115 29116 29117 29118 29119 29120 29121 29122 29123 29124 29125 29126 29127 29128 29129 29130 29131 29132 29133 29134 29135 29136 29137 29138 29139 29140 29141 29142 29143 29144 29145 29146 29147 29148 29149 29150 29151 29152 29153 29154 29155 29156 29157 29158 29159 29160 29161 29162 29163 29164 29165 29166 29167 29168 29169 29170 29171 29172 29173 29174 29175 29176 29177 29178 29179 29180 29181 29182 29183 29184 29185 29186 29187 29188 29189 29190 29191 29192 29193 29194 29195 29196 29197 29198 29199 29200 29201 29202 29203 29204 29205 29206 29207 29208 29209 29210 29211 29212 29213 29214 29215 29216 29217 29218 29219 29220 29221 29222 29223 29224 29225 29226 29227 29228 29229 29230 29231 29232 29233 29234 29235 29236 29237 29238 29239 29240 29241 29242 29243 29244 29245 29246 29247 29248 29249 29250 29251 29252 29253 29254 29255 29256 29257 29258 29259 29260 29261 29262 29263 29264 29265 29266 29267 29268 29269 29270 29271 29272 29273 29274 29275 29276 29277 29278 29279 29280 29281 29282 29283 29284 29285 29286 29287 29288 29289 29290 29291 29292 29293 29294 29295 29296 29297 29298 29299 29300 29301 29302 29303 29304 29305 29306 29307 29308 29309 29310 29311 29312 29313 29314 29315 29316 29317 29318 29319 29320 29321 29322 29323 29324 29325 29326 29327 29328 29329 29330 29331 29332 29333 29334 29335 29336 29337 29338 29339 29340 29341 29342 29343 29344 29345 29346 29347 29348 29349 29350 29351 29352 29353 29354 29355 29356 29357 29358 29359 29360 29361 29362 29363 29364 29365 29366 29367 29368 29369 29370 29371 29372 29373 29374 29375 29376 29377 29378 29379 29380 29381 29382 29383 29384 29385 29386 29387 29388 29389 29390 29391 29392 29393 29394 29395 29396 29397 29398 29399 29400 29401 29402 29403 29404 29405 29406 29407 29408 29409 29410 29411 29412 29413 29414 29415 29416 29417 29418 29419 29420 29421 29422 29423 29424 29425 
</DataArray>
<DataArray type="UInt32" Name="offsets" format="ascii">
3 6 9 12 15 18 21 24 27 30 33 36 39 42 45 48 51 54 56 58 60 62 65 68 71 73 75 78 81 84 87 90 93 96 99 102 105 108 111 114 117 120 122 125 128 131 133 136 139 142 144 147 150 153 155 158 160 163 166 169 172 175 178 181 183 186 188 191 194 197 200 203 206 209 212 215 218 220 223 226 228 231 234 236 239 242 244 247 250 253 256 258 260 263 265 267 270 273 276 279 282 285 288 290 293 296 299 301 304 307 309 312 314 316 319 322 324 326 329 332 335 338 340 343 345 348 351 354 356 358 361 363 366 368 371 374 376 378 381 384 387 389 392 394 397 400 403 405 408 410 413 415 417 420 423 426 429 432 434 437 440 443 446 449 451 453 456 458 461 464 466 469 472 475 478 480 483 486 489 491 494 497 500 503 506 508 510 513 515 518 520 523 526 529 532 535 538 541 544 547 549 552 554 557 560 563 566 569 572 575 578 581 584 587 590 593 596 599 602 605 608 610 613 616 619 622 625 628 631 634 636 639 642 645 648 651 654 657 659 662 665 668 671 673 675 678 681 683 686 689 691 694 697 699 701 704 707 710 712 714 717 720 723 725 728 731 733 736 739 741 744 747 750 752 754 757 760 762 765 768 770 773 776 779 782 784 786 789 791 793 795 798 801 804 807 809 811 814 817 820 823 825 827 830 832 835 837 840 843 845 847 850 853 856 859 861 864 867 869 871 873 876 878 881 884 886 888 890 892 895 898 901 904 907 910 913 915 917 920 923 926 928 930 933 935 937 940 943 945 948 951 954 957 960 962 965 968 970 973 975 978 980 983 986 988 991 994 997 999 1002 1004 1007 1010 1013 1016 1019 1021 1023 1026 1029 1032 1035 1037 1040 1043 1046 1048 1051 1054 1057 1059 1062 1065 1067 1069 1072 1075 1078 1081 1084 1087 1090 1093 1096 1099 1102 1105 1108 1110 1112 1115 1118 1121 1123 1126 1129 1132 1135 1138 1141 1144 1147 1150 1153 1156 1158 1161 1164 1166 1169 1171 1173 1176 1179 1182 1185 1188 1191 1194 1197 1200 1203 1206 1209 1212 1214 1216 1219 1222 1225 1227 1230 1233 1236 1239 1241 1244 1247 1250 1253 1256 1259 1262 1265 1267 1270 1273 1276 1279 1282 1285 1288 1291 1293 1295 1297 1300 1303 1306 1308 1310 1312 1315 1318 1321 1324 1327 1330 1332 1334 1336 1339 1342 1345 1348 1350 1353 1356 1359 1362 1365 1367 1370 1373 1376 1378 1381 1383 1386 1389 1392 1395 1398 1400 1403 1406 1409 1412 1415 1418 1421 1423 1426 1429 1432 1434 1437 1440 1443 1446 1448 1451 1454 1456 1459 1462 1464 1467 1470 1472 1475 1478 1481 1484 1487 1490 1493 1496 1499 1502 1505 1508 1510 1513 1516 1519 1522 1525 1528 1531 1534 1537 1540 1543 1546 1548 1551 1554 1557 1560 1563 1566 1569 1571 1574 1576 1579 1582 1585 1588 1591 1593 1596 1599 1602 1605 1608 1611 1614 1617 1619 1622 1624 1627 1630 1633 1636 1638 1640 1643 1645 1648 1651 1653 1656 1659 1662 1665 1668 1670 1673 1676 1679 1682 1685 1687 1690 1692 1695 1698 1700 1703 1705 1708 1711 1714 1717 1720 1723 1726 1729 1732 1735 1738 1741 1743 1746 1749 1752 1755 1757 1760 1763 1766 1769 1772 1775 1778 1780 1783 1786 1789 1792 1794 1796 1799 1802 1805 1807 1809 1812 1814 1817 1819 1822 1825 1828 1831 1833 1835 1838 1841 1844 1847 1850 1853 1855 1858 1860 1862 1865 1868 1871 1874 1876 1879 1882 1885 1888 1891 1894 1896 1898 1901 1904 1907 1910 1912 1914 1917 1920 1922 1925 1928 1931 1934 1937 1940 1942 1944 1947 1949 1952 1954 1957 1960 1963 1966 1968 1971 1974 1977 1980 1983 1986 1989 1992 1995 1997 2000 2003 2006 2008 2011 2014 2017 2020 2023 2026 2028 2031 2034 2037 2040 2043 2046 2049 2052 2055 2057 2060 2063 2065 2068 2071 2074 2077 2080 2082 2085 2088 2091 2094 2097 2100 2103 2106 2109 2111 2114 2116 2119 2122 2125 2128 2131 2134 2136 2139 2142 2145 2148 2151 2154 2157 2160 2163 2166 2168 2171 2174 2176 2179 2182 2185 2188 2190 2193 2196 2199 2202 2205 2207 2210 2213 2216 2219 2222 2224 2227 2230 2232 2235 2238 2241 2243 2245 2248 2251 2254 2257 2259 2262 2265 2267 2270 2273 2276 2278 2281 2284 2286 2289 2292 2295 2298 2301 2304 2307 2310 2313 2316 2319 2322 2325 2328 2330 2333 2335 2337 2340 2343 2345 2348 2351 2354 2357 2360 2362 2365 2368 2370 2373 2375 2378 2381 2384 2386 2389 2391 2394 2396 2399 2402 2404 2407 2410 2413 2416 2419 2422 2425 2427 2430 2433 2436 2439 2442 2445 2448 2451 2454 2456 2459 2462 2465 2467 2470 2472 2475 2478 2481 2484 2487 2490 2493 2496 2499 2502 2504 2507 2510 2513 2516 2519 2522 2524 2527 2530 2533 2536 2539 2542 2544 2547 2550 2553 2556 2559 2562 2565 2567 2570 2573 2576 2579 2582 2585 2588 2590 2593 2596 2599 2601 2604 2607 2610 2613 2616 2618 2620 2623 2626 2628 2631 2633 2636 2639 2642 2645 2648 2650 2653 2655 2658 2661 2663 2666 2669 2671 2674 2677 2680 2683 2685 2688 2691 2694 2697 2700 2702 2705 2708 2711 2714 2716 2719 2722 2725 2728 2730 2733 2736 2739 2742 2745 2748 2751 2754 2757 2760 2762 2765 2768 2771 2774 2776 2779 2782 2785 2788 2791 2794 2797 2800 2803 2806 2809 2812 2815 2818 2821 2824 2827 2830 2833 2836 2839 2842 2845 2848 2851 2854 2856 2859 2862 2865 2868 2870 2873 2876 2879 2882 2885 2887 2889 2891 2894 2897 2900 2903 2905 2908 2910 2912 2914 2917 2920 2923 2926 2929 2931 2934 2937 2940 2943 2946 2949 2952 2955 2958 2961 2964 2966 2969 2972 2975 2978 2981 2984 2987 2990 2993 2996 2999 3002 3005 3008 3011 3014 3017 3019 3022 3025 3028 3031 3034 3037 3040 3043 3046 3049 3052 3055 3058 3061 3063 3065 3068 3071 3073 3076 3079 3082 3085 3087 3090 3093 3095 3098 3101 3104 3107 3110 3112 3115 3118 3121 3124 3127 3130 3133 3135 3138 3141 3144 3146 3148 3151 3154 3157 3160 3163 3166 3168 3171 3174 3177 3180 3183 3186 3189 3192 3195 3198 3201 3204 3207 3210 3213 3216 3219 3221 3224 3226 3229 3232 3235 3238 3241 3244 3247 3249 3252 3255 3258 3260 3263 3266 3269 3272 3275 3278 3281 3284 3287 3290 3293 3296 3299 3302 3305 3308 3311 3314 3317 3320 3323 3326 3329 3332 3335 3338 3341 3344 3347 3350 3353 3356 3359 3362 3365 3368 3371 3374 3377 3380 3383 3386 3389 3392 3395 3398 3401 3404 3407 3410 3413 3416 3419 3422 3425 3428 3431 3434 3437 3440 3443 3446 3449 3452 3455 3458 3461 3464 3467 3470 3473 3476 3479 3482 3485 3488 3491 3494 3497 3500 3503 3506 3509 3512 3515 3518 3521 3524 3527 3530 3533 3536 3539 3542 3545 3548 3551 3554 3557 3560 3563 3566 3569 3572 3575 3578 3581 3584 3587 3589 3592 3594 3597 3600 3602 3605 3607 3609 3612 3615 3618 3621 3624 3627 3630 3633 3636 3639 3642 3645 3648 3650 3653 3656 3659 3662 3665 3668 3671 3673 3676 3679 3682 3685 3688 3690 3693 3696 3699 3702 3705 3707 3709 3712 3715 3718 3721 3724 3727 3730 3733 3736 3739 3741 3743 3746 3749 3752 3755 3758 3761 3764 3767 3770 3773 3776 3778 3781 3784 3787 3790 3793 3796 3799 3802 3805 3808 3810 3813 3816 3818 3821 3824 3827 3830 3832 3835 3838 3841 3844 3846 3849 3852 3855 3858 3861 3864 3867 3870 3873 3876 3878 3881 3884 3887 3890 3893 3895 3898 3901 3904 3907 3910 3912 3915 3917 3920 3923 3925 3928 3931 3934 3937 3940 3943 3946 3949 3952 3955 3958 3961 3964 3967 3970 3973 3976 3979 3982 3985 3988 3991 3994 3997 4000 4003 4006 4009 4012 4015 4018 4021 4024 4027 4030 4032 4035 4038 4041 4044 4047 4050 4053 4056 4059 4062 4065 4068 4071 4074 4077 4080 4083 4085 4087 4090 4093 4095 4098 4101 4104 4107 4110 4113 4116 4119 4122 4125 4128 4131 4133 4136 4139 4142 4145 4147 4150 4153 4156 4159 4162 4165 4168 4171 4174 4177 4180 4183 4186 4189 4191 4194 4197 4200 4203 4206 4209 4212 4215 4218 4221 4224 4227 4229 4232 4234 4237 4240 4243 4246 4248 4251 4254 4257 4259 4262 4265 4267 4270 4273 4276 4279 4282 4285 4288 4290 4292 4295 4298 4301 4303 4306 4309 4312 4315 4318 4321 4324 4327 4330 4333 4336 4339 4342 4345 4348 4351 4354 4357 4360 4363 4366 4369 4372 4375 4377 4379 4381 4383 4386 4389 4392 4395 4397 4399 4402 4405 4408 4411 4414 4417 4420 4423 4426 4429 4432 4435 4438 4441 4444 4447 4449 4452 4455 4458 4461 4464 4467 4470 4473 4476 4479 4482 4485 4488 4491 4494 4496 4499 4502 4505 4508 4510 4513 4516 4518 4521 4524 4527 4529 4532 4535 4538 4541 4544 4547 4550 4553 4556 4559 4562 4565 4568 4571 4574 4577 4580 4582 4585 4587 4589 4592 4595 4597 4600 4603 4606 4609 4612 4615 4618 4620 4623 4625 4628 4631 4633 4635 4638 4641 4644 4647 4650 4652 4655 4658 4661 4664 4667 4670 4673 4676 4679 4682 4685 4688 4691 4694 4696 4699 4701 4704 4707 4710 4713 4715 4718 4721 4724 4727 4730 4732 4735 4738 4741 4744 4747 4750 4753 4756 4759 4762 4765 4768 4770 4773 4775 4778 4781 4784 4787 4790 4793 4796 4799 4802 4805 4808 4811 4814 4817 4820 4823 4826 4829 4832 4835 4838 4841 4844 4847 4850 4853 4856 4859 4862 4865 4868 4871 4874 4877 4880 4883 4886 4889 4892 4894 4897 4900 4902 4905 4908 4911 4913 4916 4919 4922 4924 4926 4928 4931 4933 4936 4939 4942 4944 4947 4950 4953 4955 4958 4960 4963 4966 4968 4971 4974 4977 4980 4983 4986 4989 4992 4995 4998 5001 5004 5007 5010 5013 5016 5019 5022 5024 5027 5030 5033 5036 5039 5042 5045 5048 5051 5054 5057 5060 5063 5066 5069 5072 5075 5078 5081 5084 5087 5090 5093 5096 5099 5102 5105 5108 5111 5113 5116 5119 5122 5125 5128 5131 5134 5137 5140 5143 5146 5149 5152 5155 5158 5161 5164 5166 5169 5172 5175 5178 5181 5184 5187 5190 5193 5196 5199 5202 5205 5208 5211 5214 5217 5220 5223 5226 5229 5232 5235 5238 5241 5244 5247 5250 5253 5256 5259 5261 5264 5267 5270 5273 5276 5279 5282 5284 5287 5290 5292 5295 5298 5301 5303 5306 5308 5311 5314 5317 5320 5323 5326 5328 5331 5334 5337 5339 5342 5345 5348 5351 5354 5357 5360 5363 5366 5369 5372 5375 5378 5381 5384 5387 5390 5393 5396 5399 5402 5405 5408 5411 5414 5416 5419 5422 5425 5428 5431 5434 5437 5440 5442 5445 5448 5451 5454 5457 5460 5463 5466 5469 5472 5475 5478 5481 5484 5487 5490 5493 5495 5498 5501 5504 5507 5510 5513 5516 5519 5522 5525 5528 5531 5534 5537 5540 5543 5546 5549 5552 5555 5558 5561 5564 5567 5570 5573 5576 5579 5582 5585 5588 5591 5594 5597 5600 5603 5606 5609 5612 5615 5618 5621 5624 5627 5630 5633 5636 5639 5642 5645 5648 5651 5654 5657 5660 5663 5666 5669 5672 5675 5678 5681 5684 5687 5690 5693 5696 5699 5702 5705 5708 5711 5714 5717 5720 5723 5726 5729 5732 5735 5738 5741 5744 5747 5750 5753 5756 5759 5762 5765 5768 5771 5774 5777 5780 5783 5785 5788 5790 5793 5796 5799 5801 5804 5807 5810 5812 5815 5818 5821 5824 5827 5830 5833 5836 5839 5842 5844 5847 5850 5853 5856 5859 5862 5865 5868 5871 5874 5877 5880 5883 5886 5889 5892 5895 5898 5901 5904 5907 5910 5913 5916 5919 5922 5925 5928 5931 5934 5937 5940 5943 5946 5949 5952 5955 5958 5961 5963 5966 5969 5972 5975 5978 5980 5983 5986 5989 5992 5995 5998 6001 6003 6006 6009 6012 6014 6017 6020 6023 6026 6028 6030 6033 6036 6039 6042 6045 6048 6051 6054 6057 6060 6063 6066 6069 6071 6074 6077 6080 6083 6086 6089 6092 6095 6097 6100 6102 6105 6108 6111 6114 6117 6120 6123 6126 6128 6131 6133 6136 6139 6142 6145 6148 6151 6154 6157 6159 6162 6164 6166 6169 6172 6175 6178 6181 6184 6186 6189 6192 6195 6198 6200 6202 6205 6207 6210 6212 6215 6218 6220 6223 6226 6228 6231 6234 6237 6239 6242 6245 6248 6251 6253 6256 6259 6262 6264 6267 6269 6272 6275 6278 6281 6284 6287 6290 6293 6295 6298 6300 6302 6304 6307 6310 6313 6315 6318 6321 6324 6327 6330 6333 6336 6339 6342 6345 6348 6351 6354 6356 6359 6361 6364 6367 6369 6372 6375 6378 6381 6384 6387 6389 6392 6395 6398 6401 6404 6407 6410 6413 6415 6418 6421 6424 6426 6429 6432 6435 6438 6441 6444 6447 6450 6453 6456 6458 6461 6464 6467 6470 6473 6476 6479 6482 6485 6488 6491 6494 6497 6500 6503 6506 6509 6512 6515 6518 6520 6523 6526 6529 6532 6535 6538 6541 6544 6547 6549 6552 6555 6558 6561 6564 6567 6570 6573 6575 6578 6581 6584 6587 6590 6593 6596 6599 6602 6604 6606 6609 6612 6615 6617 6620 6623 6626 6629 6632 6635 6638 6641 6644 6647 6650 6653 6656 6659 6662 6665 6668 6671 6674 6677 6679 6682 6684 6687 6690 6693 6696 6699 6702 6705 6708 6711 6714 6717 6720 6723 6726 6729 6732 6735 6738 6740 6743 6746 6749 6752 6754 6757 6760 6763 6766 6769 6772 6775 6778 6781 6783 6786 6789 6792 6795 6798 6801 6804 6807 6810 6813 6816 6819 6822 6825 6828 6831 6834 6837 6840 6843 6846 6849 6852 6854 6857 6860 6863 6866 6869 6872 6875 6878 6881 6884 6887 6890 6893 6896 6898 6901 6904 6907 6910 6913 6916 6919 6922 6925 6928 6930 6933 6936 6939 6942 6944 6946 6949 6951 6954 6957 6960 6963 6966 6969 6971 6974 6977 6980 6983 6986 6989 6992 6994 6997 7000 7003 7006 7008 7011 7013 7016 7019 7022 7025 7028 7031 7034 7037 7040 7043 7046 7049 7052 7054 7056 7059 7062 7064 7067 7070 7073 7075 7078 7081 7084 7086 7089 7092 7094 7097 7100 7103 7106 7109 7112 7115 7118 7121 7123 7126 7129 7132 7135 7137 7140 7143 7146 7148 7151 7154 7157 7160 7162 7165 7168 7171 7174 7176 7179 7182 7185 7188 7190 7193 7196 7199 7202 7205 7208 7210 7212 7215 7218 7221 7224 7227 7230 7232 7235 7238 7240 7243 7246 7249 7251 7254 7256 7259 7262 7265 7268 7271 7274 7277 7280 7283 7286 7289 7292 7295 7298 7301 7304 7307 7309 7312 7315 7318 7321 7324 7326 7329 7332 7335 7338 7341 7344 7347 7350 7353 7356 7359 7362 7365 7368 7371 7374 7377 7380 7382 7385 7388 7390 7393 7395 7398 7400 7403 7406 7408 7411 7414 7417 7420 7423 7426 7428 7431 7434 7437 7440 7443 7445 7447 7450 7453 7456 7458 7461 7464 7467 7470 7473 7475 7478 7481 7484 7487 7490 7493 7496 7499 7502 7505 7508 7511 7514 7517 7520 7523 7526 7529 7532 7535 7538 7541 7544 7547 7550 7553 7556 7559 7562 7564 7567 7570 7572 7575 7578 7581 7584 7587 7589 7592 7595 7598 7601 7604 7607 7610 7613 7616 7619 7622 7624 7627 7630 7633 7636 7639 7642 7645 7648 7651 7654 7657 7660 7662 7665 7668 7671 7673 7676 7679 7681 7683 7685 7688 7690 7693 7695 7698 7700 7703 7705 7708 7710 7713 7716 7718 7720 7723 7726 7729 7732 7735 7738 7740 7743 7746 7748 7750 7753 7756 7759 7762 7765 7768 7771 7774 7777 7780 7783 7785 7788 7791 7794 7797 7800 7803 7805 7808 7811 7814 7816 7819 7821 7824 7827 7830 7833 7836 7839 7842 7845 7848 7851 7854 7857 7860 7863 7866 7869 7872 7875 7878 7881 7884 7887 7890 7893 7896 7899 7902 7905 7908 7911 7914 7917 7920 7923 7926 7929 7932 7935 7938 7941 7944 7947 7949 7952 7954 7957 7960 7963 7966 7969 7972 7975 7978 7981 7984 7987 7990 7993 7996 7999 8002 8005 8008 8011 8014 8017 8020 8023 8026 8029 8032 8034 8037 8040 8043 8046 8049 8052 8055 8058 8061 8064 8067 8070 8073 8076 8079 8082 8085 8088 8091 8094 8097 8100 8103 8105 8107 8110 8113 8115 8118 8121 8124 8127 8130 8133 8136 8139 8142 8145 8148 8151 8153 8155 8158 8161 8164 8167 8170 8172 8175 8177 8180 8183 8186 8188 8191 8193 8195 8198 8200 8203 8206 8209 8212 8215 8218 8221 8224 8227 8230 8233 8236 8239 8242 8245 8248 8251 8254 8257 8260 8263 8266 8269 8272 8275 8278 8281 8284 8286 8289 8292 8295 8298 8301 8303 8306 8309 8312 8315 8318 8321 8323 8326 8329 8332 8335 8338 8341 8343 8346 8349 8352 8355 8358 8361 8363 8366 8368 8371 8373 8376 8379 8382 8385 8388 8391 8394 8397 8400 8403 8406 8409 8411 8414 8417 8420 8422 8425 8428 8431 8434 8436 8439 8441 8444 8447 8450 8453 8456 8459 8462 8465 8468 8471 8474 8477 8480 8483 8485 8488 8491 8493 8496 8499 8502 8505 8508 8511 8514 8517 8519 8522 8525 8528 8531 8534 8537 8540 8543 8545 8548 8551 8554 8557 8560 8563 8565 8568 8571 8574 8577 8580 8583 8586 8589 8592 8595 8598 8601 8604 8607 8610 8613 8616 8619 8622 8625 8628 8631 8634 8637 8640 8643 8646 8649 8652 8655 8658 8661 8664 8667 8670 8673 8676 8679 8682 8685 8688 8691 8694 8697 8700 8703 8706 8708 8711 8714 8717 8720 8723 8726 8729 8732 8735 8737 8740 8743 8745 8748 8751 8754 8756 8759 8761 8763 8766 8769 8771 8774 8777 8780 8783 8786 8789 8792 8795 8798 8801 8803 8806 8809 8811 8814 8817 8820 8822 8825 8828 8831 8834 8837 8840 8843 8846 8849 8852 8855 8857 8860 8863 8866 8869 8872 8875 8877 8880 8883 8886 8889 8892 8894 8897 8900 8903 8906 8909 8912 8914 8917 8920 8923 8926 8929 8931 8934 8937 8940 8943 8946 8949 8952 8955 8957 8960 8963 8966 8969 8972 8975 8978 8981 8984 8986 8989 8992 8994 8997 9000 9003 9006 9008 9011 9014 9016 9019 9022 9025 9028 9031 9034 9037 9040 9043 9046 9049 9052 9055 9058 9060 9063 9066 9069 9072 9075 9078 9081 9084 9086 9089 9092 9094 9097 9100 9103 9106 9109 9112 9115 9117 9120 9123 9126 9129 9132 9135 9137 9140 9143 9146 9149 9152 9155 9158 9160 9163 9166 9169 9171 9174 9177 9180 9183 9185 9188 9191 9194 9197 9200 9203 9206 9209 9212 9215 9218 9220 9223 9226 9229 9232 9235 9238 9240 9243 9246 9248 9251 9254 9257 9260 9263 9266 9269 9272 9275 9277 9280 9283 9286 9289 9291 9294 9296 9299 9302 9305 9308 9311 9313 9316 9319 9322 9324 9327 9330 9333 9336 9339 9342 9345 9348 9350 9353 9356 9359 9362 9365 9367 9370 9373 9376 9379 9381 9384 9387 9390 9392 9395 9398 9401 9404 9407 9410 9413 9416 9419 9421 9424 9427 9430 9433 9436 9439 9442 9445 9448 9450 9453 9456 9458 9461 9464 9467 9470 9473 9476 9479 9482 9485 9488 9491 9494 9497 9500 9503 9506 9508 9511 9514 9516 9519 9522 9525 9527 9530 9533 9536 9538 9541 9544 9547 9550 9553 9556 9558 9561 9564 9567 9570 9573 9576 9579 9582 9585 9588 9591 9593 9596 9599 9601 9603 9606 9609 9612 9615 9618 9621 9623 9626 9629 9632 9635 9638 9641 9643 9646 9649 9652 9655 9658 9661 9664 9667 9670 9673 9676 9679 9682 9684 9687 9690 9693 9696 9699 9702 9705 9708 9710 9712 9715 9718 9721 9724 9726 9729 9732 9735 9738 9741 9744 9747 9750 9753 9756 9759 9762 9764 9767 9770 9773 9776 9778 9781 9783 9785 9788 9791 9794 9797 9799 9802 9805 9808 9811 9814 9817 9819 9822 9825 9828 9831 9834 9837 9840 9843 9846 9849 9852 9855 9858 9861 9864 9867 9869 9871 9874 9877 9880 9882 9885 9888 9891 9894 9897 9899 9902 9905 9908 9911 9914 9917 9919 9922 9925 9928 9931 9933 9936 9939 9942 9945 9948 9951 9954 9956 9959 9962 9965 9967 9969 9972 9975 9977 9980 9983 9986 9989 9992 9995 9998 10001 10003 10006 10009 10012 10014 10017 10020 10023 10025 10028 10031 10033 10036 10039 10042 10045 10047 10050 10052 10054 10057 10060 10063 10066 10069 10072 10075 10078 10081 10084 10087 10090 10093 10096 10099 10102 10105 10108 10111 10114 10117 10120 10123 10126 10129 10132 10135 10137 10140 10143 10146 10148 10151 10154 10157 10160 10163 10165 10167 10170 10172 10175 10178 10181 10183 10186 10189 10192 10194 10197 10200 10203 10206 10209 10212 10215 10218 10221 10224 10227 10230 10233 10236 10239 10242 10245 10247 10250 10252 10255 10258 10261 10264 10267 10270 10273 10276 10278 10281 10284 10287 10290 10293 10296 10299 10302 10305 10307 10309 10312 10315 10318 10320 10323 10326 10329 10332 10334 10337 10340 10343 10346 10349 10352 10355 10357 10359 10362 10365 10368 10370 10373 10376 10379 10382 10385 10388 10391 10394 10397 10400 10402 10405 10408 10411 10413 10416 10418 10421 10424 10427 10430 10433 10436 10439 10441 10444 10447 10450 10453 10455 10458 10461 10464 10467 10470 10473 10475 10478 10481 10484 10487 10490 10493 10496 10499 10502 10505 10508 10510 10513 10516 10519 10522 10524 10527 10530 10532 10535 10538 10541 10544 10547 10550 10553 10556 10559 10562 10564 10567 10570 10573 10575 10578 10581 10584 10587 10589 10592 10595 10597 10600 10602 10604 10607 10610 10613 10616 10619 10622 10625 10628 10631 10634 10637 10640 10643 10646 10649 10652 10655 10658 10660 10663 10665 10668 10671 10673 10676 10678 10681 10684 10687 10690 10693 10696 10699 10702 10705 10708 10711 10714 10717 10720 10723 10726 10729 10732 10735 10738 10741 10744 10747 10750 10753 10756 10759 10762 10765 10768 10771 10774 10777 10780 10783 10786 10789 10792 10794 10797 10800 10803 10805 10808 10811 10814 10816 10819 10821 10824 10827 10830 10833 10836 10839 10842 10844 10847 10850 10853 10856 10859 10862 10864 10867 10870 10873 10875 10878 10881 10884 10887 10889 10892 10895 10898 10900 10903 10905 10908 10911 10914 10916 10919 10922 10925 10928 10931 10934 10937 10940 10942 10945 10948 10950 10953 10956 10959 10962 10965 10968 10970 10973 10976 10979 10982 10985 10988 10991 10994 10997 11000 11003 11006 11009 11012 11015 11018 11021 11024 11027 11030 11033 11036 11039 11042 11045 11048 11051 11054 11057 11060 11063 11066 11069 11072 11075 11078 11081 11084 11087 11090 11093 11096 11099 11102 11104 11107 11110 11113 11116 11119 11122 11125 11127 11130 11133 11136 11139 11142 11145 11147 11150 11153 11156 11159 11162 11164 11167 11170 11172 11175 11178 11181 11184 11187 11190 11192 11195 11198 11201 11203 11206 11209 11212 11214 11217 11220 11223 11226 11229 11232 11234 11237 11240 11243 11246 11249 11252 11255 11258 11261 11264 11267 11270 11273 11276 11279 11281 11284 11286 11289 11291 11294 11296 11298 11301 11303 11306 11309 11311 11314 11317 11320 11323 11325 11328 11331 11333 11335 11338 11341 11344 11347 11350 11353 11356 11358 11361 11363 11366 11369 11372 11375 11377 11379 11382 11385 11387 11390 11393 11396 11399 11402 11405 11408 11411 11413 11416 11418 11421 11424 11427 11430 11432 11435 11438 11441 11443 11445 11448 11451 11454 11457 11460 11463 11466 11469 11472 11475 11478 11481 11483 11486 11489 11492 11495 11498 11501 11503 11506 11509 11512 11515 11517 11520 11523 11526 11529 11532 11535 11538 11541 11544 11547 11550 11553 11556 11559 11562 11565 11567 11570 11572 11575 11578 11581 11584 11586 11588 11591 11593 11596 11599 11601 11604 11607 11610 11612 11615 11618 11621 11623 11626 11628 11631 11634 11637 11640 11643 11645 11648 11650 11653 11655 11658 11661 11664 11666 11669 11672 11674 11677 11680 11683 11686 11689 11692 11695 11698 11701 11704 11707 11709 11712 11715 11718 11721 11723 11726 11729 11732 11735 11738 11741 11743 11745 11748 11751 11754 11756 11759 11761 11763 11766 11769 11772 11774 11777 11780 11783 11786 11789 11791 11794 11797 11800 11803 11806 11809 11812 11815 11818 11820 11823 11826 11828 11831 11834 11837 11840 11843 11846 11849 11851 11854 11857 11859 11861 11864 11867 11870 11872 11875 11877 11880 11883 11885 11888 11891 11893 11895 11898 11901 11904 11906 11909 11911 11914 11916 11919 11922 11925 11928 11931 11934 11937 11939 11941 11944 11947 11950 11953 11956 11959 11962 11965 11967 11970 11973 11976 11979 11982 11985 11988 11991 11994 11997 12000 12003 12006 12009 12012 12014 12017 12020 12023 12026 12029 12032 12035 12038 12040 12043 12046 12049 12052 12055 12058 12061 12063 12066 12069 12072 12075 12078 12081 12084 12087 12090 12093 12096 12099 12102 12105 12107 12110 12113 12116 12119 12122 12125 12128 12131 12133 12136 12139 12142 12145 12147 12150 12153 12156 12159 12162 12165 12168 12171 12174 12177 12180 12183 12186 12189 12192 12194 12197 12200 12203 12206 12208 12211 12213 12216 12219 12222 12225 12227 12230 12233 12236 12239 12241 12244 12246 12249 12252 12255 12258 12261 12264 12267 12270 12272 12275 12278 12280 12282 12285 12288 12291 12293 12295 12298 12300 12302 12305 12308 12311 12314 12316 12319 12321 12324 12327 12330 12332 12335 12338 12340 12343 12346 12348 12351 12353 12356 12358 12361 12364 12367 12370 12373 12376 12378 12380 12383 12386 12388 12390 12392 12394 12397 12399 12401 12404 12406 12409 12412 12415 12417 12419 12422 12425 12427 12430 12433 12436 12438 12441 12444 12447 12449 12452 12454 12457 12460 12462 12465 12468 12471 12474 12477 12479 12482 12485 12488 12491 12494 12497 12500 12503 12506 12509 12512 12515 12518 12520 12523 12526 12528 12531 12534 12537 12540 12543 12546 12549 12552 12555 12558 12561 12564 12567 12570 12573 12576 12579 12582 12585 12588 12591 12594 12597 12600 12602 12605 12608 12611 12614 12617 12619 12622 12625 12628 12631 12634 12637 12640 12643 12646 12649 12652 12655 12658 12661 12664 12667 12669 12672 12675 12678 12681 12684 12687 12689 12692 12695 12698 12701 12704 12706 12709 12712 12714 12716 12719 12722 12725 12728 12731 12734 12737 12740 12743 12746 12749 12752 12755 12758 12761 12764 12767 12770 12773 12776 12778 12781 12784 12787 12790 12793 12795 12798 12801 12803 12806 12808 12811 12814 12816 12818 12820 12823 12826 12828 12831 12834 12837 12840 12843 12845 12848 12851 12854 12857 12860 12863 12866 12869 12872 12875 12878 12881 12884 12886 12889 12892 12895 12898 12901 12904 12907 12909 12912 12915 12918 12921 12923 12926 12929 12931 12934 12937 12940 12943 12946 12949 12952 12955 12958 12961 12964 12967 12969 12972 12975 12978 12981 12983 12986 12989 12992 12995 12998 13001 13004 13007 13009 13012 13014 13017 13019 13022 13025 13028 13031 13034 13037 13040 13043 13046 13049 13052 13055 13058 13061 13064 13067 13070 13073 13076 13079 13082 13085 13088 13091 13093 13096 13099 13102 13104 13107 13110 13113 13116 13119 13122 13124 13127 13130 13132 13135 13137 13140 13142 13145 13148 13151 13154 13157 13160 13163 13166 13169 13172 13175 13178 13181 13184 13187 13189 13192 13195 13198 13201 13204 13207 13210 13213 13216 13219 13222 13225 13227 13230 13233 13236 13239 13242 13245 13248 13251 13253 13256 13259 13262 13265 13267 13270 13273 13276 13279 13281 13284 13287 13290 13292 13295 13298 13301 13304 13306 13309 13312 13314 13317 13320 13323 13326 13328 13331 13334 13337 13340 13343 13346 13349 13352 13355 13358 13360 13363 13366 13369 13372 13374 13376 13379 13382 13385 13388 13391 13394 13397 13400 13403 13406 13409 13412 13415 13418 13421 13424 13427 13430 13433 13436 13439 13442 13445 13448 13451 13454 13457 13460 13463 13466 13469 13471 13474 13477 13480 13483 13486 13489 13492 13495 13498 13501 13504 13507 13510 13513 13516 13519 13522 13525 13528 13530 13533 13536 13539 13542 13545 13548 13551 13554 13557 13560 13563 13566 13569 13572 13575 13578 13581 13584 13587 13590 13593 13596 13599 13602 13605 13608 13611 13614 13617 13620 13622 13625 13628 13631 13633 13636 13639 13642 13645 13648 13651 13654 13656 13659 13662 13665 13668 13671 13674 13677 13680 13682 13685 13688 13690 13693 13696 13699 13702 13705 13708 13711 13713 13716 13719 13722 13725 13727 13730 13732 13734 13736 13739 13742 13745 13747 13750 13753 13756 13759 13762 13764 13766 13769 13772 13775 13777 13780 13783 13786 13789 13791 13794 13797 13800 13803 13806 13809 13812 13815 13818 13821 13824 13827 13830 13833 13836 13839 13842 13845 13847 13850 13853 13855 13857 13860 13862 13865 13867 13870 13873 13875 13878 13880 13882 13885 13888 13891 13893 13896 13899 13902 13905 13907 13910 13913 13916 13919 13922 13924 13927 13930 13933 13936 13938 13941 13943 13946 13949 13952 13955 13958 13961 13964 13967 13970 13972 13975 13978 13980 13983 13986 13989 13992 13995 13998 14001 14004 14007 14009 14012 14015 14018 14020 14023 14026 14029 14032 14035 14038 14041 14044 14047 14050 14053 14056 14059 14061 14064 14067 14070 14073 14075 14078 14081 14084 14087 14090 14093 14096 14099 14102 14105 14108 14111 14114 14117 14120 14123 14126 14129 14131 14134 14137 14140 14142 14144 14147 14150 14153 14156 14158 14161 14164 14166 14169 14172 14175 14177 14180 14182 14185 14188 14190 14193 14196 14199 14201 14203 14206 14208 14211 14214 14216 14219 14222 14225 14227 14229 14232 14235 14238 14241 14244 14246 14248 14251 14254 14256 14258 14260 14263 14266 14268 14271 14274 14277 14280 14283 14286 14289 14292 14295 14298 14301 14303 14306 14309 14312 14315 14318 14320 14322 14325 14327 14330 14333 14336 14339 14342 14345 14348 14350 14352 14355 14358 14360 14363 14366 14369 14372 14375 14378 14381 14383 14386 14389 14392 14395 14398 14401 14404 14407 14410 14412 14414 14417 14420 14422 14425 14428 14431 14434 14437 14440 14442 14445 14447 14450 14453 14456 14459 14461 14463 14466 14468 14471 14474 14477 14479 14482 14485 14488 14491 14494 14497 14500 14503 14506 14508 14511 14513 14516 14519 14522 14525 14528 14531 14534 14537 14539 14542 14545 14548 14551 14554 14556 14559 14562 14565 14568 14571 14574 14577 14580 14583 14586 14589 14592 14595 14598 14600 14603 14606 14609 14612 14614 14617 14620 14623 14626 14629 14632 14635 14638 14641 14644 14647 14650 14653 14656 14659 14662 14664 14667 14670 14673 14676 14679 14682 14685 14687 14690 14693 14696 14698 14701 14704 14707 14710 14713 14715 14717 14720 14723 14726 14729 14732 14735 14737 14740 14743 14745 14748 14750 14753 14755 14758 14760 14762 14765 14767 14770 14773 14775 14778 14780 14783 14786 14789 14792 14794 14797 14800 14803 14806 14808 14811 14814 14816 14819 14821 14824 14827 14829 14832 14835 14838 14840 14843 14846 14848 14850 14853 14856 14859 14861 14864 14867 14870 14873 14876 14879 14882 14885 14887 14890 14893 14896 14899 14902 14905 14908 14910 14913 14916 14919 14922 14925 14927 14930 14933 14936 14939 14941 14944 14947 14950 14952 14954 14957 14960 14963 14966 14969 14972 14975 14978 14980 14983 14986 14989 14992 14995 14998 15001 15004 15006 15009 15012 15015 15017 15020 15023 15026 15029 15032 15035 15038 15041 15044 15047 15050 15053 15056 15059 15061 15064 15067 15070 15073 15076 15079 15082 15085 15088 15091 15093 15096 15099 15102 15105 15108 15111 15114 15117 15120 15123 15126 15129 15132 15135 15138 15140 15143 15146 15148 15150 15153 15156 15159 15162 15165 15167 15169 15172 15175 15178 15181 15184 15187 15190 15193 15196 15199 15202 15205 15208 15211 15214 15217 15220 15222 15225 15228 15231 15234 15236 15239 15242 15244 15246 15248 15250 15253 15255 15258 15261 15264 15267 15269 15272 15275 15277 15280 15283 15286 15289 15292 15295 15298 15301 15304 15307 15309 15312 15315 15318 15321 15324 15327 15330 15332 15335 15338 15340 15343 15346 15349 15352 15355 15358 15361 15364 15367 15370 15373 15375 15378 15381 15384 15387 15390 15393 15396 15399 15402 15405 15408 15411 15414 15417 15420 15423 15426 15429 15431 15434 15437 15440 15443 15446 15449 15452 15454 15457 15460 15463 15465 15468 15471 15473 15476 15479 15482 15484 15487 15490 15493 15496 15499 15502 15505 15508 15511 15514 15517 15520 15523 15526 15529 15532 15535 15538 15541 15544 15547 15550 15553 15556 15559 15562 15565 15568 15570 15573 15576 15579 15582 15585 15588 15591 15594 15597 15600 15603 15606 15609 15612 15615 15618 15621 15624 15627 15630 15632 15635 15638 15641 15644 15647 15650 15653 15656 15659 15662 15665 15667 15669 15672 15675 15678 15681 15684 15686 15689 15691 15694 15697 15700 15703 15706 15709 15712 15715 15718 15721 15723 15726 15729 15731 15734 15737 15740 15743 15746 15749 15752 15755 15757 15760 15762 15765 15768 15771 15774 15777 15780 15783 15786 15789 15792 15795 15798 15801 15804 15807 15810 15813 15816 15818 15821 15824 15827 15830 15833 15835 15838 15841 15844 15847 15849 15852 15855 15858 15860 15863 15865 15868 15871 15874 15877 15880 15883 15886 15889 15892 15895 15898 15901 15904 15906 15909 15912 15915 15918 15921 15923 15926 15929 15932 15934 15936 15939 15942 15945 15948 15951 15953 15956 15958 15961 15963 15965 15968 15971 15973 15976 15978 15981 15983 15986 15989 15991 15994 15997 15999 16002 16005 16008 16011 16014 16016 16019 16022 16024 16027 16030 16033 16036 16039 16042 16045 16048 16051 16054 16057 16059 16061 16064 16067 16070 16072 16075 16078 16081 16084 16087 16090 16092 16095 16098 16101 16103 16106 16109 16112 16115 16118 16121 16124 16127 16130 16133 16136 16139 16142 16145 16148 16151 16154 16157 16160 16163 16165 16168 16171 16174 16177 16180 16183 16186 16189 16192 16195 16197 16200 16203 16206 16209 16212 16215 16218 16221 16223 16226 16229 16232 16235 16238 16241 16244 16246 16249 16252 16255 16258 16260 16263 16266 16269 16271 16274 16276 16279 16281 16283 16286 16288 16291 16294 16296 16299 16301 16304 16307 16309 16312 16315 16318 16321 16323 16326 16329 16332 16334 16337 16340 16343 16346 16349 16352 16355 16358 16361 16363 16365 16368 16370 16373 16376 16379 16381 16384 16386 16389 16391 16394 16397 16399 16402 16405 16407 16410 16412 16415 16418 16421 16423 16426 16429 16432 16435 16437 16439 16442 16445 16448 16451 16454 16457 16460 16463 16465 16468 16470 16472 16475 16478 16480 16483 16486 16489 16492 16495 16497 16500 16503 16505 16508 16510 16513 16516 16519 16522 16525 16528 16531 16534 16537 16539 16542 16544 16547 16550 16553 16555 16558 16561 16564 16567 16569 16572 16575 16577 16580 16583 16586 16589 16592 16595 16598 16601 16604 16607 16610 16613 16616 16619 16622 16625 16628 16631 16634 16637 16640 16643 16646 16649 16652 16655 16658 16661 16664 16667 16670 16673 16676 16679 16682 16685 16688 16691 16694 16697 16700 16703 16706 16709 16712 16715 16718 16721 16724 16727 16729 16732 16734 16737 16740 16743 16746 16749 16752 16755 16758 16761 16764 16767 16769 16772 16775 16778 16781 16784 16787 16789 16792 16794 16797 16800 16802 16805 16808 16811 16813 16816 16818 16821 16824 16827 16830 16832 16835 16837 16840 16843 16845 16848 16851 16853 16856 16859 16861 16864 16867 16870 16873 16875 16878 16881 16884 16887 16890 16893 16896 16899 16901 16904 16907 16910 16913 16915 16918 16921 16923 16926 16929 16932 16935 16937 16940 16942 16945 16948 16951 16954 16957 16960 16963 16966 16969 16972 16975 16978 16981 16984 16987 16990 16993 16996 16999 17002 17005 17008 17011 17014 17017 17020 17023 17026 17029 17032 17035 17038 17041 17044 17046 17049 17052 17055 17057 17060 17063 17066 17068 17070 17073 17076 17079 17082 17084 17087 17090 17093 17096 17099 17102 17105 17107 17110 17113 17115 17118 17121 17124 17127 17130 17133 17136 17139 17142 17145 17148 17151 17154 17157 17160 17163 17166 17169 17172 17175 17178 17181 17184 17187 17190 17193 17196 17199 17201 17204 17207 17209 17212 17215 17217 17220 17223 17226 17229 17232 17234 17236 17239 17242 17244 17247 17250 17252 17254 17257 17259 17262 17265 17268 17271 17274 17277 17280 17282 17285 17288 17291 17294 17296 17299 17302 17305 17308 17311 17314 17317 17320 17323 17326 17328 17331 17334 17337 17340 17343 17346 17349 17352 17355 17358 17360 17363 17365 17368 17371 17374 17377 17380 17383 17386 17389 17392 17395 17398 17401 17403 17406 17409 17411 17414 17417 17419 17422 17425 17428 17431 17434 17437 17440 17443 17446 17449 17452 17455 17458 17461 17463 17466 17469 17472 17474 17477 17480 17483 17485 17488 17491 17494 17497 17500 17502 17505 17508 17510 17512 17515 17518 17520 17523 17525 17528 17531 17534 17537 17539 17542 17545 17548 17551 17553 17556 17559 17562 17564 17567 17570 17573 17576 17579 17581 17584 17587 17590 17593 17596 17599 17601 17604 17607 17610 17613 17615 17618 17621 17624 17627 17630 17633 17635 17638 17641 17644 17647 17650 17653 17656 17658 17661 17664 17667 17669 17671 17674 17677 17680 17682 17684 17687 17690 17693 17696 17699 17701 17704 17707 17710 17713 17715 17718 17721 17723 17726 17729 17732 17735 17738 17741 17744 17747 17749 17752 17755 17758 17761 17763 17766 17768 17771 17774 17777 17780 17782 17784 17787 17790 17793 17796 17799 17801 17803 17806 17809 17812 17815 17818 17821 17824 17827 17830 17833 17836 17839 17842 17845 17847 17850 17852 17855 17858 17861 17864 17867 17870 17873 17876 17879 17882 17885 17887 17890 17893 17896 17898 17900 17903 17906 17909 17911 17914 17917 17919 17922 17925 17928 17931 17934 17936 17939 17942 17944 17947 17950 17953 17955 17958 17961 17964 17966 17969 17972 17975 17978 17981 17984 17987 17990 17992 17995 17998 18001 18004 18007 18009 18012 18015 18018 18021 18024 18027 18030 18033 18036 18038 18041 18043 18046 18049 18052 18055 18058 18061 18064 18067 18070 18073 18075 18078 18081 18084 18087 18090 18093 18096 18099 18102 18105 18108 18111 18114 18117 18120 18123 18126 18129 18132 18135 18138 18141 18144 18147 18150 18153 18156 18159 18162 18165 18168 18171 18174 18177 18180 18183 18186 18189 18192 18194 18197 18200 18203 18206 18209 18212 18215 18218 18221 18224 18227 18230 18233 18236 18239 18241 18244 18247 18250 18252 18255 18258 18261 18264 18267 18269 18272 18275 18278 18281 18284 18287 18290 18293 18296 18299 18302 18305 18307 18310 18313 18316 18319 18322 18325 18328 18331 18334 18337 18340 18343 18346 18349 18352 18355 18358 18361 18364 18367 18369 18372 18375 18378 18381 18384 18387 18390 18393 18396 18399 18402 18405 18408 18411 18414 18417 18420 18423 18426 18429 18431 18433 18436 18439 18442 18445 18448 18450 18453 18456 18459 18462 18465 18468 18471 18474 18477 18480 18483 18486 18489 18492 18495 18498 18501 18504 18507 18510 18513 18516 18519 18522 18525 18528 18531 18534 18536 18539 18541 18544 18547 18550 18552 18555 18558 18561 18564 18567 18570 18573 18576 18579 18582 18585 18588 18590 18593 18596 18599 18602 18605 18608 18611 18614 18616 18619 18622 18625 18627 18630 18633 18636 18639 18642 18645 18648 18650 18653 18655 18658 18661 18664 18667 18670 18673 18676 18679 18682 18685 18688 18691 18694 18697 18700 18703 18706 18709 18711 18714 18717 18720 18723 18726 18729 18732 18734 18737 18740 18743 18745 18748 18751 18754 18757 18760 18763 18765 18768 18771 18774 18777 18780 18783 18786 18789 18792 18794 18797 18800 18803 18806 18809 18812 18815 18818 18821 18824 18827 18830 18833 18836 18839 18842 18844 18847 18849 18852 18855 18858 18861 18864 18867 18870 18873 18876 18879 18881 18884 18887 18890 18892 18895 18898 18901 18904 18907 18910 18913 18916 18919 18922 18925 18928 18931 18934 18937 18940 18943 18946 18949 18952 18955 18957 18960 18963 18966 18969 18972 18975 18978 18980 18983 18986 18989 18992 18995 18998 19001 19004 19007 19010 19012 19015 19018 19021 19024 19027 19030 19033 19036 19039 19042 19044 19047 19050 19052 19055 19057 19060 19063 19066 19069 19072 19074 19077 19080 19083 19086 19089 19092 19095 19098 19101 19104 19107 19110 19113 19116 19118 19121 19124 19127 19130 19133 19136 19139 19142 19145 19148 19151 19154 19157 19160 19163 19166 19169 19172 19175 19178 19181 19184 19187 19190 19193 19196 19199 19202 19205 19207 19210 19213 19216 19219 19222 19225 19228 19231 19234 19237 19240 19243 19246 19249 19252 19255 19258 19261 19264 19267 19270 19272 19275 19278 19281 19284 19287 19290 19293 19296 19299 19302 19305 19307 19310 19312 19314 19317 19320 19323 19325 19328 19331 19333 19336 19339 19341 19344 19347 19350 19353 19356 19359 19362 19365 19368 19371 19374 19377 19380 19383 19386 19388 19391 19394 19397 19399 19402 19405 19408 19411 19414 19417 19420 19423 19426 19429 19432 19435 19438 19441 19444 19447 19450 19453 19456 19459 19462 19464 19467 19470 19473 19476 19479 19482 19485 19487 19490 19493 19496 19499 19502 19505 19508 19511 19514 19517 19520 19522 19525 19528 19531 19533 19536 19539 19542 19544 19547 19550 19553 19556 19559 19562 19565 19568 19571 19574 19577 19580 19582 19585 19588 19590 19593 19596 19599 19601 19604 19607 19610 19612 19615 19618 19621 19624 19627 19630 19632 19635 19638 19640 19643 19646 19649 19652 19654 19657 19660 19663 19665 19668 19670 19672 19675 19678 19681 19684 19687 19689 19692 19695 19697 19700 19703 19705 19708 19711 19714 19717 19720 19723 19725 19728 19731 19734 19736 19739 19741 19744 19747 19749 19752 19755 19758 19760 19763 19766 19769 19772 19775 19778 19780 19782 19785 19788 19791 19793 19796 19799 19801 19804 19807 19809 19812 19815 19818 19821 19824 19827 19830 19833 19835 19837 19839 19842 19845 19848 19850 19853 19855 19858 19861 19863 19866 19869 19871 19874 19877 19879 19882 19885 19888 19891 19894 19896 19899 19902 19905 19907 19909 19912 19914 19917 19920 19923 19926 19929 19932 19935 19938 19941 19944 19947 19949 19952 19955 19958 19961 19963 19966 19969 19972 19975 19978 19981 19984 19987 19990 19993 19996 19998 20001 20004 20007 20010 20012 20015 20017 20020 20023 20026 20029 20032 20035 20038 20041 20044 20047 20050 20053 20056 20059 20062 20065 20068 20071 20074 20077 20079 20082 20085 20088 20091 20094 20096 20098 20101 20104 20107 20110 20113 20115 20118 20121 20124 20127 20130 20133 20136 20139 20142 20145 20148 20150 20153 20156 20159 20162 20164 20167 20169 20172 20175 20178 20180 20183 20186 20189 20191 20194 20197 20200 20203 20206 20209 20211 20213 20216 20219 20222 20224 20226 20229 20232 20235 20237 20239 20242 20245 20248 20251 20254 20257 20260 20262 20265 20268 20271 20273 20276 20279 20282 20285 20288 20291 20294 20297 20299 20302 20305 20308 20311 20314 20317 20320 20322 20324 20327 20330 20333 20335 20338 20341 20344 20347 20350 20353 20355 20358 20360 20363 20366 20369 20372 20374 20377 20380 20383 20386 20389 20392 20395 20398 20401 20404 20407 20409 20412 20415 20418 20421 20424 20427 20430 20433 20436 20439 20442 20444 20447 20450 20453 20456 20459 20461 20464 20467 20469 20472 20475 20478 20481 20483 20486 20489 20492 20494 20497 20500 20502 20504 20506 20509 20512 20515 20517 20520 20523 20526 20529 20532 20535 20538 20541 20544 20547 20549 20552 20555 20557 20560 20563 20565 20568 20571 20574 20577 20580 20583 20585 20588 20591 20594 20597 20600 20603 20606 20609 20612 20614 20617 20620 20623 20626 20629 20632 20635 20638 20641 20644 20647 20650 20653 20656 20659 20662 20665 20668 20670 20673 20676 20679 20682 20685 20687 20689 20692 20694 20697 20700 20703 20705 20708 20710 20713 20716 20719 20722 20725 20728 20731 20734 20737 20740 20743 20746 20749 20751 20753 20756 20759 20762 20765 20767 20770 20773 20776 20778 20781 20784 20787 20790 20793 20796 20799 20802 20805 20808 20811 20814 20817 20820 20823 20826 20829 20832 20835 20838 20841 20844 20847 20850 20853 20856 20859 20862 20865 20868 20871 20874 20877 20879 20882 20885 20888 20891 20894 20897 20900 20903 20906 20909 20912 20915 20918 20920 20923 20926 20929 20931 20934 20937 20940 20943 20946 20948 20951 20954 20957 20960 20963 20966 20968 20971 20974 20977 20980 20983 20986 20988 20991 20994 20997 21000 21003 21005 21007 21010 21013 21016 21019 21022 21024 21027 21030 21033 21036 21039 21041 21044 21047 21050 21053 21056 21059 21062 21065 21068 21071 21074 21077 21080 21083 21086 21089 21092 21095 21098 21101 21104 21107 21110 21113 21116 21119 21121 21123 21126 21129 21132 21135 21138 21141 21144 21146 21149 21152 21155 21158 21161 21164 21167 21170 21173 21176 21179 21182 21185 21188 21191 21194 21197 21200 21203 21206 21209 21212 21215 21218 21221 21224 21227 21230 21233 21236 21239 21242 21245 21248 21251 21254 21257 21260 21263 21266 21269 21271 21274 21277 21280 21282 21284 21287 21290 21293 21296 21299 21302 21305 21308 21311 21314 21316 21319 21322 21325 21327 21330 21333 21336 21339 21342 21345 21348 21351 21353 21356 21359 21361 21364 21367 21370 21373 21376 21379 21381 21384 21387 21389 21392 21395 21398 21401 21403 21406 21408 21411 21413 21416 21419 21421 21424 21427 21430 21433 21436 21439 21442 21445 21448 21451 21454 21457 21459 21462 21465 21468 21471 21474 21477 21480 21483 21486 21489 21492 21495 21498 21501 21504 21507 21509 21511 21514 21516 21519 21522 21525 21527 21530 21533 21536 21539 21542 21544 21547 21550 21553 21555 21558 21561 21563 21566 21569 21571 21574 21577 21579 21582 21585 21588 21590 21593 21596 21599 21602 21605 21608 21610 21613 21616 21618 21621 21624 21627 21630 21633 21635 21638 21641 21643 21646 21649 21651 21653 21656 21658 21661 21664 21667 21670 21673 21676 21679 21682 21684 21687 21690 21693 21696 21699 21701 21704 21707 21710 21713 21716 21719 21722 21725 21728 21731 21734 21737 21740 21742 21744 21747 21750 21753 21755 21758 21761 21764 21767 21770 21773 21776 21779 21782 21785 21788 21791 21793 21796 21799 21802 21804 21807 21810 21813 21815 21818 21821 21824 21827 21830 21833 21835 21838 21841 21844 21847 21850 21853 21856 21858 21861 21864 21867 21870 21873 21876 21879 21882 21884 21887 21889 21892 21895 21898 21901 21904 21907 21910 21913 21916 21919 21921 21924 21927 21930 21932 21934 21937 21940 21943 21946 21949 21952 21955 21958 21961 21964 21967 21970 21973 21976 21979 21982 21985 21988 21991 21994 21997 22000 22003 22006 22009 22012 22015 22017 22020 22023 22025 22028 22031 22034 22037 22040 22043 22046 22049 22052 22055 22058 22061 22064 22067 22070 22073 22076 22078 22080 22083 22086 22088 22091 22093 22096 22099 22101 22104 22107 22110 22112 22114 22116 22119 22122 22125 22128 22131 22134 22137 22140 22143 22146 22149 22152 22155 22158 22161 22164 22167 22170 22173 22176 22179 22182 22185 22187 22190 22193 22196 22199 22202 22205 22208 22211 22213 22216 22219 22221 22224 22227 22230 22233 22236 22239 22242 22245 22248 22250 22252 22255 22258 22261 22264 22267 22270 22273 22276 22279 22282 22284 22287 22290 22293 22296 22299 22302 22305 22307 22310 22313 22315 22318 22321 22324 22327 22330 22333 22336 22339 22341 22344 22347 22350 22353 22356 22359 22362 22365 22368 22371 22374 22376 22379 22382 22385 22388 22391 22394 22397 22400 22403 22405 22407 22410 22413 22416 22419 22422 22425 22427 22430 22433 22436 22439 22441 22444 22447 22450 22453 22456 22458 22461 22464 22467 22470 22473 22476 22478 22481 22484 22487 22489 22492 22495 22498 22501 22504 22507 22510 22513 22516 22519 22522 22525 22528 22531 22534 22537 22540 22543 22546 22549 22551 22554 22557 22560 22562 22565 22568 22571 22574 22576 22579 22582 22584 22587 22590 22593 22596 22599 22602 22605 22608 22611 22614 22617 22620 22623 22626 22629 22632 22635 22638 22641 22644 22647 22650 22653 22656 22659 22662 22665 22668 22671 22674 22676 22679 22682 22685 22688 22691 22694 22697 22700 22702 22704 22707 22710 22713 22716 22719 22722 22725 22728 22731 22734 22737 22740 22743 22746 22749 22752 22755 22758 22761 22763 22766 22769 22772 22774 22777 22780 22783 22786 22788 22791 22793 22795 22798 22801 22804 22807 22810 22812 22815 22818 22821 22824 22827 22830 22833 22836 22838 22841 22844 22847 22850 22853 22856 22859 22862 22865 22868 22870 22873 22876 22879 22882 22884 22887 22890 22893 22896 22899 22902 22905 22908 22911 22914 22917 22920 22923 22926 22929 22932 22934 22937 22940 22942 22945 22948 22950 22953 22956 22959 22962 22964 22966 22969 22972 22975 22978 22981 22984 22987 22990 22992 22995 22997 23000 23003 23005 23007 23010 23013 23016 23019 23021 23024 23027 23030 23033 23036 23039 23041 23044 23047 23050 23053 23055 23058 23061 23064 23067 23070 23073 23076 23079 23082 23084 23086 23089 23092 23094 23097 23100 23103 23106 23109 23112 23115 23118 23121 23124 23127 23130 23133 23136 23139 23142 23145 23148 23151 23154 23157 23160 23163 23166 23169 23171 23174 23177 23180 23183 23186 23188 23191 23194 23197 23200 23202 23205 23208 23211 23214 23216 23219 23222 23224 23227 23230 23233 23236 23239 23242 23245 23248 23251 23254 23257 23260 23263 23266 23268 23271 23274 23277 23279 23282 23285 23288 23291 23294 23297 23300 23303 23306 23309 23312 23315 23318 23321 23324 23327 23330 23333 23336 23339 23342 23344 23347 23350 23353 23356 23359 23362 23365 23367 23370 23373 23376 23379 23382 23385 23388 23391 23394 23397 23400 23403 23406 23408 23411 23414 23416 23419 23422 23425 23428 23431 23433 23436 23439 23442 23445 23447 23449 23451 23454 23457 23460 23463 23465 23468 23471 23474 23477 23480 23482 23485 23488 23491 23494 23497 23499 23502 23504 23507 23510 23513 23516 23518 23521 23523 23526 23529 23532 23535 23537 23540 23543 23546 23549 23552 23555 23557 23560 23563 23566 23569 23572 23575 23577 23580 23583 23586 23589 23592 23595 23598 23601 23604 23607 23610 23613 23616 23619 23622 23625 23628 23631 23634 23637 23640 23643 23646 23649 23652 23655 23658 23661 23664 23667 23669 23672 23675 23678 23680 23682 23685 23688 23691 23694 23696 23699 23701 23703 23706 23709 23711 23714 23717 23719 23722 23724 23727 23730 23733 23736 23739 23742 23744 23747 23750 23752 23755 23758 23761 23764 23767 23770 23773 23775 23778 23781 23784 23787 23789 23792 23795 23798 23801 23803 23806 23809 23812 23815 23818 23820 23823 23826 23829 23831 23834 23837 23840 23843 23846 23849 23852 23855 23857 23860 23863 23866 23869 23872 23875 23878 23881 23884 23887 23890 23893 23896 23899 23902 23905 23908 23911 23914 23917 23919 23922 23925 23928 23931 23934 23937 23940 23942 23944 23947 23950 23953 23956 23958 23961 23964 23967 23970 23973 23976 23979 23982 23985 23987 23990 23993 23996 23999 24001 24004 24007 24010 24013 24016 24019 24022 24025 24028 24031 24034 24037 24040 24042 24045 24048 24051 24054 24057 24059 24062 24065 24068 24071 24074 24077 24080 24083 24086 24089 24092 24095 24098 24101 24104 24107 24110 24113 24115 24118 24121 24124 24127 24130 24133 24136 24139 24142 24145 24148 24151 24154 24157 24160 24163 24166 24169 24172 24175 24178 24181 24184 24187 24190 24193 24195 24198 24201 24203 24206 24209 24212 24215 24218 24221 24224 24226 24229 24232 24235 24237 24240 24243 24246 24249 24252 24255 24257 24260 24263 24266 24269 24272 24275 24278 24281 24284 24287 24290 24293 24296 24299 24302 24305 24308 24311 24314 24317 24320 24323 24326 24328 24330 24333 24335 24338 24341 24344 24347 24350 24353 24356 24358 24361 24364 24366 24369 24372 24375 24378 24381 24384 24387 24390 24393 24396 24399 24402 24405 24408 24410 24413 24416 24419 24422 24425 24427 24430 24433 24436 24438 24441 24443 24446 24448 24451 24454 24456 24459 24462 24465 24468 24471 24474 24477 24480 24483 24486 24489 24492 24494 24497 24500 24502 24504 24507 24510 24513 24516 24518 24520 24523 24526 24529 24531 24534 24537 24540 24543 24546 24549 24552 24555 24557 24560 24563 24566 24568 24571 24574 24577 24580 24583 24586 24589 24592 24595 24598 24601 24604 24607 24610 24613 24616 24619 24622 24625 24628 24631 24634 24637 24639 24642 24645 24648 24651 24654 24657 24660 24663 24666 24669 24672 24675 24677 24680 24683 24685 24688 24691 24694 24697 24700 24703 24706 24709 24712 24714 24717 24720 24723 24726 24729 24732 24735 24737 24740 24743 24746 24749 24752 24755 24758 24761 24764 24767 24770 24773 24776 24779 24782 24784 24787 24790 24793 24796 24798 24801 24804 24807 24809 24812 24814 24817 24820 24822 24825 24827 24830 24833 24835 24838 24840 24843 24846 24849 24852 24855 24858 24861 24864 24867 24870 24873 24876 24879 24882 24885 24888 24891 24894 24897 24900 24903 24906 24909 24912 24915 24918 24921 24924 24927 24930 24933 24936 24939 24942 24945 24948 24951 24954 24956 24959 24962 24965 24968 24971 24974 24977 24979 24982 24985 24987 24990 24993 24995 24998 25001 25003 25006 25009 25012 25015 25017 25020 25023 25025 25028 25031 25034 25036 25038 25041 25043 25046 25048 25050 25053 25056 25059 25062 25065 25068 25071 25074 25077 25080 25083 25086 25089 25091 25094 25097 25099 25101 25104 25107 25109 25112 25115 25118 25121 25123 25126 25129 25131 25134 25137 25139 25142 25145 25148 25151 25154 25157 25159 25162 25165 25167 25170 25173 25176 25179 25182 25185 25188 25190 25193 25196 25199 25202 25205 25208 25211 25214 25217 25220 25223 25226 25229 25232 25235 25238 25241 25244 25247 25250 25253 25256 25259 25262 25265 25268 25271 25274 25277 25280 25283 25286 25289 25291 25294 25297 25300 25302 25305 25307 25310 25313 25316 25319 25322 25325 25328 25331 25334 25337 25340 25343 25346 25349 25352 25355 25358 25360 25362 25365 25368 25371 25374 25377 25379 25381 25384 25387 25390 25393 25396 25398 25401 25403 25406 25409 25412 25414 25417 25420 25422 25425 25428 25431 25433 25436 25439 25442 25444 25447 25450 25453 25456 25459 25462 25465 25468 25471 25474 25476 25479 25482 25485 25488 25491 25494 25497 25500 25503 25506 25509 25512 25515 25518 25521 25524 25527 25530 25533 25536 25539 25542 25545 25548 25551 25553 25556 25559 25562 25565 25568 25571 25573 25576 25579 25582 25585 25587 25590 25593 25596 25599 25602 25605 25608 25611 25613 25616 25619 25622 25625 25628 25631 25633 25636 25638 25641 25644 25646 25649 25652 25655 25658 25661 25664 25667 25670 25673 25675 25678 25680 25683 25686 25689 25692 25695 25698 25701 25703 25706 25709 25711 25714 25717 25720 25723 25726 25729 25732 25734 25737 25740 25743 25746 25748 25751 25754 25757 25760 25763 25766 25769 25772 25775 25778 25781 25784 25787 25790 25793 25796 25799 25802 25805 25808 25811 25814 25817 25820 25822 25825 25828 25831 25834 25837 25840 25843 25845 25848 25851 25853 25856 25859 25862 25865 25868 25871 25874 25877 25880 25883 25886 25889 25891 25894 25897 25900 25903 25906 25909 25911 25914 25917 25920 25923 25926 25929 25932 25935 25938 25941 25944 25947 25950 25953 25956 25959 25962 25965 25968 25970 25972 25975 25978 25981 25984 25987 25990 25993 25996 25999 26001 26004 26007 26010 26013 26015 26018 26021 26023 26025 26028 26031 26034 26037 26040 26043 26046 26049 26052 26055 26058 26061 26064 26067 26070 26073 26075 26078 26081 26084 26086 26088 26091 26094 26096 26099 26102 26104 26107 26110 26113 26116 26119 26121 26124 26126 26129 26132 26135 26138 26140 26143 26145 26148 26151 26154 26156 26159 26161 26164 26167 26170 26173 26175 26178 26181 26184 26187 26190 26193 26195 26198 26201 26204 26207 26210 26213 26216 26219 26222 26225 26228 26231 26234 26237 26240 26243 26246 26249 26251 26254 26257 26259 26262 26265 26268 26270 26273 26276 26279 26282 26285 26288 26291 26294 26297 26300 26303 26306 26309 26312 26314 26317 26319 26322 26325 26328 26331 26334 26336 26339 26342 26344 26347 26349 26352 26355 26358 26361 26364 26367 26370 26373 26375 26378 26381 26384 26386 26389 26392 26395 26397 26400 26403 26405 26408 26411 26414 26417 26420 26423 26426 26429 26432 26435 26438 26441 26444 26447 26450 26452 26455 26458 26460 26463 26466 26469 26472 26475 26478 26481 26484 26487 26490 26493 26496 26499 26502 26505 26507 26510 26513 26516 26519 26522 26525 26528 26530 26533 26536 26539 26542 26544 26547 26550 26553 26556 26559 26562 26565 26568 26571 26574 26577 26580 26583 26586 26589 26592 26595 26598 26601 26604 26606 26609 26612 26615 26618 26621 26624 26627 26629 26632 26635 26638 26641 26644 26647 26650 26653 26656 26659 26661 26664 26667 26670 26673 26676 26679 26682 26684 26687 26690 26692 26695 26698 26700 26703 26706 26708 26711 26714 26717 26720 26723 26726 26729 26732 26734 26737 26740 26742 26745 26747 26750 26753 26756 26759 26762 26765 26767 26770 26773 26776 26779 26782 26785 26788 26791 26794 26797 26800 26803 26806 26809 26812 26815 26818 26821 26824 26827 26830 26833 26836 26839 26842 26845 26848 26851 26854 26857 26860 26863 26866 26869 26871 26874 26877 26880 26883 26886 26889 26892 26895 26898 26901 26904 26907 26910 26913 26916 26919 26922 26925 26928 26931 26934 26937 26940 26943 26946 26949 26952 26955 26958 26961 26964 26967 26970 26973 26976 26979 26982 26985 26988 26991 26994 26997 27000 27003 27006 27009 27012 27015 27018 27021 27024 27027 27030 27033 27036 27039 27042 27045 27048 27051 27054 27057 27060 27063 27066 27069 27072 27075 27078 27081 27084 27087 27090 27093 27096 27099 27102 27105 27108 27111 27114 27117 27120 27123 27125 27128 27131 27134 27137 27140 27143 27146 27148 27151 27154 27156 27159 27162 27165 27168 27171 27174 27177 27180 27182 27185 27188 27191 27194 27197 27200 27203 27206 27209 27212 27215 27218 27221 27224 27227 27230 27233 27235 27238 27241 27243 27246 27249 27252 27255 27258 27261 27264 27267 27270 27272 27275 27278 27281 27284 27287 27290 27293 27295 27298 27301 27304 27307 27310 27313 27316 27319 27322 27324 27326 27329 27332 27335 27338 27341 27344 27347 27350 27352 27355 27358 27360 27363 27366 27369 27371 27373 27376 27378 27381 27384 27387 27390 27393 27396 27398 27400 27403 27406 27409 27412 27415 27418 27421 27424 27427 27429 27432 27434 27437 27440 27443 27446 27448 27451 27454 27456 27459 27461 27464 27467 27470 27472 27475 27477 27480 27482 27485 27488 27490 27493 27496 27499 27501 27503 27506 27509 27512 27514 27517 27520 27523 27526 27529 27531 27533 27535 27538 27541 27544 27546 27549 27552 27555 27558 27561 27564 27567 27570 27573 27576 27579 27582 27585 27588 27591 27594 27597 27600 27603 27606 27609 27612 27615 27618 27621 27624 27626 27629 27632 27635 27638 27640 27643 27646 27649 27652 27655 27657 27660 27663 27666 27669 27671 27674 27677 27680 27683 27686 27689 27692 27695 27698 27701 27704 27707 27710 27713 27716 27719 27722 27725 27728 27731 27734 27737 27740 27743 27746 27749 27752 27754 27757 27760 27763 27766 27769 27772 27775 27778 27781 27784 27787 27790 27793 27796 27799 27802 27805 27808 27811 27813 27816 27818 27821 27824 27827 27829 27832 27835 27838 27841 27844 27847 27850 27853 27856 27858 27861 27863 27865 27868 27871 27873 27876 27879 27881 27884 27887 27889 27892 27895 27898 27901 27904 27907 27910 27913 27916 27919 27922 27925 27928 27931 27933 27936 27939 27942 27945 27948 27951 27954 27957 27960 27963 27966 27968 27971 27974 27977 27980 27983 27986 27988 27991 27994 27997 28000 28002 28005 28008 28011 28013 28016 28019 28022 28025 28027 28030 28033 28036 28039 28042 28045 28048 28051 28053 28056 28059 28062 28065 28068 28071 28074 28077 28080 28082 28085 28087 28090 28093 28096 28099 28102 28105 28108 28111 28114 28117 28120 28122 28125 28128 28131 28134 28137 28140 28143 28146 28149 28152 28155 28158 28161 28164 28167 28169 28171 28174 28177 28180 28183 28186 28189 28192 28195 28198 28201 28204 28207 28210 28213 28216 28219 28222 28225 28228 28231 28234 28237 28240 28243 28246 28249 28252 28255 28258 28261 28264 28267 28270 28273 28276 28279 28281 28284 28287 28290 28293 28296 28299 28302 28305 28308 28311 28314 28317 28320 28323 28326 28328 28331 28334 28337 28340 28343 28346 28349 28352 28355 28358 28361 28364 28367 28369 28371 28374 28377 28380 28383 28386 28389 28392 28395 28398 28401 28404 28407 28410 28413 28416 28419 28422 28425 28428 28430 28433 28436 28438 28441 28444 28447 28450 28453 28456 28459 28462 28465 28468 28470 28473 28476 28479 28482 28485 28488 28491 28494 28497 28500 28502 28505 28508 28511 28514 28517 28519 28521 28524 28527 28529 28532 28535 28538 28541 28544 28547 28550 28553 28555 28558 28561 28564 28567 28570 28573 28576 28579 28581 28584 28586 28589 28592 28595 28598 28600 28603 28605 28608 28611 28614 28617 28619 28622 28624 28627 28629 28632 28635 28637 28640 28643 28646 28648 28651 28654 28656 28659 28662 28664 28667 28670 28673 28675 28678 28681 28684 28687 28690 28693 28695 28698 28700 28703 28706 28709 28711 28714 28717 28720 28723 28726 28729 28732 28735 28737 28740 28743 28746 28749 28752 28755 28757 28760 28763 28765 28768 28771 28774 28776 28779 28782 28784 28787 28790 28792 28795 28798 28801 28803 28806 28808 28811 28813 28816 28819 28822 28825 28828 28831 28834 28837 28840 28843 28846 28849 28852 28855 28858 28861 28864 28867 28870 28873 28876 28879 28882 28885 28888 28891 28894 28896 28899 28902 28905 28907 28910 28913 28916 28919 28922 28925 28928 28930 28933 28936 28939 28941 28944 28947 28950 28952 28955 28958 28961 28964 28967 28970 28973 28976 28978 28981 28984 28987 28990 28992 28995 28998 29001 29004 29007 29010 29013 29016 29019 29022 29025 29028 29031 29034 29037 29040 29043 29046 29049 29052 29055 29058 29061 29064 29066 29069 29072 29075 29078 29081 29084 29087 29090 29093 29096 29099 29101 29104 29107 29110 29113 29116 29119 29122 29125 29128 29131 29134 29137 29140 29143 29146 29149 29152 29155 29158 29161 29164 29167 29170 29173 29175 29177 29180 29183 29185 29188 29191 29194 29197 29200 29203 29206 29209 29212 29215 29218 29221 29224 29226 29229 29232 29235 29238 29241 29244 29247 29250 29252 29255 29258 29261 29264 29267 29270 29273 29276 29279 29282 29285 29288 29291 29294 29297 29300 29303 29305 29308 29311 29313 29316 29319 29322 29325 29327 29329 29332 29335 29338 29341 29344 29347 29350 29353 29355 29358 29361 29364 29367 29369 29372 29375 29378 29380 29383 29386 29389 29392 29395 29398 29401 29403 29406 29409 29412 29415 29417 29420 29423 29426 
</DataArray>
<DataArray type="UInt32" Name="types" format="ascii">
5 5 5 5 5 5 5 5 5 5 5 5 5 5 5 5 5 5 3 3 3 3 5 5 5 3 3 5 5 5 5 5 5 5 5 5 5 5 5 5 5 5 3 5 5 5 3 5 5 5 3 5 5 5 3 5 3 5 5 5 5 5 5 5 3 5 3 5 5 5 5 5 5 5 5 5 5 3 5 5 3 5 5 3 5 5 3 5 5 5 5 3 3 5 3 3 5 5 5 5 5 5 5 3 5 5 5 3 5 5 3 5 3 3 5 5 3 3 5 5 5 5 3 5 3 5 5 5 3 3 5 3 5 3 5 5 3 3 5 5 5 3 5 3 5 5 5 3 5 3 5 3 3 5 5 5 5 5 3 5 5 5 5 5 3 3 5 3 5 5 3 5 5 5 5 3 5 5 5 3 5 5 5 5 5 3 3 5 3 5 3 5 5 5 5 5 5 5 5 5 3 5 3 5 5 5 5 5 5 5 5 5 5 5 5 5 5 5 5 5 5 3 5 5 5 5 5 5 5 5 3 5 5 5 5 5 5 5 3 5 5 5 5 3 3 5 5 3 5 5 3 5 5 3 3 5 5 5 3 3 5 5 5 3 5 5 3 5 5 3 5 5 5 3 3 5 5 3 5 5 3 5 5 5 5 3 3 5 3 3 3 5 5 5 5 3 3 5 5 5 5 3 3 5 3 5 3 5 5 3 3 5 5 5 5 3 5 5 3 3 3 5 3 5 5 3 3 3 3 5 5 5 5 5 5 5 3 3 5 5 5 3 3 5 3 3 5 5 3 5 5 5 5 5 3 5 5 3 5 3 5 3 5 5 3 5 5 5 3 5 3 5 5 5 5 5 3 3 5 5 5 5 3 5 5 5 3 5 5 5 3 5 5 3 3 5 5 5 5 5 5 5 5 5 5 5 5 5 3 3 5 5 5 3 5 5 5 5 5 5 5 5 5 5 5 3 5 5 3 5 3 3 5 5 5 5 5 5 5 5 5 5 5 5 5 3 3 5 5 5 3 5 5 5 5 3 5 5 5 5 5 5 5 5 3 5 5 5 5 5 5 5 5 3 3 3 5 5 5 3 3 3 5 5 5 5 5 5 3 3 3 5 5 5 5 3 5 5 5 5 5 3 5 5 5 3 5 3 5 5 5 5 5 3 5 5 5 5 5 5 5 3 5 5 5 3 5 5 5 5 3 5 5 3 5 5 3 5 5 3 5 5 5 5 5 5 5 5 5 5 5 5 3 5 5 5 5 5 5 5 5 5 5 5 5 3 5 5 5 5 5 5 5 3 5 3 5 5 5 5 5 3 5 5 5 5 5 5 5 5 3 5 3 5 5 5 5 3 3 5 3 5 5 3 5 5 5 5 5 3 5 5 5 5 5 3 5 3 5 5 3 5 3 5 5 5 5 5 5 5 5 5 5 5 5 3 5 5 5 5 3 5 5 5 5 5 5 5 3 5 5 5 5 3 3 5 5 5 3 3 5 3 5 3 5 5 5 5 3 3 5 5 5 5 5 5 3 5 3 3 5 5 5 5 3 5 5 5 5 5 5 3 3 5 5 5 5 3 3 5 5 3 5 5 5 5 5 5 3 3 5 3 5 3 5 5 5 5 3 5 5 5 5 5 5 5 5 5 3 5 5 5 3 5 5 5 5 5 5 3 5 5 5 5 5 5 5 5 5 3 5 5 3 5 5 5 5 5 3 5 5 5 5 5 5 5 5 5 3 5 3 5 5 5 5 5 5 3 5 5 5 5 5 5 5 5 5 5 3 5 5 3 5 5 5 5 3 5 5 5 5 5 3 5 5 5 5 5 3 5 5 3 5 5 5 3 3 5 5 5 5 3 5 5 3 5 5 5 3 5 5 3 5 5 5 5 5 5 5 5 5 5 5 5 5 5 3 5 3 3 5 5 3 5 5 5 5 5 3 5 5 3 5 3 5 5 5 3 5 3 5 3 5 5 3 5 5 5 5 5 5 5 3 5 5 5 5 5 5 5 5 5 3 5 5 5 3 5 3 5 5 5 5 5 5 5 5 5 5 3 5 5 5 5 5 5 3 5 5 5 5 5 5 3 5 5 5 5 5 5 5 3 5 5 5 5 5 5 5 3 5 5 5 3 5 5 5 5 5 3 3 5 5 3 5 3 5 5 5 5 5 3 5 3 5 5 3 5 5 3 5 5 5 5 3 5 5 5 5 5 3 5 5 5 5 3 5 5 5 5 3 5 5 5 5 5 5 5 5 5 5 3 5 5 5 5 3 5 5 5 5 5 5 5 5 5 5 5 5 5 5 5 5 5 5 5 5 5 5 5 5 5 5 3 5 5 5 5 3 5 5 5 5 5 3 3 3 5 5 5 5 3 5 3 3 3 5 5 5 5 5 3 5 5 5 5 5 5 5 5 5 5 5 3 5 5 5 5 5 5 5 5 5 5 5 5 5 5 5 5 5 3 5 5 5 5 5 5 5 5 5 5 5 5 5 5 3 3 5 5 3 5 5 5 5 3 5 5 3 5 5 5 5 5 3 5 5 5 5 5 5 5 3 5 5 5 3 3 5 5 5 5 5 5 3 5 5 5 5 5 5 5 5 5 5 5 5 5 5 5 5 5 3 5 3 5 5 5 5 5 5 5 3 5 5 5 3 5 5 5 5 5 5 5 5 5 5 5 5 5 5 5 5 5 5 5 5 5 5 5 5 5 5 5 5 5 5 5 5 5 5 5 5 5 5 5 5 5 5 5 5 5 5 5 5 5 5 5 5 5 5 5 5 5 5 5 5 5 5 5 5 5 5 5 5 5 5 5 5 5 5 5 5 5 5 5 5 5 5 5 5 5 5 5 5 5 5 5 5 5 5 5 5 5 5 5 5 5 5 5 5 5 5 5 5 5 3 5 3 5 5 3 5 3 3 5 5 5 5 5 5 5 5 5 5 5 5 5 3 5 5 5 5 5 5 5 3 5 5 5 5 5 3 5 5 5 5 5 3 3 5 5 5 5 5 5 5 5 5 5 3 3 5 5 5 5 5 5 5 5 5 5 5 3 5 5 5 5 5 5 5 5 5 5 3 5 5 3 5 5 5 5 3 5 5 5 5 3 5 5 5 5 5 5 5 5 5 5 3 5 5 5 5 5 3 5 5 5 5 5 3 5 3 5 5 3 5 5 5 5 5 5 5 5 5 5 5 5 5 5 5 5 5 5 5 5 5 5 5 5 5 5 5 5 5 5 5 5 5 5 5 3 5 5 5 5 5 5 5 5 5 5 5 5 5 5 5 5 5 3 3 5 5 3 5 5 5 5 5 5 5 5 5 5 5 5 3 5 5 5 5 3 5 5 5 5 5 5 5 5 5 5 5 5 5 5 3 5 5 5 5 5 5 5 5 5 5 5 5 3 5 3 5 5 5 5 3 5 5 5 3 5 5 3 5 5 5 5 5 5 5 3 3 5 5 5 3 5 5 5 5 5 5 5 5 5 5 5 5 5 5 5 5 5 5 5 5 5 5 5 5 3 3 3 3 5 5 5 5 3 3 5 5 5 5 5 5 5 5 5 5 5 5 5 5 5 5 3 5 5 5 5 5 5 5 5 5 5 5 5 5 5 5 3 5 5 5 5 3 5 5 3 5 5 5 3 5 5 5 5 5 5 5 5 5 5 5 5 5 5 5 5 5 3 5 3 3 5 5 3 5 5 5 5 5 5 5 3 5 3 5 5 3 3 5 5 5 5 5 3 5 5 5 5 5 5 5 5 5 5 5 5 5 5 3 5 3 5 5 5 5 3 5 5 5 5 5 3 5 5 5 5 5 5 5 5 5 5 5 5 3 5 3 5 5 5 5 5 5 5 5 5 5 5 5 5 5 5 5 5 5 5 5 5 5 5 5 5 5 5 5 5 5 5 5 5 5 5 5 5 5 5 3 5 5 3 5 5 5 3 5 5 5 3 3 3 5 3 5 5 5 3 5 5 5 3 5 3 5 5 3 5 5 5 5 5 5 5 5 5 5 5 5 5 5 5 5 5 5 3 5 5 5 5 5 5 5 5 5 5 5 5 5 5 5 5 5 5 5 5 5 5 5 5 5 5 5 5 5 3 5 5 5 5 5 5 5 5 5 5 5 5 5 5 5 5 5 3 5 5 5 5 5 5 5 5 5 5 5 5 5 5 5 5 5 5 5 5 5 5 5 5 5 5 5 5 5 5 5 3 5 5 5 5 5 5 5 3 5 5 3 5 5 5 3 5 3 5 5 5 5 5 5 3 5 5 5 3 5 5 5 5 5 5 5 5 5 5 5 5 5 5 5 5 5 5 5 5 5 5 5 5 5 3 5 5 5 5 5 5 5 5 3 5 5 5 5 5 5 5 5 5 5 5 5 5 5 5 5 5 3 5 5 5 5 5 5 5 5 5 5 5 5 5 5 5 5 5 5 5 5 5 5 5 5 5 5 5 5 5 5 5 5 5 5 5 5 5 5 5 5 5 5 5 5 5 5 5 5 5 5 5 5 5 5 5 5 5 5 5 5 5 5 5 5 5 5 5 5 5 5 5 5 5 5 5 5 5 5 5 5 5 5 5 5 5 5 5 5 5 5 5 5 5 5 5 5 3 5 3 5 5 5 3 5 5 5 3 5 5 5 5 5 5 5 5 5 5 3 5 5 5 5 5 5 5 5 5 5 5 5 5 5 5 5 5 5 5 5 5 5 5 5 5 5 5 5 5 5 5 5 5 5 5 5 5 5 5 3 5 5 5 5 5 3 5 5 5 5 5 5 5 3 5 5 5 3 5 5 5 5 3 3 5 5 5 5 5 5 5 5 5 5 5 5 5 3 5 5 5 5 5 5 5 5 3 5 3 5 5 5 5 5 5 5 5 3 5 3 5 5 5 5 5 5 5 5 3 5 3 3 5 5 5 5 5 5 3 5 5 5 5 3 3 5 3 5 3 5 5 3 5 5 3 5 5 5 3 5 5 5 5 3 5 5 5 3 5 3 5 5 5 5 5 5 5 5 3 5 3 3 3 5 5 5 3 5 5 5 5 5 5 5 5 5 5 5 5 5 3 5 3 5 5 3 5 5 5 5 5 5 3 5 5 5 5 5 5 5 5 3 5 5 5 3 5 5 5 5 5 5 5 5 5 5 3 5 5 5 5 5 5 5 5 5 5 5 5 5 5 5 5 5 5 5 5 3 5 5 5 5 5 5 5 5 5 3 5 5 5 5 5 5 5 5 3 5 5 5 5 5 5 5 5 5 3 3 5 5 5 3 5 5 5 5 5 5 5 5 5 5 5 5 5 5 5 5 5 5 5 5 3 5 3 5 5 5 5 5 5 5 5 5 5 5 5 5 5 5 5 5 5 3 5 5 5 5 3 5 5 5 5 5 5 5 5 5 3 5 5 5 5 5 5 5 5 5 5 5 5 5 5 5 5 5 5 5 5 5 5 5 3 5 5 5 5 5 5 5 5 5 5 5 5 5 5 3 5 5 5 5 5 5 5 5 5 5 3 5 5 5 5 3 3 5 3 5 5 5 5 5 5 3 5 5 5 5 5 5 5 3 5 5 5 5 3 5 3 5 5 5 5 5 5 5 5 5 5 5 5 5 3 3 5 5 3 5 5 5 3 5 5 5 3 5 5 3 5 5 5 5 5 5 5 5 5 3 5 5 5 5 3 5 5 5 3 5 5 5 5 3 5 5 5 5 3 5 5 5 5 3 5 5 5 5 5 5 3 3 5 5 5 5 5 5 3 5 5 3 5 5 5 3 5 3 5 5 5 5 5 5 5 5 5 5 5 5 5 5 5 5 5 3 5 5 5 5 5 3 5 5 5 5 5 5 5 5 5 5 5 5 5 5 5 5 5 5 3 5 5 3 5 3 5 3 5 5 3 5 5 5 5 5 5 3 5 5 5 5 5 3 3 5 5 5 3 5 5 5 5 5 3 5 5 5 5 5 5 5 5 5 5 5 5 5 5 5 5 5 5 5 5 5 5 5 5 5 5 5 5 5 3 5 5 3 5 5 5 5 5 3 5 5 5 5 5 5 5 5 5 5 5 3 5 5 5 5 5 5 5 5 5 5 5 5 3 5 5 5 3 5 5 3 3 3 5 3 5 3 5 3 5 3 5 3 5 5 3 3 5 5 5 5 5 5 3 5 5 3 3 5 5 5 5 5 5 5 5 5 5 5 3 5 5 5 5 5 5 3 5 5 5 3 5 3 5 5 5 5 5 5 5 5 5 5 5 5 5 5 5 5 5 5 5 5 5 5 5 5 5 5 5 5 5 5 5 5 5 5 5 5 5 5 5 5 5 5 3 5 3 5 5 5 5 5 5 5 5 5 5 5 5 5 5 5 5 5 5 5 5 5 5 5 5 5 5 3 5 5 5 5 5 5 5 5 5 5 5 5 5 5 5 5 5 5 5 5 5 5 5 3 3 5 5 3 5 5 5 5 5 5 5 5 5 5 5 5 3 3 5 5 5 5 5 3 5 3 5 5 5 3 5 3 3 5 3 5 5 5 5 5 5 5 5 5 5 5 5 5 5 5 5 5 5 5 5 5 5 5 5 5 5 5 5 3 5 5 5 5 5 3 5 5 5 5 5 5 3 5 5 5 5 5 5 3 5 5 5 5 5 5 3 5 3 5 3 5 5 5 5 5 5 5 5 5 5 5 5 3 5 5 5 3 5 5 5 5 3 5 3 5 5 5 5 5 5 5 5 5 5 5 5 5 5 3 5 5 3 5 5 5 5 5 5 5 5 3 5 5 5 5 5 5 5 5 3 5 5 5 5 5 5 3 5 5 5 5 5 5 5 5 5 5 5 5 5 5 5 5 5 5 5 5 5 5 5 5 5 5 5 5 5 5 5 5 5 5 5 5 5 5 5 5 5 5 5 5 5 5 5 3 5 5 5 5 5 5 5 5 5 3 5 5 3 5 5 5 3 5 3 3 5 5 3 5 5 5 5 5 5 5 5 5 5 3 5 5 3 5 5 5 3 5 5 5 5 5 5 5 5 5 5 5 3 5 5 5 5 5 5 3 5 5 5 5 5 3 5 5 5 5 5 5 3 5 5 5 5 5 3 5 5 5 5 5 5 5 5 3 5 5 5 5 5 5 5 5 5 3 5 5 3 5 5 5 5 3 5 5 3 5 5 5 5 5 5 5 5 5 5 5 5 5 5 3 5 5 5 5 5 5 5 5 3 5 5 3 5 5 5 5 5 5 5 3 5 5 5 5 5 5 3 5 5 5 5 5 5 5 3 5 5 5 3 5 5 5 5 3 5 5 5 5 5 5 5 5 5 5 5 3 5 5 5 5 5 5 3 5 5 3 5 5 5 5 5 5 5 5 5 3 5 5 5 5 3 5 3 5 5 5 5 5 3 5 5 5 3 5 5 5 5 5 5 5 5 3 5 5 5 5 5 3 5 5 5 5 3 5 5 5 3 5 5 5 5 5 5 5 5 5 3 5 5 5 5 5 5 5 5 5 3 5 5 3 5 5 5 5 5 5 5 5 5 5 5 5 5 5 5 5 3 5 5 3 5 5 5 3 5 5 5 3 5 5 5 5 5 5 3 5 5 5 5 5 5 5 5 5 5 5 3 5 5 3 3 5 5 5 5 5 5 3 5 5 5 5 5 5 3 5 5 5 5 5 5 5 5 5 5 5 5 5 3 5 5 5 5 5 5 5 5 3 3 5 5 5 5 3 5 5 5 5 5 5 5 5 5 5 5 5 3 5 5 5 5 3 5 3 3 5 5 5 5 3 5 5 5 5 5 5 3 5 5 5 5 5 5 5 5 5 5 5 5 5 5 5 5 3 3 5 5 5 3 5 5 5 5 5 3 5 5 5 5 5 5 3 5 5 5 5 3 5 5 5 5 5 5 5 3 5 5 5 3 3 5 5 3 5 5 5 5 5 5 5 5 3 5 5 5 3 5 5 5 3 5 5 3 5 5 5 5 3 5 3 3 5 5 5 5 5 5 5 5 5 5 5 5 5 5 5 5 5 5 5 5 5 5 5 5 5 5 5 3 5 5 5 3 5 5 5 5 5 3 3 5 3 5 5 5 3 5 5 5 3 5 5 5 5 5 5 5 5 5 5 5 5 5 5 5 5 5 3 5 3 5 5 5 5 5 5 5 5 3 5 5 5 5 5 5 5 5 5 3 3 5 5 5 3 5 5 5 5 3 5 5 5 5 5 5 5 3 3 5 5 5 3 5 5 5 5 5 5 5 5 5 5 3 5 5 5 3 5 3 5 5 5 5 5 5 5 3 5 5 5 5 3 5 5 5 5 5 5 3 5 5 5 5 5 5 5 5 5 5 5 3 5 5 5 5 3 5 5 3 5 5 5 5 5 5 5 5 5 5 3 5 5 5 3 5 5 5 5 3 5 5 3 5 3 3 5 5 5 5 5 5 5 5 5 5 5 5 5 5 5 5 5 5 3 5 3 5 5 3 5 3 5 5 5 5 5 5 5 5 5 5 5 5 5 5 5 5 5 5 5 5 5 5 5 5 5 5 5 5 5 5 5 5 5 5 5 5 5 5 3 5 5 5 3 5 5 5 3 5 3 5 5 5 5 5 5 5 3 5 5 5 5 5 5 3 5 5 5 3 5 5 5 5 3 5 5 5 3 5 3 5 5 5 3 5 5 5 5 5 5 5 5 3 5 5 3 5 5 5 5 5 5 3 5 5 5 5 5 5 5 5 5 5 5 5 5 5 5 5 5 5 5 5 5 5 5 5 5 5 5 5 5 5 5 5 5 5 5 5 5 5 5 5 5 5 5 5 3 5 5 5 5 5 5 5 3 5 5 5 5 5 5 3 5 5 5 5 5 3 5 5 3 5 5 5 5 5 5 3 5 5 5 3 5 5 5 3 5 5 5 5 5 5 3 5 5 5 5 5 5 5 5 5 5 5 5 5 5 5 3 5 3 5 3 5 3 3 5 3 5 5 3 5 5 5 5 3 5 5 3 3 5 5 5 5 5 5 5 3 5 3 5 5 5 5 3 3 5 5 3 5 5 5 5 5 5 5 5 3 5 3 5 5 5 5 3 5 5 5 3 3 5 5 5 5 5 5 5 5 5 5 5 5 3 5 5 5 5 5 5 3 5 5 5 5 3 5 5 5 5 5 5 5 5 5 5 5 5 5 5 5 5 3 5 3 5 5 5 5 3 3 5 3 5 5 3 5 5 5 3 5 5 5 3 5 3 5 5 5 5 5 3 5 3 5 3 5 5 5 3 5 5 3 5 5 5 5 5 5 5 5 5 5 5 3 5 5 5 5 3 5 5 5 5 5 5 3 3 5 5 5 3 5 3 3 5 5 5 3 5 5 5 5 5 3 5 5 5 5 5 5 5 5 5 3 5 5 3 5 5 5 5 5 5 5 3 5 5 3 3 5 5 5 3 5 3 5 5 3 5 5 3 3 5 5 5 3 5 3 5 3 5 5 5 5 5 5 5 3 3 5 5 5 5 5 5 5 5 3 5 5 5 5 5 5 5 5 5 5 5 5 5 5 5 3 5 5 5 5 5 5 5 5 3 5 5 5 5 5 5 5 3 5 5 5 5 5 5 5 5 5 5 5 5 5 5 3 5 5 5 5 5 5 5 5 3 5 5 5 5 3 5 5 5 5 5 5 5 5 5 5 5 5 5 5 5 3 5 5 5 5 3 5 3 5 5 5 5 3 5 5 5 5 3 5 3 5 5 5 5 5 5 5 5 3 5 5 3 3 5 5 5 3 3 5 3 3 5 5 5 5 3 5 3 5 5 5 3 5 5 3 5 5 3 5 3 5 3 5 5 5 5 5 5 3 3 5 5 3 3 3 3 5 3 3 5 3 5 5 5 3 3 5 5 3 5 5 5 3 5 5 5 3 5 3 5 5 3 5 5 5 5 5 3 5 5 5 5 5 5 5 5 5 5 5 5 5 3 5 5 3 5 5 5 5 5 5 5 5 5 5 5 5 5 5 5 5 5 5 5 5 5 5 5 5 3 5 5 5 5 5 3 5 5 5 5 5 5 5 5 5 5 5 5 5 5 5 5 3 5 5 5 5 5 5 3 5 5 5 5 5 3 5 5 3 3 5 5 5 5 5 5 5 5 5 5 5 5 5 5 5 5 5 5 5 5 3 5 5 5 5 5 3 5 5 3 5 3 5 5 3 3 3 5 5 3 5 5 5 5 5 3 5 5 5 5 5 5 5 5 5 5 5 5 5 3 5 5 5 5 5 5 5 3 5 5 5 5 3 5 5 3 5 5 5 5 5 5 5 5 5 5 5 5 3 5 5 5 5 3 5 5 5 5 5 5 5 5 3 5 3 5 3 5 5 5 5 5 5 5 5 5 5 5 5 5 5 5 5 5 5 5 5 5 5 5 5 3 5 5 5 3 5 5 5 5 5 5 3 5 5 3 5 3 5 3 5 5 5 5 5 5 5 5 5 5 5 5 5 5 5 3 5 5 5 5 5 5 5 5 5 5 5 5 3 5 5 5 5 5 5 5 5 3 5 5 5 5 3 5 5 5 5 3 5 5 5 3 5 5 5 5 3 5 5 3 5 5 5 5 3 5 5 5 5 5 5 5 5 5 5 3 5 5 5 5 3 3 5 5 5 5 5 5 5 5 5 5 5 5 5 5 5 5 5 5 5 5 5 5 5 5 5 5 5 5 5 5 5 3 5 5 5 5 5 5 5 5 5 5 5 5 5 5 5 5 5 5 5 3 5 5 5 5 5 5 5 5 5 5 5 5 5 5 5 5 5 5 5 5 5 5 5 5 5 5 5 5 5 5 3 5 5 5 3 5 5 5 5 5 5 5 3 5 5 5 5 5 5 5 5 3 5 5 3 5 5 5 5 5 5 5 3 5 5 5 5 3 5 3 3 3 5 5 5 3 5 5 5 5 5 3 3 5 5 5 3 5 5 5 5 3 5 5 5 5 5 5 5 5 5 5 5 5 5 5 5 5 5 5 3 5 5 3 3 5 3 5 3 5 5 3 5 3 3 5 5 5 3 5 5 5 5 3 5 5 5 5 5 3 5 5 5 5 3 5 3 5 5 5 5 5 5 5 5 5 3 5 5 3 5 5 5 5 5 5 5 5 5 3 5 5 5 3 5 5 5 5 5 5 5 5 5 5 5 5 5 3 5 5 5 5 3 5 5 5 5 5 5 5 5 5 5 5 5 5 5 5 5 5 5 3 5 5 5 3 3 5 5 5 5 3 5 5 3 5 5 5 3 5 3 5 5 3 5 5 5 3 3 5 3 5 5 3 5 5 5 3 3 5 5 5 5 5 3 3 5 5 3 3 3 5 5 3 5 5 5 5 5 5 5 5 5 5 5 3 5 5 5 5 5 3 3 5 3 5 5 5 5 5 5 5 3 3 5 5 3 5 5 5 5 5 5 5 3 5 5 5 5 5 5 5 5 5 3 3 5 5 3 5 5 5 5 5 5 3 5 3 5 5 5 5 3 3 5 3 5 5 5 3 5 5 5 5 5 5 5 5 5 3 5 3 5 5 5 5 5 5 5 5 3 5 5 5 5 5 3 5 5 5 5 5 5 5 5 5 5 5 5 5 5 3 5 5 5 5 3 5 5 5 5 5 5 5 5 5 5 5 5 5 5 5 5 3 5 5 5 5 5 5 5 3 5 5 5 3 5 5 5 5 5 3 3 5 5 5 5 5 5 3 5 5 3 5 3 5 3 5 3 3 5 3 5 5 3 5 3 5 5 5 5 3 5 5 5 5 3 5 5 3 5 3 5 5 3 5 5 5 3 5 5 3 3 5 5 5 3 5 5 5 5 5 5 5 5 3 5 5 5 5 5 5 5 3 5 5 5 5 5 3 5 5 5 5 3 5 5 5 3 3 5 5 5 5 5 5 5 5 3 5 5 5 5 5 5 5 5 3 5 5 5 3 5 5 5 5 5 5 5 5 5 5 5 5 5 5 3 5 5 5 5 5 5 5 5 5 5 3 5 5 5 5 5 5 5 5 5 5 5 5 5 5 5 3 5 5 3 3 5 5 5 5 5 3 3 5 5 5 5 5 5 5 5 5 5 5 5 5 5 5 5 5 3 5 5 5 5 3 5 5 3 3 3 3 5 3 5 5 5 5 3 5 5 3 5 5 5 5 5 5 5 5 5 5 3 5 5 5 5 5 5 5 3 5 5 3 5 5 5 5 5 5 5 5 5 5 5 3 5 5 5 5 5 5 5 5 5 5 5 5 5 5 5 5 5 5 3 5 5 5 5 5 5 5 3 5 5 5 3 5 5 3 5 5 5 3 5 5 5 5 5 5 5 5 5 5 5 5 5 5 5 5 5 5 5 5 5 5 5 5 5 5 5 5 3 5 5 5 5 5 5 5 5 5 5 5 5 5 5 5 5 5 5 5 5 3 5 5 5 5 5 5 5 5 5 5 5 3 3 5 5 5 5 5 3 5 3 5 5 5 5 5 5 5 5 5 5 3 5 5 3 5 5 5 5 5 5 5 5 3 5 3 5 5 5 5 5 5 5 5 5 5 5 5 5 5 5 5 5 5 3 5 5 5 5 5 3 5 5 5 5 3 5 5 5 3 5 3 5 5 5 5 5 5 5 5 5 5 5 5 5 3 5 5 5 5 5 3 5 5 5 3 3 5 5 5 5 5 3 5 3 5 3 3 5 5 3 5 3 5 3 5 5 3 5 5 3 5 5 5 5 5 3 5 5 3 5 5 5 5 5 5 5 5 5 5 5 3 3 5 5 5 3 5 5 5 5 5 5 3 5 5 5 3 5 5 5 5 5 5 5 5 5 5 5 5 5 5 5 5 5 5 5 5 3 5 5 5 5 5 5 5 5 5 5 3 5 5 5 5 5 5 5 5 3 5 5 5 5 5 5 5 3 5 5 5 5 3 5 5 5 3 5 3 5 3 3 5 3 5 5 3 5 3 5 5 3 5 5 5 5 3 5 5 5 3 5 5 5 5 5 5 5 5 5 3 3 5 3 5 5 5 3 5 3 5 3 5 5 3 5 5 3 5 3 5 5 5 3 5 5 5 5 3 3 5 5 5 5 5 5 5 5 3 5 3 3 5 5 3 5 5 5 5 5 3 5 5 3 5 3 5 5 5 5 5 5 5 5 5 3 5 3 5 5 5 3 5 5 5 5 3 5 5 3 5 5 5 5 5 5 5 5 5 5 5 5 5 5 5 5 5 5 5 5 5 5 5 5 5 5 5 5 5 5 5 5 5 5 5 5 5 5 5 5 5 5 5 5 5 5 5 5 5 5 3 5 3 5 5 5 5 5 5 5 5 5 5 5 3 5 5 5 5 5 5 3 5 3 5 5 3 5 5 5 3 5 3 5 5 5 5 3 5 3 5 5 3 5 5 3 5 5 3 5 5 5 5 3 5 5 5 5 5 5 5 5 3 5 5 5 5 3 5 5 3 5 5 5 5 3 5 3 5 5 5 5 5 5 5 5 5 5 5 5 5 5 5 5 5 5 5 5 5 5 5 5 5 5 5 5 5 5 5 5 5 5 3 5 5 5 3 5 5 5 3 3 5 5 5 5 3 5 5 5 5 5 5 5 3 5 5 3 5 5 5 5 5 5 5 5 5 5 5 5 5 5 5 5 5 5 5 5 5 5 5 5 5 5 5 5 3 5 5 3 5 5 3 5 5 5 5 5 3 3 5 5 3 5 5 3 3 5 3 5 5 5 5 5 5 5 3 5 5 5 5 3 5 5 5 5 5 5 5 5 5 5 3 5 5 5 5 5 5 5 5 5 5 3 5 3 5 5 5 5 5 5 5 5 5 5 5 5 3 5 5 3 5 5 3 5 5 5 5 5 5 5 5 5 5 5 5 5 5 3 5 5 5 3 5 5 5 3 5 5 5 5 5 3 5 5 3 3 5 5 3 5 3 5 5 5 5 3 5 5 5 5 3 5 5 5 3 5 5 5 5 5 3 5 5 5 5 5 5 3 5 5 5 5 3 5 5 5 5 5 5 3 5 5 5 5 5 5 5 3 5 5 5 3 3 5 5 5 3 3 5 5 5 5 5 3 5 5 5 5 3 5 5 3 5 5 5 5 5 5 5 5 3 5 5 5 5 3 5 3 5 5 5 5 3 3 5 5 5 5 5 3 3 5 5 5 5 5 5 5 5 5 5 5 5 5 5 3 5 3 5 5 5 5 5 5 5 5 5 5 5 3 5 5 5 3 3 5 5 5 3 5 5 3 5 5 5 5 5 3 5 5 3 5 5 5 3 5 5 5 3 5 5 5 5 5 5 5 5 3 5 5 5 5 5 3 5 5 5 5 5 5 5 5 5 3 5 3 5 5 5 5 5 5 5 5 5 5 3 5 5 5 5 5 5 5 5 5 5 5 5 5 5 5 5 5 5 5 5 5 5 5 5 5 5 5 5 5 5 5 5 5 5 5 5 5 5 5 3 5 5 5 5 5 5 5 5 5 5 5 5 5 5 5 3 5 5 5 3 5 5 5 5 5 3 5 5 5 5 5 5 5 5 5 5 5 5 3 5 5 5 5 5 5 5 5 5 5 5 5 5 5 5 5 5 5 5 5 3 5 5 5 5 5 5 5 5 5 5 5 5 5 5 5 5 5 5 5 5 3 3 5 5 5 5 5 3 5 5 5 5 5 5 5 5 5 5 5 5 5 5 5 5 5 5 5 5 5 5 5 5 5 5 5 5 3 5 3 5 5 5 3 5 5 5 5 5 5 5 5 5 5 5 5 3 5 5 5 5 5 5 5 5 3 5 5 5 3 5 5 5 5 5 5 5 3 5 3 5 5 5 5 5 5 5 5 5 5 5 5 5 5 5 5 5 5 3 5 5 5 5 5 5 5 3 5 5 5 3 5 5 5 5 5 5 3 5 5 5 5 5 5 5 5 5 3 5 5 5 5 5 5 5 5 5 5 5 5 5 5 5 5 3 5 3 5 5 5 5 5 5 5 5 5 5 3 5 5 5 3 5 5 5 5 5 5 5 5 5 5 5 5 5 5 5 5 5 5 5 5 5 3 5 5 5 5 5 5 5 3 5 5 5 5 5 5 5 5 5 5 3 5 5 5 5 5 5 5 5 5 5 3 5 5 3 5 3 5 5 5 5 5 3 5 5 5 5 5 5 5 5 5 5 5 5 5 5 3 5 5 5 5 5 5 5 5 5 5 5 5 5 5 5 5 5 5 5 5 5 5 5 5 5 5 5 5 5 3 5 5 5 5 5 5 5 5 5 5 5 5 5 5 5 5 5 5 5 5 5 3 5 5 5 5 5 5 5 5 5 5 5 3 5 3 3 5 5 5 3 5 5 3 5 5 3 5 5 5 5 5 5 5 5 5 5 5 5 5 5 5 3 5 5 5 3 5 5 5 5 5 5 5 5 5 5 5 5 5 5 5 5 5 5 5 5 5 3 5 5 5 5 5 5 5 3 5 5 5 5 5 5 5 5 5 5 5 3 5 5 5 3 5 5 5 3 5 5 5 5 5 5 5 5 5 5 5 5 3 5 5 3 5 5 5 3 5 5 5 3 5 5 5 5 5 5 3 5 5 3 5 5 5 5 3 5 5 5 3 5 3 3 5 5 5 5 5 3 5 5 3 5 5 3 5 5 5 5 5 5 3 5 5 5 3 5 3 5 5 3 5 5 5 3 5 5 5 5 5 5 3 3 5 5 5 3 5 5 3 5 5 3 5 5 5 5 5 5 5 5 3 3 3 5 5 5 3 5 3 5 5 3 5 5 3 5 5 3 5 5 5 5 5 3 5 5 5 3 3 5 3 5 5 5 5 5 5 5 5 5 5 5 3 5 5 5 5 3 5 5 5 5 5 5 5 5 5 5 5 3 5 5 5 5 3 5 3 5 5 5 5 5 5 5 5 5 5 5 5 5 5 5 5 5 5 5 5 3 5 5 5 5 5 3 3 5 5 5 5 5 3 5 5 5 5 5 5 5 5 5 5 5 3 5 5 5 5 3 5 3 5 5 5 3 5 5 5 3 5 5 5 5 5 5 3 3 5 5 5 3 3 5 5 5 3 3 5 5 5 5 5 5 5 3 5 5 5 3 5 5 5 5 5 5 5 5 3 5 5 5 5 5 5 5 3 3 5 5 5 3 5 5 5 5 5 5 3 5 3 5 5 5 5 3 5 5 5 5 5 5 5 5 5 5 5 3 5 5 5 5 5 5 5 5 5 5 5 3 5 5 5 5 5 3 5 5 3 5 5 5 5 3 5 5 5 3 5 5 3 3 3 5 5 5 3 5 5 5 5 5 5 5 5 5 5 3 5 5 3 5 5 3 5 5 5 5 5 5 3 5 5 5 5 5 5 5 5 5 3 5 5 5 5 5 5 5 5 5 5 5 5 5 5 5 5 5 5 3 5 5 5 5 5 3 3 5 3 5 5 5 3 5 3 5 5 5 5 5 5 5 5 5 5 5 5 5 3 3 5 5 5 5 3 5 5 5 3 5 5 5 5 5 5 5 5 5 5 5 5 5 5 5 5 5 5 5 5 5 5 5 5 5 5 5 5 5 5 5 5 5 3 5 5 5 5 5 5 5 5 5 5 5 5 5 3 5 5 5 3 5 5 5 5 5 3 5 5 5 5 5 5 3 5 5 5 5 5 5 3 5 5 5 5 5 3 3 5 5 5 5 5 3 5 5 5 5 5 3 5 5 5 5 5 5 5 5 5 5 5 5 5 5 5 5 5 5 5 5 5 5 5 5 5 5 3 3 5 5 5 5 5 5 5 3 5 5 5 5 5 5 5 5 5 5 5 5 5 5 5 5 5 5 5 5 5 5 5 5 5 5 5 5 5 5 5 5 5 5 5 5 5 5 5 5 5 3 5 5 5 3 3 5 5 5 5 5 5 5 5 5 5 3 5 5 5 3 5 5 5 5 5 5 5 5 3 5 5 3 5 5 5 5 5 5 3 5 5 3 5 5 5 5 3 5 3 5 3 5 5 3 5 5 5 5 5 5 5 5 5 5 5 5 3 5 5 5 5 5 5 5 5 5 5 5 5 5 5 5 5 3 3 5 3 5 5 5 3 5 5 5 5 5 3 5 5 5 3 5 5 3 5 5 3 5 5 3 5 5 5 3 5 5 5 5 5 5 3 5 5 3 5 5 5 5 5 3 5 5 3 5 5 3 3 5 3 5 5 5 5 5 5 5 5 3 5 5 5 5 5 3 5 5 5 5 5 5 5 5 5 5 5 5 5 3 3 5 5 5 3 5 5 5 5 5 5 5 5 5 5 5 5 3 5 5 5 3 5 5 5 3 5 5 5 5 5 5 3 5 5 5 5 5 5 5 3 5 5 5 5 5 5 5 5 3 5 3 5 5 5 5 5 5 5 5 5 5 3 5 5 5 3 3 5 5 5 5 5 5 5 5 5 5 5 5 5 5 5 5 5 5 5 5 5 5 5 5 5 5 5 3 5 5 3 5 5 5 5 5 5 5 5 5 5 5 5 5 5 5 5 5 3 3 5 5 3 5 3 5 5 3 5 5 5 3 3 3 5 5 5 5 5 5 5 5 5 5 5 5 5 5 5 5 5 5 5 5 5 5 5 3 5 5 5 5 5 5 5 5 3 5 5 3 5 5 5 5 5 5 5 5 5 3 3 5 5 5 5 5 5 5 5 5 5 3 5 5 5 5 5 5 5 3 5 5 3 5 5 5 5 5 5 5 5 3 5 5 5 5 5 5 5 5 5 5 5 3 5 5 5 5 5 5 5 5 5 3 3 5 5 5 5 5 5 3 5 5 5 5 3 5 5 5 5 5 3 5 5 5 5 5 5 3 5 5 5 3 5 5 5 5 5 5 5 5 5 5 5 5 5 5 5 5 5 5 5 5 3 5 5 5 3 5 5 5 5 3 5 5 3 5 5 5 5 5 5 5 5 5 5 5 5 5 5 5 5 5 5 5 5 5 5 5 5 5 5 5 5 5 5 3 5 5 5 5 5 5 5 5 3 3 5 5 5 5 5 5 5 5 5 5 5 5 5 5 5 5 5 5 5 3 5 5 5 3 5 5 5 5 3 5 3 3 5 5 5 5 5 3 5 5 5 5 5 5 5 5 3 5 5 5 5 5 5 5 5 5 5 3 5 5 5 5 3 5 5 5 5 5 5 5 5 5 5 5 5 5 5 5 5 3 5 5 3 5 5 3 5 5 5 5 3 3 5 5 5 5 5 5 5 5 3 5 3 5 5 3 3 5 5 5 5 3 5 5 5 5 5 5 3 5 5 5 5 3 5 5 5 5 5 5 5 5 5 3 3 5 5 3 5 5 5 5 5 5 5 5 5 5 5 5 5 5 5 5 5 5 5 5 5 5 5 5 5 3 5 5 5 5 5 3 5 5 5 5 3 5 5 5 5 3 5 5 3 5 5 5 5 5 5 5 5 5 5 5 5 5 5 3 5 5 5 3 5 5 5 5 5 5 5 5 5 5 5 5 5 5 5 5 5 5 5 5 5 3 5 5 5 5 5 5 5 3 5 5 5 5 5 5 5 5 5 5 5 5 5 3 5 5 3 5 5 5 5 5 3 5 5 5 5 3 3 3 5 5 5 5 3 5 5 5 5 5 3 5 5 5 5 5 3 5 3 5 5 5 5 3 5 3 5 5 5 5 3 5 5 5 5 5 5 3 5 5 5 5 5 5 3 5 5 5 5 5 5 5 5 5 5 5 5 5 5 5 5 5 5 5 5 5 5 5 5 5 5 5 5 5 5 3 5 5 5 3 3 5 5 5 5 3 5 3 3 5 5 3 5 5 3 5 3 5 5 5 5 5 5 3 5 5 3 5 5 5 5 5 5 5 3 5 5 5 5 3 5 5 5 5 3 5 5 5 5 5 3 5 5 5 3 5 5 5 5 5 5 5 5 3 5 5 5 5 5 5 5 5 5 5 5 5 5 5 5 5 5 5 5 5 3 5 5 5 5 5 5 5 3 3 5 5 5 5 3 5 5 5 5 5 5 5 5 5 3 5 5 5 5 3 5 5 5 5 5 5 5 5 5 5 5 5 5 3 5 5 5 5 5 3 5 5 5 5 5 5 5 5 5 5 5 5 5 5 5 5 5 5 3 5 5 5 5 5 5 5 5 5 5 5 5 5 5 5 5 5 5 5 5 5 5 5 5 5 5 3 5 5 3 5 5 5 5 5 5 5 3 5 5 5 3 5 5 5 5 5 5 3 5 5 5 5 5 5 5 5 5 5 5 5 5 5 5 5 5 5 5 5 5 5 5 3 3 5 3 5 5 5 5 5 5 5 3 5 5 3 5 5 5 5 5 5 5 5 5 5 5 5 5 5 3 5 5 5 5 5 3 5 5 5 3 5 3 5 3 5 5 3 5 5 5 5 5 5 5 5 5 5 5 5 3 5 5 3 3 5 5 5 5 3 3 5 5 5 3 5 5 5 5 5 5 5 5 3 5 5 5 3 5 5 5 5 5 5 5 5 5 5 5 5 5 5 5 5 5 5 5 5 5 5 5 3 5 5 5 5 5 5 5 5 5 5 5 5 3 5 5 3 5 5 5 5 5 5 5 5 5 3 5 5 5 5 5 5 5 3 5 5 5 5 5 5 5 5 5 5 5 5 5 5 5 3 5 5 5 5 3 5 5 5 3 5 3 5 5 3 5 3 5 5 3 5 3 5 5 5 5 5 5 5 5 5 5 5 5 5 5 5 5 5 5 5 5 5 5 5 5 5 5 5 5 5 5 5 5 5 5 5 5 5 5 3 5 5 5 5 5 5 5 3 5 5 3 5 5 3 5 5 3 5 5 5 5 3 5 5 3 5 5 5 3 3 5 3 5 3 3 5 5 5 5 5 5 5 5 5 5 5 5 5 3 5 5 3 3 5 5 3 5 5 5 5 3 5 5 3 5 5 3 5 5 5 5 5 5 3 5 5 3 5 5 5 5 5 5 5 3 5 5 5 5 5 5 5 5 5 5 5 5 5 5 5 5 5 5 5 5 5 5 5 5 5 5 5 5 5 5 5 5 5 3 5 5 5 3 5 3 5 5 5 5 5 5 5 5 5 5 5 5 5 5 5 5 5 3 3 5 5 5 5 5 3 3 5 5 5 5 5 3 5 3 5 5 5 3 5 5 3 5 5 5 3 5 5 5 3 5 5 5 5 5 5 5 5 5 5 3 5 5 5 5 5 5 5 5 5 5 5 5 5 5 5 5 5 5 5 5 5 5 5 5 5 3 5 5 5 5 5 5 3 5 5 5 5 3 5 5 5 5 5 5 5 5 3 5 5 5 5 5 5 3 5 3 5 5 3 5 5 5 5 5 5 5 5 5 3 5 3 5 5 5 5 5 5 5 3 5 5 3 5 5 5 5 5 5 5 3 5 5 5 5 3 5 5 5 5 5 5 5 5 5 5 5 5 5 5 5 5 5 5 5 5 5 5 5 5 3 5 5 5 5 5 5 5 3 5 5 3 5 5 5 5 5 5 5 5 5 5 5 5 3 5 5 5 5 5 5 3 5 5 5 5 5 5 5 5 5 5 5 5 5 5 5 5 5 5 5 3 3 5 5 5 5 5 5 5 5 5 3 5 5 5 5 3 5 5 3 3 5 5 5 5 5 5 5 5 5 5 5 5 5 5 5 5 3 5 5 5 3 3 5 5 3 5 5 3 5 5 5 5 5 3 5 3 5 5 5 5 3 5 3 5 5 5 3 5 3 5 5 5 5 3 5 5 5 5 5 5 3 5 5 5 5 5 5 5 5 5 5 5 5 5 5 5 5 5 5 3 5 5 3 5 5 5 3 5 5 5 5 5 5 5 5 5 5 5 5 5 5 3 5 3 5 5 5 5 5 3 5 5 3 5 3 5 5 5 5 5 5 5 5 3 5 5 5 3 5 5 5 3 5 5 3 5 5 5 5 5 5 5 5 5 5 5 5 5 5 5 3 5 5 3 5 5 5 5 5 5 5 5 5 5 5 5 5 5 5 3 5 5 5 5 5 5 5 3 5 5 5 5 3 5 5 5 5 5 5 5 5 5 5 5 5 5 5 5 5 5 5 5 5 3 5 5 5 5 5 5 5 3 5 5 5 5 5 5 5 5 5 5 3 5 5 5 5 5 5 5 3 5 5 3 5 5 3 5 5 3 5 5 5 5 5 5 5 5 3 5 5 3 5 3 5 5 5 5 5 5 3 5 5 5 5 5 5 5 5 5 5 5 5 5 5 5 5 5 5 5 5 5 5 5 5 5 5 5 5 5 5 5 5 5 5 3 5 5 5 5 5 5 5 5 5 5 5 5 5 5 5 5 5 5 5 5 5 5 5 5 5 5 5 5 5 5 5 5 5 5 5 5 5 5 5 5 5 5 5 5 5 5 5 5 5 5 5 5 5 5 5 5 5 5 5 5 5 5 5 5 5 5 5 5 5 5 5 5 5 5 5 5 5 5 5 5 5 5 5 5 3 5 5 5 5 5 5 5 3 5 5 3 5 5 5 5 5 5 5 5 3 5 5 5 5 5 5 5 5 5 5 5 5 5 5 5 5 5 3 5 5 3 5 5 5 5 5 5 5 5 5 3 5 5 5 5 5 5 5 3 5 5 5 5 5 5 5 5 5 3 3 5 5 5 5 5 5 5 5 3 5 5 3 5 5 5 3 3 5 3 5 5 5 5 5 5 3 3 5 5 5 5 5 5 5 5 5 3 5 3 5 5 5 5 3 5 5 3 5 3 5 5 5 3 5 3 5 3 5 5 3 5 5 5 3 3 5 5 5 3 5 5 5 5 5 3 3 3 5 5 5 3 5 5 5 5 5 5 5 5 5 5 5 5 5 5 5 5 5 5 5 5 5 5 5 5 5 5 3 5 5 5 5 3 5 5 5 5 5 3 5 5 5 5 3 5 5 5 5 5 5 5 5 5 5 5 5 5 5 5 5 5 5 5 5 5 5 5 5 5 5 5 3 5 5 5 5 5 5 5 5 5 5 5 5 5 5 5 5 5 5 5 3 5 3 5 5 5 3 5 5 5 5 5 5 5 5 5 3 5 3 3 5 5 3 5 5 3 5 5 3 5 5 5 5 5 5 5 5 5 5 5 5 5 5 3 5 5 5 5 5 5 5 5 5 5 5 3 5 5 5 5 5 5 3 5 5 5 5 3 5 5 5 3 5 5 5 5 3 5 5 5 5 5 5 5 5 3 5 5 5 5 5 5 5 5 5 3 5 3 5 5 5 5 5 5 5 5 5 5 5 3 5 5 5 5 5 5 5 5 5 5 5 5 5 5 5 3 3 5 5 5 5 5 5 5 5 5 5 5 5 5 5 5 5 5 5 5 5 5 5 5 5 5 5 5 5 5 5 5 5 5 5 5 5 3 5 5 5 5 5 5 5 5 5 5 5 5 5 5 5 3 5 5 5 5 5 5 5 5 5 5 5 5 5 3 3 5 5 5 5 5 5 5 5 5 5 5 5 5 5 5 5 5 5 5 3 5 5 3 5 5 5 5 5 5 5 5 5 5 3 5 5 5 5 5 5 5 5 5 5 3 5 5 5 5 5 3 3 5 5 3 5 5 5 5 5 5 5 5 3 5 5 5 5 5 5 5 5 3 5 3 5 5 5 5 3 5 3 5 5 5 5 3 5 3 5 3 5 5 3 5 5 5 3 5 5 3 5 5 3 5 5 5 3 5 5 5 5 5 5 3 5 3 5 5 5 3 5 5 5 5 5 5 5 5 3 5 5 5 5 5 5 3 5 5 3 5 5 5 3 5 5 3 5 5 3 5 5 5 3 5 3 5 3 5 5 5 5 5 5 5 5 5 5 5 5 5 5 5 5 5 5 5 5 5 5 5 5 5 5 5 3 5 5 5 3 5 5 5 5 5 5 5 3 5 5 5 3 5 5 5 3 5 5 5 5 5 5 5 5 3 5 5 5 5 3 5 5 5 5 5 5 5 5 5 5 5 5 5 5 5 5 5 5 5 5 5 5 5 5 3 5 5 5 5 5 5 5 5 5 5 5 3 5 5 5 5 5 5 5 5 5 5 5 5 5 5 5 5 5 5 5 5 5 5 5 5 3 3 5 5 3 5 5 5 5 5 5 5 5 5 5 5 5 5 3 5 5 5 5 5 5 5 5 3 5 5 5 5 5 5 5 5 5 5 5 5 5 5 5 5 5 3 5 5 3 5 5 5 5 3 3 5 5 5 5 5 5 5 5 3 5 5 5 5 3 5 5 5 3 5 5 5 5 5 5 5 3 5 5 5 5 3 5 5 5 
</DataArray>
</Cells>
<PointData Scalars="" Vectors="displacement," Tensors="">
<DataArray type="Float64" Name="displacement" NumberOfComponents="3" format="ascii">
-0.04999635256438266 -0.049997289182395328 0 -0.048079108387668407 -0.049449827790689738 0 -0.046256603097742023 -0.049997151914612875 0 -0.04999635256438266 -0.049997289182395328 0 -0.04898089036210538 -0.04838672954083878 0 -0.049997886738719716 -0.045615481769260176 0 -0.04999635256438266 -0.049997289182395328 0 -0.048079108387668407 -0.049449827790689738 0 -0.04898089036210538 -0.04838672954083878 0 -0.048079108387668407 -0.049449827790689738 0 -0.04898089036210538 -0.04838672954083878 0 -0.047397407030717167 -0.049393768082435473 0 -0.04898089036210538 -0.04838672954083878 0 -0.049997886738719716 -0.045615481769260176 0 -0.049339241491386028 -0.047050360490372214 0 -0.049997886738719716 -0.045615481769260176 0 -0.049339241491386028 -0.047050360490372214 0 -0.049532567153586601 -0.046627330343812529 0 -0.04898089036210538 -0.04838672954083878 0 -0.049339241491386028 -0.047050360490372214 0 -0.049467859587587364 -0.047613275788585666 0 -0.04943808478820913 -0.047228348375973075 0 -0.049339241491386028 -0.047050360490372214 0 -0.049429344636632074 -0.047058679075396077 0 -0.04943808478820913 -0.047228348375973075 0 -0.049339241491386028 -0.047050360490372214 0 -0.049467859587587364 -0.047613275788585666 0 -0.04943808478820913 -0.047228348375973075 0 -0.049429344636632074 -0.047058679075396077 0 -0.049578273764673976 -0.047287814597965473 0 -0.049339241491386028 -0.047050360490372214 0 -0.049394248380101896 -0.046901418537198508 0 -0.049532567153586601 -0.046627330343812529 0 -0.049394248380101896 -0.046901418537198508 0 -0.049429344636632074 -0.047058679075396077 0 -0.049365700577227424 -0.047052226340588768 0 -0.049339241491386028 -0.047050360490372214 0 -0.049394248380101896 -0.046901418537198508 0 -0.049429344636632074 -0.047058679075396077 0 -0.049394248380101896 -0.046901418537198508 0 -0.049365700577227424 -0.047052226340588768 0 -0.049532567153586601 -0.046627330343812529 0 -0.049429344636632074 -0.047058679075396077 0 -0.04936210611232128 -0.047030231614458622 0 -0.049552167238248519 -0.047088645659688268 0 -0.049429344636632074 -0.047058679075396077 0 -0.049365700577227424 -0.047052226340588768 0 -0.04936210611232128 -0.047030231614458622 0 -0.049365700577227424 -0.047052226340588768 0 -0.049369354560745829 -0.047177839142371239 0 -0.049572348347899427 -0.047177865711001105 0 -0.050329262821382073 -0.044138584558346509 0 -0.050149031847622184 -0.044187152853019759 0 -0.050323351081206696 -0.04399227190792749 0 -0.050172259836469495 -0.044580443965174195 0 -0.050771795451136019 -0.042630120704849922 0 -0.049951961695998338 -0.044432492149651191 0 -0.050172259836469495 -0.044580443965174195 0 -0.049951961695998338 -0.044432492149651191 0 -0.050771795451136019 -0.042630120704849922 0 -0.049934254725520488 -0.04498573668410033 0 -0.049951961695998338 -0.044432492149651191 0 -0.049999996097304947 -0.045607269301093038 0 -0.051081665966638649 -0.044157579231736771 0 -0.049999979251593822 -0.042746793082371497 0 -0.051392315908519684 -0.044076125134218984 0 -0.051081665966638649 -0.044157579231736771 0 -0.051824748063776238 -0.043601631118577719 0 -0.049365700577227424 -0.047052226340588768 0 -0.049572348347899427 -0.047177865711001105 0 -0.049532567153586601 -0.046627330343812529 0 -0.050172259836469495 -0.044580443965174195 0 -0.050512889193278607 -0.044474847675598138 0 -0.049999758900534402 -0.045608089442228092 0 -0.050172259836469495 -0.044580443965174195 0 -0.049999996097304947 -0.045607269301093038 0 -0.051391377047840602 -0.044077224009020831 0 -0.051081665966638649 -0.044157579231736771 0 -0.049997886738719716 -0.045615481769260176 0 -0.049572348347899427 -0.047177865711001105 0 -0.049532567153586601 -0.046627330343812529 0 -0.049759219572915375 -0.047242942862539605 0 -0.049910698084771749 -0.047485157631906152 0 -0.050004740747744539 -0.047188391777627715 0 -0.049759219572915375 -0.047242942862539605 0 -0.050004740747744539 -0.047188391777627715 0 -0.049681540258758226 -0.046959974509519227 0 -0.04936210611232128 -0.047030231614458622 0 -0.049552167238248519 -0.047088645659688268 0 -0.049681540258758226 -0.046959974509519227 0 -0.049759219572915375 -0.047242942862539605 0 -0.049552167238248519 -0.047088645659688268 0 -0.049681540258758226 -0.046959974509519227 0 -0.049429344636632074 -0.047058679075396077 0 -0.049552167238248519 -0.047088645659688268 0 -0.049578273764673976 -0.047287814597965473 0 -0.049759219572915375 -0.047242942862539605 0 -0.049552167238248519 -0.047088645659688268 0 -0.049578273764673976 -0.047287814597965473 0 -0.049759219572915375 -0.047242942862539605 0 -0.049578273764673976 -0.047287814597965473 0 -0.049733697414826049 -0.047580663129776178 0 -0.04943808478820913 -0.047228348375973075 0 -0.049578273764673976 -0.047287814597965473 0 -0.049467859587587364 -0.047613275788585666 0 -0.049578273764673976 -0.047287814597965473 0 -0.049467859587587364 -0.047613275788585666 0 -0.049733697414826049 -0.047580663129776178 0 -0.049733697414826049 -0.047580663129776178 0 -0.049910698084771749 -0.047485157631906152 0 -0.049936666590740968 -0.047723223695815921 0 -0.049759219572915375 -0.047242942862539605 0 -0.049733697414826049 -0.047580663129776178 0 -0.049910698084771749 -0.047485157631906152 0 -0.049910698084771749 -0.047485157631906152 0 -0.049936666590740968 -0.047723223695815921 0 -0.05007127446043836 -0.047486761811845489 0 -0.049936666590740968 -0.047723223695815921 0 -0.049674318181930993 -0.048092934831834806 0 -0.049904859374344572 -0.048069382858801454 0 -0.048793296625934138 -0.048744433728350689 0 -0.046785373724539198 -0.049936354271001238 0 -0.049733697414826049 -0.047580663129776178 0 -0.049936666590740968 -0.047723223695815921 0 -0.049674318181930993 -0.048092934831834806 0 -0.049467859587587364 -0.047613275788585666 0 -0.049733697414826049 -0.047580663129776178 0 -0.049674318181930993 -0.048092934831834806 0 -0.04898089036210538 -0.04838672954083878 0 -0.049467859587587364 -0.047613275788585666 0 -0.049674318181930993 -0.048092934831834806 0 -0.048636131991245023 -0.048428056275348762 0 -0.048793296625934138 -0.048744433728350689 0 -0.048079108387668407 -0.049449827790689738 0 -0.047397407030717167 -0.049393768082435473 0 -0.046256603097742023 -0.049997151914612875 0 -0.047397407030717167 -0.049393768082435473 0 -0.046256603097742023 -0.049997151914612875 0 -0.047824311634772645 -0.049606769873646379 0 -0.046247498503035542 -0.049999995083886035 0 -0.04431453517545187 -0.05134557280967688 0 -0.043526236490888742 -0.049999988217440478 0 -0.046246632116199095 -0.050000769201521092 0 -0.046785373724539198 -0.049936354271001238 0 -0.04431453517545187 -0.05134557280967688 0 -0.043526236490888742 -0.049999988217440478 0 -0.042556645717777113 -0.050674818559321544 0 -0.043526236490888742 -0.049999988217440478 0 -0.042556645717777113 -0.050674818559321544 0 -0.040804928595121776 -0.050000000247788466 0 -0.044199487502699523 -0.051278931982416162 0 -0.043187291927260868 -0.051251794277093102 0 -0.042626523605505874 -0.050632364526280081 0 -0.046785373724539198 -0.049936354271001238 0 -0.042255452731041192 -0.050592448185057967 0 -0.043187291927260868 -0.051251794277093102 0 -0.042626523605505874 -0.050632364526280081 0 -0.041850112334105294 -0.051691662162104086 0 -0.042255452731041192 -0.050592448185057967 0 -0.040805736793370039 -0.050000283992823219 0 -0.042626523605505874 -0.050632364526280081 0 -0.040905527179022287 -0.051179352079978813 0 -0.041850112334105294 -0.051691662162104086 0 -0.042626523605505874 -0.050632364526280081 0 -0.040805025045666805 -0.049999862074570411 0 -0.040905527179022287 -0.051179352079978813 0 -0.04186976201877881 -0.053026466707790966 0 -0.040561564647472292 -0.052193844055067086 0 -0.040618756043671933 -0.053882155252076631 0 -0.040905527179022287 -0.051179352079978813 0 -0.041850112334105294 -0.051691662162104086 0 -0.040561564647472292 -0.052193844055067086 0 -0.041850112334105294 -0.051691662162104086 0 -0.04186976201877881 -0.053026466707790966 0 -0.040561564647472292 -0.052193844055067086 0 -0.043187291927260868 -0.051251794277093102 0 -0.041850112334105294 -0.051691662162104086 0 -0.04186976201877881 -0.053026466707790966 0 -0.044199487502699523 -0.051278931982416162 0 -0.043187291927260868 -0.051251794277093102 0 -0.042100671785748299 -0.052643275990823461 0 -0.046785373724539198 -0.049936354271001238 0 -0.044949757029148781 -0.050629812391668562 0 -0.049936666590740968 -0.047723223695815921 0 -0.049904859374344572 -0.048069382858801454 0 -0.050259273870359313 -0.047669658857434828 0 -0.042142938373846681 -0.052386940612659416 0 -0.044949757029148781 -0.050629812391668562 0 -0.0384753407672506 -0.050000005735271032 0 -0.039753072801455409 -0.051053545010769662 0 -0.038494924642984749 -0.052436201888903085 0 -0.0384753407672506 -0.050000005735271032 0 -0.038494924642984749 -0.052436201888903085 0 -0.036380654467800845 -0.050985833614596375 0 -0.040805025045666805 -0.049999862074570411 0 -0.0384753407672506 -0.050000005735271032 0 -0.039753072801455409 -0.051053545010769662 0 -0.040805025045666805 -0.049999862074570411 0 -0.040905527179022287 -0.051179352079978813 0 -0.039753072801455409 -0.051053545010769662 0 -0.040905527179022287 -0.051179352079978813 0 -0.039753072801455409 -0.051053545010769662 0 -0.040561564647472292 -0.052193844055067086 0 -0.039753072801455409 -0.051053545010769662 0 -0.040561564647472292 -0.052193844055067086 0 -0.038494924642984749 -0.052436201888903085 0 -0.040561564647472292 -0.052193844055067086 0 -0.038494924642984749 -0.052436201888903085 0 -0.040618756043671933 -0.053882155252076631 0 -0.039781512410181852 -0.049832912509138738 0 -0.039586619020388812 -0.050318171159435508 0 -0.03944214161247709 -0.049740763565458729 0 -0.039805027925172091 -0.049491449797423696 0 -0.039781512410181852 -0.049832912509138738 0 -0.03944214161247709 -0.049740763565458729 0 -0.039805027925172091 -0.049491449797423696 0 -0.039781512410181852 -0.049832912509138738 0 -0.040340123603917359 -0.049831263547761961 0 -0.038937725384901332 -0.051177891018177282 0 -0.04261421710353356 -0.049679984590364351 0 -0.039781512410181852 -0.049832912509138738 0 -0.040340123603917359 -0.049831263547761961 0 -0.039957499126196255 -0.050080775786233246 0 -0.043827568849852692 -0.047097833838622712 0 -0.043531871091896379 -0.047808431166763012 0 -0.044000521885450485 -0.047216312299926358 0 -0.04261421710353356 -0.049679984590364351 0 -0.041836154832776119 -0.048625207336107167 0 -0.043827568849852692 -0.047097833838622712 0 -0.043531871091896379 -0.047808431166763012 0 -0.043138040017566888 -0.047544897481920728 0 -0.043531871091896379 -0.047808431166763012 0 -0.043138040017566888 -0.047544897481920728 0 -0.043052483517579114 -0.048424415093979933 0 -0.046911884407658977 -0.047532026692757405 0 -0.047195222816047204 -0.048107736139849283 0 -0.039781512410181852 -0.049832912509138738 0 -0.039957499126196255 -0.050080775786233246 0 -0.039586619020388812 -0.050318171159435508 0 -0.043138040017566888 -0.047544897481920728 0 -0.042421958814166223 -0.048017267388500429 0 -0.043052483517579114 -0.048424415093979933 0 -0.041836154832776119 -0.048625207336107167 0 -0.038600878777588395 -0.048682183246267309 0 -0.050259273870359313 -0.047669658857434828 0 -0.05007127446043836 -0.047486761811845489 0 -0.050206193504894643 -0.047286545686487748 0 -0.049936666590740968 -0.047723223695815921 0 -0.050259273870359313 -0.047669658857434828 0 -0.05007127446043836 -0.047486761811845489 0 -0.049910698084771749 -0.047485157631906152 0 -0.05007127446043836 -0.047486761811845489 0 -0.050004740747744539 -0.047188391777627715 0 -0.050259273870359313 -0.047669658857434828 0 -0.050398060988492144 -0.047438107522366969 0 -0.050206193504894643 -0.047286545686487748 0 -0.044949757029148781 -0.050629812391668562 0 -0.04261421710353356 -0.049679984590364351 0 -0.044949757029148781 -0.050629812391668562 0 -0.047195222816047204 -0.048107736139849283 0 -0.044759918783843132 -0.050243862228351338 0 -0.045792984488179408 -0.049505325022753087 0 -0.045476126480491638 -0.049279132169094915 0 -0.04261421710353356 -0.049679984590364351 0 -0.047195222816047204 -0.048107736139849283 0 -0.047195222816047204 -0.048107736139849283 0 -0.050238486340004371 -0.048039856169384096 0 -0.050263177514022518 -0.047320253455229278 0 -0.050206193504894643 -0.047286545686487748 0 -0.050265900991047427 -0.047214814112422281 0 -0.050353693533212548 -0.047164192678471925 0 -0.050263177514022518 -0.047320253455229278 0 -0.050265900991047427 -0.047214814112422281 0 -0.050353693533212548 -0.047164192678471925 0 -0.050265900991047427 -0.047214814112422281 0 -0.050227857243024428 -0.047066611052166384 0 -0.050206193504894643 -0.047286545686487748 0 -0.050265900991047427 -0.047214814112422281 0 -0.050227857243024428 -0.047066611052166384 0 -0.050206193504894643 -0.047286545686487748 0 -0.050004740747744539 -0.047188391777627715 0 -0.050227857243024428 -0.047066611052166384 0 -0.05007127446043836 -0.047486761811845489 0 -0.050206193504894643 -0.047286545686487748 0 -0.050004740747744539 -0.047188391777627715 0 -0.050004740747744539 -0.047188391777627715 0 -0.050068340799158118 -0.046937383617639161 0 -0.050227857243024428 -0.047066611052166384 0 -0.050201503280427925 -0.044577726738004496 0 -0.048233472332980254 -0.041408156200931578 0 -0.050068340799158118 -0.046937383617639161 0 -0.050227857243024428 -0.047066611052166384 0 -0.050308328886349139 -0.046887832916563087 0 -0.046641664617924482 -0.039084253365208994 0 -0.045916411858617771 -0.038675313844874985 0 -0.046177967905310681 -0.039260391845553404 0 -0.049719412475943199 -0.041572554474476886 0 -0.049679438485628384 -0.041649710477616043 0 -0.049558465377371463 -0.041590315538954502 0 -0.047629438093035395 -0.040191106694386657 0 -0.048233472332980254 -0.041408156200931578 0 -0.049719412475943199 -0.041572554474476886 0 -0.049679438485628384 -0.041649710477616043 0 -0.049780372349887171 -0.041620791841882485 0 -0.035339393291383359 -0.046411638888055988 0 -0.034800250767111844 -0.044236159650725596 0 -0.035570023971912508 -0.046066438919618022 0 -0.038600878777588395 -0.048682183246267309 0 -0.039679874959954647 -0.041721315692504667 0 -0.041423939496424964 -0.046490932027994411 0 -0.039797653440774759 -0.045342952941041438 0 -0.040877632092294239 -0.043890323543123118 0 -0.038600878777588395 -0.048682183246267309 0 -0.044987517018579025 -0.045203203476459008 0 -0.044987517018579025 -0.045203203476459008 0 -0.039679874959954647 -0.041721315692504667 0 -0.050353693533212548 -0.047164192678471925 0 -0.050227857243024428 -0.047066611052166384 0 -0.050308328886349139 -0.046887832916563087 0 -0.050353693533212548 -0.047164192678471925 0 -0.050423899769477011 -0.046998541351280954 0 -0.050308328886349139 -0.046887832916563087 0 -0.044987517018579025 -0.045203203476459008 0 -0.048233472332980254 -0.041408156200931578 0 -0.046911884407658977 -0.047532026692757405 0 -0.044987517018579025 -0.045203203476459008 0 -0.045831989919151717 -0.038971923107069761 0 -0.045355610510076638 -0.038879513113700713 0 -0.045230647472353856 -0.039424543636053522 0 -0.045375879687622453 -0.038612162382526224 0 -0.045706053944108954 -0.038831750547236019 0 -0.045355610510076638 -0.038879513113700713 0 -0.045916411858617771 -0.038675313844874985 0 -0.045831989919151717 -0.038971923107069761 0 -0.045355610510076638 -0.038879513113700713 0 -0.045916411858617771 -0.038675313844874985 0 -0.045831989919151717 -0.038971923107069761 0 -0.046177967905310681 -0.039260391845553404 0 -0.048233472332980254 -0.041408156200931578 0 -0.044933692307240827 -0.039109616939355066 0 -0.045355610510076638 -0.038879513113700713 0 -0.045139338692782617 -0.038822723109597772 0 -0.045230647472353856 -0.039424543636053522 0 -0.039679874959954647 -0.041721315692504667 0 -0.041802386860257654 -0.037680773595100817 0 -0.045375879687622453 -0.038612162382526224 0 -0.045355610510076638 -0.038879513113700713 0 -0.045139338692782617 -0.038822723109597772 0 -0.038008882321987347 -0.039774980089326728 0 -0.037814358830533579 -0.038906257504612816 0 -0.038534701556436582 -0.039031530833941556 0 -0.037976164545396832 -0.038771961362638961 0 -0.037814358830533579 -0.038906257504612816 0 -0.038534701556436582 -0.039031530833941556 0 -0.034631995203171916 -0.031978064648133235 0 -0.03774226878191754 -0.035270998870113354 0 -0.033492073906020665 -0.030330459794695494 0 -0.034631995203171916 -0.031978064648133235 0 -0.037202025472686383 -0.031823993301199574 0 -0.036916517994036564 -0.031143097251009062 0 -0.03849096385050102 -0.031827878658219837 0 -0.034631995203171916 -0.031978064648133235 0 -0.035585403881992661 -0.031951031082727087 0 -0.036033588530609235 -0.031839377831904679 0 -0.037202025472686383 -0.031823993301199574 0 -0.036916517994036564 -0.031143097251009062 0 -0.03774226878191754 -0.035270998870113354 0 -0.041802386860257654 -0.037680773595100817 0 -0.045210854677431155 -0.039379293713659592 0 -0.045248394947076699 -0.039575193067154929 0 -0.045690156495567902 -0.039412694302395641 0 -0.040904063553054058 -0.035684970420871501 0 -0.040840223738534347 -0.035742492613932919 0 -0.040819028949223839 -0.035643418644483581 0 -0.041802386860257654 -0.037680773595100817 0 -0.040916854765953983 -0.035002178378732408 0 -0.03774226878191754 -0.035270998870113354 0 -0.040916854765953983 -0.035002178378732408 0 -0.045690156495567902 -0.039412694302395641 0 -0.045987742373380512 -0.039900718537017883 0 -0.046177967905310681 -0.039260391845553404 0 -0.045248394947076699 -0.039575193067154929 0 -0.045690156495567902 -0.039412694302395641 0 -0.045987742373380512 -0.039900718537017883 0 -0.045831989919151717 -0.038971923107069761 0 -0.045210854677431155 -0.039379293713659592 0 -0.045690156495567902 -0.039412694302395641 0 -0.04655214047683591 -0.038973283297972353 0 -0.041802386860257654 -0.037680773595100817 0 -0.045831989919151717 -0.038971923107069761 0 -0.045690156495567902 -0.039412694302395641 0 -0.046177967905310681 -0.039260391845553404 0 -0.043174861502602774 -0.030537734709467145 0 -0.037829503058230657 -0.028270988236417171 0 -0.04221538544974248 -0.027193847418523744 0 -0.040648170020077375 -0.026437397863468069 0 -0.041113402595660889 -0.02836256513731918 0 -0.039906849564596392 -0.030925959132045936 0 -0.044019476618776213 -0.032698325971390031 0 -0.040122086431135386 -0.031871189257461074 0 -0.044019476618776213 -0.032698325971390031 0 -0.043715153042357568 -0.033612480129183574 0 -0.040122086431135386 -0.031871189257461074 0 -0.040916854765953983 -0.035002178378732408 0 -0.045133386423063485 -0.036472116377139596 0 -0.030858720010745303 -0.023804832151714389 0 -0.030794724901354244 -0.02381689354278619 0 -0.030903668432234174 -0.023892932253898057 0 -0.037829503058230657 -0.028270988236417171 0 -0.035241979766328889 -0.025226130537394996 0 -0.037202025472686383 -0.031823993301199574 0 -0.03849096385050102 -0.031827878658219837 0 -0.038798866028482634 -0.03318587997662039 0 -0.040916854765953983 -0.035002178378732408 0 -0.037829503058230657 -0.028270988236417171 0 -0.034631995203171916 -0.031978064648133235 0 -0.037829503058230657 -0.028270988236417171 0 -0.030795939880618014 -0.023781806324999721 0 -0.030858720010745303 -0.023804832151714389 0 -0.030794724901354244 -0.02381689354278619 0 -0.036033940500394192 -0.031838928251438921 0 -0.037202025472686383 -0.031823993301199574 0 -0.038798866028482634 -0.03318587997662039 0 -0.030781951152611391 -0.023784761136561351 0 -0.030795939880618014 -0.023781806324999721 0 -0.030794724901354244 -0.02381689354278619 0 -0.046641664617924482 -0.039084253365208994 0 -0.046607876463713359 -0.039641221315321912 0 -0.047405932329065467 -0.039550242734101113 0 -0.049679438485628384 -0.041649710477616043 0 -0.049783652950821988 -0.041679711443970896 0 -0.049780372349887171 -0.041620791841882485 0 -0.047629438093035395 -0.040191106694386657 0 -0.051285125868983268 -0.039423101965626768 0 -0.046641664617924482 -0.039084253365208994 0 -0.046607876463713359 -0.039641221315321912 0 -0.046177967905310681 -0.039260391845553404 0 -0.045987742373380512 -0.039900718537017883 0 -0.046607876463713359 -0.039641221315321912 0 -0.046177967905310681 -0.039260391845553404 0 -0.045987742373380512 -0.039900718537017883 0 -0.046607876463713359 -0.039641221315321912 0 -0.046753546897914403 -0.040219045545084056 0 -0.044019476618776213 -0.032698325971390031 0 -0.048088454762274482 -0.034471654384806941 0 -0.047270636073055712 -0.035352790096759734 0 -0.044019476618776213 -0.032698325971390031 0 -0.043715153042357568 -0.033612480129183574 0 -0.047270636073055712 -0.035352790096759734 0 -0.045133386423063485 -0.036472116377139596 0 -0.0488275182931249 -0.035784293787488049 0 -0.051285125868983268 -0.039423101965626768 0 -0.0488275182931249 -0.035784293787488049 0 -0.046607876463713359 -0.039641221315321912 0 -0.047405932329065467 -0.039550242734101113 0 -0.046753546897914403 -0.040219045545084056 0 -0.051285125868983268 -0.039423101965626768 0 -0.05362495311587967 -0.037216606986270322 0 -0.053521104771199597 -0.037165829692568077 0 -0.053704685886760611 -0.037809558326840714 0 -0.0528128664077952 -0.03727180050495825 0 -0.053521104771199597 -0.037165829692568077 0 -0.053704685886760611 -0.037809558326840714 0 -0.054410668031213298 -0.036992734796288076 0 -0.051285125868983268 -0.039423101965626768 0 -0.051465849410941546 -0.040516641939183938 0 -0.054148212677780652 -0.038222788955431741 0 -0.05245398009972492 -0.038484511681431549 0 -0.052823586202983545 -0.03970559568118498 0 -0.054148212677780652 -0.038222788955431741 0 -0.05245398009972492 -0.038484511681431549 0 -0.0528128664077952 -0.03727180050495825 0 -0.05245398009972492 -0.038484511681431549 0 -0.0528128664077952 -0.03727180050495825 0 -0.051391069165520817 -0.037914887131316903 0 -0.0528128664077952 -0.03727180050495825 0 -0.051391069165520817 -0.037914887131316903 0 -0.052333107304774459 -0.036566859809946638 0 -0.051486265685398346 -0.03837296328956584 0 -0.051416711260641942 -0.036599287321254073 0 -0.051606026892916233 -0.038848884191323291 0 -0.050000014854316106 -0.039886380920915274 0 -0.049999829335173183 -0.037025642291668374 0 -0.051606026892916233 -0.038848884191323291 0 -0.050000014854316106 -0.039886380920915274 0 -0.051725777533227366 -0.041229995553330977 0 -0.05245398009972492 -0.038484511681431549 0 -0.051391069165520817 -0.037914887131316903 0 -0.051390178058109692 -0.039554773060966233 0 -0.051486265685398346 -0.03837296328956584 0 -0.051639784378519051 -0.040360503608884692 0 -0.05245398009972492 -0.038484511681431549 0 -0.051390178058109692 -0.039554773060966233 0 -0.052823586202983545 -0.03970559568118498 0 -0.051390178058109692 -0.039554773060966233 0 -0.051443761268760324 -0.041242208221904983 0 -0.052823586202983545 -0.03970559568118498 0 -0.050000014854316106 -0.039886380920915274 0 -0.051725777533227366 -0.041229995553330977 0 -0.049999979251593822 -0.042746793082371497 0 -0.051081665966638649 -0.044157579231736771 0 -0.049999979251593822 -0.042746793082371497 0 -0.051824748063776238 -0.043601631118577719 0 -0.051725777533227366 -0.041229995553330977 0 -0.049999979251593822 -0.042746793082371497 0 -0.051824748063776238 -0.043601631118577719 0 -0.050771795451136019 -0.042630120704849922 0 -0.051465849410941546 -0.040516641939183938 0 -0.051639784378519051 -0.040360503608884692 0 -0.050771795451136019 -0.042630120704849922 0 -0.049898063675727938 -0.04159845707432832 0 -0.049898341094876189 -0.04160166281578466 0 -0.049832264417631049 -0.041583288484618064 0 -0.049951961695998338 -0.044432492149651191 0 -0.049631835921956538 -0.044233264618484293 0 -0.049898341094876189 -0.04160166281578466 0 -0.049832264417631049 -0.041583288484618064 0 -0.049852938288753555 -0.041617721102993541 0 -0.050201503280427925 -0.044577726738004496 0 -0.049631835921956538 -0.044233264618484293 0 -0.049719412475943199 -0.041572554474476886 0 -0.049832264417631049 -0.041583288484618064 0 -0.049780372349887171 -0.041620791841882485 0 -0.050004740747744539 -0.047188391777627715 0 -0.050068340799158118 -0.046937383617639161 0 -0.049681540258758226 -0.046959974509519227 0 -0.049783652950821988 -0.041679711443970896 0 -0.049780372349887171 -0.041620791841882485 0 -0.049852938288753555 -0.041617721102993541 0 -0.049832264417631049 -0.041583288484618064 0 -0.049780372349887171 -0.041620791841882485 0 -0.049852938288753555 -0.041617721102993541 0 -0.022409145806203987 -0.042319648808037742 0 -0.022435924770109101 -0.042606389303036681 0 -0.022245791898767863 -0.04254583702527303 0 -0.022435924770109101 -0.042606389303036681 0 -0.022074830147484504 -0.042527514372298306 0 -0.022245791898767863 -0.04254583702527303 0 -0.022409145806203987 -0.042319648808037742 0 -0.022435924770109101 -0.042606389303036681 0 -0.023271226132557728 -0.042693867546434811 0 -0.025794963038812853 -0.053265913068814043 0 -0.025825483456106201 -0.052276816125392422 0 -0.028452352831513327 -0.052567189145238703 0 -0.025794963038812853 -0.053265913068814043 0 -0.028452352831513327 -0.052567189145238703 0 -0.028382566689221435 -0.054380671349487583 0 -0.024050700499193996 -0.04745468418031102 0 -0.026233738332890111 -0.048437339004801079 0 -0.022409145806203987 -0.042319648808037742 0 -0.023271226132557728 -0.042693867546434811 0 -0.024368182165976318 -0.043027464337112978 0 -0.026149423593835673 -0.053488787752814675 0 -0.028526786647469417 -0.05326813005156459 0 -0.027476742691070557 -0.053074568662573519 0 -0.026196651291661009 -0.054094079655622657 0 -0.028734323813956675 -0.054047839186232398 0 -0.027476742691070557 -0.053074568662573519 0 -0.026196651291661009 -0.054094079655622657 0 -0.026345710669462272 -0.052789273111021058 0 -0.026196651291661009 -0.054094079655622657 0 -0.025502943337234862 -0.053192097264386076 0 -0.026345710669462272 -0.052789273111021058 0 -0.025794963038812853 -0.053265913068814043 0 -0.025825483456106201 -0.052276816125392422 0 -0.023084770212853788 -0.052048375703154466 0 -0.025502943337234862 -0.053192097264386076 0 -0.024953687983854788 -0.05246802948206971 0 -0.024745257674401396 -0.053363295325135042 0 -0.026196651291661009 -0.054094079655622657 0 -0.025502943337234862 -0.053192097264386076 0 -0.024745257674401396 -0.053363295325135042 0 -0.025502943337234862 -0.053192097264386076 0 -0.026345710669462272 -0.052789273111021058 0 -0.024953687983854788 -0.05246802948206971 0 -0.026345710669462272 -0.052789273111021058 0 -0.025937395811906825 -0.051647279236223094 0 -0.024953687983854788 -0.05246802948206971 0 -0.026345710669462272 -0.052789273111021058 0 -0.025937395811906825 -0.051647279236223094 0 -0.027316201710900771 -0.051778991557850818 0 -0.025937395811906825 -0.051647279236223094 0 -0.024880903740001962 -0.051058887509868374 0 -0.024953687983854788 -0.05246802948206971 0 -0.025937395811906825 -0.051647279236223094 0 -0.0263066713999578 -0.049999922417803475 0 -0.024880903740001962 -0.051058887509868374 0 -0.025937395811906825 -0.051647279236223094 0 -0.0263066713999578 -0.049999922417803475 0 -0.027316201710900771 -0.051778991557850818 0 -0.0263066713999578 -0.049999922417803475 0 -0.027316201710900771 -0.051778991557850818 0 -0.029057473667958692 -0.0499997753425164 0 -0.027476742691070557 -0.053074568662573519 0 -0.026345710669462272 -0.052789273111021058 0 -0.027316201710900771 -0.051778991557850818 0 -0.027476742691070557 -0.053074568662573519 0 -0.027316201710900771 -0.051778991557850818 0 -0.028684832772208534 -0.052516133347496795 0 -0.027316201710900771 -0.051778991557850818 0 -0.028684832772208534 -0.052516133347496795 0 -0.029057473667958692 -0.0499997753425164 0 -0.028684832772208534 -0.052516133347496795 0 -0.029057473667958692 -0.0499997753425164 0 -0.03028963541830575 -0.052255467058279645 0 -0.029057473667958692 -0.0499997753425164 0 -0.03028963541830575 -0.052255467058279645 0 -0.031806685736225665 -0.050000222391664365 0 -0.030907141408764001 -0.053390121553691626 0 -0.028526786647469417 -0.05326813005156459 0 -0.03028963541830575 -0.052255467058279645 0 -0.031055268943944263 -0.053828576597536169 0 -0.031828036182406122 -0.052329128018653831 0 -0.03028963541830575 -0.052255467058279645 0 -0.031055268943944263 -0.053828576597536169 0 -0.028734323813956675 -0.054047839186232398 0 -0.028684832772208534 -0.052516133347496795 0 -0.03028963541830575 -0.052255467058279645 0 -0.028734323813956675 -0.054047839186232398 0 -0.027476742691070557 -0.053074568662573519 0 -0.028684832772208534 -0.052516133347496795 0 -0.028734323813956675 -0.054047839186232398 0 -0.028452352831513327 -0.052567189145238703 0 -0.028949901228590532 -0.054506075485478436 0 -0.028382566689221435 -0.054380671349487583 0 -0.028452352831513327 -0.052567189145238703 0 -0.030291033410646106 -0.054089099071856266 0 -0.028949901228590532 -0.054506075485478436 0 -0.030789654088382263 -0.052942709534945079 0 -0.028452352831513327 -0.052567189145238703 0 -0.030291033410646106 -0.054089099071856266 0 -0.030789654088382263 -0.052942709534945079 0 -0.030291033410646106 -0.054089099071856266 0 -0.031962069127904454 -0.054496694597780289 0 -0.030907141408764001 -0.053390121553691626 0 -0.03266782423542372 -0.053459289601342518 0 -0.030789654088382263 -0.052942709534945079 0 -0.032826921251204767 -0.053462308163494149 0 -0.031962069127904454 -0.054496694597780289 0 -0.032826921251204767 -0.053462308163494149 0 -0.033130399570717242 -0.054567734086751779 0 -0.031962069127904454 -0.054496694597780289 0 -0.032826921251204767 -0.053462308163494149 0 -0.03290646077521138 -0.051682724210198296 0 -0.033981335955663459 -0.052865161416908661 0 -0.032826921251204767 -0.053462308163494149 0 -0.031828036182406122 -0.052329128018653831 0 -0.03290646077521138 -0.051682724210198296 0 -0.031055268943944263 -0.053828576597536169 0 -0.032826921251204767 -0.053462308163494149 0 -0.031828036182406122 -0.052329128018653831 0 -0.03028963541830575 -0.052255467058279645 0 -0.031828036182406122 -0.052329128018653831 0 -0.031806685736225665 -0.050000222391664365 0 -0.031828036182406122 -0.052329128018653831 0 -0.031806685736225665 -0.050000222391664365 0 -0.03290646077521138 -0.051682724210198296 0 -0.03180789094439581 -0.050000150841087491 0 -0.03320480492603986 -0.051944671956856855 0 -0.033380046887720005 -0.049999964786052002 0 -0.033716526938878909 -0.051881238702393327 0 -0.034590776039113376 -0.050930862648388309 0 -0.031807712600182281 -0.050000021726913042 0 -0.033380046887720005 -0.049999964786052002 0 -0.033716526938878909 -0.051881238702393327 0 -0.033380046887720005 -0.049999964786052002 0 -0.034590776039113376 -0.050930862648388309 0 -0.034952250268056484 -0.0500000072794465 0 -0.036762827363256839 -0.050665975197032607 0 -0.03676408583068759 -0.050663021161727953 0 -0.036769636379903395 -0.050659914200258845 0 -0.03320480492603986 -0.051944671956856855 0 -0.035724927489724036 -0.051890225335277776 0 -0.036127724525544018 -0.051441846788301653 0 -0.035724927489724036 -0.051890225335277776 0 -0.033716526938878909 -0.051881238702393327 0 -0.035478771925432737 -0.052044598416664235 0 -0.035522641567557793 -0.053675132600042343 0 -0.033716526938878909 -0.051881238702393327 0 -0.035478771925432737 -0.052044598416664235 0 -0.034590776039113376 -0.050930862648388309 0 -0.036127724525544018 -0.051441846788301653 0 -0.035794174682746892 -0.050277099227843375 0 -0.036762827363256839 -0.050665975197032607 0 -0.036756547394604232 -0.050658860535139433 0 -0.036764707703973991 -0.050662739738453928 0 -0.035478771925432737 -0.052044598416664235 0 -0.034590776039113376 -0.050930862648388309 0 -0.035460257634214891 -0.05037235122904378 0 -0.035794174682746892 -0.050277099227843375 0 -0.03743311691770846 -0.050201563157832176 0 -0.035496789959193156 -0.050377906774736081 0 -0.035483397336759773 -0.049999997753909474 0 -0.036145718697993393 -0.049999996353295557 0 -0.035493756901378945 -0.050379900890562414 0 -0.035483379349894553 -0.04999999900001275 0 -0.034952342780126502 -0.049999999485704563 0 -0.035794174682746892 -0.050277099227843375 0 -0.034952978680994555 -0.050000044096896408 0 -0.035794174682746892 -0.050277099227843375 0 -0.035484146463625105 -0.050000376665575177 0 -0.034590776039113376 -0.050930862648388309 0 -0.035460257634214891 -0.05037235122904378 0 -0.034952250268056484 -0.0500000072794465 0 -0.0384753407672506 -0.050000005735271032 0 -0.036145771634367482 -0.049999976791099181 0 -0.036380654467800845 -0.050985833614596375 0 -0.035496789959193156 -0.050377906774736081 0 -0.036145718697993393 -0.049999996353295557 0 -0.036371478473361994 -0.050985600839589973 0 -0.036146613974528403 -0.050000411339750639 0 -0.03743311691770846 -0.050201563157832176 0 -0.038937725384901332 -0.051177891018177282 0 -0.03743311691770846 -0.050201563157832176 0 -0.036762827363256839 -0.050665975197032607 0 -0.036764707703973991 -0.050662739738453928 0 -0.03676408583068759 -0.050663021161727953 0 -0.036764707703973991 -0.050662739738453928 0 -0.03676408583068759 -0.050663021161727953 0 -0.036762939632172288 -0.050659158857452743 0 -0.039805027925172091 -0.049491449797423696 0 -0.039284969498733564 -0.049160725829390593 0 -0.03944214161247709 -0.049740763565458729 0 -0.03743311691770846 -0.050201563157832176 0 -0.038151311355070334 -0.050510880891634344 0 -0.036762939632172288 -0.050659158857452743 0 -0.036769636379903395 -0.050659914200258845 0 -0.036764289809078525 -0.050633252532053148 0 -0.036766984276212292 -0.050676369620698637 0 -0.03676642858214213 -0.050646420601897668 0 -0.036764289809078525 -0.050633252532053148 0 -0.035724927489724036 -0.051890225335277776 0 -0.036730269893414547 -0.050603378988113415 0 -0.03676408583068759 -0.050663021161727953 0 -0.036762939632172288 -0.050659158857452743 0 -0.036769636379903395 -0.050659914200258845 0 -0.036766984276212292 -0.050676369620698637 0 -0.036767497506433676 -0.050621937810134222 0 -0.03676642858214213 -0.050646420601897668 0 -0.035724927489724036 -0.051890225335277776 0 -0.035398776950257803 -0.052768178918214961 0 -0.032826921251204767 -0.053462308163494149 0 -0.033981335955663459 -0.052865161416908661 0 -0.03399954896694584 -0.053938191991935912 0 -0.032826921251204767 -0.053462308163494149 0 -0.03399954896694584 -0.053938191991935912 0 -0.033130399570717242 -0.054567734086751779 0 -0.036765305844685923 -0.050611770194738205 0 -0.03676642858214213 -0.050646420601897668 0 -0.036764289809078525 -0.050633252532053148 0 -0.038600878777588395 -0.048682183246267309 0 -0.036411125240623961 -0.05084796686613012 0 -0.038600878777588395 -0.048682183246267309 0 -0.038151311355070334 -0.050510880891634344 0 -0.036765305844685923 -0.050611770194738205 0 -0.036762939632172288 -0.050659158857452743 0 -0.036764289809078525 -0.050633252532053148 0 -0.036712320757969777 -0.050592001328005121 0 -0.036767497506433676 -0.050621937810134222 0 -0.03676642858214213 -0.050646420601897668 0 -0.038600878777588395 -0.048682183246267309 0 -0.034643081695835506 -0.049806420777447617 0 -0.035339393291383359 -0.046411638888055988 0 -0.035570023971912508 -0.046066438919618022 0 -0.036810984777431346 -0.045308762285098524 0 -0.035570023971912508 -0.046066438919618022 0 -0.036810984777431346 -0.045308762285098524 0 -0.036067127420557975 -0.044771043445244671 0 -0.035650940116983144 -0.045864481954866441 0 -0.036127488571766009 -0.044635983763007744 0 -0.036712320757969777 -0.050592001328005121 0 -0.036767497506433676 -0.050621937810134222 0 -0.036754459975786177 -0.050555134958868278 0 -0.034800250767111844 -0.044236159650725596 0 -0.035570023971912508 -0.046066438919618022 0 -0.036288094890170354 -0.04435516407332097 0 -0.03399954896694584 -0.053938191991935912 0 -0.034050214138982897 -0.055059344469933401 0 -0.033130399570717242 -0.054567734086751779 0 -0.034050214138982897 -0.055059344469933401 0 -0.032682885633887507 -0.056054888142835609 0 -0.033130399570717242 -0.054567734086751779 0 -0.035398776950257803 -0.052768178918214961 0 -0.034643081695835506 -0.049806420777447617 0 -0.032011933962743905 -0.039583117260102586 0 -0.030898587330712931 -0.046174928457542307 0 -0.032541167449462803 -0.046788085083911357 0 -0.032508507424774263 -0.045771072624780619 0 -0.033435728074582588 -0.046133315517153828 0 -0.033344699515313929 -0.042501975912430538 0 -0.030898587330712931 -0.046174928457542307 0 -0.034643081695835506 -0.049806420777447617 0 -0.033344699515313929 -0.042501975912430538 0 -0.034643081695835506 -0.049806420777447617 0 -0.030898587330712931 -0.046174928457542307 0 -0.036067127420557975 -0.044771043445244671 0 -0.036537327681826715 -0.043513987617914772 0 -0.036712278487839603 -0.043591887963890977 0 -0.036233749000946169 -0.043302911149696692 0 -0.036288094890170354 -0.04435516407332097 0 -0.036995076150388315 -0.04258153955828136 0 -0.034800250767111844 -0.044236159650725596 0 -0.036233749000946169 -0.043302911149696692 0 -0.036231136899332092 -0.042239190577945389 0 -0.036810984777431346 -0.045308762285098524 0 -0.036067127420557975 -0.044771043445244671 0 -0.036712278487839603 -0.043591887963890977 0 -0.036127488571766009 -0.044635983763007744 0 -0.033666299671744941 -0.041433519692842209 0 -0.039679874959954647 -0.041721315692504667 0 -0.034947734565307829 -0.039139379313430069 0 -0.034800250767111844 -0.044236159650725596 0 -0.036233749000946169 -0.043302911149696692 0 -0.036288094890170354 -0.04435516407332097 0 -0.033451378124173141 -0.033117590105999704 0 -0.032707391155179635 -0.032625012917684139 0 -0.032227882702480448 -0.033239126663818119 0 -0.036233749000946169 -0.043302911149696692 0 -0.036995076150388315 -0.04258153955828136 0 -0.036231136899332092 -0.042239190577945389 0 -0.033210470947832457 -0.03893301160431601 0 -0.034230874912824935 -0.039377030134402254 0 -0.033981512766195175 -0.039704523827545385 0 -0.034947734565307829 -0.039139379313430069 0 -0.033746989020581417 -0.037108262370902222 0 -0.033746989020581417 -0.037108262370902222 0 -0.032011933962743905 -0.039583117260102586 0 -0.033210470947832457 -0.03893301160431601 0 -0.033981512766195175 -0.039704523827545385 0 -0.033076238036916054 -0.03926098022103873 0 -0.033666299671744941 -0.041433519692842209 0 -0.034947734565307829 -0.039139379313430069 0 -0.030946816375855796 -0.036805840605880255 0 -0.032039793329628023 -0.037352142787144001 0 -0.032246969936778891 -0.036836619058790203 0 -0.033746989020581417 -0.037108262370902222 0 -0.031149034460850406 -0.033235870442470013 0 -0.030946816375855796 -0.036805840605880255 0 -0.032198954803705507 -0.035125872232932141 0 -0.032246969936778891 -0.036836619058790203 0 -0.033451378124173141 -0.033117590105999704 0 -0.033559245279003884 -0.033032818724885227 0 -0.032707391155179635 -0.032625012917684139 0 -0.03774226878191754 -0.035270998870113354 0 -0.034947734565307829 -0.039139379313430069 0 -0.034631995203171916 -0.031978064648133235 0 -0.033746989020581417 -0.037108262370902222 0 -0.035380482269459224 -0.036190262211795721 0 -0.03550218375483849 -0.036095592138830394 0 -0.034935297626012052 -0.035873032062072818 0 -0.035380482269459224 -0.036190262211795721 0 -0.034935297626012052 -0.035873032062072818 0 -0.034866750110584446 -0.035961329335589702 0 -0.031964180974344655 -0.02892593240103639 0 -0.03156646286703086 -0.029193618560668835 0 -0.031565803327119814 -0.028999268315636397 0 -0.030781951152611391 -0.023784761136561351 0 -0.030794724901354244 -0.02381689354278619 0 -0.030617395678453445 -0.023830794662040376 0 -0.033492073906020665 -0.030330459794695494 0 -0.031078890765020076 -0.03147248512689229 0 -0.033451378124173141 -0.033117590105999704 0 -0.032231149229869124 -0.033402964959168162 0 -0.032227882702480448 -0.033239126663818119 0 -0.030794724901354244 -0.02381689354278619 0 -0.030617395678453445 -0.023830794662040376 0 -0.030748667718811698 -0.023861055735240989 0 -0.033492073906020665 -0.030330459794695494 0 -0.030532976473144784 -0.025459951182196197 0 -0.029002769977203365 -0.029189411244702031 0 -0.028399303667766992 -0.033093517534525642 0 -0.030532976473144784 -0.025459951182196197 0 -0.031078890765020076 -0.03147248512689229 0 -0.030603335746949872 -0.02788028195989764 0 -0.02928015023058668 -0.027785161337045769 0 -0.029662818574641252 -0.029154470094401502 0 -0.029002769977203365 -0.029189411244702031 0 -0.030312494135091461 -0.032002193217156964 0 -0.029689729271875468 -0.030208278484609989 0 -0.028335114656571417 -0.032035052983123535 0 -0.029032549565107889 -0.031867170528490626 0 -0.02928015023058668 -0.027785161337045769 0 -0.029662818574641252 -0.029154470094401502 0 -0.029321733739709123 -0.029236267253827688 0 -0.030312494135091461 -0.032002193217156964 0 -0.028399303667766992 -0.033093517534525642 0 -0.030312494135091461 -0.032002193217156964 0 -0.031078890765020076 -0.03147248512689229 0 -0.031078890765020076 -0.03147248512689229 0 -0.031149034460850406 -0.033235870442470013 0 -0.030312494135091461 -0.032002193217156964 0 -0.031149034460850406 -0.033235870442470013 0 -0.031076858228019946 -0.032125683749295059 0 -0.031286016147328607 -0.032077883297288903 0 -0.031281438147535708 -0.031861799652630529 0 -0.03029414986984922 -0.033313968692302992 0 -0.031148015145486211 -0.03311058409996636 0 -0.029713531007736563 -0.034090707456746486 0 -0.028819501458103629 -0.037759598408204427 0 -0.02881810955721717 -0.037781203041740638 0 -0.02874554065493088 -0.038114874743978074 0 -0.029007470034978118 -0.038315626494918285 0 -0.028395177936235846 -0.038452109044318158 0 -0.029452138110714024 -0.039065355916040878 0 -0.031723633626011584 -0.043198869319895875 0 -0.03174430730316035 -0.043275385649042424 0 -0.032097688668341139 -0.043537157645618572 0 -0.02881810955721717 -0.037781203041740638 0 -0.029007470034978118 -0.038315626494918285 0 -0.02874554065493088 -0.038114874743978074 0 -0.029007470034978118 -0.038315626494918285 0 -0.02874554065493088 -0.038114874743978074 0 -0.028395177936235846 -0.038452109044318158 0 -0.028399303667766992 -0.033093517534525642 0 -0.03095889146560564 -0.037817120133358306 0 -0.031149034460850406 -0.033235870442470013 0 -0.03095889146560564 -0.037817120133358306 0 -0.028819501458103629 -0.037759598408204427 0 -0.02874554065493088 -0.038114874743978074 0 -0.028450173027109074 -0.038305039869271355 0 -0.031148015145486211 -0.03311058409996636 0 -0.029713531007736563 -0.034090707456746486 0 -0.029786703336181032 -0.036528859649170638 0 -0.02874554065493088 -0.038114874743978074 0 -0.028395177936235846 -0.038452109044318158 0 -0.028450173027109074 -0.038305039869271355 0 -0.032011933962743905 -0.039583117260102586 0 -0.03095889146560564 -0.037817120133358306 0 -0.032011933962743905 -0.039583117260102586 0 -0.033344699515313929 -0.042501975912430538 0 -0.032272462022609076 -0.041678513451037923 0 -0.032245172587437754 -0.041740604902395569 0 -0.032208135287692043 -0.041652268900135694 0 -0.033666299671744941 -0.041433519692842209 0 -0.033344699515313929 -0.042501975912430538 0 -0.033666299671744941 -0.041433519692842209 0 -0.032011933962743905 -0.039583117260102586 0 -0.029565483526303178 -0.038135960509342794 0 -0.030251696003841907 -0.038499723812675003 0 -0.029452138110714024 -0.039065355916040878 0 -0.029007470034978118 -0.038315626494918285 0 -0.029565483526303178 -0.038135960509342794 0 -0.029452138110714024 -0.039065355916040878 0 -0.028857661354609838 -0.037799229917672282 0 -0.029019211409832549 -0.037978098576370758 0 -0.02881810955721717 -0.037781203041740638 0 -0.029007470034978118 -0.038315626494918285 0 -0.029565483526303178 -0.038135960509342794 0 -0.02881810955721717 -0.037781203041740638 0 -0.028621500122291307 -0.037632954605209636 0 -0.02855768632931879 -0.037844516261666253 0 -0.028819501458103629 -0.037759598408204427 0 -0.02881810955721717 -0.037781203041740638 0 -0.02855768632931879 -0.037844516261666253 0 -0.026846392637796229 -0.029332180523368539 0 -0.026628686456807171 -0.029899088142547103 0 -0.028183440251094947 -0.029507894203002691 0 -0.026846392637796229 -0.029332180523368539 0 -0.028183440251094947 -0.029507894203002691 0 -0.028458113008902063 -0.02862164743925686 0 -0.028399303667766992 -0.033093517534525642 0 -0.02848656417326326 -0.033955060836440294 0 -0.028621500122291307 -0.037632954605209636 0 -0.02855768632931879 -0.037844516261666253 0 -0.028287758757640644 -0.037722408689155232 0 -0.02855768632931879 -0.037844516261666253 0 -0.028287758757640644 -0.037722408689155232 0 -0.028133423175220183 -0.037909232825454421 0 -0.02848656417326326 -0.033955060836440294 0 -0.027179550432567066 -0.030797894356855069 0 -0.028621500122291307 -0.037632954605209636 0 -0.028287758757640644 -0.037722408689155232 0 -0.028375564500373873 -0.0375058302955978 0 -0.029019211409832549 -0.037978098576370758 0 -0.028224247315602254 -0.040443888054763844 0 -0.027961808377463405 -0.046498439391137007 0 -0.027661122998115767 -0.045372437197377054 0 -0.026056038869625535 -0.045588267166422801 0 -0.030898587330712931 -0.046174928457542307 0 -0.029318466534047089 -0.051766083601047244 0 -0.027961808377463405 -0.046498439391137007 0 -0.027661122998115767 -0.045372437197377054 0 -0.029654752718532056 -0.045347959090347556 0 -0.027661122998115767 -0.045372437197377054 0 -0.029654752718532056 -0.045347959090347556 0 -0.026975683793189001 -0.044054320266189863 0 -0.028224247315602254 -0.040443888054763844 0 -0.030898587330712931 -0.046174928457542307 0 -0.032682885633887507 -0.056054888142835609 0 -0.033130399570717242 -0.054567734086751779 0 -0.031962069127904454 -0.054496694597780289 0 -0.032682885633887507 -0.056054888142835609 0 -0.031962069127904454 -0.054496694597780289 0 -0.030721231500577168 -0.055274612398885543 0 -0.030291033410646106 -0.054089099071856266 0 -0.031962069127904454 -0.054496694597780289 0 -0.030721231500577168 -0.055274612398885543 0 -0.029318466534047089 -0.051766083601047244 0 -0.026233738332890111 -0.048437339004801079 0 -0.026975683793189001 -0.044054320266189863 0 -0.024368182165976318 -0.043027464337112978 0 -0.025392117454510907 -0.04431337558355497 0 -0.029318466534047089 -0.051766083601047244 0 -0.029915149746631609 -0.055286824210008099 0 -0.030291033410646106 -0.054089099071856266 0 -0.030721231500577168 -0.055274612398885543 0 -0.028949901228590532 -0.054506075485478436 0 -0.030660026490157827 -0.055208359038176225 0 -0.028949901228590532 -0.054506075485478436 0 -0.028382566689221435 -0.054380671349487583 0 -0.024368182165976318 -0.043027464337112978 0 -0.025392117454510907 -0.04431337558355497 0 -0.02420593098492255 -0.044621395201839935 0 -0.025392117454510907 -0.04431337558355497 0 -0.02420593098492255 -0.044621395201839935 0 -0.026056038869625535 -0.045588267166422801 0 -0.020441399643743023 -0.041478568912718679 0 -0.020215379092020997 -0.040819764184492284 0 -0.021072333493241092 -0.040947128290485579 0 -0.02347062948145192 -0.042447907590299358 0 -0.025952121395374336 -0.043395469825147907 0 -0.02347062948145192 -0.042447907590299358 0 -0.022660078621973223 -0.040771386796333145 0 -0.025033421868317172 -0.040518361685213611 0 -0.025501571351904995 -0.040707739673144457 0 -0.025252906532007135 -0.040874599080100216 0 -0.026975683793189001 -0.044054320266189863 0 -0.025392117454510907 -0.04431337558355497 0 -0.026056038869625535 -0.045588267166422801 0 -0.027661122998115767 -0.045372437197377054 0 -0.026975683793189001 -0.044054320266189863 0 -0.026056038869625535 -0.045588267166422801 0 -0.025977587687547734 -0.040915079583780364 0 -0.025501571351904995 -0.040707739673144457 0 -0.025539734008951109 -0.040948236792951842 0 -0.028224247315602254 -0.040443888054763844 0 -0.025952121395374336 -0.043395469825147907 0 -0.025539734008951109 -0.040948236792951842 0 -0.025464219657646638 -0.041246306792927505 0 -0.025252906532007135 -0.040874599080100216 0 -0.025977587687547734 -0.040915079583780364 0 -0.025539734008951109 -0.040948236792951842 0 -0.025464219657646638 -0.041246306792927505 0 -0.028287758757640644 -0.037722408689155232 0 -0.028375564500373873 -0.0375058302955978 0 -0.028015993315813267 -0.037713715388791744 0 -0.028224247315602254 -0.040443888054763844 0 -0.024886120849823459 -0.038502282003336268 0 -0.025501571351904995 -0.040707739673144457 0 -0.025539734008951109 -0.040948236792951842 0 -0.025252906532007135 -0.040874599080100216 0 -0.028287758757640644 -0.037722408689155232 0 -0.028015993315813267 -0.037713715388791744 0 -0.028133423175220183 -0.037909232825454421 0 -0.024570414368141211 -0.033214928099444353 0 -0.024620418831362022 -0.033047601952889208 0 -0.024485356627333438 -0.033009603292485798 0 -0.024886120849823459 -0.038502282003336268 0 -0.027179550432567066 -0.030797894356855069 0 -0.019999277104742332 -0.040251555898361061 0 -0.020540643568126404 -0.039908007866132154 0 -0.020689866391425102 -0.040421076958970278 0 -0.024570414368141211 -0.033214928099444353 0 -0.024620418831362022 -0.033047601952889208 0 -0.024770237494876075 -0.033031115407675594 0 -0.024886120849823459 -0.038502282003336268 0 -0.021863661262287146 -0.037067346135860962 0 -0.024886120849823459 -0.038502282003336268 0 -0.022660078621973223 -0.040771386796333145 0 -0.019999277104742332 -0.040251555898361061 0 -0.020215379092020997 -0.040819764184492284 0 -0.020689866391425102 -0.040421076958970278 0 -0.020215379092020997 -0.040819764184492284 0 -0.020689866391425102 -0.040421076958970278 0 -0.021072333493241092 -0.040947128290485579 0 -0.020689866391425102 -0.040421076958970278 0 -0.021123411420801666 -0.040066554605312818 0 -0.021072333493241092 -0.040947128290485579 0 -0.020540643568126404 -0.039908007866132154 0 -0.021123411420801666 -0.040066554605312818 0 -0.021051740748937245 -0.039704690615226898 0 -0.020540643568126404 -0.039908007866132154 0 -0.020689866391425102 -0.040421076958970278 0 -0.021123411420801666 -0.040066554605312818 0 -0.021123411420801666 -0.040066554605312818 0 -0.02150106360202575 -0.040236948457067212 0 -0.021363481396454696 -0.039979233294308303 0 -0.021123411420801666 -0.040066554605312818 0 -0.02150106360202575 -0.040236948457067212 0 -0.021072333493241092 -0.040947128290485579 0 -0.02150106360202575 -0.040236948457067212 0 -0.021072333493241092 -0.040947128290485579 0 -0.022304225351380845 -0.04149263990524072 0 -0.021635932676506375 -0.041718763377191367 0 -0.021072333493241092 -0.040947128290485579 0 -0.022304225351380845 -0.04149263990524072 0 -0.021635932676506375 -0.041718763377191367 0 -0.021072333493241092 -0.040947128290485579 0 -0.021118009535753626 -0.041971176920399436 0 -0.020441399643743023 -0.041478568912718679 0 -0.021072333493241092 -0.040947128290485579 0 -0.021118009535753626 -0.041971176920399436 0 -0.023271226132557728 -0.042693867546434811 0 -0.023681256107526558 -0.0436708431322105 0 -0.022915389754460024 -0.043308860862595826 0 -0.023271226132557728 -0.042693867546434811 0 -0.024368182165976318 -0.043027464337112978 0 -0.02420593098492255 -0.044621395201839935 0 -0.023562589896829248 -0.043450260656852459 0 -0.02347062948145192 -0.042447907590299358 0 -0.02347062948145192 -0.042447907590299358 0 -0.021831703832178244 -0.042537999679680728 0 -0.022435924770109101 -0.042606389303036681 0 -0.023271226132557728 -0.042693867546434811 0 -0.022915389754460024 -0.043308860862595826 0 -0.021635932676506375 -0.041718763377191367 0 -0.022074830147484504 -0.042527514372298306 0 -0.022304225351380845 -0.04149263990524072 0 -0.022435924770109101 -0.042606389303036681 0 -0.022915389754460024 -0.043308860862595826 0 -0.022074830147484504 -0.042527514372298306 0 -0.021831703832178244 -0.042537999679680728 0 -0.022159577955259298 -0.042610990588689959 0 -0.021635932676506375 -0.041718763377191367 0 -0.021118009535753626 -0.041971176920399436 0 -0.022074830147484504 -0.042527514372298306 0 -0.025728834287688743 -0.024366671701694393 0 -0.025432677844149258 -0.024790510974036811 0 -0.025136719581611188 -0.024263732725950126 0 -0.025728834287688743 -0.024366671701694393 0 -0.026177239823043291 -0.024733102169658301 0 -0.025432677844149258 -0.024790510974036811 0 -0.026133068359274595 -0.024198278329240302 0 -0.026421571957039893 -0.024400269423275618 0 -0.026177239823043291 -0.024733102169658301 0 -0.025728834287688743 -0.024366671701694393 0 -0.026133068359274595 -0.024198278329240302 0 -0.026177239823043291 -0.024733102169658301 0 -0.025728834287688743 -0.024366671701694393 0 -0.026133068359274595 -0.024198278329240302 0 -0.025728827328374875 -0.023945593219121972 0 -0.026133068359274595 -0.024198278329240302 0 -0.025728827328374875 -0.023945593219121972 0 -0.026226975602787847 -0.023754811583719046 0 -0.025728834287688743 -0.024366671701694393 0 -0.025728827328374875 -0.023945593219121972 0 -0.025136719581611188 -0.024263732725950126 0 -0.025728827328374875 -0.023945593219121972 0 -0.025055392005818387 -0.023769039436710434 0 -0.025136719581611188 -0.024263732725950126 0 -0.025728827328374875 -0.023945593219121972 0 -0.025368503382213903 -0.023417760894102024 0 -0.025055392005818387 -0.023769039436710434 0 -0.021363481396454696 -0.039979233294308303 0 -0.021051740748937245 -0.039704690615226898 0 -0.021407687219195594 -0.03984250764814333 0 -0.024050195560992329 -0.029947766642317901 0 -0.022911022587378486 -0.031786531073857392 0 -0.025368503382213903 -0.023417760894102024 0 -0.025801240600517823 -0.023243854558883354 0 -0.024798450568053115 -0.023260183717765393 0 -0.021123411420801666 -0.040066554605312818 0 -0.021363481396454696 -0.039979233294308303 0 -0.021051740748937245 -0.039704690615226898 0 -0.02691993290881213 -0.022704679250353878 0 -0.024050195560992329 -0.029947766642317901 0 -0.025823904165632457 -0.023218860625807011 0 -0.026180410635179625 -0.023441497304477643 0 -0.026363199763024467 -0.023177118125446625 0 -0.024050195560992329 -0.029947766642317901 0 -0.025669243593464477 -0.027891627933133156 0 -0.021863661262287146 -0.037067346135860962 0 -0.024050195560992329 -0.029947766642317901 0 -0.025823904165632457 -0.023218860625807011 0 -0.025876632559523299 -0.02355373222885394 0 -0.026180410635179625 -0.023441497304477643 0 -0.025876632559523299 -0.02355373222885394 0 -0.026226975602787847 -0.023754811583719046 0 -0.026180410635179625 -0.023441497304477643 0 -0.025728827328374875 -0.023945593219121972 0 -0.025368503382213903 -0.023417760894102024 0 -0.025876632559523299 -0.02355373222885394 0 -0.025728827328374875 -0.023945593219121972 0 -0.025876632559523299 -0.02355373222885394 0 -0.026226975602787847 -0.023754811583719046 0 -0.025368503382213903 -0.023417760894102024 0 -0.025823904165632457 -0.023218860625807011 0 -0.025876632559523299 -0.02355373222885394 0 -0.026226975602787847 -0.023754811583719046 0 -0.026578093010583368 -0.023506183560247487 0 -0.026506690692964394 -0.023931731315087166 0 -0.026226975602787847 -0.023754811583719046 0 -0.026180410635179625 -0.023441497304477643 0 -0.026578093010583368 -0.023506183560247487 0 -0.024770237494876075 -0.033031115407675594 0 -0.024968259747875362 -0.032817628904817701 0 -0.024727467509146291 -0.032933704803856274 0 -0.026180410635179625 -0.023441497304477643 0 -0.026363199763024467 -0.023177118125446625 0 -0.026578093010583368 -0.023506183560247487 0 -0.024620418831362022 -0.033047601952889208 0 -0.024770237494876075 -0.033031115407675594 0 -0.024727467509146291 -0.032933704803856274 0 -0.026363199763024467 -0.023177118125446625 0 -0.026851188812296669 -0.023116271930694311 0 -0.026578093010583368 -0.023506183560247487 0 -0.026851188812296669 -0.023116271930694311 0 -0.026578093010583368 -0.023506183560247487 0 -0.027034693972483582 -0.023437661995698814 0 -0.024620418831362022 -0.033047601952889208 0 -0.024727467509146291 -0.032933704803856274 0 -0.024485356627333438 -0.033009603292485798 0 -0.025669243593464477 -0.027891627933133156 0 -0.027179550432567066 -0.030797894356855069 0 -0.027179550432567066 -0.030797894356855069 0 -0.027831888960924714 -0.025445933491288812 0 -0.026578093010583368 -0.023506183560247487 0 -0.026845823774390529 -0.023728383020034615 0 -0.026506690692964394 -0.023931731315087166 0 -0.026578093010583368 -0.023506183560247487 0 -0.026845823774390529 -0.023728383020034615 0 -0.027034693972483582 -0.023437661995698814 0 -0.026845823774390529 -0.023728383020034615 0 -0.026816317971089784 -0.024077175232176496 0 -0.027219546324190717 -0.023769048631579064 0 -0.027368931075603502 -0.023680346066901115 0 -0.026747069368946892 -0.024243282985220771 0 -0.026845823774390529 -0.023728383020034615 0 -0.026816317971089784 -0.024077175232176496 0 -0.026506690692964394 -0.023931731315087166 0 -0.026816317971089784 -0.024077175232176496 0 -0.026506690692964394 -0.023931731315087166 0 -0.026421571957039893 -0.024400269423275618 0 -0.026133068359274595 -0.024198278329240302 0 -0.026506690692964394 -0.023931731315087166 0 -0.026421571957039893 -0.024400269423275618 0 -0.026133068359274595 -0.024198278329240302 0 -0.026226975602787847 -0.023754811583719046 0 -0.026506690692964394 -0.023931731315087166 0 -0.026747069368946892 -0.024243282985220771 0 -0.026223229349793445 -0.024679700155579295 0 -0.027113664044521157 -0.024016894684517748 0 -0.027745657544983406 -0.024653819558640742 0 -0.026177239823043291 -0.024733102169658301 0 -0.027113664044521157 -0.024016894684517748 0 -0.028076952975340061 -0.023946677160890936 0 -0.027745657544983406 -0.024653819558640742 0 -0.028076952975340061 -0.023946677160890936 0 -0.028647248948825345 -0.024355980441060975 0 -0.027745657544983406 -0.024653819558640742 0 -0.027900186378392103 -0.023485324912507984 0 -0.027113664044521157 -0.024016894684517748 0 -0.028076952975340061 -0.023946677160890936 0 -0.028647248948825345 -0.024355980441060975 0 -0.029063795931493778 -0.023755088208488272 0 -0.028625178081195867 -0.023790926565309865 0 -0.028076952975340061 -0.023946677160890936 0 -0.028647248948825345 -0.024355980441060975 0 -0.028625178081195867 -0.023790926565309865 0 -0.028647248948825345 -0.024355980441060975 0 -0.029427369599081678 -0.024461470111075037 0 -0.029063795931493778 -0.023755088208488272 0 -0.029427369599081678 -0.024461470111075037 0 -0.029362385788588047 -0.024129910243529982 0 -0.029741029888822282 -0.024185781593683363 0 -0.029415600685558929 -0.024398381200320573 0 -0.029199251459249353 -0.023947675675602034 0 -0.029362385788588047 -0.024129910243529982 0 -0.029608689785873183 -0.023955640004412478 0 -0.029741029888822282 -0.024185781593683363 0 -0.029608689785873183 -0.023955640004412478 0 -0.029468101222632145 -0.023815770713305099 0 -0.029661692892845183 -0.023661117730289928 0 -0.029608689785873183 -0.023955640004412478 0 -0.029661692892845183 -0.023661117730289928 0 -0.029872339845954478 -0.023814287382123208 0 -0.029362385788588047 -0.024129910243529982 0 -0.029468101222632145 -0.023815770713305099 0 -0.029193570764811001 -0.023772256709722658 0 -0.029362385788588047 -0.024129910243529982 0 -0.029608689785873183 -0.023955640004412478 0 -0.029468101222632145 -0.023815770713305099 0 -0.027900186378392103 -0.023485324912507984 0 -0.028076952975340061 -0.023946677160890936 0 -0.028704968082405198 -0.023104925483645893 0 -0.028076952975340061 -0.023946677160890936 0 -0.028625178081195867 -0.023790926565309865 0 -0.02871718323642921 -0.023120692692333338 0 -0.027900186378392103 -0.023485324912507984 0 -0.028704968082405198 -0.023104925483645893 0 -0.028614285469780794 -0.0229375869924709 0 -0.028153927293085676 -0.023727890695614449 0 -0.028793962259532905 -0.023658329612306864 0 -0.027368931075603502 -0.023680346066901115 0 -0.028503953818415601 -0.024684511326560087 0 -0.029199251459249353 -0.023947675675602034 0 -0.028793962259532905 -0.023658329612306864 0 -0.029063795931493778 -0.023755088208488272 0 -0.028625178081195867 -0.023790926565309865 0 -0.02871718323642921 -0.023120692692333338 0 -0.028750315929099848 -0.027182110904314907 0 -0.029251579320566854 -0.028158646066719809 0 -0.027879687338932008 -0.02789851080717292 0 -0.028921477322097548 -0.024525976844698431 0 -0.029042208135688963 -0.024753925552514218 0 -0.028318145060905384 -0.025340096373207048 0 -0.028793962259532905 -0.023658329612306864 0 -0.028503953818415601 -0.024684511326560087 0 -0.028503953818415601 -0.024684511326560087 0 -0.028689867710072686 -0.02584004464981567 0 -0.028503953818415601 -0.024684511326560087 0 -0.027831888960924714 -0.025445933491288812 0 -0.026845823774390529 -0.023728383020034615 0 -0.027219546324190717 -0.023769048631579064 0 -0.027034693972483582 -0.023437661995698814 0 -0.028183440251094947 -0.029507894203002691 0 -0.029741950863896562 -0.02912869493744364 0 -0.028458113008902063 -0.02862164743925686 0 -0.028458113008902063 -0.02862164743925686 0 -0.029251579320566854 -0.028158646066719809 0 -0.027879687338932008 -0.02789851080717292 0 -0.029741950863896562 -0.02912869493744364 0 -0.028458113008902063 -0.02862164743925686 0 -0.029251579320566854 -0.028158646066719809 0 -0.026846392637796229 -0.029332180523368539 0 -0.028458113008902063 -0.02862164743925686 0 -0.027879687338932008 -0.02789851080717292 0 -0.028565455594818115 -0.027815233955066101 0 -0.029891181559904556 -0.025980200197634411 0 -0.028979715652568301 -0.0267341895160772 0 -0.029002769977203365 -0.029189411244702031 0 -0.028689867710072686 -0.02584004464981567 0 -0.028689867710072686 -0.02584004464981567 0 -0.02998908765989412 -0.024985484988277486 0 -0.030029686655243543 -0.023393934223544518 0 -0.02998908765989412 -0.024985484988277486 0 -0.029629994898385942 -0.023477353349611089 0 -0.029472046746488966 -0.023441286008153789 0 -0.029722515576737035 -0.023275178558953929 0 -0.029629994898385942 -0.023477353349611089 0 -0.029472046746488966 -0.023441286008153789 0 -0.029484494378697931 -0.023632893974348455 0 -0.029629994898385942 -0.023477353349611089 0 -0.029661692892845183 -0.023661117730289928 0 -0.029861458924066865 -0.023440520753193177 0 -0.029193570764811001 -0.023772256709722658 0 -0.029472046746488966 -0.023441286008153789 0 -0.029484494378697931 -0.023632893974348455 0 -0.028793962259532905 -0.023658329612306864 0 -0.028689867710072686 -0.02584004464981567 0 -0.029468101222632145 -0.023815770713305099 0 -0.029193570764811001 -0.023772256709722658 0 -0.029484494378697931 -0.023632893974348455 0 -0.029629994898385942 -0.023477353349611089 0 -0.029484494378697931 -0.023632893974348455 0 -0.029661692892845183 -0.023661117730289928 0 -0.029468101222632145 -0.023815770713305099 0 -0.029484494378697931 -0.023632893974348455 0 -0.029661692892845183 -0.023661117730289928 0 -0.029661692892845183 -0.023661117730289928 0 -0.029861458924066865 -0.023440520753193177 0 -0.029872339845954478 -0.023814287382123208 0 -0.030097574397400479 -0.023521753330313172 0 -0.029861458924066865 -0.023440520753193177 0 -0.029872339845954478 -0.023814287382123208 0 -0.030532976473144784 -0.025459951182196197 0 -0.030284346261670501 -0.023314390248482815 0 -0.030061625106849742 -0.023034527134932821 0 -0.030097574397400479 -0.023521753330313172 0 -0.029861458924066865 -0.023440520753193177 0 -0.030061625106849742 -0.023034527134932821 0 -0.029861458924066865 -0.023440520753193177 0 -0.029749602543582561 -0.023258878556789712 0 -0.029629994898385942 -0.023477353349611089 0 -0.029861458924066865 -0.023440520753193177 0 -0.029749602543582561 -0.023258878556789712 0 -0.029002769977203365 -0.029189411244702031 0 -0.02998908765989412 -0.024985484988277486 0 -0.030603335746949872 -0.02788028195989764 0 -0.02928015023058668 -0.027785161337045769 0 -0.031278570263958139 -0.026171701742398419 0 -0.030532976473144784 -0.025459951182196197 0 -0.02998908765989412 -0.024985484988277486 0 -0.030617395678453445 -0.023830794662040376 0 -0.030529156825447774 -0.02394439135092704 0 -0.030694790037643686 -0.023926400103418979 0 -0.030617395678453445 -0.023830794662040376 0 -0.030694790037643686 -0.023926400103418979 0 -0.030748667718811698 -0.023861055735240989 0 -0.030529156825447774 -0.02394439135092704 0 -0.030694790037643686 -0.023926400103418979 0 -0.030646387196040771 -0.024060695146399583 0 -0.030646387196040771 -0.024060695146399583 0 -0.030251493362197741 -0.024168140509627029 0 -0.030744877864192742 -0.02437131710301849 0 -0.030529156825447774 -0.02394439135092704 0 -0.030646387196040771 -0.024060695146399583 0 -0.030251493362197741 -0.024168140509627029 0 -0.030284346261670501 -0.023314390248482815 0 -0.030274980662823966 -0.024340050172290583 0 -0.030097574397400479 -0.023521753330313172 0 -0.029872339845954478 -0.023814287382123208 0 -0.030251493362197741 -0.024168140509627029 0 -0.029608689785873183 -0.023955640004412478 0 -0.029872339845954478 -0.023814287382123208 0 -0.029741029888822282 -0.024185781593683363 0 -0.029872339845954478 -0.023814287382123208 0 -0.030251493362197741 -0.024168140509627029 0 -0.029741029888822282 -0.024185781593683363 0 -0.030251493362197741 -0.024168140509627029 0 -0.029741029888822282 -0.024185781593683363 0 -0.030049658750184598 -0.024488529547736469 0 -0.029427369599081678 -0.024461470111075037 0 -0.029741029888822282 -0.024185781593683363 0 -0.030049658750184598 -0.024488529547736469 0 -0.030049658750184598 -0.024488529547736469 0 -0.03012283236160378 -0.025014616299628829 0 -0.030744877864192742 -0.02437131710301849 0 -0.030251493362197741 -0.024168140509627029 0 -0.030049658750184598 -0.024488529547736469 0 -0.030744877864192742 -0.02437131710301849 0 -0.036417972569463261 -0.026757166020671509 0 -0.037134298642744784 -0.024898124708231991 0 -0.042641662061907407 -0.028311799105927283 0 -0.044480332886215238 -0.026371363384177938 0 -0.044666059139500877 -0.027931469968772236 0 -0.042641662061907407 -0.028311799105927283 0 -0.043796678471158687 -0.028874554268125102 0 -0.044666059139500877 -0.027931469968772236 0 -0.029427369599081678 -0.024461470111075037 0 -0.030049658750184598 -0.024488529547736469 0 -0.03012283236160378 -0.025014616299628829 0 -0.036417972569463261 -0.026757166020671509 0 -0.035171797661434738 -0.027697329044994636 0 -0.042641662061907407 -0.028311799105927283 0 -0.043142487420492433 -0.03009097641356567 0 -0.040995425945560944 -0.030056934410111279 0 -0.043796678471158687 -0.028874554268125102 0 -0.043142487420492433 -0.03009097641356567 0 -0.044878241375678148 -0.029303197982733991 0 -0.042641662061907407 -0.028311799105927283 0 -0.043796678471158687 -0.028874554268125102 0 -0.043142487420492433 -0.03009097641356567 0 -0.043142487420492433 -0.03009097641356567 0 -0.042241049822414438 -0.031717202094071334 0 -0.044380543775778873 -0.030917606950983355 0 -0.043798315076581669 -0.030870550085057478 0 -0.044440518812147119 -0.027462392965811631 0 -0.043142487420492433 -0.03009097641356567 0 -0.044878241375678148 -0.029303197982733991 0 -0.044843775760281222 -0.031312920803026063 0 -0.041819053234574466 -0.022520873586794631 0 -0.041099439559206259 -0.022062869805780535 0 -0.042575071500115157 -0.021530063930901195 0 -0.041341728132149064 -0.026715567303103104 0 -0.044440518812147119 -0.027462392965811631 0 -0.043142487420492433 -0.03009097641356567 0 -0.042241049822414438 -0.031717202094071334 0 -0.040995425945560944 -0.030056934410111279 0 -0.042241049822414438 -0.031717202094071334 0 -0.040995425945560944 -0.030056934410111279 0 -0.040794969350539466 -0.031348851230452161 0 -0.035171797661434738 -0.027697329044994636 0 -0.033478467706269423 -0.029550886592559149 0 -0.040995425945560944 -0.030056934410111279 0 -0.040794969350539466 -0.031348851230452161 0 -0.039437474735525092 -0.031601922627845634 0 -0.042241049822414438 -0.031717202094071334 0 -0.040794969350539466 -0.031348851230452161 0 -0.040012088163942 -0.032403436907858699 0 -0.041341728132149064 -0.026715567303103104 0 -0.040639576112025032 -0.027734917416478617 0 -0.040794969350539466 -0.031348851230452161 0 -0.039437474735525092 -0.031601922627845634 0 -0.040012088163942 -0.032403436907858699 0 -0.02914654776882027 -0.025721330187000197 0 -0.028260245725630174 -0.025991421842965823 0 -0.028321816227882442 -0.025581646381403818 0 -0.028321816227882442 -0.025581646381403818 0 -0.029048863908179571 -0.025073966768439655 0 -0.028339199390778339 -0.025028997492229671 0 -0.03012283236160378 -0.025014616299628829 0 -0.02914654776882027 -0.025721330187000197 0 -0.029048863908179571 -0.025073966768439655 0 -0.02914654776882027 -0.025721330187000197 0 -0.028321816227882442 -0.025581646381403818 0 -0.029048863908179571 -0.025073966768439655 0 -0.028647248948825345 -0.024355980441060975 0 -0.029427369599081678 -0.024461470111075037 0 -0.029048863908179571 -0.025073966768439655 0 -0.029427369599081678 -0.024461470111075037 0 -0.03012283236160378 -0.025014616299628829 0 -0.029048863908179571 -0.025073966768439655 0 -0.028647248948825345 -0.024355980441060975 0 -0.029048863908179571 -0.025073966768439655 0 -0.028339199390778339 -0.025028997492229671 0 -0.028647248948825345 -0.024355980441060975 0 -0.028339199390778339 -0.025028997492229671 0 -0.027745657544983406 -0.024653819558640742 0 -0.028339199390778339 -0.025028997492229671 0 -0.027745657544983406 -0.024653819558640742 0 -0.027633094900809375 -0.025474394151484475 0 -0.027745657544983406 -0.024653819558640742 0 -0.027633094900809375 -0.025474394151484475 0 -0.026177239823043291 -0.024733102169658301 0 -0.027633094900809375 -0.025474394151484475 0 -0.0262598178216055 -0.026038349895981378 0 -0.026177239823043291 -0.024733102169658301 0 -0.027577683858731265 -0.025503452410802544 0 -0.026865609433821283 -0.025744682846969548 0 -0.028321816227882442 -0.025581646381403818 0 -0.028339199390778339 -0.025028997492229671 0 -0.027633094900809375 -0.025474394151484475 0 -0.028321816227882442 -0.025581646381403818 0 -0.027633094900809375 -0.025474394151484475 0 -0.027763467983238012 -0.025739013021295731 0 -0.028260245725630174 -0.025991421842965823 0 -0.028321816227882442 -0.025581646381403818 0 -0.027763467983238012 -0.025739013021295731 0 -0.028260245725630174 -0.025991421842965823 0 -0.027763467983238012 -0.025739013021295731 0 -0.02780523839254373 -0.025974586384273197 0 -0.027763467983238012 -0.025739013021295731 0 -0.027510698242857044 -0.025719112586796048 0 -0.02780523839254373 -0.025974586384273197 0 -0.027633094900809375 -0.025474394151484475 0 -0.027763467983238012 -0.025739013021295731 0 -0.027456062285453758 -0.025511937163339167 0 -0.027763467983238012 -0.025739013021295731 0 -0.027510698242857044 -0.025719112586796048 0 -0.027456062285453758 -0.025511937163339167 0 -0.027510698242857044 -0.025719112586796048 0 -0.027337602377966917 -0.025621869468432902 0 -0.027456062285453758 -0.025511937163339167 0 -0.027337602377966917 -0.025621869468432902 0 -0.027267246271901305 -0.025629570886728913 0 -0.027227211832754065 -0.025591029172002931 0 -0.027510698242857044 -0.025719112586796048 0 -0.027337602377966917 -0.025621869468432902 0 -0.027267246271901305 -0.025629570886728913 0 -0.027337602377966917 -0.025621869468432902 0 -0.02726524408632338 -0.025529837167453114 0 -0.027227211832754065 -0.025591029172002931 0 -0.027337602377966917 -0.025621869468432902 0 -0.02726524408632338 -0.025529837167453114 0 -0.027456062285453758 -0.025511937163339167 0 -0.026293777886281788 -0.026114424937306084 0 -0.026865609433821283 -0.025744682846969548 0 -0.025213275163202414 -0.026355346036098962 0 -0.025476671932112907 -0.025551036174513361 0 -0.0262598178216055 -0.026038349895981378 0 -0.025476671932112907 -0.025551036174513361 0 -0.0262598178216055 -0.026038349895981378 0 -0.026177239823043291 -0.024733102169658301 0 -0.025476671932112907 -0.025551036174513361 0 -0.025432677844149258 -0.024790510974036811 0 -0.024863373051895236 -0.025284332559818764 0 -0.025476671932112907 -0.025551036174513361 0 -0.026177239823043291 -0.024733102169658301 0 -0.025432677844149258 -0.024790510974036811 0 -0.050892558164795577 -0.033000525321736938 0 -0.050930041926284142 -0.032952277060999742 0 -0.050755155064753442 -0.032923970475548937 0 -0.050892558164795577 -0.033000525321736938 0 -0.050755155064753442 -0.032923970475548937 0 -0.04987468084008282 -0.033012416680567043 0 -0.046916944324058192 -0.030437690730702807 0 -0.047399563630656699 -0.031086003309212788 0 -0.047559383898615228 -0.030304048353584977 0 -0.048921701312846261 -0.032032073873533823 0 -0.048611409105603957 -0.03193166496416467 0 -0.046916944324058192 -0.030437690730702807 0 -0.047559383898615228 -0.030304048353584977 0 -0.047079252188509078 -0.029682516276778079 0 -0.048921701312846261 -0.032032073873533823 0 -0.048980028397873659 -0.028955698748022007 0 -0.050892558164795577 -0.033000525321736938 0 -0.050930041926284142 -0.032952277060999742 0 -0.050908253728903785 -0.03212173505869087 0 -0.049999504470680564 -0.031650004918366989 0 -0.050930041926284142 -0.032952277060999742 0 -0.050908253728903785 -0.03212173505869087 0 -0.049999504470680564 -0.031650004918366989 0 -0.050000020436305512 -0.034160466003562165 0 -0.050930041926284142 -0.032952277060999742 0 -0.050000020436305512 -0.034160466003562165 0 -0.050930041926284142 -0.032952277060999742 0 -0.05094389252938724 -0.033167607490268883 0 -0.050930041926284142 -0.032952277060999742 0 -0.05094389252938724 -0.033167607490268883 0 -0.050755155064753442 -0.032923970475548937 0 -0.050000241688279413 -0.034165316949039987 0 -0.051321239674158838 -0.034305767599343021 0 -0.050000068507883862 -0.034165948316129055 0 -0.052110071742884324 -0.035495065600888311 0 -0.051406585270626699 -0.036462860750122707 0 -0.050000068507883862 -0.034165948316129055 0 -0.049999829335173183 -0.037025642291668374 0 -0.051406585270626699 -0.036462860750122707 0 -0.051606026892916233 -0.038848884191323291 0 -0.049999829335173183 -0.037025642291668374 0 -0.051406585270626699 -0.036462860750122707 0 -0.051391069165520817 -0.037914887131316903 0 -0.051406585270626699 -0.036462860750122707 0 -0.052333107304774459 -0.036566859809946638 0 -0.052110071742884324 -0.035495065600888311 0 -0.051406585270626699 -0.036462860750122707 0 -0.052333107304774459 -0.036566859809946638 0 -0.052110071742884324 -0.035495065600888311 0 -0.052333107304774459 -0.036566859809946638 0 -0.053403308352754218 -0.036425622882317515 0 -0.0528128664077952 -0.03727180050495825 0 -0.052333107304774459 -0.036566859809946638 0 -0.053403308352754218 -0.036425622882317515 0 -0.05094389252938724 -0.033167607490268883 0 -0.050755155064753442 -0.032923970475548937 0 -0.050538839469408847 -0.032103112281264758 0 -0.051321239674158838 -0.034305767599343021 0 -0.052450925756730042 -0.034112830260590449 0 -0.050755155064753442 -0.032923970475548937 0 -0.050538839469408847 -0.032103112281264758 0 -0.04987468084008282 -0.033012416680567043 0 -0.052450925756730042 -0.034112830260590449 0 -0.0488275182931249 -0.035784293787488049 0 -0.053521104771199597 -0.037165829692568077 0 -0.0528128664077952 -0.03727180050495825 0 -0.053403308352754218 -0.036425622882317515 0 -0.053521104771199597 -0.037165829692568077 0 -0.053403308352754218 -0.036425622882317515 0 -0.054410668031213298 -0.036992734796288076 0 -0.050538839469408847 -0.032103112281264758 0 -0.048948189598779765 -0.031559391661629722 0 -0.048894714567649156 -0.031097765105866978 0 -0.048948189598779765 -0.031559391661629722 0 -0.048894714567649156 -0.031097765105866978 0 -0.04861136153577459 -0.031395771447113661 0 -0.048178023174227994 -0.031639815897759722 0 -0.047167516782071449 -0.031277154141562687 0 -0.0488275182931249 -0.035784293787488049 0 -0.047167516782071449 -0.031277154141562687 0 -0.04221538544974248 -0.027193847418523744 0 -0.043775578845971976 -0.027963031121815505 0 -0.04265605054063093 -0.029124392448460799 0 -0.043174861502602774 -0.030537734709467145 0 -0.047167516782071449 -0.031277154141562687 0 -0.048569170535341939 -0.031535944216508009 0 -0.048380225288136403 -0.031777103119811703 0 -0.048290520235519788 -0.0317301416152398 0 -0.048948189598779765 -0.031559391661629722 0 -0.048569170535341939 -0.031535944216508009 0 -0.048380225288136403 -0.031777103119811703 0 -0.047167516782071449 -0.031277154141562687 0 -0.045545423982369791 -0.030410845552021327 0 -0.048380225288136403 -0.031777103119811703 0 -0.048290520235519788 -0.0317301416152398 0 -0.048140477676676452 -0.031368459919348841 0 -0.048296459643430913 -0.03128123091675869 0 -0.048140477676676452 -0.031368459919348841 0 -0.048080236648577586 -0.030880420490087015 0 -0.048290520235519788 -0.0317301416152398 0 -0.048296459643430913 -0.03128123091675869 0 -0.048140477676676452 -0.031368459919348841 0 -0.048380225288136403 -0.031777103119811703 0 -0.048140477676676452 -0.031368459919348841 0 -0.047399563630656699 -0.031086003309212788 0 -0.050538839469408847 -0.032103112281264758 0 -0.048948189598779765 -0.031559391661629722 0 -0.04987468084008282 -0.033012416680567043 0 -0.048393853844332216 -0.031814841212280461 0 -0.048611409105603957 -0.03193166496416467 0 -0.048948189598779765 -0.031559391661629722 0 -0.048380225288136403 -0.031777103119811703 0 -0.04987468084008282 -0.033012416680567043 0 -0.030694790037643686 -0.023926400103418979 0 -0.030748667718811698 -0.023861055735240989 0 -0.030903668432234174 -0.023892932253898057 0 -0.030794724901354244 -0.02381689354278619 0 -0.030748667718811698 -0.023861055735240989 0 -0.030903668432234174 -0.023892932253898057 0 -0.04221538544974248 -0.027193847418523744 0 -0.04265605054063093 -0.029124392448460799 0 -0.041113402595660889 -0.02836256513731918 0 -0.04265605054063093 -0.029124392448460799 0 -0.041113402595660889 -0.02836256513731918 0 -0.041570410402548504 -0.030262070726405639 0 -0.035241979766328889 -0.025226130537394996 0 -0.042186935629772181 -0.027656047637423836 0 -0.048290520235519788 -0.0317301416152398 0 -0.048296459643430913 -0.03128123091675869 0 -0.048719102721619181 -0.031130049681726918 0 -0.045545423982369791 -0.030410845552021327 0 -0.042186935629772181 -0.027656047637423836 0 -0.030694790037643686 -0.023926400103418979 0 -0.030646387196040771 -0.024060695146399583 0 -0.03101688092828651 -0.024077640681857668 0 -0.030694790037643686 -0.023926400103418979 0 -0.030903668432234174 -0.023892932253898057 0 -0.03101688092828651 -0.024077640681857668 0 -0.042186935629772181 -0.027656047637423836 0 -0.037134298642744784 -0.024898124708231991 0 -0.030646387196040771 -0.024060695146399583 0 -0.03101688092828651 -0.024077640681857668 0 -0.030744877864192742 -0.02437131710301849 0 -0.042186935629772181 -0.027656047637423836 0 -0.048275802196975331 -0.028708482752700614 0 -0.048719102721619181 -0.031130049681726918 0 -0.048310383082656554 -0.030180641964096221 0 -0.048080236648577586 -0.030880420490087015 0 -0.04628108559982734 -0.024452802863675325 0 -0.046907567566461451 -0.02682986294219273 0 -0.044480332886215238 -0.026371363384177938 0 -0.046907567566461451 -0.02682986294219273 0 -0.044480332886215238 -0.026371363384177938 0 -0.044666059139500877 -0.027931469968772236 0 -0.048140477676676452 -0.031368459919348841 0 -0.047399563630656699 -0.031086003309212788 0 -0.048080236648577586 -0.030880420490087015 0 -0.047399563630656699 -0.031086003309212788 0 -0.048080236648577586 -0.030880420490087015 0 -0.047559383898615228 -0.030304048353584977 0 -0.048296459643430913 -0.03128123091675869 0 -0.048719102721619181 -0.031130049681726918 0 -0.048080236648577586 -0.030880420490087015 0 -0.048310383082656554 -0.030180641964096221 0 -0.047559383898615228 -0.030304048353584977 0 -0.047674657945933112 -0.029782044495888269 0 -0.048310383082656554 -0.030180641964096221 0 -0.048080236648577586 -0.030880420490087015 0 -0.047559383898615228 -0.030304048353584977 0 -0.047559383898615228 -0.030304048353584977 0 -0.047674657945933112 -0.029782044495888269 0 -0.047079252188509078 -0.029682516276778079 0 -0.048310383082656554 -0.030180641964096221 0 -0.047674657945933112 -0.029782044495888269 0 -0.047567926612150147 -0.029516731772711392 0 -0.047567926612150147 -0.029516731772711392 0 -0.047715882817016428 -0.029552388014434532 0 -0.047209631987589686 -0.030287604716870455 0 -0.047674657945933112 -0.029782044495888269 0 -0.047567926612150147 -0.029516731772711392 0 -0.047715882817016428 -0.029552388014434532 0 -0.047267329833368711 -0.027358669821317828 0 -0.047028333988315428 -0.027730603591513137 0 -0.047674657945933112 -0.029782044495888269 0 -0.047715882817016428 -0.029552388014434532 0 -0.047079252188509078 -0.029682516276778079 0 -0.044666059139500877 -0.027931469968772236 0 -0.046056253600822335 -0.028613006703144414 0 -0.044878241375678148 -0.029303197982733991 0 -0.046907567566461451 -0.02682986294219273 0 -0.044666059139500877 -0.027931469968772236 0 -0.046056253600822335 -0.028613006703144414 0 -0.046907567566461451 -0.02682986294219273 0 -0.047567926612150147 -0.029516731772711392 0 -0.046056253600822335 -0.028613006703144414 0 -0.048275802196975331 -0.028708482752700614 0 -0.047438360135619959 -0.029389485506196487 0 -0.047567926612150147 -0.029516731772711392 0 -0.046165253834175662 -0.029755495030083009 0 -0.047209631987589686 -0.030287604716870455 0 -0.047567926612150147 -0.029516731772711392 0 -0.046056253600822335 -0.028613006703144414 0 -0.046165253834175662 -0.029755495030083009 0 -0.046165253834175662 -0.029755495030083009 0 -0.044878241375678148 -0.029303197982733991 0 -0.044843775760281222 -0.031312920803026063 0 -0.046056253600822335 -0.028613006703144414 0 -0.046165253834175662 -0.029755495030083009 0 -0.044878241375678148 -0.029303197982733991 0 -0.043796678471158687 -0.028874554268125102 0 -0.044666059139500877 -0.027931469968772236 0 -0.044878241375678148 -0.029303197982733991 0 -0.04611030616737305 -0.025195297966282403 0 -0.046500944633730806 -0.02520726395927194 0 -0.046400761431700438 -0.025379214253592474 0 -0.04611030616737305 -0.025195297966282403 0 -0.046500944633730806 -0.02520726395927194 0 -0.046629809201135512 -0.025052294364216805 0 -0.044440518812147119 -0.027462392965811631 0 -0.047028333988315428 -0.027730603591513137 0 -0.046165253834175662 -0.029755495030083009 0 -0.044843775760281222 -0.031312920803026063 0 -0.047209631987589686 -0.030287604716870455 0 -0.046500944633730806 -0.02520726395927194 0 -0.046631901970237422 -0.025290247155071336 0 -0.046687684475623145 -0.02511110668531381 0 -0.046500944633730806 -0.02520726395927194 0 -0.046629809201135512 -0.025052294364216805 0 -0.046687684475623145 -0.02511110668531381 0 -0.041573212179766894 -0.015107101965182571 0 -0.041487505496532837 -0.015044620035466666 0 -0.041379252027570493 -0.015164813069145621 0 -0.045821807184654215 -0.0239610175093725 0 -0.043710857498377852 -0.021090925016600138 0 -0.045821807184654215 -0.0239610175093725 0 -0.044785893737539405 -0.019847100490030873 0 -0.046500944633730806 -0.02520726395927194 0 -0.046631901970237422 -0.025290247155071336 0 -0.046400761431700438 -0.025379214253592474 0 -0.044896649057587744 -0.021857995736369012 0 -0.044908767212883574 -0.021809036122885428 0 -0.044938388228764836 -0.021832671343453076 0 -0.046879510273201273 -0.025027546348060176 0 -0.046921027028219549 -0.0249208913292958 0 -0.046847049808486578 -0.024955794199620563 0 -0.044785893737539405 -0.019847100490030873 0 -0.047404701979678172 -0.021583623365354382 0 -0.044785893737539405 -0.019847100490030873 0 -0.043710857498377852 -0.021090925016600138 0 -0.041819053234574466 -0.022520873586794631 0 -0.042575071500115157 -0.021530063930901195 0 -0.043312749468527298 -0.022025635136784415 0 -0.041278772543237578 -0.018449057883911362 0 -0.043710857498377852 -0.021090925016600138 0 -0.041124746726949865 -0.015077286160320948 0 -0.041487505496532837 -0.015044620035466666 0 -0.041379252027570493 -0.015164813069145621 0 -0.044440518812147119 -0.027462392965811631 0 -0.043710857498377852 -0.021090925016600138 0 -0.046777061728400793 -0.025115854662029143 0 -0.046754399319163004 -0.025116080673462125 0 -0.046766390236974091 -0.025100421430187873 0 -0.046777061728400793 -0.025115854662029143 0 -0.046629809201135512 -0.025052294364216805 0 -0.046687684475623145 -0.02511110668531381 0 -0.046777061728400793 -0.025115854662029143 0 -0.046687684475623145 -0.02511110668531381 0 -0.046766390236974091 -0.025100421430187873 0 -0.046666555352264862 -0.025154884136799779 0 -0.046687684475623145 -0.02511110668531381 0 -0.046766390236974091 -0.025100421430187873 0 -0.045821807184654215 -0.0239610175093725 0 -0.046113287512911244 -0.024946880514579266 0 -0.045821807184654215 -0.0239610175093725 0 -0.046902285280994119 -0.024999603407689152 0 -0.046754399319163004 -0.025116080673462125 0 -0.04679375671969184 -0.024946238231697747 0 -0.046794736698863436 -0.024961413245164165 0 -0.046766390236974091 -0.025100421430187873 0 -0.046825357031704831 -0.025011945365105565 0 -0.046794736698863436 -0.024961413245164165 0 -0.046879510273201273 -0.025027546348060176 0 -0.046766390236974091 -0.025100421430187873 0 -0.046825357031704831 -0.025011945365105565 0 -0.046879510273201273 -0.025027546348060176 0 -0.046825357031704831 -0.025011945365105565 0 -0.046847049808486578 -0.024955794199620563 0 -0.046847049808486578 -0.024955794199620563 0 -0.046797919358803119 -0.024928884523927938 0 -0.046794736698863436 -0.024961413245164165 0 -0.046825357031704831 -0.025011945365105565 0 -0.046847049808486578 -0.024955794199620563 0 -0.046794736698863436 -0.024961413245164165 0 -0.048284932658944672 -0.0230858845150314 0 -0.048196406902200353 -0.023364412073558122 0 -0.046847049808486578 -0.024955794199620563 0 -0.046797919358803119 -0.024928884523927938 0 -0.046848604487708299 -0.024867456839232149 0 -0.048284932658944672 -0.0230858845150314 0 -0.047404701979678172 -0.021583623365354382 0 -0.048284932658944672 -0.0230858845150314 0 -0.048945397863615708 -0.021272609932579595 0 -0.046921027028219549 -0.0249208913292958 0 -0.046847049808486578 -0.024955794199620563 0 -0.046848604487708299 -0.024867456839232149 0 -0.051567877824951119 -0.023049244369760587 0 -0.050763043679728372 -0.022897749998687766 0 -0.051640425994402321 -0.022587894768229474 0 -0.050262497277598045 -0.024245244099905139 0 -0.050763043679728372 -0.022897749998687766 0 -0.04961037060970331 -0.022678393271202468 0 -0.050262497277598045 -0.024245244099905139 0 -0.051567877824951119 -0.023049244369760587 0 -0.050763043679728372 -0.022897749998687766 0 -0.048630452033436813 -0.024834832056647698 0 -0.048284932658944672 -0.0230858845150314 0 -0.046754399319163004 -0.025116080673462125 0 -0.046766390236974091 -0.025100421430187873 0 -0.046794736698863436 -0.024961413245164165 0 -0.050262497277598045 -0.024245244099905139 0 -0.048928362261610417 -0.023918795235741818 0 -0.04961037060970331 -0.022678393271202468 0 -0.048928362261610417 -0.023918795235741818 0 -0.047608512265077542 -0.0244235298872694 0 -0.048193659877235048 -0.022794203740683888 0 -0.048928362261610417 -0.023918795235741818 0 -0.04961037060970331 -0.022678393271202468 0 -0.048193659877235048 -0.022794203740683888 0 -0.048928362261610417 -0.023918795235741818 0 -0.048956413652857834 -0.025450661126704757 0 -0.047608512265077542 -0.0244235298872694 0 -0.050262497277598045 -0.024245244099905139 0 -0.048928362261610417 -0.023918795235741818 0 -0.048956413652857834 -0.025450661126704757 0 -0.048630452033436813 -0.024834832056647698 0 -0.047691466743787062 -0.024898155769645786 0 -0.047267329833368711 -0.027358669821317828 0 -0.046507247042441198 -0.027362207951692016 0 -0.046777061728400793 -0.025115854662029143 0 -0.046787504388166014 -0.025191526122684625 0 -0.046782415971564177 -0.025171739533655063 0 -0.046777061728400793 -0.025115854662029143 0 -0.046754399319163004 -0.025116080673462125 0 -0.046782415971564177 -0.025171739533655063 0 -0.046787504388166014 -0.025191526122684625 0 -0.046782415971564177 -0.025171739533655063 0 -0.046793715785618202 -0.025297038274556576 0 -0.046916944324058192 -0.030437690730702807 0 -0.047079252188509078 -0.029682516276778079 0 -0.04646562574979754 -0.029932850828976221 0 -0.046507247042441198 -0.027362207951692016 0 -0.048980028397873659 -0.028955698748022007 0 -0.047691466743787062 -0.024898155769645786 0 -0.048980028397873659 -0.028955698748022007 0 -0.05000000387474527 -0.031645277179231428 0 -0.050824784476026293 -0.030540051123545395 0 -0.052577281123155337 -0.030558879009422966 0 -0.05000000387474527 -0.031645277179231428 0 -0.04999995749265855 -0.029763832903863321 0 -0.050824784476026293 -0.030540051123545395 0 -0.050003589973945405 -0.031646189748601852 0 -0.048980028397873659 -0.028955698748022007 0 -0.050800507618680733 -0.0298855449162428 0 -0.051583039746214532 -0.03006960524931716 0 -0.05174197944184613 -0.029665160105321661 0 -0.050800507618680733 -0.0298855449162428 0 -0.050824784476026293 -0.030540051123545395 0 -0.051583039746214532 -0.03006960524931716 0 -0.050800507618680733 -0.0298855449162428 0 -0.04999995749265855 -0.029763832903863321 0 -0.050824784476026293 -0.030540051123545395 0 -0.050824784476026293 -0.030540051123545395 0 -0.052577281123155337 -0.030558879009422966 0 -0.051583039746214532 -0.03006960524931716 0 -0.048956413652857834 -0.025450661126704757 0 -0.047629347422544349 -0.026680928882904315 0 -0.047031821894758769 -0.026046120548452425 0 -0.052577281123155337 -0.030558879009422966 0 -0.051583039746214532 -0.03006960524931716 0 -0.0517289724776612 -0.029670252972354878 0 -0.048980028397873659 -0.028955698748022007 0 -0.05076162190788585 -0.028497575067556062 0 -0.050788275739926156 -0.029076580718534223 0 -0.05076162190788585 -0.028497575067556062 0 -0.048956413652857834 -0.025450661126704757 0 -0.047031821894758769 -0.026046120548452425 0 -0.047608512265077542 -0.0244235298872694 0 -0.05076162190788585 -0.028497575067556062 0 -0.04996093538350059 -0.025758973628838822 0 -0.051725340233398968 -0.029566528831247139 0 -0.049999978663353407 -0.027882129693858473 0 -0.052595790723400065 -0.027284205686637711 0 -0.05076162190788585 -0.028497575067556062 0 -0.050001847995403054 -0.02788421412281903 0 -0.050800507618680733 -0.0298855449162428 0 -0.04999995749265855 -0.029763832903863321 0 -0.050000012137768717 -0.027882334341231545 0 -0.050800507618680733 -0.0298855449162428 0 -0.05174197944184613 -0.029665160105321661 0 -0.050000012137768717 -0.027882334341231545 0 -0.049999978663353407 -0.027882129693858473 0 -0.052595790723400065 -0.027284205686637711 0 -0.051631860585712876 -0.025789731380425347 0 -0.052595790723400065 -0.027284205686637711 0 -0.051631860585712876 -0.025789731380425347 0 -0.053460367480515858 -0.024938099720597951 0 -0.04996093538350059 -0.025758973628838822 0 -0.050839963262475703 -0.023886698907628252 0 -0.049999978663353407 -0.027882129693858473 0 -0.051631860585712876 -0.025789731380425347 0 -0.049999958250365746 -0.025376728148355378 0 -0.051631860585712876 -0.025789731380425347 0 -0.049999958250365746 -0.025376728148355378 0 -0.051804460471560114 -0.023761179556038833 0 -0.049999958250365746 -0.025376728148355378 0 -0.051804460471560114 -0.023761179556038833 0 -0.04999997274660322 -0.022871079074730065 0 -0.051631860585712876 -0.025789731380425347 0 -0.051804460471560114 -0.023761179556038833 0 -0.053460367480515858 -0.024938099720597951 0 -0.051804460471560114 -0.023761179556038833 0 -0.054298148850731205 -0.022592844137012978 0 -0.052081806038879817 -0.021716964768814486 0 -0.051804460471560114 -0.023761179556038833 0 -0.04999997274660322 -0.022871079074730065 0 -0.052081806038879817 -0.021716964768814486 0 -0.04961037060970331 -0.022678393271202468 0 -0.049224341737789452 -0.021867821648958549 0 -0.049755760868204699 -0.021230367619425879 0 -0.04961037060970331 -0.022678393271202468 0 -0.049224341737789452 -0.021867821648958549 0 -0.048193659877235048 -0.022794203740683888 0 -0.051804460471560114 -0.023761179556038833 0 -0.053460367480515858 -0.024938099720597951 0 -0.054298148850731205 -0.022592844137012978 0 -0.050839963262475703 -0.023886698907628252 0 -0.051552384350030032 -0.021873230737777628 0 -0.049224341737789452 -0.021867821648958549 0 -0.048193659877235048 -0.022794203740683888 0 -0.048810198551202222 -0.02120016246027014 0 -0.049224341737789452 -0.021867821648958549 0 -0.048810198551202222 -0.02120016246027014 0 -0.049755760868204699 -0.021230367619425879 0 -0.048810198551202222 -0.02120016246027014 0 -0.049755760868204699 -0.021230367619425879 0 -0.049695108792025842 -0.020629823527042703 0 -0.051552384350030032 -0.021873230737777628 0 -0.052277143869212374 -0.020113971606864015 0 -0.048810198551202222 -0.02120016246027014 0 -0.049695108792025842 -0.020629823527042703 0 -0.049385426022649885 -0.019697861286562462 0 -0.049695108792025842 -0.020629823527042703 0 -0.049385426022649885 -0.019697861286562462 0 -0.050772971927705211 -0.019606194332613132 0 -0.054298148850731205 -0.022592844137012978 0 -0.053500131426605133 -0.020766192069365929 0 -0.052081806038879817 -0.021716964768814486 0 -0.054298148850731205 -0.022592844137012978 0 -0.053500131426605133 -0.020766192069365929 0 -0.055121944879643579 -0.020266903596302843 0 -0.053500131426605133 -0.020766192069365929 0 -0.053882523846190022 -0.019050483446065025 0 -0.052231787545681425 -0.019650096171791968 0 -0.053500131426605133 -0.020766192069365929 0 -0.053882523846190022 -0.019050483446065025 0 -0.055121944879643579 -0.020266903596302843 0 -0.052277143869212374 -0.020113971606864015 0 -0.052576535185751193 -0.01729341001206847 0 -0.053882523846190022 -0.019050483446065025 0 -0.055121944879643579 -0.020266903596302843 0 -0.055954670802427199 -0.017959644820364797 0 -0.04999997274660322 -0.022871079074730065 0 -0.049999911440645924 -0.020365537150444511 0 -0.052081806038879817 -0.021716964768814486 0 -0.049999911440645924 -0.020365537150444511 0 -0.052081806038879817 -0.021716964768814486 0 -0.052231787545681425 -0.019650096171791968 0 -0.053500131426605133 -0.020766192069365929 0 -0.052081806038879817 -0.021716964768814486 0 -0.052231787545681425 -0.019650096171791968 0 -0.053882523846190022 -0.019050483446065025 0 -0.052231787545681425 -0.019650096171791968 0 -0.052592019819301214 -0.018278932165224492 0 -0.052231787545681425 -0.019650096171791968 0 -0.051298991023305124 -0.018484303077676515 0 -0.052592019819301214 -0.018278932165224492 0 -0.049999911440645924 -0.020365537150444511 0 -0.050000008260384504 -0.017859825055352017 0 -0.051298991023305124 -0.018484303077676515 0 -0.049999911440645924 -0.020365537150444511 0 -0.052231787545681425 -0.019650096171791968 0 -0.051298991023305124 -0.018484303077676515 0 -0.050000008260384504 -0.017859825055352017 0 -0.051298991023305124 -0.018484303077676515 0 -0.051664713206455777 -0.0167643058258422 0 -0.050000271365979676 -0.017859644145749268 0 -0.051573651733806902 -0.01595627425014538 0 -0.05000001487215306 -0.017859909476264247 0 -0.05163193680106349 -0.015798870158080028 0 -0.049999940249629865 -0.015282407822717788 0 -0.050000008260384504 -0.017859825055352017 0 -0.051542003395149263 -0.016182160512103441 0 -0.051664713206455777 -0.0167643058258422 0 -0.051624095194411281 -0.016712425667373333 0 -0.053276780342254394 -0.016999637108252866 0 -0.051664713206455777 -0.0167643058258422 0 -0.052109254721360687 -0.016502912520644984 0 -0.051960868933272612 -0.016256559694628803 0 -0.051542003395149263 -0.016182160512103441 0 -0.051664713206455777 -0.0167643058258422 0 -0.051960868933272612 -0.016256559694628803 0 -0.051298991023305124 -0.018484303077676515 0 -0.051664713206455777 -0.0167643058258422 0 -0.052592019819301214 -0.018278932165224492 0 -0.051664713206455777 -0.0167643058258422 0 -0.052592019819301214 -0.018278932165224492 0 -0.053871293724469478 -0.017372686597717468 0 -0.053882523846190022 -0.019050483446065025 0 -0.052592019819301214 -0.018278932165224492 0 -0.053871293724469478 -0.017372686597717468 0 -0.053276780342254394 -0.016999637108252866 0 -0.052576535185751193 -0.01729341001206847 0 -0.053882523846190022 -0.019050483446065025 0 -0.053871293724469478 -0.017372686597717468 0 -0.055954670802427199 -0.017959644820364797 0 -0.052109254721360687 -0.016502912520644984 0 -0.052410113821056224 -0.016514999195436711 0 -0.052238400694277015 -0.016130066499312132 0 -0.052410113821056224 -0.016514999195436711 0 -0.052238400694277015 -0.016130066499312132 0 -0.052468685482703892 -0.01602574209423278 0 -0.052109254721360687 -0.016502912520644984 0 -0.051960868933272612 -0.016256559694628803 0 -0.052238400694277015 -0.016130066499312132 0 -0.051960868933272612 -0.016256559694628803 0 -0.052238400694277015 -0.016130066499312132 0 -0.051978394139627536 -0.015839982662194295 0 -0.052238400694277015 -0.016130066499312132 0 -0.052246861129705363 -0.015816073257351564 0 -0.051978394139627536 -0.015839982662194295 0 -0.052238400694277015 -0.016130066499312132 0 -0.052361322697821684 -0.015961589904862281 0 -0.052468685482703892 -0.01602574209423278 0 -0.052238400694277015 -0.016130066499312132 0 -0.052361322697821684 -0.015961589904862281 0 -0.052246861129705363 -0.015816073257351564 0 -0.052246861129705363 -0.015816073257351564 0 -0.05243055458458816 -0.015817218225653417 0 -0.052222459175808388 -0.015522578100950816 0 -0.050397873749071995 -0.011761211945859372 0 -0.052604160981179031 -0.011331863718534993 0 -0.052361322697821684 -0.015961589904862281 0 -0.052246861129705363 -0.015816073257351564 0 -0.05243055458458816 -0.015817218225653417 0 -0.05261096128681348 -0.015143511783814441 0 -0.052604160981179031 -0.011331863718534993 0 -0.052246861129705363 -0.015816073257351564 0 -0.051978394139627536 -0.015839982662194295 0 -0.052222459175808388 -0.015522578100950816 0 -0.053187502554590767 -0.013729421100919119 0 -0.051299199398533911 -0.013918808111709785 0 -0.051755409407243838 -0.011885901258837624 0 -0.053187502554590767 -0.013729421100919119 0 -0.051755409407243838 -0.011885901258837624 0 -0.053268054719574034 -0.011797244622897279 0 -0.049999920988884228 -0.012704935023804998 0 -0.051299199398533911 -0.013918808111709785 0 -0.051755409407243838 -0.011885901258837624 0 -0.049999920988884228 -0.012704935023804998 0 -0.051299199398533911 -0.013918808111709785 0 -0.049999940249629865 -0.015282407822717788 0 -0.05163193680106349 -0.015798870158080028 0 -0.051299199398533911 -0.013918808111709785 0 -0.049999940249629865 -0.015282407822717788 0 -0.051573651733806902 -0.01595627425014538 0 -0.05261096128681348 -0.015143511783814441 0 -0.05163193680106349 -0.015798870158080028 0 -0.053187502554590767 -0.013729421100919119 0 -0.051299199398533911 -0.013918808111709785 0 -0.051542003395149263 -0.016182160512103441 0 -0.051960868933272612 -0.016256559694628803 0 -0.051978394139627536 -0.015839982662194295 0 -0.047912708706963979 -0.007279343041823769 0 -0.048142938246034432 -0.0072783473535441351 0 -0.047867648747337364 -0.007343756902746087 0 -0.047926827263050018 -0.0071259562404922226 0 -0.047867603081636921 -0.0067335367763438026 0 -0.0479807174248826 -0.0073271371657019904 0 -0.047926827263050018 -0.0071259562404922226 0 -0.047912708706963979 -0.007279343041823769 0 -0.0479807174248826 -0.0073271371657019904 0 -0.047926827263050018 -0.0071259562404922226 0 -0.047912708706963979 -0.007279343041823769 0 -0.047997988587872027 -0.0072607725348346362 0 -0.047912708706963979 -0.007279343041823769 0 -0.047997988587872027 -0.0072607725348346362 0 -0.047867648747337364 -0.007343756902746087 0 -0.047997988587872027 -0.0072607725348346362 0 -0.048153296622766871 -0.0069698414826094221 0 -0.0481627781124008 -0.0073920124130270673 0 -0.048153296622766871 -0.0069698414826094221 0 -0.0481627781124008 -0.0073920124130270673 0 -0.048717302232884931 -0.0068058587116203596 0 -0.047926827263050018 -0.0071259562404922226 0 -0.047997988587872027 -0.0072607725348346362 0 -0.048153296622766871 -0.0069698414826094221 0 -0.047773635420990099 -0.0072453390516518971 0 -0.047617083618079141 -0.007148930032902609 0 -0.047926827263050018 -0.0071259562404922226 0 -0.048153296622766871 -0.0069698414826094221 0 -0.047867603081636921 -0.0067335367763438026 0 -0.048153296622766871 -0.0069698414826094221 0 -0.047867603081636921 -0.0067335367763438026 0 -0.048243251451520287 -0.0059685629441515601 0 -0.047773635420990099 -0.0072453390516518971 0 -0.047956743489888452 -0.0072799776207564063 0 -0.047556143245884634 -0.0078259832129562792 0 -0.048237386002271017 -0.0076652882558413691 0 -0.0479807174248826 -0.0073271371657019904 0 -0.047556143245884634 -0.0078259832129562792 0 -0.048237386002271017 -0.0076652882558413691 0 -0.048170046361832267 -0.0081162804689161559 0 -0.048237386002271017 -0.0076652882558413691 0 -0.04887396066401381 -0.0077892247171904459 0 -0.048170046361832267 -0.0081162804689161559 0 -0.048237386002271017 -0.0076652882558413691 0 -0.04887396066401381 -0.0077892247171904459 0 -0.048142938246034432 -0.0072783473535441351 0 -0.050397873749071995 -0.011761211945859372 0 -0.050390534084374411 -0.011761295023565625 0 -0.05243055458458816 -0.015817218225653417 0 -0.052468685482703892 -0.01602574209423278 0 -0.052392893128140702 -0.016008242703159627 0 -0.052361322697821684 -0.015961589904862281 0 -0.05243055458458816 -0.015817218225653417 0 -0.052468685482703892 -0.01602574209423278 0 -0.048237386002271017 -0.0076652882558413691 0 -0.0479807174248826 -0.0073271371657019904 0 -0.048142938246034432 -0.0072783473535441351 0 -0.052468685482703892 -0.01602574209423278 0 -0.052392893128140702 -0.016008242703159627 0 -0.052366844220881094 -0.015917048866519484 0 -0.047912708706963979 -0.007279343041823769 0 -0.0479807174248826 -0.0073271371657019904 0 -0.048142938246034432 -0.0072783473535441351 0 -0.050390534084374411 -0.011761295023565625 0 -0.049652347991112691 -0.01103823455432887 0 -0.052392893128140702 -0.016008242703159627 0 -0.052252535903463085 -0.015823783721682499 0 -0.052079220861365315 -0.01583059817974982 0 -0.052392893128140702 -0.016008242703159627 0 -0.052366844220881094 -0.015917048866519484 0 -0.052252535903463085 -0.015823783721682499 0 -0.052383713257854375 -0.01582509234669173 0 -0.052252535903463085 -0.015823783721682499 0 -0.052309478762786861 -0.015705284204480682 0 -0.052366844220881094 -0.015917048866519484 0 -0.052383713257854375 -0.01582509234669173 0 -0.052252535903463085 -0.015823783721682499 0 -0.052614392493483937 -0.015666311615662745 0 -0.052468685482703892 -0.01602574209423278 0 -0.052383713257854375 -0.01582509234669173 0 -0.052576535185751193 -0.01729341001206847 0 -0.052529699746986999 -0.015554595185011641 0 -0.052468685482703892 -0.01602574209423278 0 -0.052366844220881094 -0.015917048866519484 0 -0.052383713257854375 -0.01582509234669173 0 -0.052614392493483937 -0.015666311615662745 0 -0.052383713257854375 -0.01582509234669173 0 -0.052309478762786861 -0.015705284204480682 0 -0.052576535185751193 -0.01729341001206847 0 -0.050784364050355676 -0.017316968687745026 0 -0.052614392493483937 -0.015666311615662745 0 -0.052309478762786861 -0.015705284204480682 0 -0.052237361922802331 -0.015556354666321997 0 -0.052252535903463085 -0.015823783721682499 0 -0.052309478762786861 -0.015705284204480682 0 -0.052101623486531808 -0.015672697419657749 0 -0.052309478762786861 -0.015705284204480682 0 -0.052237361922802331 -0.015556354666321997 0 -0.052101623486531808 -0.015672697419657749 0 -0.050784364050355676 -0.017316968687745026 0 -0.047213881392000077 -0.013724068634002044 0 -0.050784364050355676 -0.017316968687745026 0 -0.046467492790058094 -0.017419923014811833 0 -0.041545560828751577 -0.01521585472088567 0 -0.041960374972974564 -0.015191228163890626 0 -0.041839195548385867 -0.0153368571236805 0 -0.047545092074292021 -0.016373302190905999 0 -0.04827768479572303 -0.015618295415173572 0 -0.0481393664995746 -0.016535905881178835 0 -0.041681027737674368 -0.015392717137000691 0 -0.041545560828751577 -0.01521585472088567 0 -0.041505112645757146 -0.015522329660055057 0 -0.041681027737674368 -0.015392717137000691 0 -0.041888800080615074 -0.015494728673667314 0 -0.041505112645757146 -0.015522329660055057 0 -0.047213881392000077 -0.013724068634002044 0 -0.046467492790058094 -0.017419923014811833 0 -0.041681027737674368 -0.015392717137000691 0 -0.041545560828751577 -0.01521585472088567 0 -0.041839195548385867 -0.0153368571236805 0 -0.041681027737674368 -0.015392717137000691 0 -0.041888800080615074 -0.015494728673667314 0 -0.041839195548385867 -0.0153368571236805 0 -0.047213881392000077 -0.013724068634002044 0 -0.04470140480675986 -0.010751246465667514 0 -0.047790591955583314 -0.0078408944320075592 0 -0.047830253653688856 -0.007526843533736261 0 -0.0481627781124008 -0.0073920124130270673 0 -0.048142938246034432 -0.0072783473535441351 0 -0.047871771177963797 -0.0073125410855788987 0 -0.047867648747337364 -0.007343756902746087 0 -0.052252535903463085 -0.015823783721682499 0 -0.052101623486531808 -0.015672697419657749 0 -0.052079220861365315 -0.01583059817974982 0 -0.047213881392000077 -0.013724068634002044 0 -0.049652347991112691 -0.01103823455432887 0 -0.047997988587872027 -0.0072607725348346362 0 -0.047830253653688856 -0.007526843533736261 0 -0.0481627781124008 -0.0073920124130270673 0 -0.047997988587872027 -0.0072607725348346362 0 -0.047830253653688856 -0.007526843533736261 0 -0.047867648747337364 -0.007343756902746087 0 -0.049652347991112691 -0.01103823455432887 0 -0.049333132492233783 -0.0083929169816588031 0 -0.041545560828751577 -0.01521585472088567 0 -0.041902097835505261 -0.014648602975937735 0 -0.041956457867433891 -0.014971641249633552 0 -0.041902097835505261 -0.014648602975937735 0 -0.041956457867433891 -0.014971641249633552 0 -0.04228992591167046 -0.014765190022808244 0 -0.041956457867433891 -0.014971641249633552 0 -0.042139939070288762 -0.015136507643189223 0 -0.04228992591167046 -0.014765190022808244 0 -0.041545560828751577 -0.01521585472088567 0 -0.041956457867433891 -0.014971641249633552 0 -0.041960374972974564 -0.015191228163890626 0 -0.042139939070288762 -0.015136507643189223 0 -0.041960374972974564 -0.015191228163890626 0 -0.042069468767460524 -0.015376690377653225 0 -0.041956457867433891 -0.014971641249633552 0 -0.042139939070288762 -0.015136507643189223 0 -0.041960374972974564 -0.015191228163890626 0 -0.041960374972974564 -0.015191228163890626 0 -0.041839195548385867 -0.0153368571236805 0 -0.042069468767460524 -0.015376690377653225 0 -0.041888800080615074 -0.015494728673667314 0 -0.041839195548385867 -0.0153368571236805 0 -0.042069468767460524 -0.015376690377653225 0 -0.041888800080615074 -0.015494728673667314 0 -0.042069468767460524 -0.015376690377653225 0 -0.042157746218722029 -0.015612654859851119 0 -0.042069468767460524 -0.015376690377653225 0 -0.042157746218722029 -0.015612654859851119 0 -0.042342147799961975 -0.015461941577555175 0 -0.042139939070288762 -0.015136507643189223 0 -0.042069468767460524 -0.015376690377653225 0 -0.042342147799961975 -0.015461941577555175 0 -0.041888800080615074 -0.015494728673667314 0 -0.042111591563684971 -0.015723805895450773 0 -0.041505112645757146 -0.015522329660055057 0 -0.041888800080615074 -0.015494728673667314 0 -0.042157746218722029 -0.015612654859851119 0 -0.042111591563684971 -0.015723805895450773 0 -0.045933281096818129 -0.017983751056639127 0 -0.045522016130509588 -0.017868821607952511 0 -0.045823708709294045 -0.018341730457086015 0 -0.042547635123708988 -0.016158561787673328 0 -0.04252637705576609 -0.016589940479621069 0 -0.042157746218722029 -0.015612654859851119 0 -0.042106823789590492 -0.01576367273805919 0 -0.042287589586972762 -0.015614506115169669 0 -0.04252637705576609 -0.016589940479621069 0 -0.046467492790058094 -0.017419923014811833 0 -0.046467492790058094 -0.017419923014811833 0 -0.04844054193322396 -0.019628477555481718 0 -0.045522016130509588 -0.017868821607952511 0 -0.045823708709294045 -0.018341730457086015 0 -0.04544738454485904 -0.018402447364762358 0 -0.04129976861845653 -0.015757482162394625 0 -0.041388468921863202 -0.01550134918812013 0 -0.04119961971304293 -0.015623373864712539 0 -0.04252637705576609 -0.016589940479621069 0 -0.043657728643608007 -0.017005138317730869 0 -0.041388468921863202 -0.01550134918812013 0 -0.04119961971304293 -0.015623373864712539 0 -0.041203208955596531 -0.015485807771086242 0 -0.050010536100692948 -0.018053610143536257 0 -0.051824887300508972 -0.018549463280171218 0 -0.050772971927705211 -0.019606194332613132 0 -0.049385426022649885 -0.019697861286562462 0 -0.050010536100692948 -0.018053610143536257 0 -0.050772971927705211 -0.019606194332613132 0 -0.050967238792274772 -0.019316981832837296 0 -0.051300083102034238 -0.019406513101906355 0 -0.050335863290379437 -0.019996419194639171 0 -0.051300083102034238 -0.019406513101906355 0 -0.050335863290379437 -0.019996419194639171 0 -0.051124001080878168 -0.020702386026139295 0 -0.050784364050355676 -0.017316968687745026 0 -0.0505078581221928 -0.019986576598164451 0 -0.050335863290379437 -0.019996419194639171 0 -0.051124001080878168 -0.020702386026139295 0 -0.050302782945406334 -0.02082453920918265 0 -0.049695108792025842 -0.020629823527042703 0 -0.050335863290379437 -0.019996419194639171 0 -0.050302782945406334 -0.02082453920918265 0 -0.049799866414703034 -0.020513946518478085 0 -0.0505078581221928 -0.019986576598164451 0 -0.049755760868204699 -0.021230367619425879 0 -0.050302782945406334 -0.02082453920918265 0 -0.050343156389025222 -0.021556725745877584 0 -0.049731215533186858 -0.021205041335535437 0 -0.05086234957606358 -0.021980410516768557 0 -0.049755760868204699 -0.021230367619425879 0 -0.049695108792025842 -0.020629823527042703 0 -0.050302782945406334 -0.02082453920918265 0 -0.051124001080878168 -0.020702386026139295 0 -0.050918787450341209 -0.021954912965484717 0 -0.050343156389025222 -0.021556725745877584 0 -0.051124001080878168 -0.020702386026139295 0 -0.050302782945406334 -0.02082453920918265 0 -0.050343156389025222 -0.021556725745877584 0 -0.04844054193322396 -0.019628477555481718 0 -0.048945397863615708 -0.021272609932579595 0 -0.048336787927910886 -0.022347374365630921 0 -0.048868377912905735 -0.021874898245952581 0 -0.048456388186634669 -0.021588809190548581 0 -0.047404701979678172 -0.021583623365354382 0 -0.048945397863615708 -0.021272609932579595 0 -0.050763043679728372 -0.022897749998687766 0 -0.051640425994402321 -0.022587894768229474 0 -0.050722636641186349 -0.021927633902089443 0 -0.048945397863615708 -0.021272609932579595 0 -0.05086234957606358 -0.021980410516768557 0 -0.04961037060970331 -0.022678393271202468 0 -0.049755760868204699 -0.021230367619425879 0 -0.050722636641186349 -0.021927633902089443 0 -0.050763043679728372 -0.022897749998687766 0 -0.04961037060970331 -0.022678393271202468 0 -0.050722636641186349 -0.021927633902089443 0 -0.043657728643608007 -0.017005138317730869 0 -0.043615917802170175 -0.016570629505952162 0 -0.041388468921863202 -0.01550134918812013 0 -0.041475046628244062 -0.015285056603972284 0 -0.041215939557032309 -0.015319474870500853 0 -0.041388468921863202 -0.01550134918812013 0 -0.041215939557032309 -0.015319474870500853 0 -0.041203208955596531 -0.015485807771086242 0 -0.045823708709294045 -0.018341730457086015 0 -0.04544738454485904 -0.018402447364762358 0 -0.045709704001047027 -0.018729060706918182 0 -0.04544738454485904 -0.018402447364762358 0 -0.045366200553546461 -0.018985077891422009 0 -0.045709704001047027 -0.018729060706918182 0 -0.045435446841462931 -0.019034473845546598 0 -0.045366200553546461 -0.018985077891422009 0 -0.045709704001047027 -0.018729060706918182 0 -0.041573212179766894 -0.015107101965182571 0 -0.041475046628244062 -0.015285056603972284 0 -0.041379252027570493 -0.015164813069145621 0 -0.045577217850248042 -0.019136037864286394 0 -0.045435446841462931 -0.019034473845546598 0 -0.045709704001047027 -0.018729060706918182 0 -0.044785893737539405 -0.019847100490030873 0 -0.043615917802170175 -0.016570629505952162 0 -0.041475046628244062 -0.015285056603972284 0 -0.041379252027570493 -0.015164813069145621 0 -0.041215939557032309 -0.015319474870500853 0 -0.041124746726949865 -0.015077286160320948 0 -0.041379252027570493 -0.015164813069145621 0 -0.041215939557032309 -0.015319474870500853 0 -0.041124746726949865 -0.015077286160320948 0 -0.041215939557032309 -0.015319474870500853 0 -0.040913410664687969 -0.015301263175053139 0 -0.041215939557032309 -0.015319474870500853 0 -0.041062333314278221 -0.015424306497255513 0 -0.040913410664687969 -0.015301263175053139 0 -0.041215939557032309 -0.015319474870500853 0 -0.041062333314278221 -0.015424306497255513 0 -0.041203208955596531 -0.015485807771086242 0 -0.040913410664687969 -0.015301263175053139 0 -0.040703030509426863 -0.015303266947546839 0 -0.040758610500430219 -0.015420300236451554 0 -0.040913410664687969 -0.015301263175053139 0 -0.040758610500430219 -0.015420300236451554 0 -0.040908216652833278 -0.015454096318697248 0 -0.041062333314278221 -0.015424306497255513 0 -0.040913410664687969 -0.015301263175053139 0 -0.040908216652833278 -0.015454096318697248 0 -0.041124746726949865 -0.015077286160320948 0 -0.040913410664687969 -0.015301263175053139 0 -0.040713446797557735 -0.015119264925038085 0 -0.041278772543237578 -0.018449057883911362 0 -0.0404261189796533 -0.01911668642582056 0 -0.041819053234574466 -0.022520873586794631 0 -0.041099439559206259 -0.022062869805780535 0 -0.040311419013070476 -0.022993346431499379 0 -0.041099439559206259 -0.022062869805780535 0 -0.040311419013070476 -0.022993346431499379 0 -0.03961313236373093 -0.022574899628857108 0 -0.039437474735525092 -0.031601922627845634 0 -0.040012088163942 -0.032403436907858699 0 -0.037901846278832425 -0.03301454006345797 0 -0.0404261189796533 -0.01911668642582056 0 -0.04010454486669153 -0.019291988487684788 0 -0.040311419013070476 -0.022993346431499379 0 -0.03961313236373093 -0.022574899628857108 0 -0.038798299020759992 -0.023437887007435286 0 -0.040639576112025032 -0.027734917416478617 0 -0.034044536290669843 -0.025689733881110122 0 -0.040713446797557735 -0.015119264925038085 0 -0.040510075767279316 -0.015284643674633254 0 -0.040304707023623987 -0.015156376057244245 0 -0.040510075767279316 -0.015284643674633254 0 -0.040304707023623987 -0.015156376057244245 0 -0.040248074233381136 -0.01531844014774407 0 -0.040713446797557735 -0.015119264925038085 0 -0.040510075767279316 -0.015284643674633254 0 -0.040703030509426863 -0.015303266947546839 0 -0.040913410664687969 -0.015301263175053139 0 -0.040713446797557735 -0.015119264925038085 0 -0.040703030509426863 -0.015303266947546839 0 -0.040510075767279316 -0.015284643674633254 0 -0.040703030509426863 -0.015303266947546839 0 -0.04062696469300961 -0.015389568350200137 0 -0.040666114084567245 -0.01550908299862439 0 -0.040769516335900993 -0.01555983716814468 0 -0.040440414070329056 -0.015516247566346394 0 -0.040703030509426863 -0.015303266947546839 0 -0.040758610500430219 -0.015420300236451554 0 -0.04062696469300961 -0.015389568350200137 0 -0.040758610500430219 -0.015420300236451554 0 -0.04062696469300961 -0.015389568350200137 0 -0.040666114084567245 -0.01550908299862439 0 -0.040510075767279316 -0.015284643674633254 0 -0.04062696469300961 -0.015389568350200137 0 -0.040511161840156643 -0.015420669753612996 0 -0.04062696469300961 -0.015389568350200137 0 -0.040666114084567245 -0.01550908299862439 0 -0.040511161840156643 -0.015420669753612996 0 -0.040826068274636342 -0.015479412784571099 0 -0.041567976345046206 -0.015629309669195117 0 -0.040758610500430219 -0.015420300236451554 0 -0.040666114084567245 -0.01550908299862439 0 -0.040773466552531751 -0.01556850221006892 0 -0.040511161840156643 -0.015420669753612996 0 -0.040440414070329056 -0.015516247566346394 0 -0.040248074233381136 -0.01531844014774407 0 -0.040510075767279316 -0.015284643674633254 0 -0.040511161840156643 -0.015420669753612996 0 -0.040248074233381136 -0.01531844014774407 0 -0.040666114084567245 -0.01550908299862439 0 -0.040511161840156643 -0.015420669753612996 0 -0.040440414070329056 -0.015516247566346394 0 -0.043395772214635864 -0.01519561241924328 0 -0.043390968662771486 -0.01547153675227853 0 -0.043387132591660285 -0.015497116244159427 0 -0.043251848633546398 -0.015776632194280171 0 -0.043395772214635864 -0.01519561241924328 0 -0.043390968662771486 -0.01547153675227853 0 -0.041567976345046206 -0.015629309669195117 0 -0.041956452968724411 -0.015349314340162979 0 -0.043390968662771486 -0.01547153675227853 0 -0.043423499383075957 -0.015539162891636895 0 -0.043387132591660285 -0.015497116244159427 0 -0.043251848633546398 -0.015776632194280171 0 -0.043245952404638424 -0.015607708309041153 0 -0.043390968662771486 -0.01547153675227853 0 -0.043245952404638424 -0.015607708309041153 0 -0.043071832906286488 -0.015581270033131542 0 -0.043423499383075957 -0.015539162891636895 0 -0.043245952404638424 -0.015607708309041153 0 -0.043390968662771486 -0.01547153675227853 0 -0.043423499383075957 -0.015539162891636895 0 -0.043245952404638424 -0.015607708309041153 0 -0.043071832906286488 -0.015581270033131542 0 -0.043024492084900653 -0.015687723552122335 0 -0.043251848633546398 -0.015776632194280171 0 -0.043024492084900653 -0.015687723552122335 0 -0.042704223910085666 -0.015861413583021521 0 -0.041567976345046206 -0.015629309669195117 0 -0.041786743462466802 -0.01571644826427622 0 -0.043251848633546398 -0.015776632194280171 0 -0.043245952404638424 -0.015607708309041153 0 -0.043024492084900653 -0.015687723552122335 0 -0.043024492084900653 -0.015687723552122335 0 -0.042797662383121514 -0.015608114425392321 0 -0.042704223910085666 -0.015861413583021521 0 -0.043071832906286488 -0.015581270033131542 0 -0.043024492084900653 -0.015687723552122335 0 -0.042797662383121514 -0.015608114425392321 0 -0.042797662383121514 -0.015608114425392321 0 -0.042476658222442988 -0.015668973052077127 0 -0.04260892417300418 -0.015454310947605644 0 -0.042106823789590492 -0.01576367273805919 0 -0.042476658222442988 -0.015668973052077127 0 -0.042704223910085666 -0.015861413583021521 0 -0.04129976861845653 -0.015757482162394625 0 -0.041057767517888956 -0.015677888774120255 0 -0.04119961971304293 -0.015623373864712539 0 -0.042797662383121514 -0.015608114425392321 0 -0.042476658222442988 -0.015668973052077127 0 -0.042704223910085666 -0.015861413583021521 0 -0.04252637705576609 -0.016589940479621069 0 -0.041786743462466802 -0.01571644826427622 0 -0.042106823789590492 -0.01576367273805919 0 -0.042287589586972762 -0.015614506115169669 0 -0.042476658222442988 -0.015668973052077127 0 -0.042157746218722029 -0.015612654859851119 0 -0.042287589586972762 -0.015614506115169669 0 -0.042342147799961975 -0.015461941577555175 0 -0.042287589586972762 -0.015614506115169669 0 -0.042476658222442988 -0.015668973052077127 0 -0.042342147799961975 -0.015461941577555175 0 -0.041057767517888956 -0.015677888774120255 0 -0.04106470749575284 -0.015573659471879511 0 -0.04119961971304293 -0.015623373864712539 0 -0.04106470749575284 -0.015573659471879511 0 -0.04119961971304293 -0.015623373864712539 0 -0.041203208955596531 -0.015485807771086242 0 -0.041062333314278221 -0.015424306497255513 0 -0.04106470749575284 -0.015573659471879511 0 -0.041203208955596531 -0.015485807771086242 0 -0.040867624595595842 -0.015618131045560596 0 -0.041057767517888956 -0.015677888774120255 0 -0.04106470749575284 -0.015573659471879511 0 -0.041567976345046206 -0.015629309669195117 0 -0.040785754115761907 -0.015605975045487715 0 -0.041062333314278221 -0.015424306497255513 0 -0.04106470749575284 -0.015573659471879511 0 -0.040908216652833278 -0.015454096318697248 0 -0.040773466552531751 -0.01556850221006892 0 -0.04106470749575284 -0.015573659471879511 0 -0.040908216652833278 -0.015454096318697248 0 -0.040758610500430219 -0.015420300236451554 0 -0.040773466552531751 -0.01556850221006892 0 -0.040908216652833278 -0.015454096318697248 0 -0.029088676746403575 -0.022818353113278362 0 -0.02860478925096838 -0.022007795670773711 0 -0.027310061702592585 -0.025666370318096581 0 -0.027267246271901305 -0.025629570886728913 0 -0.026923365143766545 -0.02546658366816713 0 -0.027310061702592585 -0.025666370318096581 0 -0.027267246271901305 -0.025629570886728913 0 -0.027483921075161601 -0.025822190177917589 0 -0.029637307074625467 -0.019243502640951409 0 -0.031252163170478374 -0.018829330891268019 0 -0.030714591753236143 -0.019541470776958877 0 -0.027510698242857044 -0.025719112586796048 0 -0.027267246271901305 -0.025629570886728913 0 -0.027483921075161601 -0.025822190177917589 0 -0.031252163170478374 -0.018829330891268019 0 -0.031712146229236161 -0.019218508720894267 0 -0.030714591753236143 -0.019541470776958877 0 -0.036013424685050956 -0.018982176932221744 0 -0.034044536290669843 -0.025689733881110122 0 -0.02860478925096838 -0.022007795670773711 0 -0.034044536290669843 -0.025689733881110122 0 -0.031252163170478374 -0.018829330891268019 0 -0.031712146229236161 -0.019218508720894267 0 -0.032464156344586916 -0.018551922611863562 0 -0.027510698242857044 -0.025719112586796048 0 -0.027483921075161601 -0.025822190177917589 0 -0.02780523839254373 -0.025974586384273197 0 -0.033478467706269423 -0.029550886592559149 0 -0.034044536290669843 -0.025689733881110122 0 -0.03961313236373093 -0.022574899628857108 0 -0.038134514800136639 -0.023067304299756314 0 -0.038798299020759992 -0.023437887007435286 0 -0.036013424685050956 -0.018982176932221744 0 -0.04010454486669153 -0.019291988487684788 0 -0.037319600677925974 -0.023839533768459931 0 -0.038134514800136639 -0.023067304299756314 0 -0.038798299020759992 -0.023437887007435286 0 -0.039940940327820973 -0.015149442049880913 0 -0.040304707023623987 -0.015156376057244245 0 -0.040248074233381136 -0.01531844014774407 0 -0.040440414070329056 -0.015516247566346394 0 -0.040248074233381136 -0.01531844014774407 0 -0.040131844821445599 -0.015426907352886722 0 -0.040248074233381136 -0.01531844014774407 0 -0.040131844821445599 -0.015426907352886722 0 -0.039993516273503824 -0.015271355594096359 0 -0.043395772214635864 -0.01519561241924328 0 -0.042142518260220238 -0.014806840441769853 0 -0.043387132591660285 -0.015497116244159427 0 -0.041956452968724411 -0.015349314340162979 0 -0.041086149153854765 -0.015168129124966375 0 -0.040131844821445599 -0.015426907352886722 0 -0.039993516273503824 -0.015271355594096359 0 -0.039901258139021602 -0.015330958434469093 0 -0.041086149153854765 -0.015168129124966375 0 -0.040026092795544532 -0.015304028879546032 0 -0.042142518260220238 -0.014806840441769853 0 -0.039901258139021602 -0.015330958434469093 0 -0.041972295181464746 -0.015957258914091815 0 -0.039940940327820973 -0.015149442049880913 0 -0.040248074233381136 -0.01531844014774407 0 -0.039993516273503824 -0.015271355594096359 0 -0.036013424685050956 -0.018982176932221744 0 -0.029539135864410971 -0.019909922695090846 0 -0.039940940327820973 -0.015149442049880913 0 -0.039993516273503824 -0.015271355594096359 0 -0.039697243836624374 -0.015110280647947711 0 -0.03218557547439619 -0.019033804386232669 0 -0.030714591753236143 -0.019541470776958877 0 -0.030977036416570732 -0.020233881422880701 0 -0.036013424685050956 -0.018982176932221744 0 -0.035590864868212328 -0.017512901891904381 0 -0.039697243836624374 -0.015110280647947711 0 -0.039901258139021602 -0.015330958434469093 0 -0.038874691785448189 -0.015515842126868944 0 -0.039993516273503824 -0.015271355594096359 0 -0.039697243836624374 -0.015110280647947711 0 -0.039901258139021602 -0.015330958434469093 0 -0.030977036416570732 -0.020233881422880701 0 -0.029931932478043356 -0.021320029823888208 0 -0.029990853767358657 -0.02017588413457954 0 -0.029931932478043356 -0.021320029823888208 0 -0.029990853767358657 -0.02017588413457954 0 -0.028839929295650948 -0.020645303488663957 0 -0.035590864868212328 -0.017512901891904381 0 -0.032291794665107024 -0.0167901088878641 0 -0.030714591753236143 -0.019541470776958877 0 -0.030977036416570732 -0.020233881422880701 0 -0.029990853767358657 -0.02017588413457954 0 -0.029637307074625467 -0.019243502640951409 0 -0.030714591753236143 -0.019541470776958877 0 -0.029990853767358657 -0.02017588413457954 0 -0.038059207129361158 -0.01740757445445143 0 -0.039181199829905519 -0.018185256583234867 0 -0.037509084600523462 -0.017667355231441067 0 -0.037678565401230164 -0.016650578292497994 0 -0.038059207129361158 -0.01740757445445143 0 -0.039856549512795887 -0.016528876262671174 0 -0.037678565401230164 -0.016650578292497994 0 -0.038059207129361158 -0.01740757445445143 0 -0.037412066381804623 -0.017914710936466956 0 -0.032291794665107024 -0.0167901088878641 0 -0.04191237028648008 -0.016959705136487889 0 -0.039901258139021602 -0.015330958434469093 0 -0.038874691785448189 -0.015515842126868944 0 -0.039856549512795887 -0.016528876262671174 0 -0.038059207129361158 -0.01740757445445143 0 -0.039856549512795887 -0.016528876262671174 0 -0.039181199829905519 -0.018185256583234867 0 -0.039856549512795887 -0.016528876262671174 0 -0.041772240070983666 -0.017522870084744093 0 -0.041972295181464746 -0.015957258914091815 0 -0.039856549512795887 -0.016528876262671174 0 -0.041772240070983666 -0.017522870084744093 0 -0.039181199829905519 -0.018185256583234867 0 -0.044118665756247684 -0.016020782647989937 0 -0.042265532801943541 -0.015872460867223513 0 -0.039901258139021602 -0.015330958434469093 0 -0.039856549512795887 -0.016528876262671174 0 -0.041972295181464746 -0.015957258914091815 0 -0.041972295181464746 -0.015957258914091815 0 -0.043387132591660285 -0.015497116244159427 0 -0.044104476237005877 -0.015805905118370125 0 -0.042142518260220238 -0.014806840441769853 0 -0.041972295181464746 -0.015957258914091815 0 -0.043387132591660285 -0.015497116244159427 0 -0.046839766862803049 -0.014670097272173822 0 -0.044104476237005877 -0.015805905118370125 0 -0.045187928626949224 -0.014084160162570657 0 -0.044118665756247684 -0.016020782647989937 0 -0.044057854789710742 -0.015901271565554591 0 -0.041772240070983666 -0.017522870084744093 0 -0.041972295181464746 -0.015957258914091815 0 -0.044104476237005877 -0.015805905118370125 0 -0.046839766862803049 -0.014670097272173822 0 -0.046573917994350247 -0.013896667084315865 0 -0.045187928626949224 -0.014084160162570657 0 -0.046573917994350247 -0.013896667084315865 0 -0.045749834603414717 -0.012866606683153233 0 -0.045187928626949224 -0.014084160162570657 0 -0.045749834603414717 -0.012866606683153233 0 -0.047441683297175401 -0.012453631774313181 0 -0.046565768474684119 -0.011509102286972406 0 -0.046573917994350247 -0.013896667084315865 0 -0.045749834603414717 -0.012866606683153233 0 -0.047441683297175401 -0.012453631774313181 0 -0.046573917994350247 -0.013896667084315865 0 -0.047441683297175401 -0.012453631774313181 0 -0.046714941712679349 -0.014394626473272635 0 -0.047441683297175401 -0.012453631774313181 0 -0.046714941712679349 -0.014394626473272635 0 -0.049436563740520509 -0.011873702387741073 0 -0.046839766862803049 -0.014670097272173822 0 -0.046573917994350247 -0.013896667084315865 0 -0.046714941712679349 -0.014394626473272635 0 -0.046839766862803049 -0.014670097272173822 0 -0.046714941712679349 -0.014394626473272635 0 -0.045416370095629002 -0.01346988278733495 0 -0.046714941712679349 -0.014394626473272635 0 -0.045416370095629002 -0.01346988278733495 0 -0.043768156081970412 -0.015740382144841285 0 -0.046819327049422134 -0.01419999263708319 0 -0.047014899021423105 -0.014079443769105837 0 -0.046714941712679349 -0.014394626473272635 0 -0.043768156081970412 -0.015740382144841285 0 -0.044656708505263924 -0.01678106768758646 0 -0.043768156081970412 -0.015740382144841285 0 -0.0418390775734706 -0.014297648982148057 0 -0.04153501137725836 -0.016569827776864141 0 -0.043768156081970412 -0.015740382144841285 0 -0.04294883089972535 -0.017188389517672202 0 -0.04153501137725836 -0.016569827776864141 0 -0.045416370095629002 -0.01346988278733495 0 -0.043768156081970412 -0.015740382144841285 0 -0.0418390775734706 -0.014297648982148057 0 -0.042265532801943541 -0.015872460867223513 0 -0.039834593178454003 -0.015992068622730417 0 -0.042731580134327846 -0.015139371552539119 0 -0.04228992591167046 -0.014765190022808244 0 -0.04277281529137706 -0.014441369717020874 0 -0.042731580134327846 -0.015139371552539119 0 -0.043246763996133378 -0.015217643049533386 0 -0.04277281529137706 -0.014441369717020874 0 -0.042139939070288762 -0.015136507643189223 0 -0.04228992591167046 -0.014765190022808244 0 -0.042426400983753623 -0.015205205698175711 0 -0.042731580134327846 -0.015139371552539119 0 -0.04228992591167046 -0.014765190022808244 0 -0.042426400983753623 -0.015205205698175711 0 -0.042731580134327846 -0.015139371552539119 0 -0.042426400983753623 -0.015205205698175711 0 -0.04260892417300418 -0.015454310947605644 0 -0.042139939070288762 -0.015136507643189223 0 -0.042426400983753623 -0.015205205698175711 0 -0.042342147799961975 -0.015461941577555175 0 -0.042476658222442988 -0.015668973052077127 0 -0.042342147799961975 -0.015461941577555175 0 -0.04260892417300418 -0.015454310947605644 0 -0.042426400983753623 -0.015205205698175711 0 -0.042342147799961975 -0.015461941577555175 0 -0.04260892417300418 -0.015454310947605644 0 -0.043071832906286488 -0.015581270033131542 0 -0.042797662383121514 -0.015608114425392321 0 -0.042992820451728676 -0.015422225121826163 0 -0.042797662383121514 -0.015608114425392321 0 -0.04260892417300418 -0.015454310947605644 0 -0.042992820451728676 -0.015422225121826163 0 -0.042731580134327846 -0.015139371552539119 0 -0.04260892417300418 -0.015454310947605644 0 -0.042992820451728676 -0.015422225121826163 0 -0.042731580134327846 -0.015139371552539119 0 -0.042992820451728676 -0.015422225121826163 0 -0.043246763996133378 -0.015217643049533386 0 -0.043071832906286488 -0.015581270033131542 0 -0.042992820451728676 -0.015422225121826163 0 -0.043423499383075957 -0.015539162891636895 0 -0.042992820451728676 -0.015422225121826163 0 -0.043423499383075957 -0.015539162891636895 0 -0.043246763996133378 -0.015217643049533386 0 -0.043423499383075957 -0.015539162891636895 0 -0.043387132591660285 -0.015497116244159427 0 -0.044104476237005877 -0.015805905118370125 0 -0.044104476237005877 -0.015805905118370125 0 -0.043246763996133378 -0.015217643049533386 0 -0.043613443577603085 -0.013958977752524174 0 -0.043423499383075957 -0.015539162891636895 0 -0.044104476237005877 -0.015805905118370125 0 -0.043246763996133378 -0.015217643049533386 0 -0.043246763996133378 -0.015217643049533386 0 -0.043613443577603085 -0.013958977752524174 0 -0.04277281529137706 -0.014441369717020874 0 -0.044104476237005877 -0.015805905118370125 0 -0.043613443577603085 -0.013958977752524174 0 -0.045187928626949224 -0.014084160162570657 0 -0.043613443577603085 -0.013958977752524174 0 -0.045187928626949224 -0.014084160162570657 0 -0.044617392208142793 -0.013061107689656582 0 -0.045749834603414717 -0.012866606683153233 0 -0.045187928626949224 -0.014084160162570657 0 -0.044617392208142793 -0.013061107689656582 0 -0.044617392208142793 -0.013061107689656582 0 -0.043671074195999936 -0.012849846258558588 0 -0.04479544614355388 -0.01178681007963968 0 -0.045749834603414717 -0.012866606683153233 0 -0.044617392208142793 -0.013061107689656582 0 -0.04479544614355388 -0.01178681007963968 0 -0.043671074195999936 -0.012849846258558588 0 -0.042954442650975963 -0.013460593358325371 0 -0.042773129812811395 -0.011954501596056667 0 -0.043613443577603085 -0.013958977752524174 0 -0.043671074195999936 -0.012849846258558588 0 -0.042954442650975963 -0.013460593358325371 0 -0.043613443577603085 -0.013958977752524174 0 -0.044617392208142793 -0.013061107689656582 0 -0.043671074195999936 -0.012849846258558588 0 -0.045506019167366636 -0.010260340991629559 0 -0.046168666701196792 -0.0087926066351278146 0 -0.048717302232884931 -0.0068058587116203596 0 -0.048861037415714938 -0.0059013474416744595 0 -0.049577457295875295 -0.0057229329961706677 0 -0.042954442650975963 -0.013460593358325371 0 -0.042164906862467967 -0.013748787141126349 0 -0.042773129812811395 -0.011954501596056667 0 -0.042954442650975963 -0.013460593358325371 0 -0.04277281529137706 -0.014441369717020874 0 -0.042164906862467967 -0.013748787141126349 0 -0.043613443577603085 -0.013958977752524174 0 -0.042954442650975963 -0.013460593358325371 0 -0.04277281529137706 -0.014441369717020874 0 -0.04470140480675986 -0.010751246465667514 0 -0.045506019167366636 -0.010260340991629559 0 -0.041902097835505261 -0.014648602975937735 0 -0.04228992591167046 -0.014765190022808244 0 -0.042164906862467967 -0.013748787141126349 0 -0.04228992591167046 -0.014765190022808244 0 -0.04277281529137706 -0.014441369717020874 0 -0.042164906862467967 -0.013748787141126349 0 -0.048153296622766871 -0.0069698414826094221 0 -0.048717302232884931 -0.0068058587116203596 0 -0.048243251451520287 -0.0059685629441515601 0 -0.048717302232884931 -0.0068058587116203596 0 -0.048861037415714938 -0.0059013474416744595 0 -0.048243251451520287 -0.0059685629441515601 0 -0.048861037415714938 -0.0059013474416744595 0 -0.04888700223517925 -0.0051177382519973953 0 -0.048243251451520287 -0.0059685629441515601 0 -0.048495327772861613 -0.0066769197337028649 0 -0.047617083618079141 -0.007148930032902609 0 -0.049637985895623203 -0.0055217248762527626 0 -0.050805325244198042 -0.0063112340441782138 0 -0.048495327772861613 -0.0066769197337028649 0 -0.049183747087998407 -0.0087273215034872828 0 -0.046806180513892855 -0.0085421367036986814 0 -0.047163656973431604 -0.0082350315292928182 0 -0.047387768892457417 -0.0086216691051236218 0 -0.048896109034145312 -0.0084900594203612765 0 -0.049199188540837484 -0.0082514533114441627 0 -0.051003487954594855 -0.0089423676506805039 0 -0.049209269628223938 -0.0049140974290651871 0 -0.049601456197606218 -0.0048831279611203267 0 -0.049745063476143853 -0.0047570001080208335 0 -0.04888700223517925 -0.0051177382519973953 0 -0.049226523580572765 -0.0054009563564948347 0 -0.049601456197606218 -0.0048831279611203267 0 -0.048495327772861613 -0.0066769197337028649 0 -0.049691521922707947 -0.0049151840075470511 0 -0.049209269628223938 -0.0049140974290651871 0 -0.049093104058704505 -0.0050337669861592119 0 -0.049601456197606218 -0.0048831279611203267 0 -0.049637985895623203 -0.0055217248762527626 0 -0.049542066798248276 -0.0047087147719816567 0 -0.049637985895623203 -0.0055217248762527626 0 -0.050067465924876021 -0.0038874183381865835 0 -0.049637985895623203 -0.0055217248762527626 0 -0.048495327772861613 -0.0066769197337028649 0 -0.048861037415714938 -0.0059013474416744595 0 -0.04888700223517925 -0.0051177382519973953 0 -0.049226523580572765 -0.0054009563564948347 0 -0.048861037415714938 -0.0059013474416744595 0 -0.049226523580572765 -0.0054009563564948347 0 -0.049577457295875295 -0.0057229329961706677 0 -0.049226523580572765 -0.0054009563564948347 0 -0.049577457295875295 -0.0057229329961706677 0 -0.049601456197606218 -0.0048831279611203267 0 -0.042773129812811395 -0.011954501596056667 0 -0.04479544614355388 -0.01178681007963968 0 -0.044460027376950415 -0.0092022127343612155 0 -0.043671074195999936 -0.012849846258558588 0 -0.042773129812811395 -0.011954501596056667 0 -0.04479544614355388 -0.01178681007963968 0 -0.046168666701196792 -0.0087926066351278146 0 -0.04726227831169643 -0.0068526208620984302 0 -0.049577457295875295 -0.0057229329961706677 0 -0.049601456197606218 -0.0048831279611203267 0 -0.049745063476143853 -0.0047570001080208335 0 -0.04479544614355388 -0.01178681007963968 0 -0.046565768474684119 -0.011509102286972406 0 -0.046495427122560565 -0.0098747734061527728 0 -0.045749834603414717 -0.012866606683153233 0 -0.04479544614355388 -0.01178681007963968 0 -0.046565768474684119 -0.011509102286972406 0 -0.04479544614355388 -0.01178681007963968 0 -0.044460027376950415 -0.0092022127343612155 0 -0.046495427122560565 -0.0098747734061527728 0 -0.044460027376950415 -0.0092022127343612155 0 -0.046495427122560565 -0.0098747734061527728 0 -0.048668595645048857 -0.0057305101374901983 0 -0.049577457295875295 -0.0057229329961706677 0 -0.049924866900285567 -0.0043514099560387791 0 -0.049745063476143853 -0.0047570001080208335 0 -0.049924866900285567 -0.0043514099560387791 0 -0.049745063476143853 -0.0047570001080208335 0 -0.04985997009884105 -0.004214827371296484 0 -0.049275291516741981 -0.0046337674186397735 0 -0.049745063476143853 -0.0047570001080208335 0 -0.04985997009884105 -0.004214827371296484 0 -0.04985997009884105 -0.004214827371296484 0 -0.049800490743439382 -0.0045292786639384679 0 -0.050096782900860948 -0.0039810787147076905 0 -0.049924866900285567 -0.0043514099560387791 0 -0.04985997009884105 -0.004214827371296484 0 -0.049700579715221765 -0.0046944308664668838 0 -0.04985997009884105 -0.004214827371296484 0 -0.049700579715221765 -0.0046944308664668838 0 -0.049800490743439382 -0.0045292786639384679 0 -0.04726227831169643 -0.0068526208620984302 0 -0.048534622624447604 -0.0057562621710801282 0 -0.049700579715221765 -0.0046944308664668838 0 -0.049800490743439382 -0.0045292786639384679 0 -0.048668595645048857 -0.0057305101374901983 0 -0.049924866900285567 -0.0043514099560387791 0 -0.049700579715221765 -0.0046944308664668838 0 -0.048668595645048857 -0.0057305101374901983 0 -0.049800490743439382 -0.0045292786639384679 0 -0.049732154790484401 -0.0044956192314191679 0 -0.050021497895229181 -0.0039262884380636175 0 -0.049800490743439382 -0.0045292786639384679 0 -0.049732154790484401 -0.0044956192314191679 0 -0.048668595645048857 -0.0057305101374901983 0 -0.049800490743439382 -0.0045292786639384679 0 -0.050096782900860948 -0.0039810787147076905 0 -0.050021497895229181 -0.0039262884380636175 0 -0.050096782900860948 -0.0039810787147076905 0 -0.050342957394780563 -0.0037716241735606154 0 -0.050421490076588561 -0.0034870771829210033 0 -0.050342957394780563 -0.0037716241735606154 0 -0.050421490076588561 -0.0034870771829210033 0 -0.050545899508428943 -0.0035810858254695164 0 -0.050207447757372958 -0.0036185455542848194 0 -0.050342957394780563 -0.0037716241735606154 0 -0.050615001024844321 -0.0035158625891323508 0 -0.050207447757372958 -0.0036185455542848194 0 -0.050342957394780563 -0.0037716241735606154 0 -0.050113654565040806 -0.0039464060123229226 0 -0.050096782900860948 -0.0039810787147076905 0 -0.050342957394780563 -0.0037716241735606154 0 -0.050113654565040806 -0.0039464060123229226 0 -0.04985997009884105 -0.004214827371296484 0 -0.050096782900860948 -0.0039810787147076905 0 -0.050113654565040806 -0.0039464060123229226 0 -0.050207447757372958 -0.0036185455542848194 0 -0.04985997009884105 -0.004214827371296484 0 -0.050113654565040806 -0.0039464060123229226 0 -0.04302288871660738 -0.0173539912351733 0 -0.04294883089972535 -0.017188389517672202 0 -0.043441852105345916 -0.017053031993661271 0 -0.042566001042319841 -0.01745579550638263 0 -0.04294883089972535 -0.017188389517672202 0 -0.041551749400286456 -0.017380563080651928 0 -0.04302288871660738 -0.0173539912351733 0 -0.042566001042319841 -0.01745579550638263 0 -0.042590638594221519 -0.017803226334418443 0 -0.04302288871660738 -0.0173539912351733 0 -0.042566001042319841 -0.01745579550638263 0 -0.04294883089972535 -0.017188389517672202 0 -0.04294883089972535 -0.017188389517672202 0 -0.044656708505263924 -0.01678106768758646 0 -0.043441852105345916 -0.017053031993661271 0 -0.047014899021423105 -0.014079443769105837 0 -0.047398971006709673 -0.013132148436304955 0 -0.043768156081970412 -0.015740382144841285 0 -0.04294883089972535 -0.017188389517672202 0 -0.044656708505263924 -0.01678106768758646 0 -0.050941892672216334 -0.0090089524886268046 0 -0.048312041582566446 -0.0098837920330550628 0 -0.050026587027217018 -0.0064534596588411482 0 -0.049436563740520509 -0.011873702387741073 0 -0.050941892672216334 -0.0090089524886268046 0 -0.048312041582566446 -0.0098837920330550628 0 -0.047441683297175401 -0.012453631774313181 0 -0.049436563740520509 -0.011873702387741073 0 -0.048312041582566446 -0.0098837920330550628 0 -0.047441683297175401 -0.012453631774313181 0 -0.048312041582566446 -0.0098837920330550628 0 -0.046565768474684119 -0.011509102286972406 0 -0.048312041582566446 -0.0098837920330550628 0 -0.046565768474684119 -0.011509102286972406 0 -0.046495427122560565 -0.0098747734061527728 0 -0.048312041582566446 -0.0098837920330550628 0 -0.046495427122560565 -0.0098747734061527728 0 -0.048668595645048857 -0.0057305101374901983 0 -0.048312041582566446 -0.0098837920330550628 0 -0.048668595645048857 -0.0057305101374901983 0 -0.050026587027217018 -0.0064534596588411482 0 -0.048668595645048857 -0.0057305101374901983 0 -0.049677514677546622 -0.0049561543434888874 0 -0.050026587027217018 -0.0064534596588411482 0 -0.049732154790484401 -0.0044956192314191679 0 -0.048668595645048857 -0.0057305101374901983 0 -0.049677514677546622 -0.0049561543434888874 0 -0.049677514677546622 -0.0049561543434888874 0 -0.050379222757868443 -0.0049136253305317552 0 -0.050026587027217018 -0.0064534596588411482 0 -0.050379222757868443 -0.0049136253305317552 0 -0.050026587027217018 -0.0064534596588411482 0 -0.051495874616251699 -0.0062919672543887703 0 -0.050941892672216334 -0.0090089524886268046 0 -0.050026587027217018 -0.0064534596588411482 0 -0.051495874616251699 -0.0062919672543887703 0 -0.04302288871660738 -0.0173539912351733 0 -0.043441852105345916 -0.017053031993661271 0 -0.043348842954975597 -0.016348480785769837 0 -0.047398971006709673 -0.013132148436304955 0 -0.045353815345519022 -0.010387597741031216 0 -0.051282346571688266 -0.0050376630394691098 0 -0.045353815345519022 -0.010387597741031216 0 -0.035391050024568001 -0.014020482772023187 0 -0.037573831386731205 -0.013517487922982593 0 -0.038496762462101229 -0.016387292625503876 0 -0.035391050024568001 -0.014020482772023187 0 -0.037573831386731205 -0.013517487922982593 0 -0.035855577698964657 -0.010999578647234448 0 -0.045353815345519022 -0.010387597741031216 0 -0.039385142924846864 -0.017616735987885261 0 -0.04302288871660738 -0.0173539912351733 0 -0.043348842954975597 -0.016348480785769837 0 -0.042590638594221519 -0.017803226334418443 0 -0.044873554362629582 0.0059466985833770266 0 -0.045359225498826997 0.0059244570221942483 0 -0.043722247491174412 0.0064337012631539899 0 -0.037678862492699507 -0.0098072588216860327 0 -0.036067788081700351 -0.0082097647624056642 0 -0.038893822700462752 -0.0093952677574472756 0 -0.045359225498826997 0.0059244570221942483 0 -0.045521093945699864 0.0059173791995111901 0 -0.043722247491174412 0.0064337012631539899 0 -0.042416319169266303 -0.0030576810573511247 0 -0.041167608853048439 -0.00097904600358393189 0 -0.044198850306707914 0.0057873564290688963 0 -0.044873554362629582 0.0059466985833770266 0 -0.043722247491174412 0.0064337012631539899 0 -0.044198850306707914 0.0057873564290688963 0 -0.044873554362629582 0.0059466985833770266 0 -0.044712036833375601 0.0055750100254572327 0 -0.037568433857814561 -0.0096762289524723443 0 -0.042416319169266303 -0.0030576810573511247 0 -0.044873554362629582 0.0059466985833770266 0 -0.045359225498826997 0.0059244570221942483 0 -0.045059993111690219 0.0057691135479796775 0 -0.045359225498826997 0.0059244570221942483 0 -0.045212526774240265 0.0057661472392516828 0 -0.045342833115209216 0.0057046288444812451 0 -0.045359225498826997 0.0059244570221942483 0 -0.045212526774240265 0.0057661472392516828 0 -0.045059993111690219 0.0057691135479796775 0 -0.036360118427262854 -0.0095572688168469692 0 -0.037680114696731222 -0.0098656489601047746 0 -0.035919252315522433 -0.0081473422717200771 0 -0.036360118427262854 -0.0095572688168469692 0 -0.037680114696731222 -0.0098656489601047746 0 -0.036807961764835168 -0.010448983255183205 0 -0.035766284557709416 -0.013833046950776369 0 -0.043568295841562986 -0.0068905721660847017 0 -0.037680114696731222 -0.0098656489601047746 0 -0.037629971378826996 -0.011683159586297141 0 -0.036807961764835168 -0.010448983255183205 0 -0.037680114696731222 -0.0098656489601047746 0 -0.037629971378826996 -0.011683159586297141 0 -0.039312891094639174 -0.011456616246023784 0 -0.037573831386731205 -0.013517487922982593 0 -0.037629971378826996 -0.011683159586297141 0 -0.035555035856689086 -0.010685544245534525 0 -0.037573831386731205 -0.013517487922982593 0 -0.037629971378826996 -0.011683159586297141 0 -0.039312891094639174 -0.011456616246023784 0 -0.037629971378826996 -0.011683159586297141 0 -0.036807961764835168 -0.010448983255183205 0 -0.035555035856689086 -0.010685544245534525 0 -0.036360118427262854 -0.0095572688168469692 0 -0.036807961764835168 -0.010448983255183205 0 -0.035555035856689086 -0.010685544245534525 0 -0.051355231248865478 -0.004763556067546062 0 -0.052144422326268314 -0.0053926391461712794 0 -0.052351142521996526 -0.003965596543938397 0 -0.045353815345519022 -0.010387597741031216 0 -0.043568295841562986 -0.0068905721660847017 0 -0.049631128816467633 -0.0010339508254637178 0 -0.050198555905203758 -0.001348093949278911 0 -0.049902206736103037 -0.0013304505839970241 0 -0.036360118427262854 -0.0095572688168469692 0 -0.035555035856689086 -0.010685544245534525 0 -0.035919252315522433 -0.0081473422717200771 0 -0.049631128816467633 -0.0010339508254637178 0 -0.049659647820840397 -0.0013116948655872152 0 -0.049902206736103037 -0.0013304505839970241 0 -0.043568295841562986 -0.0068905721660847017 0 -0.042416319169266303 -0.0030576810573511247 0 -0.043568295841562986 -0.0068905721660847017 0 -0.052032472633456811 -0.0014121954452814612 0 -0.045359225498826997 0.0059244570221942483 0 -0.045521093945699864 0.0059173791995111901 0 -0.045342833115209216 0.0057046288444812451 0 -0.051316160898529334 -0.0036698592017062608 0 -0.050355218100670264 -0.0041060598600660787 0 -0.050907264163327207 -0.0031014000412148022 0 -0.052351142521996526 -0.003965596543938397 0 -0.051316160898529334 -0.0036698592017062608 0 -0.051525251014308965 -0.0026312032572032868 0 -0.051316160898529334 -0.0036698592017062608 0 -0.050907264163327207 -0.0031014000412148022 0 -0.051525251014308965 -0.0026312032572032868 0 -0.051355231248865478 -0.004763556067546062 0 -0.051316160898529334 -0.0036698592017062608 0 -0.050355218100670264 -0.0041060598600660787 0 -0.051355231248865478 -0.004763556067546062 0 -0.052351142521996526 -0.003965596543938397 0 -0.051316160898529334 -0.0036698592017062608 0 -0.051282346571688266 -0.0050376630394691098 0 -0.050191236132351415 -0.0041118875592360358 0 -0.049677514677546622 -0.0049561543434888874 0 -0.050379222757868443 -0.0049136253305317552 0 -0.050355218100670264 -0.0041060598600660787 0 -0.049732154790484401 -0.0044956192314191679 0 -0.050355218100670264 -0.0041060598600660787 0 -0.050210358880719078 -0.0035317393329362011 0 -0.049732154790484401 -0.0044956192314191679 0 -0.049677514677546622 -0.0049561543434888874 0 -0.050355218100670264 -0.0041060598600660787 0 -0.050355218100670264 -0.0041060598600660787 0 -0.050907264163327207 -0.0031014000412148022 0 -0.050210358880719078 -0.0035317393329362011 0 -0.050907264163327207 -0.0031014000412148022 0 -0.050210358880719078 -0.0035317393329362011 0 -0.050684869516278694 -0.0026649610498024954 0 -0.051014994718201714 -0.0024772802926977598 0 -0.051108560534534136 -0.0020967644566352618 0 -0.051525251014308965 -0.0026312032572032868 0 -0.050907264163327207 -0.0031014000412148022 0 -0.051014994718201714 -0.0024772802926977598 0 -0.050684869516278694 -0.0026649610498024954 0 -0.051014994718201714 -0.0024772802926977598 0 -0.050927708512946257 -0.0021570526350071016 0 -0.050684869516278694 -0.0026649610498024954 0 -0.051014994718201714 -0.0024772802926977598 0 -0.050927708512946257 -0.0021570526350071016 0 -0.051108560534534136 -0.0020967644566352618 0 -0.050927708512946257 -0.0021570526350071016 0 -0.051032744583334649 -0.0017160742695590781 0 -0.051108560534534136 -0.0020967644566352618 0 -0.051166375725686726 -0.0015268849387180443 0 -0.051108560534534136 -0.0020967644566352618 0 -0.051525251014308965 -0.0026312032572032868 0 -0.051166375725686726 -0.0015268849387180443 0 -0.050305650105506632 -0.0015381819416407565 0 -0.051301969092286723 -0.0015015876762190417 0 -0.051032744583334649 -0.0017160742695590781 0 -0.051166375725686726 -0.0015268849387180443 0 -0.051108560534534136 -0.0020967644566352618 0 -0.051032744583334649 -0.0017160742695590781 0 -0.051166375725686726 -0.0015268849387180443 0 -0.051301969092286723 -0.0015015876762190417 0 -0.051032744583334649 -0.0017160742695590781 0 -0.050853536282537137 -0.0016256461616730652 0 -0.051301969092286723 -0.0015015876762190417 0 -0.051166375725686726 -0.0015268849387180443 0 -0.050305650105506632 -0.0015381819416407565 0 -0.050198555905203758 -0.001348093949278911 0 -0.047324068754612827 0.0045790292767757699 0 -0.049218420097930732 0.0028839298525651634 0 -0.048368781121635417 0.0029512004408094304 0 -0.049440635502916566 0.0021396977844612653 0 -0.050084684263169435 0.00064427067177691281 0 -0.047720548269214721 0.0033318769414284995 0 -0.047324068754612827 0.0045790292767757699 0 -0.048368781121635417 0.0029512004408094304 0 -0.050770789903437551 -0.0017248707691009837 0 -0.052032472633456811 -0.0014121954452814612 0 -0.047155987299794568 0.0038146382928704323 0 -0.046913741491033847 0.0032670899532902548 0 -0.046684848351033363 0.0041015788701121627 0 -0.047720548269214721 0.0033318769414284995 0 -0.047155987299794568 0.0038146382928704323 0 -0.046913741491033847 0.0032670899532902548 0 -0.047155987299794568 0.0038146382928704323 0 -0.047324068754612827 0.0045790292767757699 0 -0.046684848351033363 0.0041015788701121627 0 -0.047324068754612827 0.0045790292767757699 0 -0.046546993901014577 0.0047355909047105977 0 -0.046684848351033363 0.0041015788701121627 0 -0.047720548269214721 0.0033318769414284995 0 -0.047155987299794568 0.0038146382928704323 0 -0.047324068754612827 0.0045790292767757699 0 -0.050907264163327207 -0.0031014000412148022 0 -0.051014994718201714 -0.0024772802926977598 0 -0.051525251014308965 -0.0026312032572032868 0 -0.050305650105506632 -0.0015381819416407565 0 -0.050198555905203758 -0.001348093949278911 0 -0.049902206736103037 -0.0013304505839970241 0 -0.042416319169266303 -0.0030576810573511247 0 -0.049440635502916566 0.0021396977844612653 0 -0.04956451065543499 -0.0013193484028858943 0 -0.050305650105506632 -0.0015381819416407565 0 -0.049902206736103037 -0.0013304505839970241 0 -0.045521093945699864 0.0059173791995111901 0 -0.047324068754612827 0.0045790292767757699 0 -0.045851117090325431 0.0054633702302241101 0 -0.047324068754612827 0.0045790292767757699 0 -0.045851117090325431 0.0054633702302241101 0 -0.046546993901014577 0.0047355909047105977 0 -0.042416319169266303 -0.0030576810573511247 0 -0.04992706929769896 -0.0030020218701090075 0 -0.0456437109286537 0.0056811769089721818 0 -0.045478568604830585 0.0055242957449001956 0 -0.045851117090325431 0.0054633702302241101 0 -0.045521093945699864 0.0059173791995111901 0 -0.0456437109286537 0.0056811769089721818 0 -0.045851117090325431 0.0054633702302241101 0 -0.045521093945699864 0.0059173791995111901 0 -0.045487314291992362 0.0057296080183554064 0 -0.045342833115209216 0.0057046288444812451 0 -0.045487314291992362 0.0057296080183554064 0 -0.0456437109286537 0.0056811769089721818 0 -0.045478568604830585 0.0055242957449001956 0 -0.045521093945699864 0.0059173791995111901 0 -0.045487314291992362 0.0057296080183554064 0 -0.0456437109286537 0.0056811769089721818 0 -0.045487314291992362 0.0057296080183554064 0 -0.045478568604830585 0.0055242957449001956 0 -0.045342833115209216 0.0057046288444812451 0 -0.045478568604830585 0.0055242957449001956 0 -0.045573438136592086 0.005232566351539911 0 -0.045851117090325431 0.0054633702302241101 0 -0.045573438136592086 0.005232566351539911 0 -0.045851117090325431 0.0054633702302241101 0 -0.045756471317712794 0.0050206252874512363 0 -0.045478568604830585 0.0055242957449001956 0 -0.045573438136592086 0.005232566351539911 0 -0.045312172476320016 0.0052900336889725938 0 -0.045851117090325431 0.0054633702302241101 0 -0.046104016575214249 0.0049283626307110688 0 -0.045756471317712794 0.0050206252874512363 0 -0.045573438136592086 0.005232566351539911 0 -0.045756471317712794 0.0050206252874512363 0 -0.045404206953167152 0.0049537067053532589 0 -0.045756471317712794 0.0050206252874512363 0 -0.045849963598536457 0.0045206065374857208 0 -0.045404206953167152 0.0049537067053532589 0 -0.046104016575214249 0.0049283626307110688 0 -0.045756471317712794 0.0050206252874512363 0 -0.045849963598536457 0.0045206065374857208 0 -0.046104016575214249 0.0049283626307110688 0 -0.046546993901014577 0.0047355909047105977 0 -0.045849963598536457 0.0045206065374857208 0 -0.045851117090325431 0.0054633702302241101 0 -0.046104016575214249 0.0049283626307110688 0 -0.046546993901014577 0.0047355909047105977 0 -0.046684848351033363 0.0041015788701121627 0 -0.046046464783091427 0.0036684802711806084 0 -0.045849963598536457 0.0045206065374857208 0 -0.046546993901014577 0.0047355909047105977 0 -0.046684848351033363 0.0041015788701121627 0 -0.045849963598536457 0.0045206065374857208 0 -0.046913741491033847 0.0032670899532902548 0 -0.046684848351033363 0.0041015788701121627 0 -0.046046464783091427 0.0036684802711806084 0 -0.046046464783091427 0.0036684802711806084 0 -0.045128950406711547 0.0040711972263631994 0 -0.045338619528261827 0.0033582392524954983 0 -0.046046464783091427 0.0036684802711806084 0 -0.045849963598536457 0.0045206065374857208 0 -0.045128950406711547 0.0040711972263631994 0 -0.045849963598536457 0.0045206065374857208 0 -0.045128950406711547 0.0040711972263631994 0 -0.044997286009911451 0.0046641365910003972 0 -0.045128950406711547 0.0040711972263631994 0 -0.045338619528261827 0.0033582392524954983 0 -0.044386941022596944 0.0034962659359967577 0 -0.045128950406711547 0.0040711972263631994 0 -0.044386941022596944 0.0034962659359967577 0 -0.044236753614955986 0.0044510415626205805 0 -0.045128950406711547 0.0040711972263631994 0 -0.044236753614955986 0.0044510415626205805 0 -0.044997286009911451 0.0046641365910003972 0 -0.044236753614955986 0.0044510415626205805 0 -0.044529994430109479 0.004848337159834913 0 -0.044997286009911451 0.0046641365910003972 0 -0.044236753614955986 0.0044510415626205805 0 -0.044529994430109479 0.004848337159834913 0 -0.04408385306924404 0.0052117423452879702 0 -0.044529994430109479 0.004848337159834913 0 -0.044880579630030039 0.0051636509913576614 0 -0.04408385306924404 0.0052117423452879702 0 -0.045849963598536457 0.0045206065374857208 0 -0.044997286009911451 0.0046641365910003972 0 -0.045404206953167152 0.0049537067053532589 0 -0.045573438136592086 0.005232566351539911 0 -0.045404206953167152 0.0049537067053532589 0 -0.045312172476320016 0.0052900336889725938 0 -0.045404206953167152 0.0049537067053532589 0 -0.044880579630030039 0.0051636509913576614 0 -0.045312172476320016 0.0052900336889725938 0 -0.044997286009911451 0.0046641365910003972 0 -0.045404206953167152 0.0049537067053532589 0 -0.044880579630030039 0.0051636509913576614 0 -0.044529994430109479 0.004848337159834913 0 -0.044997286009911451 0.0046641365910003972 0 -0.044880579630030039 0.0051636509913576614 0 -0.044880579630030039 0.0051636509913576614 0 -0.045165950628126297 0.0055515794121619782 0 -0.044712036833375601 0.0055750100254572327 0 -0.044880579630030039 0.0051636509913576614 0 -0.045312172476320016 0.0052900336889725938 0 -0.045165950628126297 0.0055515794121619782 0 -0.045478568604830585 0.0055242957449001956 0 -0.045312172476320016 0.0052900336889725938 0 -0.045165950628126297 0.0055515794121619782 0 -0.045478568604830585 0.0055242957449001956 0 -0.045165950628126297 0.0055515794121619782 0 -0.045342833115209216 0.0057046288444812451 0 -0.045165950628126297 0.0055515794121619782 0 -0.045212526774240265 0.0057661472392516828 0 -0.045059993111690219 0.0057691135479796775 0 -0.045165950628126297 0.0055515794121619782 0 -0.045212526774240265 0.0057661472392516828 0 -0.045342833115209216 0.0057046288444812451 0 -0.044873554362629582 0.0059466985833770266 0 -0.045059993111690219 0.0057691135479796775 0 -0.044712036833375601 0.0055750100254572327 0 -0.045165950628126297 0.0055515794121619782 0 -0.045059993111690219 0.0057691135479796775 0 -0.044712036833375601 0.0055750100254572327 0 -0.044880579630030039 0.0051636509913576614 0 -0.044712036833375601 0.0055750100254572327 0 -0.04408385306924404 0.0052117423452879702 0 -0.044198850306707914 0.0057873564290688963 0 -0.044712036833375601 0.0055750100254572327 0 -0.04408385306924404 0.0052117423452879702 0 -0.050282548188281179 -0.003386285717221227 0 -0.050242247761314716 -0.0032680961700945039 0 -0.050409260438114542 -0.0025982495592420029 0 -0.050282548188281179 -0.003386285717221227 0 -0.050409260438114542 -0.0025982495592420029 0 -0.050575054584973772 -0.0028625225367185252 0 -0.050421490076588561 -0.0034870771829210033 0 -0.050282548188281179 -0.003386285717221227 0 -0.050575054584973772 -0.0028625225367185252 0 -0.050096782900860948 -0.0039810787147076905 0 -0.050421490076588561 -0.0034870771829210033 0 -0.050282548188281179 -0.003386285717221227 0 -0.050282548188281179 -0.003386285717221227 0 -0.050021497895229181 -0.0039262884380636175 0 -0.050242247761314716 -0.0032680961700945039 0 -0.050021497895229181 -0.0039262884380636175 0 -0.050210358880719078 -0.0035317393329362011 0 -0.050242247761314716 -0.0032680961700945039 0 -0.050096782900860948 -0.0039810787147076905 0 -0.050282548188281179 -0.003386285717221227 0 -0.050021497895229181 -0.0039262884380636175 0 -0.049732154790484401 -0.0044956192314191679 0 -0.050021497895229181 -0.0039262884380636175 0 -0.050210358880719078 -0.0035317393329362011 0 -0.050210358880719078 -0.0035317393329362011 0 -0.050430743304389153 -0.0026872010124554717 0 -0.050684869516278694 -0.0026649610498024954 0 -0.050242247761314716 -0.0032680961700945039 0 -0.050430743304389153 -0.0026872010124554717 0 -0.050409260438114542 -0.0025982495592420029 0 -0.050210358880719078 -0.0035317393329362011 0 -0.050242247761314716 -0.0032680961700945039 0 -0.050430743304389153 -0.0026872010124554717 0 -0.050430743304389153 -0.0026872010124554717 0 -0.050553859582551937 -0.0018082411257499436 0 -0.050409260438114542 -0.0025982495592420029 0 -0.050430743304389153 -0.0026872010124554717 0 -0.050721397954129999 -0.0021181261213456472 0 -0.050553859582551937 -0.0018082411257499436 0 -0.050430743304389153 -0.0026872010124554717 0 -0.050684869516278694 -0.0026649610498024954 0 -0.050721397954129999 -0.0021181261213456472 0 -0.050927708512946257 -0.0021570526350071016 0 -0.050684869516278694 -0.0026649610498024954 0 -0.050721397954129999 -0.0021181261213456472 0 -0.051032744583334649 -0.0017160742695590781 0 -0.050721397954129999 -0.0021181261213456472 0 -0.050853536282537137 -0.0016256461616730652 0 -0.050927708512946257 -0.0021570526350071016 0 -0.051032744583334649 -0.0017160742695590781 0 -0.050721397954129999 -0.0021181261213456472 0 -0.050721397954129999 -0.0021181261213456472 0 -0.050853536282537137 -0.0016256461616730652 0 -0.050553859582551937 -0.0018082411257499436 0 -0.050853536282537137 -0.0016256461616730652 0 -0.050553859582551937 -0.0018082411257499436 0 -0.050649468789020394 -0.0010363031575963103 0 -0.050553859582551937 -0.0018082411257499436 0 -0.050562665194587436 -0.0015819015951217701 0 -0.05058289110812323 -0.00082390680174334512 0 -0.050553859582551937 -0.0018082411257499436 0 -0.050562665194587436 -0.0015819015951217701 0 -0.050409260438114542 -0.0025982495592420029 0 -0.050409260438114542 -0.0025982495592420029 0 -0.050617143849721366 -0.0021268605384780577 0 -0.050575054584973772 -0.0028625225367185252 0 -0.050562665194587436 -0.0015819015951217701 0 -0.050409260438114542 -0.0025982495592420029 0 -0.050617143849721366 -0.0021268605384780577 0 -0.050562665194587436 -0.0015819015951217701 0 -0.050617143849721366 -0.0021268605384780577 0 -0.050806044044887026 -0.0014490072216887875 0 -0.050806044044887026 -0.0014490072216887875 0 -0.050969305732016634 -0.0015310565705839328 0 -0.051064828501381165 -0.00094439856296293044 0 -0.050806044044887026 -0.0014490072216887875 0 -0.050969305732016634 -0.0015310565705839328 0 -0.050806863547617681 -0.0021635291072102701 0 -0.050969305732016634 -0.0015310565705839328 0 -0.050806863547617681 -0.0021635291072102701 0 -0.050959216571989083 -0.002215316052253339 0 -0.050806863547617681 -0.0021635291072102701 0 -0.050799527160193078 -0.0027992105834345475 0 -0.050959216571989083 -0.002215316052253339 0 -0.050617143849721366 -0.0021268605384780577 0 -0.050806863547617681 -0.0021635291072102701 0 -0.050575054584973772 -0.0028625225367185252 0 -0.050617143849721366 -0.0021268605384780577 0 -0.050806044044887026 -0.0014490072216887875 0 -0.050806863547617681 -0.0021635291072102701 0 -0.050806863547617681 -0.0021635291072102701 0 -0.050575054584973772 -0.0028625225367185252 0 -0.050799527160193078 -0.0027992105834345475 0 -0.050799527160193078 -0.0027992105834345475 0 -0.050657572379637104 -0.0033290280427230793 0 -0.050841079526952146 -0.0033360333009876714 0 -0.050799527160193078 -0.0027992105834345475 0 -0.050841079526952146 -0.0033360333009876714 0 -0.050905291399155297 -0.0029530415162650715 0 -0.050575054584973772 -0.0028625225367185252 0 -0.050799527160193078 -0.0027992105834345475 0 -0.050657572379637104 -0.0033290280427230793 0 -0.050421490076588561 -0.0034870771829210033 0 -0.050575054584973772 -0.0028625225367185252 0 -0.050657572379637104 -0.0033290280427230793 0 -0.050936980272783525 -0.0033965655628488455 0 -0.05096944156115979 -0.0028705809386038949 0 -0.050904991738330227 -0.0034482987124828377 0 -0.050936980272783525 -0.0033965655628488455 0 -0.050904991738330227 -0.0034482987124828377 0 -0.050895679921883721 -0.0039465757077864292 0 -0.050936980272783525 -0.0033965655628488455 0 -0.050905291399155297 -0.0029530415162650715 0 -0.05096944156115979 -0.0028705809386038949 0 -0.050936980272783525 -0.0033965655628488455 0 -0.050841079526952146 -0.0033360333009876714 0 -0.050905291399155297 -0.0029530415162650715 0 -0.050799527160193078 -0.0027992105834345475 0 -0.050905291399155297 -0.0029530415162650715 0 -0.050959216571989083 -0.002215316052253339 0 -0.050905291399155297 -0.0029530415162650715 0 -0.05096944156115979 -0.0028705809386038949 0 -0.050959216571989083 -0.002215316052253339 0 -0.05096944156115979 -0.0028705809386038949 0 -0.051024564232564781 -0.0018318918874807102 0 -0.0509766082359644 -0.0027628151131770741 0 -0.05096944156115979 -0.0028705809386038949 0 -0.051024564232564781 -0.0018318918874807102 0 -0.050959216571989083 -0.002215316052253339 0 -0.050969305732016634 -0.0015310565705839328 0 -0.050959216571989083 -0.002215316052253339 0 -0.051026380113567339 -0.0012118207627684222 0 -0.051024564232564781 -0.0018318918874807102 0 -0.051026380113567339 -0.0012118207627684222 0 -0.050976650040667544 -0.00073861889762020095 0 -0.051024564232564781 -0.0018318918874807102 0 -0.050959216571989083 -0.002215316052253339 0 -0.051026380113567339 -0.0012118207627684222 0 -0.051024564232564781 -0.0018318918874807102 0 -0.050971276262850293 -0.0018045349984092971 0 -0.050976650040667544 -0.00073861889762020095 0 -0.050825141021368599 -0.00074327219276111513 0 -0.050971276262850293 -0.0018045349984092971 0 -0.050693921761737593 -0.0018779959046912008 0 -0.050825141021368599 -0.00074327219276111513 0 -0.050971276262850293 -0.0018045349984092971 0 -0.050976650040667544 -0.00073861889762020095 0 -0.050971276262850293 -0.0018045349984092971 0 -0.050693921761737593 -0.0018779959046912008 0 -0.050909468600229803 -0.0028646323433812984 0 -0.050971276262850293 -0.0018045349984092971 0 -0.0509766082359644 -0.0027628151131770741 0 -0.050909468600229803 -0.0028646323433812984 0 -0.051024564232564781 -0.0018318918874807102 0 -0.050971276262850293 -0.0018045349984092971 0 -0.0509766082359644 -0.0027628151131770741 0 -0.049999165112102034 -0.00069240516239430503 0 -0.050693921761737593 -0.0018779959046912008 0 -0.050533069943925292 0.00041508675111784875 0 -0.050825141021368599 -0.00074327219276111513 0 -0.050693921761737593 -0.0018779959046912008 0 -0.050533069943925292 0.00041508675111784875 0 -0.049999165112102034 -0.00069240516239430503 0 -0.050693921761737593 -0.0018779959046912008 0 -0.049999209063880314 -0.0034310107706960755 0 -0.050693921761737593 -0.0018779959046912008 0 -0.049999209063880314 -0.0034310107706960755 0 -0.050674552790172141 -0.0038746657722682626 0 -0.050693921761737593 -0.0018779959046912008 0 -0.050674552790172141 -0.0038746657722682626 0 -0.050909468600229803 -0.0028646323433812984 0 -0.050674552790172141 -0.0038746657722682626 0 -0.050909468600229803 -0.0028646323433812984 0 -0.050881521266578078 -0.0036008653861037097 0 -0.050674552790172141 -0.0038746657722682626 0 -0.050881521266578078 -0.0036008653861037097 0 -0.050684534050370156 -0.0046292031728687654 0 -0.049999209063880314 -0.0034310107706960755 0 -0.050674552790172141 -0.0038746657722682626 0 -0.049999649130941591 -0.0061655743793855309 0 -0.050674552790172141 -0.0038746657722682626 0 -0.049999649130941591 -0.0061655743793855309 0 -0.050684534050370156 -0.0046292031728687654 0 -0.05096944156115979 -0.0028705809386038949 0 -0.0509766082359644 -0.0027628151131770741 0 -0.050904991738330227 -0.0034482987124828377 0 -0.0509766082359644 -0.0027628151131770741 0 -0.050909468600229803 -0.0028646323433812984 0 -0.050881521266578078 -0.0036008653861037097 0 -0.050881521266578078 -0.0036008653861037097 0 -0.050904991738330227 -0.0034482987124828377 0 -0.050839223900851251 -0.0039114988528092844 0 -0.050881521266578078 -0.0036008653861037097 0 -0.050839223900851251 -0.0039114988528092844 0 -0.050684534050370156 -0.0046292031728687654 0 -0.0509766082359644 -0.0027628151131770741 0 -0.050881521266578078 -0.0036008653861037097 0 -0.050904991738330227 -0.0034482987124828377 0 -0.051149725876478702 -0.005166171168339252 0 -0.050936033877050334 -0.0041478354024686633 0 -0.050895679921883721 -0.0039465757077864292 0 -0.051031272350672549 -0.0045519118433416965 0 -0.050966555050818881 -0.0040966121601096195 0 -0.050904991738330227 -0.0034482987124828377 0 -0.050839223900851251 -0.0039114988528092844 0 -0.050895679921883721 -0.0039465757077864292 0 -0.051031272350672549 -0.0045519118433416965 0 -0.050813737366462705 -0.0052820657649074385 0 -0.051149725876478702 -0.005166171168339252 0 -0.050936033877050334 -0.0041478354024686633 0 -0.05127521557525299 -0.0056767237438978763 0 -0.053006602363560029 -0.0092510893522521134 0 -0.054031472033701129 -0.0092025405257595838 0 -0.052718461000297458 -0.0084065707698310187 0 -0.052413730212072455 -0.00668390132326129 0 -0.051844486881222167 -0.0070413454035542595 0 -0.053006602363560029 -0.0092510893522521134 0 -0.054031472033701129 -0.0092025405257595838 0 -0.053388272487608739 -0.0098173508162638576 0 -0.050000034473789895 -0.0075498042035106756 0 -0.051844486881222167 -0.0070413454035542595 0 -0.050000057259880097 -0.0061690078753362408 0 -0.050813737366462705 -0.0052820657649074385 0 -0.049999299587943261 -0.0061714603397430715 0 -0.050000676256505408 -0.007546785356272916 0 -0.051119767795631745 -0.0058864095036020685 0 -0.050000676256505408 -0.007546785356272916 0 -0.051119767795631745 -0.0058864095036020685 0 -0.05127521557525299 -0.0056767237438978763 0 -0.051149725876478702 -0.005166171168339252 0 -0.051119767795631745 -0.0058864095036020685 0 -0.05127521557525299 -0.0056767237438978763 0 -0.050000115603971357 -0.0075505888605490257 0 -0.052718461000297458 -0.0084065707698310187 0 -0.051818965384537646 -0.0099130454998919305 0 -0.053006602363560029 -0.0092510893522521134 0 -0.052718461000297458 -0.0084065707698310187 0 -0.051818965384537646 -0.0099130454998919305 0 -0.050000115603971357 -0.0075505888605490257 0 -0.049999909299502182 -0.010127430521925983 0 -0.051818965384537646 -0.0099130454998919305 0 -0.049999909299502182 -0.010127430521925983 0 -0.051818965384537646 -0.0099130454998919305 0 -0.051755409407243838 -0.011885901258837624 0 -0.053006602363560029 -0.0092510893522521134 0 -0.051818965384537646 -0.0099130454998919305 0 -0.052847313810651497 -0.010035113782345496 0 -0.051818965384537646 -0.0099130454998919305 0 -0.052633031514916523 -0.010954140693413853 0 -0.052847313810651497 -0.010035113782345496 0 -0.051818965384537646 -0.0099130454998919305 0 -0.051755409407243838 -0.011885901258837624 0 -0.052633031514916523 -0.010954140693413853 0 -0.051755409407243838 -0.011885901258837624 0 -0.052633031514916523 -0.010954140693413853 0 -0.053268054719574034 -0.011797244622897279 0 -0.049999920988884228 -0.012704935023804998 0 -0.049999909299502182 -0.010127430521925983 0 -0.051755409407243838 -0.011885901258837624 0 -0.054031472033701129 -0.0092025405257595838 0 -0.053388272487608739 -0.0098173508162638576 0 -0.053931216004196321 -0.0093330307677731324 0 -0.054204709878811951 -0.009848362659239487 0 -0.052741568114715739 -0.0094362365508165666 0 -0.054271530796325448 -0.010267576512408543 0 -0.054297322750335893 -0.011170570321858928 0 -0.055329247557574665 -0.010009413950361467 0 -0.054271530796325448 -0.010267576512408543 0 -0.053388272487608739 -0.0098173508162638576 0 -0.055329247557574665 -0.010009413950361467 0 -0.053006602363560029 -0.0092510893522521134 0 -0.053388272487608739 -0.0098173508162638576 0 -0.052847313810651497 -0.010035113782345496 0 -0.052633031514916523 -0.010954140693413853 0 -0.052847313810651497 -0.010035113782345496 0 -0.053383896167104664 -0.010332536540240359 0 -0.053388272487608739 -0.0098173508162638576 0 -0.052847313810651497 -0.010035113782345496 0 -0.053383896167104664 -0.010332536540240359 0 -0.054271530796325448 -0.010267576512408543 0 -0.053388272487608739 -0.0098173508162638576 0 -0.053819835408929477 -0.010268708539924638 0 -0.053388272487608739 -0.0098173508162638576 0 -0.053383896167104664 -0.010332536540240359 0 -0.053819835408929477 -0.010268708539924638 0 -0.053895158055525222 -0.010772637523484587 0 -0.052604160981179031 -0.011331863718534993 0 -0.053383896167104664 -0.010332536540240359 0 -0.053819835408929477 -0.010268708539924638 0 -0.054297322750335893 -0.011170570321858928 0 -0.053187502554590767 -0.013729421100919119 0 -0.053268054719574034 -0.011797244622897279 0 -0.054819112787467414 -0.011649750107167737 0 -0.053383896167104664 -0.010332536540240359 0 -0.053268054719574034 -0.011797244622897279 0 -0.054819112787467414 -0.011649750107167737 0 -0.052633031514916523 -0.010954140693413853 0 -0.053383896167104664 -0.010332536540240359 0 -0.053268054719574034 -0.011797244622897279 0 -0.049499308385215726 -0.0083336649234104134 0 -0.048709181641609776 -0.0083419374810603051 0 -0.049021378351242539 -0.0088723408735915076 0 -0.052604160981179031 -0.011331863718534993 0 -0.052741568114715739 -0.0094362365508165666 0 -0.054271530796325448 -0.010267576512408543 0 -0.053819835408929477 -0.010268708539924638 0 -0.054297322750335893 -0.011170570321858928 0 -0.04887396066401381 -0.0077892247171904459 0 -0.049499308385215726 -0.0083336649234104134 0 -0.048709181641609776 -0.0083419374810603051 0 -0.04887396066401381 -0.0077892247171904459 0 -0.048709181641609776 -0.0083419374810603051 0 -0.048170046361832267 -0.0081162804689161559 0 -0.048709181641609776 -0.0083419374810603051 0 -0.049021378351242539 -0.0088723408735915076 0 -0.048116762519935921 -0.0087591256811393788 0 -0.05395936679644233 -0.0087875247771627245 0 -0.052835516508224156 -0.0086207723439281556 0 -0.053650911852121778 -0.0091624583197669092 0 -0.052741568114715739 -0.0094362365508165666 0 -0.050210088190572745 -0.0085910286116681594 0 -0.052741568114715739 -0.0094362365508165666 0 -0.053662848221807162 -0.0089394946124294172 0 -0.052835516508224156 -0.0086207723439281556 0 -0.053650911852121778 -0.0091624583197669092 0 -0.052999665581209561 -0.0092951969169928622 0 -0.048709181641609776 -0.0083419374810603051 0 -0.048116762519935921 -0.0087591256811393788 0 -0.048170046361832267 -0.0081162804689161559 0 -0.048116762519935921 -0.0087591256811393788 0 -0.048170046361832267 -0.0081162804689161559 0 -0.047729423912339107 -0.0083245581157210292 0 -0.047556143245884634 -0.0078259832129562792 0 -0.048170046361832267 -0.0081162804689161559 0 -0.047729423912339107 -0.0083245581157210292 0 -0.047556143245884634 -0.0078259832129562792 0 -0.047729423912339107 -0.0083245581157210292 0 -0.047163656973431604 -0.0082350315292928182 0 -0.047729423912339107 -0.0083245581157210292 0 -0.047163656973431604 -0.0082350315292928182 0 -0.047387768892457417 -0.0086216691051236218 0 -0.049199188540837484 -0.0082514533114441627 0 -0.051060349541996113 -0.0084182470342305232 0 -0.051003487954594855 -0.0089423676506805039 0 -0.052835516508224156 -0.0086207723439281556 0 -0.051003487954594855 -0.0089423676506805039 0 -0.052999665581209561 -0.0092951969169928622 0 -0.052835516508224156 -0.0086207723439281556 0 -0.051060349541996113 -0.0084182470342305232 0 -0.051003487954594855 -0.0089423676506805039 0 -0.048116762519935921 -0.0087591256811393788 0 -0.047729423912339107 -0.0083245581157210292 0 -0.047387768892457417 -0.0086216691051236218 0 -0.050210088190572745 -0.0085910286116681594 0 -0.049183747087998407 -0.0087273215034872828 0 -0.050805325244198042 -0.0063112340441782138 0 -0.05190301222358764 -0.0064387430542867871 0 -0.050615001024844321 -0.0035158625891323508 0 -0.050736186245233912 -0.0035466819017336685 0 -0.050852570149934509 -0.0036042307319599032 0 -0.050615001024844321 -0.0035158625891323508 0 -0.050736186245233912 -0.0035466819017336685 0 -0.050545899508428943 -0.0035810858254695164 0 -0.050342957394780563 -0.0037716241735606154 0 -0.050615001024844321 -0.0035158625891323508 0 -0.050545899508428943 -0.0035810858254695164 0 -0.050421490076588561 -0.0034870771829210033 0 -0.050657572379637104 -0.0033290280427230793 0 -0.050545899508428943 -0.0035810858254695164 0 -0.050657572379637104 -0.0033290280427230793 0 -0.050736186245233912 -0.0035466819017336685 0 -0.050545899508428943 -0.0035810858254695164 0 -0.050657572379637104 -0.0033290280427230793 0 -0.050841079526952146 -0.0033360333009876714 0 -0.050736186245233912 -0.0035466819017336685 0 -0.050936980272783525 -0.0033965655628488455 0 -0.050841079526952146 -0.0033360333009876714 0 -0.050892144333613269 -0.0036899985056242732 0 -0.050841079526952146 -0.0033360333009876714 0 -0.050736186245233912 -0.0035466819017336685 0 -0.050892144333613269 -0.0036899985056242732 0 -0.050936980272783525 -0.0033965655628488455 0 -0.050892144333613269 -0.0036899985056242732 0 -0.050895679921883721 -0.0039465757077864292 0 -0.050936033877050334 -0.0041478354024686633 0 -0.050892144333613269 -0.0036899985056242732 0 -0.050895679921883721 -0.0039465757077864292 0 -0.050936033877050334 -0.0041478354024686633 0 -0.050892144333613269 -0.0036899985056242732 0 -0.050852570149934509 -0.0036042307319599032 0 -0.052413730212072455 -0.00668390132326129 0 -0.05190301222358764 -0.0064387430542867871 0 -0.054031472033701129 -0.0092025405257595838 0 -0.053650911852121778 -0.0091624583197669092 0 -0.052999665581209561 -0.0092951969169928622 0 -0.054031472033701129 -0.0092025405257595838 0 -0.053931216004196321 -0.0093330307677731324 0 -0.053650911852121778 -0.0091624583197669092 0 -0.050736186245233912 -0.0035466819017336685 0 -0.050892144333613269 -0.0036899985056242732 0 -0.050852570149934509 -0.0036042307319599032 0 -0.01346687054682979 0.00010444007538752209 0 -0.012113644377758538 -0.00039310489960001744 0 -0.012267566794762293 0.00070056939540779717 0 -0.01346687054682979 0.00010444007538752209 0 -0.012113644377758538 -0.00039310489960001744 0 -0.012551380681381849 -0.0019281228751338458 0 -0.012113644377758538 -0.00039310489960001744 0 -0.011175362261734854 0.00032483592546903619 0 -0.010978949320070968 -0.0011417588073867463 0 -0.012113644377758538 -0.00039310489960001744 0 -0.012267566794762293 0.00070056939540779717 0 -0.011175362261734854 0.00032483592546903619 0 -0.012113644377758538 -0.00039310489960001744 0 -0.012551380681381849 -0.0019281228751338458 0 -0.010978949320070968 -0.0011417588073867463 0 -0.012551380681381849 -0.0019281228751338458 0 -0.010978949320070968 -0.0011417588073867463 0 -0.011145958006998313 -0.0025826257207990054 0 -0.013202797762556791 -0.0017330005689778025 0 -0.012559510456841626 -0.0027907839628167012 0 -0.013497298271959548 -0.0026211294565890212 0 -0.019883545697716779 -0.0041600168373099652 0 -0.011607482019031857 -0.0018842604215262965 0 -0.026701601660300053 -0.0056135112369613514 0 -0.026260481903574922 -0.0067653522188903551 0 -0.025593798620779481 -0.0051530959085694687 0 -0.025353467516348104 -0.0064271556822497987 0 -0.026260481903574922 -0.0067653522188903551 0 -0.025593798620779481 -0.0051530959085694687 0 -0.025538771646357785 -0.0061608671161719631 0 -0.026252759984345283 -0.0042599521817530172 0 -0.025353467516348104 -0.0064271556822497987 0 -0.026972216196618933 -0.0036023272617023202 0 -0.02442447720103965 -0.0040912546908538107 0 -0.025353467516348104 -0.0064271556822497987 0 -0.026260481903574922 -0.0067653522188903551 0 -0.025628616408752618 -0.0081619922124528017 0 -0.025353467516348104 -0.0064271556822497987 0 -0.024437478262700499 -0.0082262443892425798 0 -0.025628616408752618 -0.0081619922124528017 0 -0.025353467516348104 -0.0064271556822497987 0 -0.024437478262700499 -0.0082262443892425798 0 -0.023411420681840746 -0.0073864128920759402 0 -0.019883545697716779 -0.0041600168373099652 0 -0.019856627041495434 -0.0044241479160294474 0 -0.027475985901280274 -0.0077324573890229734 0 -0.026260481903574922 -0.0067653522188903551 0 -0.025628616408752618 -0.0081619922124528017 0 -0.027475985901280274 -0.0077324573890229734 0 -0.026701601660300053 -0.0056135112369613514 0 -0.026260481903574922 -0.0067653522188903551 0 -0.027475985901280274 -0.0077324573890229734 0 -0.025628616408752618 -0.0081619922124528017 0 -0.026432295221817361 -0.0096425613993130349 0 -0.025628616408752618 -0.0081619922124528017 0 -0.026432295221817361 -0.0096425613993130349 0 -0.024302967713271 -0.0098514894711850525 0 -0.019883545697716779 -0.0041600168373099652 0 -0.026636929990252446 -0.0095467804203050489 0 -0.024437478262700499 -0.0082262443892425798 0 -0.024302967713271 -0.0098514894711850525 0 -0.02293974422825909 -0.0091350136052526874 0 -0.024437478262700499 -0.0082262443892425798 0 -0.025628616408752618 -0.0081619922124528017 0 -0.024302967713271 -0.0098514894711850525 0 -0.024302967713271 -0.0098514894711850525 0 -0.025124946493176363 -0.010981122120224354 0 -0.023933769698018716 -0.012085267598833072 0 -0.024302967713271 -0.0098514894711850525 0 -0.022419996890803363 -0.011482366303229505 0 -0.023933769698018716 -0.012085267598833072 0 -0.025124946493176363 -0.010981122120224354 0 -0.024978076064871218 -0.012740285324650784 0 -0.023933769698018716 -0.012085267598833072 0 -0.026432295221817361 -0.0096425613993130349 0 -0.024302967713271 -0.0098514894711850525 0 -0.025124946493176363 -0.010981122120224354 0 -0.026432295221817361 -0.0096425613993130349 0 -0.025124946493176363 -0.010981122120224354 0 -0.026387971315132444 -0.011208825868339239 0 -0.025124946493176363 -0.010981122120224354 0 -0.026387971315132444 -0.011208825868339239 0 -0.024978076064871218 -0.012740285324650784 0 -0.026432295221817361 -0.0096425613993130349 0 -0.026387971315132444 -0.011208825868339239 0 -0.028038486376331793 -0.010262722681317636 0 -0.026387971315132444 -0.011208825868339239 0 -0.028038486376331793 -0.010262722681317636 0 -0.027206472727130841 -0.012738564436033686 0 -0.019883545697716779 -0.0041600168373099652 0 -0.02053207009097012 -0.0041973419964676604 0 -0.01346687054682979 0.00010444007538752209 0 -0.012794669400866793 0.001732478343327015 0 -0.012267566794762293 0.00070056939540779717 0 -0.02714171600091228 -0.0079136808961853319 0 -0.026432295221817361 -0.0096425613993130349 0 -0.028038486376331793 -0.010262722681317636 0 -0.012267566794762293 0.00070056939540779717 0 -0.011194356276950255 0.0018582151485469489 0 -0.011175362261734854 0.00032483592546903619 0 -0.012794669400866793 0.001732478343327015 0 -0.012267566794762293 0.00070056939540779717 0 -0.011194356276950255 0.0018582151485469489 0 -0.012794669400866793 0.001732478343327015 0 -0.011194356276950255 0.0018582151485469489 0 -0.012136969845896139 0.0033865720325543542 0 -0.02053207009097012 -0.0041973419964676604 0 -0.019583689512458508 -0.0051168464529967048 0 -0.011194356276950255 0.0018582151485469489 0 -0.0093085273770558349 0.0023977837768282832 0 -0.009677451821617087 0.0012309911726369499 0 -0.011194356276950255 0.0018582151485469489 0 -0.0093085273770558349 0.0023977837768282832 0 -0.010387320964048602 0.0035705946590292759 0 -0.0093085273770558349 0.0023977837768282832 0 -0.009677451821617087 0.0012309911726369499 0 -0.0078661132705125439 0.001516451761397289 0 -0.009677451821617087 0.0012309911726369499 0 -0.0078661132705125439 0.001516451761397289 0 -0.009018427025871377 5.6045962557431591e-05 0 -0.011194356276950255 0.0018582151485469489 0 -0.009677451821617087 0.0012309911726369499 0 -0.011175362261734854 0.00032483592546903619 0 -0.0076701632907316755 0.0025596432798700832 0 -0.0040927616527698177 0.0044667723859441802 0 -0.0078661132705125439 0.001516451761397289 0 -0.0064904034600431378 0.0031072373928233881 0 -0.0077256478043123593 0.002672494976986543 0 -0.0040927616527698177 0.0044667723859441802 0 -0.0033105147016364114 0.0038390822034726092 0 -0.0070163797874324731 0.0035573404418420039 0 -0.004802030253885624 0.0069095994813734565 0 -0.004089821733096923 0.00434375302452303 0 -0.0093085273770558349 0.0023977837768282832 0 -0.0078661132705125439 0.001516451761397289 0 -0.0077256478043123593 0.002672494976986543 0 -0.0076701632907316755 0.0025596432798700832 0 -0.0088675611113733614 0.00019804516266789179 0 -0.005391409556814602 0.0017861311624621722 0 -0.0032340287679021675 0.0017475805215064759 0 -0.004089821733096923 0.00434375302452303 0 -0.0070163797874324731 0.0035573404418420039 0 -0.005391409556814602 0.0017861311624621722 0 -0.0068525473687824183 0.00030245504254224911 0 -0.0070163797874324731 0.0035573404418420039 0 -0.005391409556814602 0.0017861311624621722 0 -0.004089821733096923 0.00434375302452303 0 -0.0055803307117609884 -0.00010022671071342439 0 -0.0050101667756881022 -0.00086763169269853948 0 -0.0041173914564153046 0.00032030642784971434 0 -0.005391409556814602 0.0017861311624621722 0 -0.0055803307117609884 -0.00010022671071342439 0 -0.0041173914564153046 0.00032030642784971434 0 -0.005391409556814602 0.0017861311624621722 0 -0.0032340287679021675 0.0017475805215064759 0 -0.0041173914564153046 0.00032030642784971434 0 -0.005391409556814602 0.0017861311624621722 0 -0.0055803307117609884 -0.00010022671071342439 0 -0.0068525473687824183 0.00030245504254224911 0 -0.0055803307117609884 -0.00010022671071342439 0 -0.0068525473687824183 0.00030245504254224911 0 -0.0063047704170519645 -0.001029279987077328 0 -0.0070163797874324731 0.0035573404418420039 0 -0.0068525473687824183 0.00030245504254224911 0 -0.009018427025871377 5.6045962557431591e-05 0 -0.0068525473687824183 0.00030245504254224911 0 -0.0077699272126198907 -0.0016777615436218392 0 -0.009018427025871377 5.6045962557431591e-05 0 -0.0068525473687824183 0.00030245504254224911 0 -0.0077699272126198907 -0.0016777615436218392 0 -0.0063047704170519645 -0.001029279987077328 0 -0.0077699272126198907 -0.0016777615436218392 0 -0.0063047704170519645 -0.001029279987077328 0 -0.0058434496962700422 -0.0022121300528543317 0 -0.0050101667756881022 -0.00086763169269853948 0 -0.0058434496962700422 -0.0022121300528543317 0 -0.0030983161260879823 -0.0011293827341445296 0 -0.0055803307117609884 -0.00010022671071342439 0 -0.0063047704170519645 -0.001029279987077328 0 -0.0050101667756881022 -0.00086763169269853948 0 -0.0063047704170519645 -0.001029279987077328 0 -0.0050101667756881022 -0.00086763169269853948 0 -0.0058434496962700422 -0.0022121300528543317 0 -0.011175362261734854 0.00032483592546903619 0 -0.009018427025871377 5.6045962557431591e-05 0 -0.010978949320070968 -0.0011417588073867463 0 -0.009677451821617087 0.0012309911726369499 0 -0.011175362261734854 0.00032483592546903619 0 -0.009018427025871377 5.6045962557431591e-05 0 -0.0077699272126198907 -0.0016777615436218392 0 -0.009018427025871377 5.6045962557431591e-05 0 -0.009798257887141457 -0.0022401236899438318 0 -0.009018427025871377 5.6045962557431591e-05 0 -0.010978949320070968 -0.0011417588073867463 0 -0.009798257887141457 -0.0022401236899438318 0 -0.010978949320070968 -0.0011417588073867463 0 -0.011145958006998313 -0.0025826257207990054 0 -0.009798257887141457 -0.0022401236899438318 0 -0.011145958006998313 -0.0025826257207990054 0 -0.009798257887141457 -0.0022401236899438318 0 -0.010556149785794836 -0.0035456938577621325 0 -0.0077699272126198907 -0.0016777615436218392 0 -0.009798257887141457 -0.0022401236899438318 0 -0.0084317585890012637 -0.0029587330112781762 0 -0.009798257887141457 -0.0022401236899438318 0 -0.0093808343417083381 -0.0037265075089563879 0 -0.0084317585890012637 -0.0029587330112781762 0 -0.009798257887141457 -0.0022401236899438318 0 -0.0093808343417083381 -0.0037265075089563879 0 -0.010556149785794836 -0.0035456938577621325 0 -0.0093808343417083381 -0.0037265075089563879 0 -0.0084317585890012637 -0.0029587330112781762 0 -0.0084585023834540616 -0.0039969198311338621 0 -0.0093808343417083381 -0.0037265075089563879 0 -0.0084585023834540616 -0.0039969198311338621 0 -0.0087269464042784971 -0.0049185691493483378 0 -0.0093808343417083381 -0.0037265075089563879 0 -0.010285144857953694 -0.0047408118389562397 0 -0.0087269464042784971 -0.0049185691493483378 0 -0.0093808343417083381 -0.0037265075089563879 0 -0.010556149785794836 -0.0035456938577621325 0 -0.010285144857953694 -0.0047408118389562397 0 -0.011145958006998313 -0.0025826257207990054 0 -0.010556149785794836 -0.0035456938577621325 0 -0.011750395544841493 -0.0040292559267396831 0 -0.010963545528699792 -0.0042346313364610613 0 -0.010556149785794836 -0.0035456938577621325 0 -0.010285144857953694 -0.0047408118389562397 0 -0.010963545528699792 -0.0042346313364610613 0 -0.010556149785794836 -0.0035456938577621325 0 -0.011750395544841493 -0.0040292559267396831 0 -0.010963545528699792 -0.0042346313364610613 0 -0.011524962997278031 -0.0045772862880547171 0 -0.011750395544841493 -0.0040292559267396831 0 -0.0058434496962700422 -0.0022121300528543317 0 -0.00706893563166653 -0.0030083415797239324 0 -0.0037021190847069448 -0.002058211757809781 0 -0.00706893563166653 -0.0030083415797239324 0 -0.0053349917320147317 -0.0020247687243139705 0 -0.0055061111126047052 -0.0025101466318371512 0 -0.0061926366383694576 -0.0033163302524227265 0 -0.00706893563166653 -0.0030083415797239324 0 -0.0055061111126047052 -0.0025101466318371512 0 -0.0065572794289655368 -0.0028261413461919023 0 -0.0053032137842697821 -0.0023294131846371361 0 -0.0077699272126198907 -0.0016777615436218392 0 -0.0058434496962700422 -0.0022121300528543317 0 -0.00706893563166653 -0.0030083415797239324 0 -0.00706893563166653 -0.0030083415797239324 0 -0.0084317585890012637 -0.0029587330112781762 0 -0.007681096827763207 -0.0035850470980030437 0 -0.0077699272126198907 -0.0016777615436218392 0 -0.00706893563166653 -0.0030083415797239324 0 -0.0084317585890012637 -0.0029587330112781762 0 -0.0084317585890012637 -0.0029587330112781762 0 -0.0084585023834540616 -0.0039969198311338621 0 -0.007681096827763207 -0.0035850470980030437 0 -0.0084585023834540616 -0.0039969198311338621 0 -0.007681096827763207 -0.0035850470980030437 0 -0.0078084003711834469 -0.0046791629089277783 0 -0.0084585023834540616 -0.0039969198311338621 0 -0.0078084003711834469 -0.0046791629089277783 0 -0.0087269464042784971 -0.0049185691493483378 0 -0.007681096827763207 -0.0035850470980030437 0 -0.0070923050788377351 -0.0040945411635906542 0 -0.0078084003711834469 -0.0046791629089277783 0 -0.00706893563166653 -0.0030083415797239324 0 -0.007681096827763207 -0.0035850470980030437 0 -0.0070923050788377351 -0.0040945411635906542 0 -0.0061926366383694576 -0.0033163302524227265 0 -0.0070923050788377351 -0.0040945411635906542 0 -0.0065652645274549325 -0.0051839130701221954 0 -0.0061926366383694576 -0.0033163302524227265 0 -0.0065652645274549325 -0.0051839130701221954 0 -0.005224965050073316 -0.003669535538209021 0 -0.0061926366383694576 -0.0033163302524227265 0 -0.00706893563166653 -0.0030083415797239324 0 -0.0070923050788377351 -0.0040945411635906542 0 -0.016272267125135662 0.004236084915665371 0 -0.016630060774670791 0.0046520919841601723 0 -0.01582335841572197 0.0048234930140644066 0 -0.0070923050788377351 -0.0040945411635906542 0 -0.0065652645274549325 -0.0051839130701221954 0 -0.0078084003711834469 -0.0046791629089277783 0 -0.0065652645274549325 -0.0051839130701221954 0 -0.0078297486009451626 -0.0055745367337695362 0 -0.0081290237420140396 -0.0068391511844270629 0 -0.0065652645274549325 -0.0051839130701221954 0 -0.0078297486009451626 -0.0055745367337695362 0 -0.0078084003711834469 -0.0046791629089277783 0 -0.0078297486009451626 -0.0055745367337695362 0 -0.0078084003711834469 -0.0046791629089277783 0 -0.0087269464042784971 -0.0049185691493483378 0 -0.0078297486009451626 -0.0055745367337695362 0 -0.0083686554421521162 -0.0061395738491618838 0 -0.0087269464042784971 -0.0049185691493483378 0 -0.011149091135176438 -0.00063601663111819968 0 -0.016515850299013545 0.0017214684277280774 0 -0.016515850299013545 0.0017214684277280774 0 -0.0083200826382746167 -0.0068393516709138926 0 -0.0083686554421521162 -0.0061395738491618838 0 -0.0081290237420140396 -0.0068391511844270629 0 -0.0091025003980882806 -0.0058947795144819945 0 -0.0078297486009451626 -0.0055745367337695362 0 -0.0083686554421521162 -0.0061395738491618838 0 -0.0081290237420140396 -0.0068391511844270629 0 -0.016597022032014887 0.0046613671346615133 0 -0.016515850299013545 0.0017214684277280774 0 -0.016272267125135662 0.004236084915665371 0 -0.016630060774670791 0.0046520919841601723 0 -0.017461591184686851 0.0036572123535979807 0 -0.016272267125135662 0.004236084915665371 0 -0.017544577765806528 0.0036803926006308582 0 -0.016825026231680737 0.0035823928356269181 0 -0.016272267125135662 0.004236084915665371 0 -0.016825026231680737 0.0035823928356269181 0 -0.016226441461939061 0.003659879584342289 0 -0.011085123125759025 -0.0049142954088435813 0 -0.011211801858709795 -0.0055420858438273227 0 -0.011694516703494945 -0.0052356160821219805 0 -0.011085123125759025 -0.0049142954088435813 0 -0.011694516703494945 -0.0052356160821219805 0 -0.011524962997278031 -0.0045772862880547171 0 -0.01066863955774657 -0.0052365705980458388 0 -0.011085123125759025 -0.0049142954088435813 0 -0.011211801858709795 -0.0055420858438273227 0 -0.010963545528699792 -0.0042346313364610613 0 -0.011085123125759025 -0.0049142954088435813 0 -0.011524962997278031 -0.0045772862880547171 0 -0.010963545528699792 -0.0042346313364610613 0 -0.011085123125759025 -0.0049142954088435813 0 -0.010285144857953694 -0.0047408118389562397 0 -0.01066863955774657 -0.0052365705980458388 0 -0.011085123125759025 -0.0049142954088435813 0 -0.010285144857953694 -0.0047408118389562397 0 -0.010285144857953694 -0.0047408118389562397 0 -0.0087269464042784971 -0.0049185691493483378 0 -0.0091025003980882806 -0.0058947795144819945 0 -0.0083686554421521162 -0.0061395738491618838 0 -0.0087269464042784971 -0.0049185691493483378 0 -0.0091025003980882806 -0.0058947795144819945 0 -0.01066863955774657 -0.0052365705980458388 0 -0.010285144857953694 -0.0047408118389562397 0 -0.0099951121885120484 -0.0052937228899435432 0 -0.010590309173025662 -0.0044590470912622103 0 -0.0083200826382746167 -0.0068393516709138926 0 -0.021844365838065601 0.0056361567987649455 0 -0.022477513799221922 0.0052462343894715147 0 -0.023290241072135481 0.0051047402297128746 0 -0.01066863955774657 -0.0052365705980458388 0 -0.0099951121885120484 -0.0052937228899435432 0 -0.010584577534672878 -0.0057131001526401631 0 -0.0095257376177595617 -0.0057934554731309072 0 -0.010147986078709464 -0.0057802544107202307 0 -0.010488790401677064 -0.0063182863649103305 0 -0.0099951121885120484 -0.0052937228899435432 0 -0.010147986078709464 -0.0057802544107202307 0 -0.010584577534672878 -0.0057131001526401631 0 -0.016515850299013545 0.0017214684277280774 0 -0.016826040144843422 -0.00073849638826570252 0 -0.0095257376177595617 -0.0057934554731309072 0 -0.0099951121885120484 -0.0052937228899435432 0 -0.010147986078709464 -0.0057802544107202307 0 -0.010147986078709464 -0.0057802544107202307 0 -0.010584577534672878 -0.0057131001526401631 0 -0.010488790401677064 -0.0063182863649103305 0 -0.010584577534672878 -0.0057131001526401631 0 -0.011211801858709795 -0.0055420858438273227 0 -0.011149206210461371 -0.0060773755178988483 0 -0.010584577534672878 -0.0057131001526401631 0 -0.011149206210461371 -0.0060773755178988483 0 -0.010488790401677064 -0.0063182863649103305 0 -0.01066863955774657 -0.0052365705980458388 0 -0.010584577534672878 -0.0057131001526401631 0 -0.011211801858709795 -0.0055420858438273227 0 -0.011211801858709795 -0.0055420858438273227 0 -0.011149206210461371 -0.0060773755178988483 0 -0.011718631189960914 -0.0059607594669940462 0 -0.011718631189960914 -0.0059607594669940462 0 -0.0124189005528463 -0.0059919086238294731 0 -0.011694516703494945 -0.0052356160821219805 0 -0.011211801858709795 -0.0055420858438273227 0 -0.011718631189960914 -0.0059607594669940462 0 -0.011694516703494945 -0.0052356160821219805 0 -0.012870482799342305 -0.0048330489313026075 0 -0.012928030599392321 -0.0046217367699849729 0 -0.012627897953551674 -0.0044967337748760359 0 -0.012870482799342305 -0.0048330489313026075 0 -0.012928030599392321 -0.0046217367699849729 0 -0.013006995771337437 -0.0047929218578693653 0 -0.012928030599392321 -0.0046217367699849729 0 -0.012627897953551674 -0.0044967337748760359 0 -0.01294036392487961 -0.0041967238833625796 0 -0.012928030599392321 -0.0046217367699849729 0 -0.01294036392487961 -0.0041967238833625796 0 -0.013363024932370716 -0.0044669306360755074 0 -0.012870482799342305 -0.0048330489313026075 0 -0.012627897953551674 -0.0044967337748760359 0 -0.012101870284244613 -0.004452240689704073 0 -0.0124189005528463 -0.0059919086238294731 0 -0.011694516703494945 -0.0052356160821219805 0 -0.012101870284244613 -0.004452240689704073 0 -0.012029671882271534 -0.006082974377207848 0 -0.012254428746678649 -0.0042087699088985591 0 -0.012627897953551674 -0.0044967337748760359 0 -0.012101870284244613 -0.004452240689704073 0 -0.012461508394767572 -0.003929588047185446 0 -0.011694516703494945 -0.0052356160821219805 0 -0.012101870284244613 -0.004452240689704073 0 -0.011524962997278031 -0.0045772862880547171 0 -0.012101870284244613 -0.004452240689704073 0 -0.011524962997278031 -0.0045772862880547171 0 -0.011750395544841493 -0.0040292559267396831 0 -0.012559510456841626 -0.0027907839628167012 0 -0.011750395544841493 -0.0040292559267396831 0 -0.012461508394767572 -0.003929588047185446 0 -0.012101870284244613 -0.004452240689704073 0 -0.011750395544841493 -0.0040292559267396831 0 -0.012461508394767572 -0.003929588047185446 0 -0.012627897953551674 -0.0044967337748760359 0 -0.012461508394767572 -0.003929588047185446 0 -0.01294036392487961 -0.0041967238833625796 0 -0.012461508394767572 -0.003929588047185446 0 -0.01294036392487961 -0.0041967238833625796 0 -0.0128993567138959 -0.0036300232883384265 0 -0.01294036392487961 -0.0041967238833625796 0 -0.0128993567138959 -0.0036300232883384265 0 -0.013274312368919938 -0.0038345932030069028 0 -0.0128993567138959 -0.0036300232883384265 0 -0.013307762605272703 -0.0032229985716774835 0 -0.013274312368919938 -0.0038345932030069028 0 -0.012559510456841626 -0.0027907839628167012 0 -0.0128993567138959 -0.0036300232883384265 0 -0.013307762605272703 -0.0032229985716774835 0 -0.012559510456841626 -0.0027907839628167012 0 -0.012461508394767572 -0.003929588047185446 0 -0.0128993567138959 -0.0036300232883384265 0 -0.012559510456841626 -0.0027907839628167012 0 -0.013497298271959548 -0.0026211294565890212 0 -0.013307762605272703 -0.0032229985716774835 0 -0.011607482019031857 -0.0018842604215262965 0 -0.012037979975476577 -0.0041177972563761715 0 -0.012551380681381849 -0.0019281228751338458 0 -0.011145958006998313 -0.0025826257207990054 0 -0.011750395544841493 -0.0040292559267396831 0 -0.026252759984345283 -0.0042599521817530172 0 -0.023543047338836019 -0.0019607809483842731 0 -0.025880891581223101 -0.0021324009306153851 0 -0.026972216196618933 -0.0036023272617023202 0 -0.02797027500560045 -0.00089257105029217731 0 -0.025880891581223101 -0.0021324009306153851 0 -0.02797027500560045 -0.00089257105029217731 0 -0.025713872855326812 -0.00026461384911572285 0 -0.025880891581223101 -0.0021324009306153851 0 -0.025713872855326812 -0.00026461384911572285 0 -0.024304631445517453 -0.0018905029775236981 0 -0.025880891581223101 -0.0021324009306153851 0 -0.026972216196618933 -0.0036023272617023202 0 -0.02442447720103965 -0.0040912546908538107 0 -0.019856627041495434 -0.0044241479160294474 0 -0.023543047338836019 -0.0019607809483842731 0 -0.013497298271959548 -0.0026211294565890212 0 -0.013307762605272703 -0.0032229985716774835 0 -0.013832190713622626 -0.0035715944472296448 0 -0.026701601660300053 -0.0056135112369613514 0 -0.025593798620779481 -0.0051530959085694687 0 -0.025977933328026795 -0.0037602328612899431 0 -0.013832190713622626 -0.0035715944472296448 0 -0.013274312368919938 -0.0038345932030069028 0 -0.013363024932370716 -0.0044669306360755074 0 -0.023543047338836019 -0.0019607809483842731 0 -0.019165207166830477 -0.0017209753568421767 0 -0.01294036392487961 -0.0041967238833625796 0 -0.013274312368919938 -0.0038345932030069028 0 -0.013363024932370716 -0.0044669306360755074 0 -0.013307762605272703 -0.0032229985716774835 0 -0.013832190713622626 -0.0035715944472296448 0 -0.013274312368919938 -0.0038345932030069028 0 -0.023543047338836019 -0.0019607809483842731 0 -0.026232000884056556 0.0020990048267213058 0 -0.02797027500560045 -0.00089257105029217731 0 -0.025713872855326812 -0.00026461384911572285 0 -0.0265384877470685 0.0027620944189324947 0 -0.025713872855326812 -0.00026461384911572285 0 -0.0265384877470685 0.0027620944189324947 0 -0.025012990242409508 0.0014100778606118793 0 -0.025481998296596763 0.00039535389823845175 0 -0.025282314095722711 0.0011183439963167255 0 -0.025689615626441405 0.0010700122095084117 0 -0.025282314095722711 0.0011183439963167255 0 -0.025689615626441405 0.0010700122095084117 0 -0.025497210956853377 0.0015876466792469038 0 -0.025819663257664729 0.0016325170090703011 0 -0.025497210956853377 0.0015876466792469038 0 -0.025644216592324003 0.0017725114882872121 0 -0.025689615626441405 0.0010700122095084117 0 -0.025819663257664729 0.0016325170090703011 0 -0.025497210956853377 0.0015876466792469038 0 -0.012928030599392321 -0.0046217367699849729 0 -0.013363024932370716 -0.0044669306360755074 0 -0.013006995771337437 -0.0047929218578693653 0 -0.019165207166830477 -0.0017209753568421767 0 -0.019382341493741208 -0.0016070665044038721 0 -0.026232000884056556 0.0020990048267213058 0 -0.025479988757537802 0.0023765391198188159 0 -0.025282314095722711 0.0011183439963167255 0 -0.025497210956853377 0.0015876466792469038 0 -0.02518560978240628 0.0017661512006324051 0 -0.025517631197711322 0.0034674009567194331 0 -0.026965345570448215 0.0030079546164964578 0 -0.025715513447756379 0.003131493404744958 0 -0.0265384877470685 0.0027620944189324947 0 -0.025517631197711322 0.0034674009567194331 0 -0.025715513447756379 0.003131493404744958 0 -0.025343506510393878 0.0034607718772200371 0 -0.024817672217493987 0.003043732997447693 0 -0.025517631197711322 0.0034674009567194331 0 -0.025012990242409508 0.0014100778606118793 0 -0.022337745312870253 0.0011090797843966932 0 -0.0265384877470685 0.0027620944189324947 0 -0.025517631197711322 0.0034674009567194331 0 -0.025012990242409508 0.0014100778606118793 0 -0.025517631197711322 0.0034674009567194331 0 -0.027083697100506655 0.0037923511054830526 0 -0.027217342349776522 0.0053786550396890415 0 -0.027083697100506655 0.0037923511054830526 0 -0.028028080672329966 0.0043555807376896676 0 -0.027217342349776522 0.0053786550396890415 0 -0.027083697100506655 0.0037923511054830526 0 -0.026965345570448215 0.0030079546164964578 0 -0.028090368901388375 0.0034253302461455439 0 -0.027083697100506655 0.0037923511054830526 0 -0.028090368901388375 0.0034253302461455439 0 -0.028028080672329966 0.0043555807376896676 0 -0.025517631197711322 0.0034674009567194331 0 -0.027083697100506655 0.0037923511054830526 0 -0.026965345570448215 0.0030079546164964578 0 -0.028090368901388375 0.0034253302461455439 0 -0.029123419932993229 0.0032207843009562222 0 -0.028969607960468054 0.0041054775917669269 0 -0.028090368901388375 0.0034253302461455439 0 -0.028028080672329966 0.0043555807376896676 0 -0.028969607960468054 0.0041054775917669269 0 -0.030145872477318432 0.0037243003249821027 0 -0.03071876463609503 0.0030816538724200695 0 -0.029691090480794262 0.0026500661737252473 0 -0.029123419932993229 0.0032207843009562222 0 -0.030145872477318432 0.0037243003249821027 0 -0.029691090480794262 0.0026500661737252473 0 -0.029123419932993229 0.0032207843009562222 0 -0.030145872477318432 0.0037243003249821027 0 -0.028969607960468054 0.0041054775917669269 0 -0.030145872477318432 0.0037243003249821027 0 -0.029914143362256868 0.0048373613537125168 0 -0.031082749369461281 0.0044269474907498571 0 -0.030145872477318432 0.0037243003249821027 0 -0.029914143362256868 0.0048373613537125168 0 -0.028969607960468054 0.0041054775917669269 0 -0.029914143362256868 0.0048373613537125168 0 -0.028969607960468054 0.0041054775917669269 0 -0.028473008257288896 0.004971022389742721 0 -0.028028080672329966 0.0043555807376896676 0 -0.028473008257288896 0.004971022389742721 0 -0.027217342349776522 0.0053786550396890415 0 -0.028028080672329966 0.0043555807376896676 0 -0.028969607960468054 0.0041054775917669269 0 -0.028473008257288896 0.004971022389742721 0 -0.028035578248039088 0.0055696643326129149 0 -0.029367930071931451 0.0057842759634798699 0 -0.029181019554407318 0.0074360082689274888 0 -0.028473008257288896 0.004971022389742721 0 -0.028035578248039088 0.0055696643326129149 0 -0.027217342349776522 0.0053786550396890415 0 -0.028473008257288896 0.004971022389742721 0 -0.028035578248039088 0.0055696643326129149 0 -0.029367930071931451 0.0057842759634798699 0 -0.029367930071931451 0.0057842759634798699 0 -0.029181019554407318 0.0074360082689274888 0 -0.03090922243223411 0.005736141382181887 0 -0.029914143362256868 0.0048373613537125168 0 -0.028473008257288896 0.004971022389742721 0 -0.029367930071931451 0.0057842759634798699 0 -0.029914143362256868 0.0048373613537125168 0 -0.029367930071931451 0.0057842759634798699 0 -0.03090922243223411 0.005736141382181887 0 -0.032844377517460548 0.0011067077246072578 0 -0.034216588651295017 -0.00017914758903898246 0 -0.033787256031365988 0.00065681236762359476 0 -0.030151616344884564 0.0029859386132607374 0 -0.032126501439264044 0.0028300805358547425 0 -0.03511475218448832 0.00043580404546439226 0 -0.030919320102010064 -0.0014938565869073829 0 -0.035070392009843833 -0.0050731037391428422 0 -0.030740639839748 -0.0057859073827029638 0 -0.030151616344884564 0.0029859386132607374 0 -0.030919320102010064 -0.0014938565869073829 0 -0.032844377517460548 0.0011067077246072578 0 -0.033787256031365988 0.00065681236762359476 0 -0.033039304006316973 0.001416924505251079 0 -0.028035578248039088 0.0055696643326129149 0 -0.026368614017161996 0.0038007067927332185 0 -0.028097161349883101 0.0049411330169558572 0 -0.026368614017161996 0.0038007067927332185 0 -0.028097161349883101 0.0049411330169558572 0 -0.026618784208990748 0.0026051625400445675 0 -0.020279885465290949 -0.001596566232041374 0 -0.020147148517096189 -0.0031850017090720808 0 -0.018687825425969154 -0.0040492248781815836 0 -0.027717864023419123 0.0061826729793112408 0 -0.030151616344884564 0.0029859386132607374 0 -0.023904578860730365 0.002019670584998863 0 -0.026278357246655854 -0.0044495195979867485 0 -0.020279885465290949 -0.001596566232041374 0 -0.020147148517096189 -0.0031850017090720808 0 -0.020874459857566391 -0.0026950166871951941 0 -0.020147148517096189 -0.0031850017090720808 0 -0.020874459857566391 -0.0026950166871951941 0 -0.020897887788210657 -0.0036763933743634391 0 -0.021527627139603097 -0.0032841213655016555 0 -0.020874459857566391 -0.0026950166871951941 0 -0.020897887788210657 -0.0036763933743634391 0 -0.021527627139603097 -0.0032841213655016555 0 -0.020874459857566391 -0.0026950166871951941 0 -0.021816108244883677 -0.0024117346869056188 0 -0.020279885465290949 -0.001596566232041374 0 -0.022415159964052293 -0.0012963415198540466 0 -0.021816108244883677 -0.0024117346869056188 0 -0.020279885465290949 -0.001596566232041374 0 -0.020874459857566391 -0.0026950166871951941 0 -0.021816108244883677 -0.0024117346869056188 0 -0.022415159964052293 -0.0012963415198540466 0 -0.021816108244883677 -0.0024117346869056188 0 -0.023051973077226548 -0.0030318376724866769 0 -0.021816108244883677 -0.0024117346869056188 0 -0.022156210066150865 -0.0035362314795201865 0 -0.023051973077226548 -0.0030318376724866769 0 -0.021527627139603097 -0.0032841213655016555 0 -0.021816108244883677 -0.0024117346869056188 0 -0.022156210066150865 -0.0035362314795201865 0 -0.025880891581223101 -0.0021324009306153851 0 -0.024304631445517453 -0.0018905029775236981 0 -0.02442447720103965 -0.0040912546908538107 0 -0.023051973077226548 -0.0030318376724866769 0 -0.024304631445517453 -0.0018905029775236981 0 -0.02442447720103965 -0.0040912546908538107 0 -0.022415159964052293 -0.0012963415198540466 0 -0.023051973077226548 -0.0030318376724866769 0 -0.024304631445517453 -0.0018905029775236981 0 -0.022415159964052293 -0.0012963415198540466 0 -0.024304631445517453 -0.0018905029775236981 0 -0.023900884887040948 -0.00029769927123955302 0 -0.023900884887040948 -0.00029769927123955302 0 -0.025012990242409508 0.0014100778606118793 0 -0.022337745312870253 0.0011090797843966932 0 -0.025713872855326812 -0.00026461384911572285 0 -0.024304631445517453 -0.0018905029775236981 0 -0.023900884887040948 -0.00029769927123955302 0 -0.025713872855326812 -0.00026461384911572285 0 -0.023900884887040948 -0.00029769927123955302 0 -0.025012990242409508 0.0014100778606118793 0 -0.023904578860730365 0.002019670584998863 0 -0.024817672217493987 0.003043732997447693 0 -0.028035578248039088 0.0055696643326129149 0 -0.028097161349883101 0.0049411330169558572 0 -0.027217342349776522 0.0053786550396890415 0 -0.020279885465290949 -0.001596566232041374 0 -0.022415159964052293 -0.0012963415198540466 0 -0.022337745312870253 0.0011090797843966932 0 -0.022415159964052293 -0.0012963415198540466 0 -0.023900884887040948 -0.00029769927123955302 0 -0.022337745312870253 0.0011090797843966932 0 -0.04408385306924404 0.0052117423452879702 0 -0.043040979281111391 0.0053559330782544943 0 -0.043603558233082776 0.0057751189144081439 0 -0.044198850306707914 0.0057873564290688963 0 -0.04408385306924404 0.0052117423452879702 0 -0.043603558233082776 0.0057751189144081439 0 -0.043040979281111391 0.0053559330782544943 0 -0.04344726051563861 0.0047299108109686953 0 -0.042339791095531973 0.004648399462442109 0 -0.044236753614955986 0.0044510415626205805 0 -0.04408385306924404 0.0052117423452879702 0 -0.04344726051563861 0.0047299108109686953 0 -0.04408385306924404 0.0052117423452879702 0 -0.043040979281111391 0.0053559330782544943 0 -0.04344726051563861 0.0047299108109686953 0 -0.044236753614955986 0.0044510415626205805 0 -0.04344726051563861 0.0047299108109686953 0 -0.043347650133045652 0.0038899025488951578 0 -0.044386941022596944 0.0034962659359967577 0 -0.044236753614955986 0.0044510415626205805 0 -0.043347650133045652 0.0038899025488951578 0 -0.044386941022596944 0.0034962659359967577 0 -0.043347650133045652 0.0038899025488951578 0 -0.043409463117012825 0.0030197166126226887 0 -0.043347650133045652 0.0038899025488951578 0 -0.042348999867775204 0.0036859054180624642 0 -0.043409463117012825 0.0030197166126226887 0 -0.04344726051563861 0.0047299108109686953 0 -0.043347650133045652 0.0038899025488951578 0 -0.042339791095531973 0.004648399462442109 0 -0.043347650133045652 0.0038899025488951578 0 -0.042348999867775204 0.0036859054180624642 0 -0.042339791095531973 0.004648399462442109 0 -0.042348999867775204 0.0036859054180624642 0 -0.041176965530840257 0.0048469810177988286 0 -0.041571210971321645 0.0035041604810112487 0 -0.042955352728297161 0.003589258035699741 0 -0.037379535299633178 0.0033182114687598241 0 -0.042348999867775204 0.0036859054180624642 0 -0.042339791095531973 0.004648399462442109 0 -0.041376719920530561 0.0047276608076642287 0 -0.043040979281111391 0.0053559330782544943 0 -0.042339791095531973 0.004648399462442109 0 -0.041749680001839692 0.0058272783696550218 0 -0.042339791095531973 0.004648399462442109 0 -0.041376719920530561 0.0047276608076642287 0 -0.041749680001839692 0.0058272783696550218 0 -0.03530883101273579 -0.0011122342049182472 0 -0.035070655151797095 -0.00030904855126791719 0 -0.035521303097797531 -0.00036873914280918747 0 -0.037379535299633178 0.0033182114687598241 0 -0.032126501439264044 0.0028300805358547425 0 -0.03530883101273579 -0.0011122342049182472 0 -0.034216588651295017 -0.00017914758903898246 0 -0.035070655151797095 -0.00030904855126791719 0 -0.032479510115095298 0.0043791570171463276 0 -0.031790058933408499 0.003972626030422686 0 -0.031082749369461281 0.0044269474907498571 0 -0.037379535299633178 0.0033182114687598241 0 -0.039013596227716447 0.003725101613049744 0 -0.041176965530840257 0.0048469810177988286 0 -0.041571210971321645 0.0035041604810112487 0 -0.040727680079876746 0.0037184376298690426 0 -0.032148457191506795 0.0034827536290011262 0 -0.031790058933408499 0.003972626030422686 0 -0.031731775864937972 0.0034329652134827528 0 -0.032148457191506795 0.0034827536290011262 0 -0.031731775864937972 0.0034329652134827528 0 -0.03192953785273233 0.0031827249063841705 0 -0.037379535299633178 0.0033182114687598241 0 -0.03601552844797988 0.0037516831128675335 0 -0.032479510115095298 0.0043791570171463276 0 -0.032148457191506795 0.0034827536290011262 0 -0.031790058933408499 0.003972626030422686 0 -0.031790058933408499 0.003972626030422686 0 -0.031227714642967246 0.0036470943106151066 0 -0.031082749369461281 0.0044269474907498571 0 -0.031227714642967246 0.0036470943106151066 0 -0.031731775864937972 0.0034329652134827528 0 -0.031545739246177519 0.0031091397752562792 0 -0.031790058933408499 0.003972626030422686 0 -0.031227714642967246 0.0036470943106151066 0 -0.031731775864937972 0.0034329652134827528 0 -0.030145872477318432 0.0037243003249821027 0 -0.031227714642967246 0.0036470943106151066 0 -0.03071876463609503 0.0030816538724200695 0 -0.031227714642967246 0.0036470943106151066 0 -0.03071876463609503 0.0030816538724200695 0 -0.031545739246177519 0.0031091397752562792 0 -0.030145872477318432 0.0037243003249821027 0 -0.031227714642967246 0.0036470943106151066 0 -0.031082749369461281 0.0044269474907498571 0 -0.029914143362256868 0.0048373613537125168 0 -0.031082749369461281 0.0044269474907498571 0 -0.03090922243223411 0.005736141382181887 0 -0.032479510115095298 0.0043791570171463276 0 -0.031082749369461281 0.0044269474907498571 0 -0.03090922243223411 0.005736141382181887 0 -0.034216588651295017 -0.00017914758903898246 0 -0.034744826324360441 0.00010261609895428699 0 -0.035070655151797095 -0.00030904855126791719 0 -0.034216588651295017 -0.00017914758903898246 0 -0.034297533506532356 0.00032198725406008865 0 -0.034744826324360441 0.00010261609895428699 0 -0.034216588651295017 -0.00017914758903898246 0 -0.034297533506532356 0.00032198725406008865 0 -0.033787256031365988 0.00065681236762359476 0 -0.034948703056528467 9.8078638189980793e-05 0 -0.035045267632893916 -2.4841766965146573e-05 0 -0.035327634234266776 6.0044099978514748e-05 0 -0.033787256031365988 0.00065681236762359476 0 -0.034407582698636564 0.00072734716320367967 0 -0.033039304006316973 0.001416924505251079 0 -0.034948703056528467 9.8078638189980793e-05 0 -0.035045267632893916 -2.4841766965146573e-05 0 -0.034422454039924888 0.0001089029501336547 0 -0.034297533506532356 0.00032198725406008865 0 -0.033787256031365988 0.00065681236762359476 0 -0.034407582698636564 0.00072734716320367967 0 -0.035019862366922914 -0.010066805165656915 0 -0.034743349576186362 -0.009955500942483075 0 -0.034893197640520394 -0.010302069868252505 0 -0.035070392009843833 -0.0050731037391428422 0 -0.036731788331278457 -0.0090298841594033882 0 -0.034297533506532356 0.00032198725406008865 0 -0.034407582698636564 0.00072734716320367967 0 -0.034744826324360441 0.00010261609895428699 0 -0.036731788331278457 -0.0090298841594033882 0 -0.03781898162030909 -0.013944301344294826 0 -0.03511475218448832 0.00043580404546439226 0 -0.035279484160935667 1.5082797768280311e-05 0 -0.039747521943696157 -0.015695853586821528 0 -0.039325121666562095 -0.015511426083587946 0 -0.03957107820732729 -0.01619378393750821 0 -0.035045267632893916 -2.4841766965146573e-05 0 -0.035327634234266776 6.0044099978514748e-05 0 -0.035483981379133556 -4.74784210647201e-05 0 -0.036731788331278457 -0.0090298841594033882 0 -0.040033705794489949 -0.0053193425381485937 0 -0.035327634234266776 6.0044099978514748e-05 0 -0.035483981379133556 -4.74784210647201e-05 0 -0.035649598619887472 8.9237945088671859e-05 0 -0.034407582698636564 0.00072734716320367967 0 -0.035483981379133556 -4.74784210647201e-05 0 -0.034744826324360441 0.00010261609895428699 0 -0.035483981379133556 -4.74784210647201e-05 0 -0.034744826324360441 0.00010261609895428699 0 -0.035070655151797095 -0.00030904855126791719 0 -0.035483981379133556 -4.74784210647201e-05 0 -0.035070655151797095 -0.00030904855126791719 0 -0.035521303097797531 -0.00036873914280918747 0 -0.04284213524583725 0.006059269833028116 0 -0.042111021170315406 0.0068867631946517649 0 -0.043722247491174412 0.0064337012631539899 0 -0.043040979281111391 0.0053559330782544943 0 -0.041749680001839692 0.0058272783696550218 0 -0.04284213524583725 0.006059269833028116 0 -0.041749680001839692 0.0058272783696550218 0 -0.04284213524583725 0.006059269833028116 0 -0.042111021170315406 0.0068867631946517649 0 -0.039013596227716447 0.003725101613049744 0 -0.040033705794489949 -0.0053193425381485937 0 -0.035483981379133556 -4.74784210647201e-05 0 -0.035521303097797531 -0.00036873914280918747 0 -0.035649598619887472 8.9237945088671859e-05 0 -0.040033705794489949 -0.0053193425381485937 0 -0.039705661966726348 -0.016653027676687884 0 -0.041897329454027341 -0.010521496963025645 0 -0.039312891094639174 -0.011456616246023784 0 -0.040757658035378945 -0.013843512622586056 0 -0.041897329454027341 -0.010521496963025645 0 -0.039312891094639174 -0.011456616246023784 0 -0.038893822700462752 -0.0093952677574472756 0 -0.037568433857814561 -0.0096762289524723443 0 -0.03918455280406704 -0.011280613290264044 0 -0.040033705794489949 -0.0053193425381485937 0 -0.041167608853048439 -0.00097904600358393189 0 -0.037678862492699507 -0.0098072588216860327 0 -0.039312891094639174 -0.011456616246023784 0 -0.038893822700462752 -0.0093952677574472756 0 -0.04284213524583725 0.006059269833028116 0 -0.043722247491174412 0.0064337012631539899 0 -0.043603558233082776 0.0057751189144081439 0 -0.043040979281111391 0.0053559330782544943 0 -0.04284213524583725 0.006059269833028116 0 -0.043603558233082776 0.0057751189144081439 0 -0.044198850306707914 0.0057873564290688963 0 -0.043722247491174412 0.0064337012631539899 0 -0.043603558233082776 0.0057751189144081439 0 -0.038496762462101229 -0.016387292625503876 0 -0.039001015619786861 -0.014670142384825254 0 -0.039094886074996178 -0.016719567670744284 0 -0.039705661966726348 -0.016653027676687884 0 -0.039366458579322354 -0.015955692725080732 0 -0.037573831386731205 -0.013517487922982593 0 -0.038496762462101229 -0.016387292625503876 0 -0.039001015619786861 -0.014670142384825254 0 -0.039001015619786861 -0.014670142384825254 0 -0.040757658035378945 -0.013843512622586056 0 -0.039094886074996178 -0.016719567670744284 0 -0.037573831386731205 -0.013517487922982593 0 -0.039312891094639174 -0.011456616246023784 0 -0.039001015619786861 -0.014670142384825254 0 -0.039312891094639174 -0.011456616246023784 0 -0.039001015619786861 -0.014670142384825254 0 -0.040757658035378945 -0.013843512622586056 0 -0.039175329831949934 -0.016316442213707323 0 -0.039466039272951052 -0.016745247582265404 0 -0.03957107820732729 -0.01619378393750821 0 -0.039325121666562095 -0.015511426083587946 0 -0.039175329831949934 -0.016316442213707323 0 -0.03957107820732729 -0.01619378393750821 0 -0.039466039272951052 -0.016745247582265404 0 -0.039536267316550237 -0.017064623205239472 0 -0.039094886074996178 -0.016719567670744284 0 -0.039175329831949934 -0.016316442213707323 0 -0.039466039272951052 -0.016745247582265404 0 -0.039094886074996178 -0.016719567670744284 0 -0.039466039272951052 -0.016745247582265404 0 -0.039792107260413372 -0.016811313696748348 0 -0.03957107820732729 -0.01619378393750821 0 -0.039466039272951052 -0.016745247582265404 0 -0.039792107260413372 -0.016811313696748348 0 -0.039589081337843716 -0.017233078794500669 0 -0.039792107260413372 -0.016811313696748348 0 -0.03957107820732729 -0.01619378393750821 0 -0.039975206980746233 -0.016278121886558819 0 -0.039747521943696157 -0.015695853586821528 0 -0.03957107820732729 -0.01619378393750821 0 -0.039975206980746233 -0.016278121886558819 0 -0.034893197640520394 -0.010302069868252505 0 -0.03507053220589694 -0.010669255285976276 0 -0.035316628958504799 -0.010166591581437833 0 -0.035019862366922914 -0.010066805165656915 0 -0.034893197640520394 -0.010302069868252505 0 -0.035316628958504799 -0.010166591581437833 0 -0.03781898162030909 -0.013944301344294826 0 -0.035435004742907783 -0.014161078590854971 0 -0.039792107260413372 -0.016811313696748348 0 -0.039975206980746233 -0.016278121886558819 0 -0.040157079697653551 -0.016802355554235739 0 -0.035435004742907783 -0.014161078590854971 0 -0.038960936866830671 -0.017629678957228199 0 -0.039792107260413372 -0.016811313696748348 0 -0.040157079697653551 -0.016802355554235739 0 -0.039817396288088842 -0.017211304228500087 0 -0.038692274120367035 -0.018077703786595546 0 -0.039148247298956045 -0.01746863879407581 0 -0.037686898452692887 -0.017673064145315467 0 -0.038271552750519126 -0.018669863573765717 0 -0.038692274120367035 -0.018077703786595546 0 -0.037686898452692887 -0.017673064145315467 0 -0.02085927760635653 -0.014022587066284243 0 -0.020820211891925806 -0.013936227688311247 0 -0.02099102433509694 -0.013752573463484843 0 -0.025556255104724326 -0.013088167489300365 0 -0.030224305330536324 -0.015723119609621014 0 -0.039148247298956045 -0.01746863879407581 0 -0.037686898452692887 -0.017673064145315467 0 -0.038487650841685046 -0.017005583297510146 0 -0.039148247298956045 -0.01746863879407581 0 -0.039329554976826504 -0.017151091824680307 0 -0.039800119555398118 -0.017568454947978141 0 -0.039148247298956045 -0.01746863879407581 0 -0.039329554976826504 -0.017151091824680307 0 -0.038487650841685046 -0.017005583297510146 0 -0.039148247298956045 -0.01746863879407581 0 -0.039589081337843716 -0.017233078794500669 0 -0.039800119555398118 -0.017568454947978141 0 -0.039817396288088842 -0.017211304228500087 0 -0.039148247298956045 -0.01746863879407581 0 -0.039589081337843716 -0.017233078794500669 0 -0.038960936866830671 -0.017629678957228199 0 -0.039231897849158114 -0.017423487065161666 0 -0.039792107260413372 -0.016811313696748348 0 -0.039817396288088842 -0.017211304228500087 0 -0.039589081337843716 -0.017233078794500669 0 -0.039589081337843716 -0.017233078794500669 0 -0.039536267316550237 -0.017064623205239472 0 -0.039800119555398118 -0.017568454947978141 0 -0.039466039272951052 -0.016745247582265404 0 -0.039589081337843716 -0.017233078794500669 0 -0.039536267316550237 -0.017064623205239472 0 -0.039536267316550237 -0.017064623205239472 0 -0.039800119555398118 -0.017568454947978141 0 -0.039094886074996178 -0.016719567670744284 0 -0.039800119555398118 -0.017568454947978141 0 -0.040071748839782817 -0.016936996250098996 0 -0.041551749400286456 -0.017380563080651928 0 -0.039329554976826504 -0.017151091824680307 0 -0.039800119555398118 -0.017568454947978141 0 -0.040071748839782817 -0.016936996250098996 0 -0.039329554976826504 -0.017151091824680307 0 -0.040071748839782817 -0.016936996250098996 0 -0.039275787093733645 -0.016723885527261569 0 -0.04294883089972535 -0.017188389517672202 0 -0.041551749400286456 -0.017380563080651928 0 -0.04153501137725836 -0.016569827776864141 0 -0.040071748839782817 -0.016936996250098996 0 -0.041551749400286456 -0.017380563080651928 0 -0.04153501137725836 -0.016569827776864141 0 -0.042566001042319841 -0.01745579550638263 0 -0.042590638594221519 -0.017803226334418443 0 -0.041551749400286456 -0.017380563080651928 0 -0.038496762462101229 -0.016387292625503876 0 -0.039800119555398118 -0.017568454947978141 0 -0.039094886074996178 -0.016719567670744284 0 -0.042590638594221519 -0.017803226334418443 0 -0.039800119555398118 -0.017568454947978141 0 -0.041551749400286456 -0.017380563080651928 0 -0.039385142924846864 -0.017616735987885261 0 -0.040229865796761993 -0.017349156214716305 0 -0.021724250534176474 -0.007989224654900394 0 -0.023411420681840746 -0.0073864128920759402 0 -0.021090585815072872 -0.0064573365932052203 0 -0.022671993571797035 -0.0068605482639597848 0 -0.022683808565245617 -0.0074299521868473216 0 -0.021724250534176474 -0.007989224654900394 0 -0.021090585815072872 -0.0064573365932052203 0 -0.019526105282000338 -0.0083594539814931604 0 -0.025353467516348104 -0.0064271556822497987 0 -0.023411420681840746 -0.0073864128920759402 0 -0.023369833965737368 -0.0056383253904751162 0 -0.023411420681840746 -0.0073864128920759402 0 -0.023369833965737368 -0.0056383253904751162 0 -0.021259968113207576 -0.0055486866521412123 0 -0.021724250534176474 -0.007989224654900394 0 -0.023411420681840746 -0.0073864128920759402 0 -0.02293974422825909 -0.0091350136052526874 0 -0.024437478262700499 -0.0082262443892425798 0 -0.023411420681840746 -0.0073864128920759402 0 -0.02293974422825909 -0.0091350136052526874 0 -0.025353467516348104 -0.0064271556822497987 0 -0.023369833965737368 -0.0056383253904751162 0 -0.02442447720103965 -0.0040912546908538107 0 -0.023051973077226548 -0.0030318376724866769 0 -0.02442447720103965 -0.0040912546908538107 0 -0.022450714932629196 -0.0046708743097258762 0 -0.023369833965737368 -0.0056383253904751162 0 -0.02442447720103965 -0.0040912546908538107 0 -0.022450714932629196 -0.0046708743097258762 0 -0.023369833965737368 -0.0056383253904751162 0 -0.022450714932629196 -0.0046708743097258762 0 -0.021259968113207576 -0.0055486866521412123 0 -0.022156210066150865 -0.0035362314795201865 0 -0.023051973077226548 -0.0030318376724866769 0 -0.022450714932629196 -0.0046708743097258762 0 -0.021527627139603097 -0.0032841213655016555 0 -0.022156210066150865 -0.0035362314795201865 0 -0.021605233038599573 -0.0041442058492962702 0 -0.022156210066150865 -0.0035362314795201865 0 -0.022450714932629196 -0.0046708743097258762 0 -0.021605233038599573 -0.0041442058492962702 0 -0.022450714932629196 -0.0046708743097258762 0 -0.021598295740035967 -0.0048402565402641028 0 -0.021605233038599573 -0.0041442058492962702 0 -0.022450714932629196 -0.0046708743097258762 0 -0.021259968113207576 -0.0055486866521412123 0 -0.021598295740035967 -0.0048402565402641028 0 -0.021259968113207576 -0.0055486866521412123 0 -0.020954859708819863 -0.0049970475844334653 0 -0.019992451575509298 -0.0046522618967791626 0 -0.021259968113207576 -0.0055486866521412123 0 -0.021258323074905966 -0.005022200058555088 0 -0.020954859708819863 -0.0049970475844334653 0 -0.021259968113207576 -0.0055486866521412123 0 -0.021258323074905966 -0.005022200058555088 0 -0.021598295740035967 -0.0048402565402641028 0 -0.021258323074905966 -0.005022200058555088 0 -0.021200947366006719 -0.0047097813324967494 0 -0.020954859708819863 -0.0049970475844334653 0 -0.021258323074905966 -0.005022200058555088 0 -0.021598295740035967 -0.0048402565402641028 0 -0.021200947366006719 -0.0047097813324967494 0 -0.021200947366006719 -0.0047097813324967494 0 -0.020954859708819863 -0.0049970475844334653 0 -0.020903532032099506 -0.0045257137909049333 0 -0.020954859708819863 -0.0049970475844334653 0 -0.020903532032099506 -0.0045257137909049333 0 -0.020572706203904449 -0.0044781773400168418 0 -0.020903532032099506 -0.0045257137909049333 0 -0.020721487519301585 -0.0041693607298125138 0 -0.020572706203904449 -0.0044781773400168418 0 -0.021200947366006719 -0.0047097813324967494 0 -0.020903532032099506 -0.0045257137909049333 0 -0.021069359623235244 -0.0042724611247267688 0 -0.020903532032099506 -0.0045257137909049333 0 -0.021069359623235244 -0.0042724611247267688 0 -0.020721487519301585 -0.0041693607298125138 0 -0.021200947366006719 -0.0047097813324967494 0 -0.021069359623235244 -0.0042724611247267688 0 -0.021605233038599573 -0.0041442058492962702 0 -0.021598295740035967 -0.0048402565402641028 0 -0.021200947366006719 -0.0047097813324967494 0 -0.021605233038599573 -0.0041442058492962702 0 -0.021069359623235244 -0.0042724611247267688 0 -0.021605233038599573 -0.0041442058492962702 0 -0.020897887788210657 -0.0036763933743634391 0 -0.021527627139603097 -0.0032841213655016555 0 -0.021605233038599573 -0.0041442058492962702 0 -0.020897887788210657 -0.0036763933743634391 0 -0.020721487519301585 -0.0041693607298125138 0 -0.020897887788210657 -0.0036763933743634391 0 -0.020359501850538333 -0.0039642297268581012 0 -0.021069359623235244 -0.0042724611247267688 0 -0.020721487519301585 -0.0041693607298125138 0 -0.020897887788210657 -0.0036763933743634391 0 -0.020147148517096189 -0.0031850017090720808 0 -0.020897887788210657 -0.0036763933743634391 0 -0.020359501850538333 -0.0039642297268581012 0 -0.027075205822884876 -0.0092911517802379863 0 -0.027003161188132622 -0.0092528311137667196 0 -0.026955102205863522 -0.0093413372562231988 0 -0.020184811217229998 -0.004393074658236058 0 -0.020572706203904449 -0.0044781773400168418 0 -0.019992451575509298 -0.0046522618967791626 0 -0.020721487519301585 -0.0041693607298125138 0 -0.020359501850538333 -0.0039642297268581012 0 -0.020572706203904449 -0.0044781773400168418 0 -0.020359501850538333 -0.0039642297268581012 0 -0.020184811217229998 -0.004393074658236058 0 -0.020572706203904449 -0.0044781773400168418 0 -0.020359501850538333 -0.0039642297268581012 0 -0.020184811217229998 -0.004393074658236058 0 -0.019744858164622816 -0.0039415362651320611 0 -0.020184811217229998 -0.004393074658236058 0 -0.019744858164622816 -0.0039415362651320611 0 -0.019992451575509298 -0.0046522618967791626 0 -0.020147148517096189 -0.0031850017090720808 0 -0.020359501850538333 -0.0039642297268581012 0 -0.019744858164622816 -0.0039415362651320611 0 -0.019744858164622816 -0.0039415362651320611 0 -0.019992451575509298 -0.0046522618967791626 0 -0.018687825425969154 -0.0040492248781815836 0 -0.02366616462493679 -0.0066317359023702173 0 -0.026278357246655854 -0.0044495195979867485 0 -0.020147148517096189 -0.0031850017090720808 0 -0.019744858164622816 -0.0039415362651320611 0 -0.018687825425969154 -0.0040492248781815836 0 -0.027003161188132622 -0.0092528311137667196 0 -0.026925589022252797 -0.009214560095361821 0 -0.026955102205863522 -0.0093413372562231988 0 -0.022683808565245617 -0.0074299521868473216 0 -0.02366616462493679 -0.0066317359023702173 0 -0.020954859708819863 -0.0049970475844334653 0 -0.020572706203904449 -0.0044781773400168418 0 -0.019992451575509298 -0.0046522618967791626 0 -0.026685222532987583 -0.0094712669312707401 0 -0.026975072181904772 -0.0088820018673136016 0 -0.026852395180473613 -0.0093405830671236655 0 -0.034948703056528467 9.8078638189980793e-05 0 -0.034454812405505561 0.00016349505105513692 0 -0.034422454039924888 0.0001089029501336547 0 -0.035435004742907783 -0.014161078590854971 0 -0.030740639839748 -0.0057859073827029638 0 -0.026975072181904772 -0.0088820018673136016 0 -0.02714329200328644 -0.0089328146615705994 0 -0.026852395180473613 -0.0093405830671236655 0 -0.026368614017161996 0.0038007067927332185 0 -0.025971180965933524 0.0031736601164239929 0 -0.026618784208990748 0.0026051625400445675 0 -0.031344741057435822 -0.0052059924445179437 0 -0.030555209397652404 -0.0065134525457392553 0 -0.026986403334851528 -0.003633497451555035 0 -0.030740639839748 -0.0057859073827029638 0 -0.030919320102010064 -0.0014938565869073829 0 -0.030919320102010064 -0.0014938565869073829 0 -0.026278357246655854 -0.0044495195979867485 0 -0.030740639839748 -0.0057859073827029638 0 -0.026278357246655854 -0.0044495195979867485 0 -0.026925589022252797 -0.009214560095361821 0 -0.026852395180473613 -0.0093405830671236655 0 -0.026955102205863522 -0.0093413372562231988 0 -0.026278357246655854 -0.0044495195979867485 0 -0.026284438510110412 -0.01028782591053598 0 -0.026852395180473613 -0.0093405830671236655 0 -0.026885141509926793 -0.0094741503454411971 0 -0.026955102205863522 -0.0093413372562231988 0 -0.026685222532987583 -0.0094712669312707401 0 -0.026852395180473613 -0.0093405830671236655 0 -0.026885141509926793 -0.0094741503454411971 0 -0.027075205822884876 -0.0092911517802379863 0 -0.026955102205863522 -0.0093413372562231988 0 -0.027001620289941217 -0.0094832503843476097 0 -0.022683808565245617 -0.0074299521868473216 0 -0.023219524942132114 -0.0086633949071779365 0 -0.026885141509926793 -0.0094741503454411971 0 -0.026955102205863522 -0.0093413372562231988 0 -0.027001620289941217 -0.0094832503843476097 0 -0.019526105282000338 -0.0083594539814931604 0 -0.019627136524579206 -0.010103297306345032 0 -0.021306175129679555 -0.00958586222077688 0 -0.019526105282000338 -0.0083594539814931604 0 -0.019627136524579206 -0.010103297306345032 0 -0.018018581229897343 -0.010176815274191602 0 -0.023219524942132114 -0.0086633949071779365 0 -0.025556255104724326 -0.013088167489300365 0 -0.026685222532987583 -0.0094712669312707401 0 -0.026885141509926793 -0.0094741503454411971 0 -0.026851072871630882 -0.0097595324661246628 0 -0.035435004742907783 -0.014161078590854971 0 -0.025556255104724326 -0.013088167489300365 0 -0.026885141509926793 -0.0094741503454411971 0 -0.027001620289941217 -0.0094832503843476097 0 -0.026851072871630882 -0.0097595324661246628 0 -0.02085927760635653 -0.014022587066284243 0 -0.020795970972565737 -0.013975236572061154 0 -0.020820211891925806 -0.013936227688311247 0 -0.025556255104724326 -0.013088167489300365 0 -0.019379124133002603 -0.012534348600789634 0 -0.019627136524579206 -0.010103297306345032 0 -0.018018581229897343 -0.010176815274191602 0 -0.019184950413215864 -0.012194586479013635 0 -0.019627136524579206 -0.010103297306345032 0 -0.020750494776105036 -0.011161232514854307 0 -0.019184950413215864 -0.012194586479013635 0 -0.019627136524579206 -0.010103297306345032 0 -0.020750494776105036 -0.011161232514854307 0 -0.021306175129679555 -0.00958586222077688 0 -0.020750494776105036 -0.011161232514854307 0 -0.021013311164517295 -0.012580321258260583 0 -0.019184950413215864 -0.012194586479013635 0 -0.020750494776105036 -0.011161232514854307 0 -0.021306175129679555 -0.00958586222077688 0 -0.022419996890803363 -0.011482366303229505 0 -0.020750494776105036 -0.011161232514854307 0 -0.022419996890803363 -0.011482366303229505 0 -0.021013311164517295 -0.012580321258260583 0 -0.021724250534176474 -0.007989224654900394 0 -0.019526105282000338 -0.0083594539814931604 0 -0.021306175129679555 -0.00958586222077688 0 -0.021724250534176474 -0.007989224654900394 0 -0.021306175129679555 -0.00958586222077688 0 -0.02293974422825909 -0.0091350136052526874 0 -0.024302967713271 -0.0098514894711850525 0 -0.02293974422825909 -0.0091350136052526874 0 -0.022419996890803363 -0.011482366303229505 0 -0.021306175129679555 -0.00958586222077688 0 -0.02293974422825909 -0.0091350136052526874 0 -0.022419996890803363 -0.011482366303229505 0 -0.022419996890803363 -0.011482366303229505 0 -0.023063164235020962 -0.013539394766458115 0 -0.023933769698018716 -0.012085267598833072 0 -0.022419996890803363 -0.011482366303229505 0 -0.023063164235020962 -0.013539394766458115 0 -0.021773348003687496 -0.013681893820024105 0 -0.022334056981284423 -0.014490117841068705 0 -0.023063164235020962 -0.013539394766458115 0 -0.023389968030579498 -0.014399658472462763 0 -0.022334056981284423 -0.014490117841068705 0 -0.023063164235020962 -0.013539394766458115 0 -0.021773348003687496 -0.013681893820024105 0 -0.021773348003687496 -0.013681893820024105 0 -0.020711717962593874 -0.014127737672448071 0 -0.02153564006815575 -0.015038398850610812 0 -0.022334056981284423 -0.014490117841068705 0 -0.021773348003687496 -0.013681893820024105 0 -0.02153564006815575 -0.015038398850610812 0 -0.021773348003687496 -0.013681893820024105 0 -0.021013311164517295 -0.012580321258260583 0 -0.020711717962593874 -0.014127737672448071 0 -0.022419996890803363 -0.011482366303229505 0 -0.021773348003687496 -0.013681893820024105 0 -0.021013311164517295 -0.012580321258260583 0 -0.019379124133002603 -0.012534348600789634 0 -0.02078278443442607 -0.014260996345882659 0 -0.020795970972565737 -0.013975236572061154 0 -0.020707211501335879 -0.014219756317962441 0 -0.020711717962593874 -0.014127737672448071 0 -0.021013311164517295 -0.012580321258260583 0 -0.019184950413215864 -0.012194586479013635 0 -0.020711717962593874 -0.014127737672448071 0 -0.020795970972565737 -0.013975236572061154 0 -0.020820211891925806 -0.013936227688311247 0 -0.020707211501335879 -0.014219756317962441 0 -0.020820211891925806 -0.013936227688311247 0 -0.020707211501335879 -0.014219756317962441 0 -0.020762989849585772 -0.014031784948613622 0 -0.020707211501335879 -0.014219756317962441 0 -0.020573893108052733 -0.014881296341065072 0 -0.020589972242002281 -0.014457293094389999 0 -0.020711717962593874 -0.014127737672448071 0 -0.020811814656312988 -0.014968276320249543 0 -0.02153564006815575 -0.015038398850610812 0 -0.020707211501335879 -0.014219756317962441 0 -0.020711717962593874 -0.014127737672448071 0 -0.020811814656312988 -0.014968276320249543 0 -0.020811814656312988 -0.014968276320249543 0 -0.020932520214552247 -0.015981885649354047 0 -0.020638815312572254 -0.015504700108204423 0 -0.020811814656312988 -0.014968276320249543 0 -0.020932520214552247 -0.015981885649354047 0 -0.021311265881910221 -0.015672174104449505 0 -0.020811814656312988 -0.014968276320249543 0 -0.020573893108052733 -0.014881296341065072 0 -0.020638815312572254 -0.015504700108204423 0 -0.020707211501335879 -0.014219756317962441 0 -0.020811814656312988 -0.014968276320249543 0 -0.020573893108052733 -0.014881296341065072 0 -0.020573893108052733 -0.014881296341065072 0 -0.020383387846438224 -0.015551399985686439 0 -0.020638815312572254 -0.015504700108204423 0 -0.020573893108052733 -0.014881296341065072 0 -0.020383387846438224 -0.015551399985686439 0 -0.020406109762594538 -0.014970815615996804 0 -0.020383387846438224 -0.015551399985686439 0 -0.020521274658810009 -0.016327862521934956 0 -0.020638815312572254 -0.015504700108204423 0 -0.020383387846438224 -0.015551399985686439 0 -0.0202058588343841 -0.015871370869391471 0 -0.020246508148290081 -0.016262468439720529 0 -0.020383387846438224 -0.015551399985686439 0 -0.020521274658810009 -0.016327862521934956 0 -0.020246508148290081 -0.016262468439720529 0 -0.020521274658810009 -0.016327862521934956 0 -0.020932520214552247 -0.015981885649354047 0 -0.02091408185729585 -0.017040570551988037 0 -0.020521274658810009 -0.016327862521934956 0 -0.020932520214552247 -0.015981885649354047 0 -0.020638815312572254 -0.015504700108204423 0 -0.020932520214552247 -0.015981885649354047 0 -0.021434244515783275 -0.016533519909618689 0 -0.02091408185729585 -0.017040570551988037 0 -0.020932520214552247 -0.015981885649354047 0 -0.021434244515783275 -0.016533519909618689 0 -0.021311265881910221 -0.015672174104449505 0 -0.021434244515783275 -0.016533519909618689 0 -0.021921259133807294 -0.015956550391557502 0 -0.021311265881910221 -0.015672174104449505 0 -0.021434244515783275 -0.016533519909618689 0 -0.021921259133807294 -0.015956550391557502 0 -0.022054251353283743 -0.016957304858650268 0 -0.022519316239695067 -0.016175560835548271 0 -0.021921259133807294 -0.015956550391557502 0 -0.022054251353283743 -0.016957304858650268 0 -0.022519316239695067 -0.016175560835548271 0 -0.021921259133807294 -0.015956550391557502 0 -0.0227149159359647 -0.015287708631821672 0 -0.021921259133807294 -0.015956550391557502 0 -0.0227149159359647 -0.015287708631821672 0 -0.02153564006815575 -0.015038398850610812 0 -0.022334056981284423 -0.014490117841068705 0 -0.0227149159359647 -0.015287708631821672 0 -0.023389968030579498 -0.014399658472462763 0 -0.022334056981284423 -0.014490117841068705 0 -0.0227149159359647 -0.015287708631821672 0 -0.02153564006815575 -0.015038398850610812 0 -0.020811814656312988 -0.014968276320249543 0 -0.02153564006815575 -0.015038398850610812 0 -0.021311265881910221 -0.015672174104449505 0 -0.021921259133807294 -0.015956550391557502 0 -0.02153564006815575 -0.015038398850610812 0 -0.021311265881910221 -0.015672174104449505 0 -0.039834593178454003 -0.015992068622730417 0 -0.039037302987409393 -0.016150948347875664 0 -0.0418390775734706 -0.014297648982148057 0 -0.04153501137725836 -0.016569827776864141 0 -0.039938126027672431 -0.016311385884398785 0 -0.040071748839782817 -0.016936996250098996 0 -0.04153501137725836 -0.016569827776864141 0 -0.039938126027672431 -0.016311385884398785 0 -0.040071748839782817 -0.016936996250098996 0 -0.039938126027672431 -0.016311385884398785 0 -0.039275787093733645 -0.016723885527261569 0 -0.039938126027672431 -0.016311385884398785 0 -0.039275787093733645 -0.016723885527261569 0 -0.039285950522222141 -0.016412519329323375 0 -0.039275787093733645 -0.016723885527261569 0 -0.039285950522222141 -0.016412519329323375 0 -0.039047152880677387 -0.016585636955368559 0 -0.038870525980089436 -0.016203828129871003 0 -0.038996818566222988 -0.016586165870162383 0 -0.039047152880677387 -0.016585636955368559 0 -0.039285950522222141 -0.016412519329323375 0 -0.038870525980089436 -0.016203828129871003 0 -0.039047152880677387 -0.016585636955368559 0 -0.039938126027672431 -0.016311385884398785 0 -0.039285950522222141 -0.016412519329323375 0 -0.038870525980089436 -0.016203828129871003 0 -0.0418390775734706 -0.014297648982148057 0 -0.039938126027672431 -0.016311385884398785 0 -0.038870525980089436 -0.016203828129871003 0 -0.037509084600523462 -0.017667355231441067 0 -0.038870525980089436 -0.016203828129871003 0 -0.03820097658790679 -0.017098175404883967 0 -0.038870525980089436 -0.016203828129871003 0 -0.03820097658790679 -0.017098175404883967 0 -0.038996818566222988 -0.016586165870162383 0 -0.020573324070580105 -0.013975987626547642 0 -0.020684119094677603 -0.014053066728609067 0 -0.02099102433509694 -0.013752573463484843 0 -0.020573324070580105 -0.013975987626547642 0 -0.020495950667924274 -0.014364970542623284 0 -0.020684119094677603 -0.014053066728609067 0 -0.020495950667924274 -0.014364970542623284 0 -0.020684119094677603 -0.014053066728609067 0 -0.020594453749051191 -0.014307455861418277 0 -0.020495950667924274 -0.014364970542623284 0 -0.020594453749051191 -0.014307455861418277 0 -0.020493026489057837 -0.014567031146743833 0 -0.039329554976826504 -0.017151091824680307 0 -0.039275787093733645 -0.016723885527261569 0 -0.038487650841685046 -0.017005583297510146 0 -0.039275787093733645 -0.016723885527261569 0 -0.039047152880677387 -0.016585636955368559 0 -0.038487650841685046 -0.017005583297510146 0 -0.029773900892506235 -0.015261689845881603 0 -0.030224305330536324 -0.015723119609621014 0 -0.038996818566222988 -0.016586165870162383 0 -0.039047152880677387 -0.016585636955368559 0 -0.038487650841685046 -0.017005583297510146 0 -0.020684119094677603 -0.014053066728609067 0 -0.02099102433509694 -0.013752573463484843 0 -0.020762989849585772 -0.014031784948613622 0 -0.020820211891925806 -0.013936227688311247 0 -0.02099102433509694 -0.013752573463484843 0 -0.020762989849585772 -0.014031784948613622 0 -0.020707211501335879 -0.014219756317962441 0 -0.020762989849585772 -0.014031784948613622 0 -0.020589972242002281 -0.014457293094389999 0 -0.020684119094677603 -0.014053066728609067 0 -0.020762989849585772 -0.014031784948613622 0 -0.020594453749051191 -0.014307455861418277 0 -0.020594453749051191 -0.014307455861418277 0 -0.020589972242002281 -0.014457293094389999 0 -0.020493026489057837 -0.014567031146743833 0 -0.020762989849585772 -0.014031784948613622 0 -0.020594453749051191 -0.014307455861418277 0 -0.020589972242002281 -0.014457293094389999 0 -0.020573893108052733 -0.014881296341065072 0 -0.020589972242002281 -0.014457293094389999 0 -0.020406109762594538 -0.014970815615996804 0 -0.020589972242002281 -0.014457293094389999 0 -0.020493026489057837 -0.014567031146743833 0 -0.020406109762594538 -0.014970815615996804 0 -0.020493026489057837 -0.014567031146743833 0 -0.020406109762594538 -0.014970815615996804 0 -0.020383781720964046 -0.014741996516006529 0 -0.020406109762594538 -0.014970815615996804 0 -0.020223102466039363 -0.015176358531796219 0 -0.020383781720964046 -0.014741996516006529 0 -0.020383387846438224 -0.015551399985686439 0 -0.020406109762594538 -0.014970815615996804 0 -0.020193005318264352 -0.015520542973686994 0 -0.020383387846438224 -0.015551399985686439 0 -0.0202058588343841 -0.015871370869391471 0 -0.020193005318264352 -0.015520542973686994 0 -0.0202058588343841 -0.015871370869391471 0 -0.020193005318264352 -0.015520542973686994 0 -0.020022120741897929 -0.016161208766779917 0 -0.020193005318264352 -0.015520542973686994 0 -0.020029683522813299 -0.015644259643368644 0 -0.020022120741897929 -0.016161208766779917 0 -0.020406109762594538 -0.014970815615996804 0 -0.020193005318264352 -0.015520542973686994 0 -0.020223102466039363 -0.015176358531796219 0 -0.020193005318264352 -0.015520542973686994 0 -0.020223102466039363 -0.015176358531796219 0 -0.020029683522813299 -0.015644259643368644 0 -0.020223102466039363 -0.015176358531796219 0 -0.020029683522813299 -0.015644259643368644 0 -0.020074586589123766 -0.015346872174507822 0 -0.020029683522813299 -0.015644259643368644 0 -0.019897489922680613 -0.015658159522440717 0 -0.019847540284684242 -0.01602968804569822 0 -0.020029683522813299 -0.015644259643368644 0 -0.019897489922680613 -0.015658159522440717 0 -0.020074586589123766 -0.015346872174507822 0 -0.019897489922680613 -0.015658159522440717 0 -0.020074586589123766 -0.015346872174507822 0 -0.020052479001607754 -0.015220857952040381 0 -0.020223102466039363 -0.015176358531796219 0 -0.020074586589123766 -0.015346872174507822 0 -0.020230788192076635 -0.014974135160555062 0 -0.020074586589123766 -0.015346872174507822 0 -0.020230788192076635 -0.014974135160555062 0 -0.020052479001607754 -0.015220857952040381 0 -0.020230788192076635 -0.014974135160555062 0 -0.020353795034197517 -0.014696168552570743 0 -0.02030493048636221 -0.014695653325810441 0 -0.020230788192076635 -0.014974135160555062 0 -0.020383781720964046 -0.014741996516006529 0 -0.020353795034197517 -0.014696168552570743 0 -0.020223102466039363 -0.015176358531796219 0 -0.020230788192076635 -0.014974135160555062 0 -0.020383781720964046 -0.014741996516006529 0 -0.020495950667924274 -0.014364970542623284 0 -0.020493026489057837 -0.014567031146743833 0 -0.020383781720964046 -0.014741996516006529 0 -0.020495950667924274 -0.014364970542623284 0 -0.020353795034197517 -0.014696168552570743 0 -0.02030493048636221 -0.014695653325810441 0 -0.020573324070580105 -0.013975987626547642 0 -0.020495950667924274 -0.014364970542623284 0 -0.02030493048636221 -0.014695653325810441 0 -0.020495950667924274 -0.014364970542623284 0 -0.020383781720964046 -0.014741996516006529 0 -0.020353795034197517 -0.014696168552570743 0 -0.03820097658790679 -0.017098175404883967 0 -0.038996818566222988 -0.016586165870162383 0 -0.037412066381804623 -0.017914710936466956 0 -0.029773900892506235 -0.015261689845881603 0 -0.028318209564372202 -0.016288217420462256 0 -0.020573324070580105 -0.013975987626547642 0 -0.02030493048636221 -0.014695653325810441 0 -0.020131598987624955 -0.014860514807657875 0 -0.02030493048636221 -0.014695653325810441 0 -0.020052479001607754 -0.015220857952040381 0 -0.020131598987624955 -0.014860514807657875 0 -0.020230788192076635 -0.014974135160555062 0 -0.02030493048636221 -0.014695653325810441 0 -0.020052479001607754 -0.015220857952040381 0 -0.020052479001607754 -0.015220857952040381 0 -0.020037636789870535 -0.015280804178912661 0 -0.020131598987624955 -0.014860514807657875 0 -0.019897489922680613 -0.015658159522440717 0 -0.020052479001607754 -0.015220857952040381 0 -0.019873086281266304 -0.015623554945922054 0 -0.020052479001607754 -0.015220857952040381 0 -0.020037636789870535 -0.015280804178912661 0 -0.019873086281266304 -0.015623554945922054 0 -0.020374217723383849 -0.015069643041122679 0 -0.020037636789870535 -0.015280804178912661 0 -0.020131598987624955 -0.014860514807657875 0 -0.032291794665107024 -0.0167901088878641 0 -0.028318209564372202 -0.016288217420462256 0 -0.037509084600523462 -0.017667355231441067 0 -0.03820097658790679 -0.017098175404883967 0 -0.037412066381804623 -0.017914710936466956 0 -0.038059207129361158 -0.01740757445445143 0 -0.037509084600523462 -0.017667355231441067 0 -0.037412066381804623 -0.017914710936466956 0 -0.029088676746403575 -0.022818353113278362 0 -0.023577347769064224 -0.01980194097169214 0 -0.029637307074625467 -0.019243502640951409 0 -0.028839929295650948 -0.020645303488663957 0 -0.027705656099891111 -0.019908126437348773 0 -0.027310061702592585 -0.025666370318096581 0 -0.025695572102935795 -0.026459580384978768 0 -0.026923365143766545 -0.02546658366816713 0 -0.029637307074625467 -0.019243502640951409 0 -0.029990853767358657 -0.02017588413457954 0 -0.028839929295650948 -0.020645303488663957 0 -0.023650091511446859 -0.017530638420104529 0 -0.023577347769064224 -0.01980194097169214 0 -0.020374217723383849 -0.015069643041122679 0 -0.020037636789870535 -0.015280804178912661 0 -0.019986719750965012 -0.01551893789196091 0 -0.032291794665107024 -0.0167901088878641 0 -0.023650091511446859 -0.017530638420104529 0 -0.020037636789870535 -0.015280804178912661 0 -0.019986719750965012 -0.01551893789196091 0 -0.019873086281266304 -0.015623554945922054 0 -0.019986719750965012 -0.01551893789196091 0 -0.019873086281266304 -0.015623554945922054 0 -0.019745553878356879 -0.015927387129695884 0 -0.019897489922680613 -0.015658159522440717 0 -0.019873086281266304 -0.015623554945922054 0 -0.019704836426247534 -0.016027533702302088 0 -0.019745553878356879 -0.015927387129695884 0 -0.019454425869069709 -0.016391546202233837 0 -0.019704836426247534 -0.016027533702302088 0 -0.019873086281266304 -0.015623554945922054 0 -0.019745553878356879 -0.015927387129695884 0 -0.019704836426247534 -0.016027533702302088 0 -0.019745553878356879 -0.015927387129695884 0 -0.019454425869069709 -0.016391546202233837 0 -0.019723434825708056 -0.01598499263487128 0 -0.020268005947798987 -0.0184621387498244 0 -0.023577347769064224 -0.01980194097169214 0 -0.019454425869069709 -0.016391546202233837 0 -0.019142234992453301 -0.016540837011285343 0 -0.019473359691141397 -0.016890706912967273 0 -0.019986719750965012 -0.01551893789196091 0 -0.019745553878356879 -0.015927387129695884 0 -0.019723434825708056 -0.01598499263487128 0 -0.019142234992453301 -0.016540837011285343 0 -0.019473359691141397 -0.016890706912967273 0 -0.019339418926788334 -0.018090246111367999 0 -0.023577347769064224 -0.01980194097169214 0 -0.021086000770044581 -0.0215135550300928 0 -0.01958426688155324 -0.017198498980435181 0 -0.019473359691141397 -0.016890706912967273 0 -0.019339418926788334 -0.018090246111367999 0 -0.01958426688155324 -0.017198498980435181 0 -0.019473359691141397 -0.016890706912967273 0 -0.019650646527325958 -0.016511018628140611 0 -0.01958426688155324 -0.017198498980435181 0 -0.019650646527325958 -0.016511018628140611 0 -0.019736214472162499 -0.016863874475660793 0 -0.019454425869069709 -0.016391546202233837 0 -0.019473359691141397 -0.016890706912967273 0 -0.019650646527325958 -0.016511018628140611 0 -0.019704836426247534 -0.016027533702302088 0 -0.019847540284684242 -0.01602968804569822 0 -0.019650646527325958 -0.016511018628140611 0 -0.019454425869069709 -0.016391546202233837 0 -0.019704836426247534 -0.016027533702302088 0 -0.019650646527325958 -0.016511018628140611 0 -0.019897489922680613 -0.015658159522440717 0 -0.019704836426247534 -0.016027533702302088 0 -0.019847540284684242 -0.01602968804569822 0 -0.020029683522813299 -0.015644259643368644 0 -0.019847540284684242 -0.01602968804569822 0 -0.020022120741897929 -0.016161208766779917 0 -0.019847540284684242 -0.01602968804569822 0 -0.019650646527325958 -0.016511018628140611 0 -0.019822162274187659 -0.016465426793239712 0 -0.019650646527325958 -0.016511018628140611 0 -0.019822162274187659 -0.016465426793239712 0 -0.019736214472162499 -0.016863874475660793 0 -0.019822162274187659 -0.016465426793239712 0 -0.020022120741897929 -0.016161208766779917 0 -0.019902463257810026 -0.016832740792822983 0 -0.019822162274187659 -0.016465426793239712 0 -0.019902463257810026 -0.016832740792822983 0 -0.019736214472162499 -0.016863874475660793 0 -0.019847540284684242 -0.01602968804569822 0 -0.019822162274187659 -0.016465426793239712 0 -0.020022120741897929 -0.016161208766779917 0 -0.020022120741897929 -0.016161208766779917 0 -0.020095424386114589 -0.016664762729849094 0 -0.020246508148290081 -0.016262468439720529 0 -0.0202058588343841 -0.015871370869391471 0 -0.020022120741897929 -0.016161208766779917 0 -0.020246508148290081 -0.016262468439720529 0 -0.020022120741897929 -0.016161208766779917 0 -0.019902463257810026 -0.016832740792822983 0 -0.020095424386114589 -0.016664762729849094 0 -0.019902463257810026 -0.016832740792822983 0 -0.020095424386114589 -0.016664762729849094 0 -0.020044612769437451 -0.017353656223628767 0 -0.019902463257810026 -0.016832740792822983 0 -0.019769007795363818 -0.017302540276217155 0 -0.020044612769437451 -0.017353656223628767 0 -0.01958426688155324 -0.017198498980435181 0 -0.019736214472162499 -0.016863874475660793 0 -0.019769007795363818 -0.017302540276217155 0 -0.019902463257810026 -0.016832740792822983 0 -0.019736214472162499 -0.016863874475660793 0 -0.019769007795363818 -0.017302540276217155 0 -0.01958426688155324 -0.017198498980435181 0 -0.019769007795363818 -0.017302540276217155 0 -0.019610574468230436 -0.017731240305638531 0 -0.01958426688155324 -0.017198498980435181 0 -0.019610574468230436 -0.017731240305638531 0 -0.019339418926788334 -0.018090246111367999 0 -0.019769007795363818 -0.017302540276217155 0 -0.019610574468230436 -0.017731240305638531 0 -0.019769199571645215 -0.017857939154096166 0 -0.019769007795363818 -0.017302540276217155 0 -0.019769199571645215 -0.017857939154096166 0 -0.020044612769437451 -0.017353656223628767 0 -0.021021927747195645 -0.020332680729610451 0 -0.024388442682676127 -0.024354952438031891 0 -0.022961601651474102 -0.024458496189667424 0 -0.021086000770044581 -0.0215135550300928 0 -0.020153062392961465 -0.020393338432815048 0 -0.019717051605105385 -0.018972393274064771 0 -0.019339418926788334 -0.018090246111367999 0 -0.019936457061064811 -0.020299518190255245 0 -0.019641997216399615 -0.018197995004075207 0 -0.019717051605105385 -0.018972393274064771 0 -0.01983377898725917 -0.018451783430451132 0 -0.019769199571645215 -0.017857939154096166 0 -0.019641997216399615 -0.018197995004075207 0 -0.01983377898725917 -0.018451783430451132 0 -0.019610574468230436 -0.017731240305638531 0 -0.019769199571645215 -0.017857939154096166 0 -0.019641997216399615 -0.018197995004075207 0 -0.019610574468230436 -0.017731240305638531 0 -0.019641997216399615 -0.018197995004075207 0 -0.019339418926788334 -0.018090246111367999 0 -0.019641997216399615 -0.018197995004075207 0 -0.019717051605105385 -0.018972393274064771 0 -0.019339418926788334 -0.018090246111367999 0 -0.021021927747195645 -0.020332680729610451 0 -0.022961601651474102 -0.024458496189667424 0 -0.019936457061064811 -0.020299518190255245 0 -0.023126218919083712 -0.023735344045742558 0 -0.023524857810283243 -0.023561397409081742 0 -0.023922384107151931 -0.023803987830533033 0 -0.022009252234018225 -0.021956842961618494 0 -0.024271144020737219 -0.024157435555217731 0 -0.023126218919083712 -0.023735344045742558 0 -0.023922384107151931 -0.023803987830533033 0 -0.024388442682676127 -0.024354952438031891 0 -0.023126218919083712 -0.023735344045742558 0 -0.023524857810283243 -0.023561397409081742 0 -0.023231307893937698 -0.023497581587526857 0 -0.023524857810283243 -0.023561397409081742 0 -0.023922384107151931 -0.023803987830533033 0 -0.024179528035351318 -0.023367412299942401 0 -0.023922384107151931 -0.023803987830533033 0 -0.024806383148025097 -0.023649151417237033 0 -0.024179528035351318 -0.023367412299942401 0 -0.024806383148025097 -0.023649151417237033 0 -0.025006080158045382 -0.02306179863235867 0 -0.024179528035351318 -0.023367412299942401 0 -0.023922384107151931 -0.023803987830533033 0 -0.024388442682676127 -0.024354952438031891 0 -0.024806383148025097 -0.023649151417237033 0 -0.025695572102935795 -0.026459580384978768 0 -0.024388442682676127 -0.024354952438031891 0 -0.022961601651474102 -0.024458496189667424 0 -0.025695572102935795 -0.026459580384978768 0 -0.024388442682676127 -0.024354952438031891 0 -0.025630452426441429 -0.025111820689312704 0 -0.025695572102935795 -0.026459580384978768 0 -0.025630452426441429 -0.025111820689312704 0 -0.026923365143766545 -0.02546658366816713 0 -0.024388442682676127 -0.024354952438031891 0 -0.025630452426441429 -0.025111820689312704 0 -0.025184274456260845 -0.024158736688494345 0 -0.025630452426441429 -0.025111820689312704 0 -0.025184274456260845 -0.024158736688494345 0 -0.026013556542422482 -0.023560580633345256 0 -0.025184274456260845 -0.024158736688494345 0 -0.024806383148025097 -0.023649151417237033 0 -0.026013556542422482 -0.023560580633345256 0 -0.024806383148025097 -0.023649151417237033 0 -0.026013556542422482 -0.023560580633345256 0 -0.025006080158045382 -0.02306179863235867 0 -0.024388442682676127 -0.024354952438031891 0 -0.025184274456260845 -0.024158736688494345 0 -0.024806383148025097 -0.023649151417237033 0 -0.027267246271901305 -0.025629570886728913 0 -0.027170989517106937 -0.025606364192045761 0 -0.027227211832754065 -0.025591029172002931 0 -0.027267246271901305 -0.025629570886728913 0 -0.027170989517106937 -0.025606364192045761 0 -0.026923365143766545 -0.02546658366816713 0 -0.025630452426441429 -0.025111820689312704 0 -0.026013556542422482 -0.023560580633345256 0 -0.026923365143766545 -0.02546658366816713 0 -0.026681734324265668 -0.024565338870221574 0 -0.026892618932961156 -0.025438521119174357 0 -0.02100653973450467 -0.018039891687216425 0 -0.021437967103935585 -0.018349864119429724 0 -0.021452119615887003 -0.017501863619478929 0 -0.02100653973450467 -0.018039891687216425 0 -0.020491406872852082 -0.018249276187563557 0 -0.020804121587670071 -0.018881243886798717 0 -0.02100653973450467 -0.018039891687216425 0 -0.020804121587670071 -0.018881243886798717 0 -0.021245347404630809 -0.019231121968606598 0 -0.02100653973450467 -0.018039891687216425 0 -0.021437967103935585 -0.018349864119429724 0 -0.021245347404630809 -0.019231121968606598 0 -0.021663670552890871 -0.018849641527450424 0 -0.021437967103935585 -0.018349864119429724 0 -0.021245347404630809 -0.019231121968606598 0 -0.021663670552890871 -0.018849641527450424 0 -0.02178143668969805 -0.019581051165860602 0 -0.022080422590640386 -0.018842869627630675 0 -0.021663670552890871 -0.018849641527450424 0 -0.021902237607224737 -0.018049329578329464 0 -0.022080422590640386 -0.018842869627630675 0 -0.021663670552890871 -0.018849641527450424 0 -0.021902237607224737 -0.018049329578329464 0 -0.021437967103935585 -0.018349864119429724 0 -0.021902237607224737 -0.018049329578329464 0 -0.021437967103935585 -0.018349864119429724 0 -0.021452119615887003 -0.017501863619478929 0 -0.021902237607224737 -0.018049329578329464 0 -0.022054251353283743 -0.016957304858650268 0 -0.021452119615887003 -0.017501863619478929 0 -0.021902237607224737 -0.018049329578329464 0 -0.022054251353283743 -0.016957304858650268 0 -0.022373941618805133 -0.017554509344188885 0 -0.021434244515783275 -0.016533519909618689 0 -0.022054251353283743 -0.016957304858650268 0 -0.021452119615887003 -0.017501863619478929 0 -0.021434244515783275 -0.016533519909618689 0 -0.021452119615887003 -0.017501863619478929 0 -0.02091408185729585 -0.017040570551988037 0 -0.02100653973450467 -0.018039891687216425 0 -0.021452119615887003 -0.017501863619478929 0 -0.02091408185729585 -0.017040570551988037 0 -0.020521274658810009 -0.016327862521934956 0 -0.02091408185729585 -0.017040570551988037 0 -0.020449626430544921 -0.017260101075403381 0 -0.02091408185729585 -0.017040570551988037 0 -0.020449626430544921 -0.017260101075403381 0 -0.020712886776290924 -0.017642626695067061 0 -0.02100653973450467 -0.018039891687216425 0 -0.02091408185729585 -0.017040570551988037 0 -0.020712886776290924 -0.017642626695067061 0 -0.020095424386114589 -0.016664762729849094 0 -0.020246508148290081 -0.016262468439720529 0 -0.020278787755859225 -0.016766393089190444 0 -0.020521274658810009 -0.016327862521934956 0 -0.020449626430544921 -0.017260101075403381 0 -0.020278787755859225 -0.016766393089190444 0 -0.020521274658810009 -0.016327862521934956 0 -0.020246508148290081 -0.016262468439720529 0 -0.020278787755859225 -0.016766393089190444 0 -0.020449626430544921 -0.017260101075403381 0 -0.020278787755859225 -0.016766393089190444 0 -0.020044612769437451 -0.017353656223628767 0 -0.020095424386114589 -0.016664762729849094 0 -0.020278787755859225 -0.016766393089190444 0 -0.020044612769437451 -0.017353656223628767 0 -0.020449626430544921 -0.017260101075403381 0 -0.020044612769437451 -0.017353656223628767 0 -0.020191817962650748 -0.018042676145387487 0 -0.020191817962650748 -0.018042676145387487 0 -0.019967510577071371 -0.018056454788895289 0 -0.020011774946015016 -0.018607187883381126 0 -0.020044612769437451 -0.017353656223628767 0 -0.020191817962650748 -0.018042676145387487 0 -0.019967510577071371 -0.018056454788895289 0 -0.019769199571645215 -0.017857939154096166 0 -0.020044612769437451 -0.017353656223628767 0 -0.019967510577071371 -0.018056454788895289 0 -0.02100653973450467 -0.018039891687216425 0 -0.020712886776290924 -0.017642626695067061 0 -0.020491406872852082 -0.018249276187563557 0 -0.020449626430544921 -0.017260101075403381 0 -0.020191817962650748 -0.018042676145387487 0 -0.020491406872852082 -0.018249276187563557 0 -0.020449626430544921 -0.017260101075403381 0 -0.020712886776290924 -0.017642626695067061 0 -0.020491406872852082 -0.018249276187563557 0 -0.020191817962650748 -0.018042676145387487 0 -0.020491406872852082 -0.018249276187563557 0 -0.020220660486267649 -0.018866599388259214 0 -0.020491406872852082 -0.018249276187563557 0 -0.020469371150610417 -0.019250989613703882 0 -0.020804121587670071 -0.018881243886798717 0 -0.020491406872852082 -0.018249276187563557 0 -0.020469371150610417 -0.019250989613703882 0 -0.020220660486267649 -0.018866599388259214 0 -0.020220660486267649 -0.018866599388259214 0 -0.02005214293888433 -0.019694624014863261 0 -0.019975001839418301 -0.01927559156563317 0 -0.020469371150610417 -0.019250989613703882 0 -0.020220660486267649 -0.018866599388259214 0 -0.02005214293888433 -0.019694624014863261 0 -0.020469371150610417 -0.019250989613703882 0 -0.02005214293888433 -0.019694624014863261 0 -0.020395590359083889 -0.020008537418066664 0 -0.019769199571645215 -0.017857939154096166 0 -0.019967510577071371 -0.018056454788895289 0 -0.01983377898725917 -0.018451783430451132 0 -0.019967510577071371 -0.018056454788895289 0 -0.01983377898725917 -0.018451783430451132 0 -0.020011774946015016 -0.018607187883381126 0 -0.01983377898725917 -0.018451783430451132 0 -0.020011774946015016 -0.018607187883381126 0 -0.019888694493710057 -0.018956270152078791 0 -0.020191817962650748 -0.018042676145387487 0 -0.020220660486267649 -0.018866599388259214 0 -0.020011774946015016 -0.018607187883381126 0 -0.020220660486267649 -0.018866599388259214 0 -0.020011774946015016 -0.018607187883381126 0 -0.019975001839418301 -0.01927559156563317 0 -0.02005214293888433 -0.019694624014863261 0 -0.019975001839418301 -0.01927559156563317 0 -0.019859855211815124 -0.019850126619295725 0 -0.019975001839418301 -0.01927559156563317 0 -0.019885733963978726 -0.01948164162974917 0 -0.019859855211815124 -0.019850126619295725 0 -0.020011774946015016 -0.018607187883381126 0 -0.019975001839418301 -0.01927559156563317 0 -0.019888694493710057 -0.018956270152078791 0 -0.019717051605105385 -0.018972393274064771 0 -0.019888694493710057 -0.018956270152078791 0 -0.019885733963978726 -0.01948164162974917 0 -0.019975001839418301 -0.01927559156563317 0 -0.019888694493710057 -0.018956270152078791 0 -0.019885733963978726 -0.01948164162974917 0 -0.019717051605105385 -0.018972393274064771 0 -0.01983377898725917 -0.018451783430451132 0 -0.019888694493710057 -0.018956270152078791 0 -0.019936457061064811 -0.020299518190255245 0 -0.019590363432089336 -0.020239339278837927 0 -0.018582370897990849 -0.018715354686089005 0 -0.021021927747195645 -0.020332680729610451 0 -0.019936457061064811 -0.020299518190255245 0 -0.018582370897990849 -0.018715354686089005 0 -0.019717051605105385 -0.018972393274064771 0 -0.019885733963978726 -0.01948164162974917 0 -0.019936457061064811 -0.020299518190255245 0 -0.02005214293888433 -0.019694624014863261 0 -0.019859855211815124 -0.019850126619295725 0 -0.019590363432089336 -0.020239339278837927 0 -0.019885733963978726 -0.01948164162974917 0 -0.019936457061064811 -0.020299518190255245 0 -0.019859855211815124 -0.019850126619295725 0 -0.019936457061064811 -0.020299518190255245 0 -0.019859855211815124 -0.019850126619295725 0 -0.019590363432089336 -0.020239339278837927 0 -0.019590363432089336 -0.020239339278837927 0 -0.020031291144313897 -0.021072362846790448 0 -0.019748385096086972 -0.021927547276597761 0 -0.020062230995130294 -0.020357049703335291 0 -0.020395590359083889 -0.020008537418066664 0 -0.020348750642384617 -0.02076318381477359 0 -0.02005214293888433 -0.019694624014863261 0 -0.020062230995130294 -0.020357049703335291 0 -0.020395590359083889 -0.020008537418066664 0 -0.02005214293888433 -0.019694624014863261 0 -0.019590363432089336 -0.020239339278837927 0 -0.020062230995130294 -0.020357049703335291 0 -0.019590363432089336 -0.020239339278837927 0 -0.020062230995130294 -0.020357049703335291 0 -0.020031291144313897 -0.021072362846790448 0 -0.020062230995130294 -0.020357049703335291 0 -0.020031291144313897 -0.021072362846790448 0 -0.020348750642384617 -0.02076318381477359 0 -0.020348750642384617 -0.02076318381477359 0 -0.020979456388744846 -0.021097447487704382 0 -0.02056073135741664 -0.021874289461402241 0 -0.020031291144313897 -0.021072362846790448 0 -0.020348750642384617 -0.02076318381477359 0 -0.02056073135741664 -0.021874289461402241 0 -0.020979456388744846 -0.021097447487704382 0 -0.020708581009377922 -0.020356359819376377 0 -0.02104981452612259 -0.02027280579838241 0 -0.020348750642384617 -0.02076318381477359 0 -0.020979456388744846 -0.021097447487704382 0 -0.020708581009377922 -0.020356359819376377 0 -0.020395590359083889 -0.020008537418066664 0 -0.020348750642384617 -0.02076318381477359 0 -0.020708581009377922 -0.020356359819376377 0 -0.020395590359083889 -0.020008537418066664 0 -0.020708581009377922 -0.020356359819376377 0 -0.02078605240089916 -0.019662248543891862 0 -0.020469371150610417 -0.019250989613703882 0 -0.020395590359083889 -0.020008537418066664 0 -0.02078605240089916 -0.019662248543891862 0 -0.020708581009377922 -0.020356359819376377 0 -0.02078605240089916 -0.019662248543891862 0 -0.02104981452612259 -0.02027280579838241 0 -0.02078605240089916 -0.019662248543891862 0 -0.02104981452612259 -0.02027280579838241 0 -0.021245347404630809 -0.019231121968606598 0 -0.02078605240089916 -0.019662248543891862 0 -0.020804121587670071 -0.018881243886798717 0 -0.021245347404630809 -0.019231121968606598 0 -0.020469371150610417 -0.019250989613703882 0 -0.02078605240089916 -0.019662248543891862 0 -0.020804121587670071 -0.018881243886798717 0 -0.021663670552890871 -0.018849641527450424 0 -0.02178143668969805 -0.019581051165860602 0 -0.021245347404630809 -0.019231121968606598 0 -0.02178143668969805 -0.019581051165860602 0 -0.021245347404630809 -0.019231121968606598 0 -0.021435813877825383 -0.020308565767721595 0 -0.02104981452612259 -0.02027280579838241 0 -0.021245347404630809 -0.019231121968606598 0 -0.021435813877825383 -0.020308565767721595 0 -0.02178143668969805 -0.019581051165860602 0 -0.021435813877825383 -0.020308565767721595 0 -0.021863463384256664 -0.020427760375062082 0 -0.021435813877825383 -0.020308565767721595 0 -0.021504257996188113 -0.02128478558101381 0 -0.021863463384256664 -0.020427760375062082 0 -0.020979456388744846 -0.021097447487704382 0 -0.02104981452612259 -0.02027280579838241 0 -0.021435813877825383 -0.020308565767721595 0 -0.020979456388744846 -0.021097447487704382 0 -0.021435813877825383 -0.020308565767721595 0 -0.021504257996188113 -0.02128478558101381 0 -0.020979456388744846 -0.021097447487704382 0 -0.021504257996188113 -0.02128478558101381 0 -0.021207986165027663 -0.022150431735460378 0 -0.021504257996188113 -0.02128478558101381 0 -0.021541066436756327 -0.022206507919156966 0 -0.021207986165027663 -0.022150431735460378 0 -0.021504257996188113 -0.02128478558101381 0 -0.021885675332669493 -0.021461839589347938 0 -0.021541066436756327 -0.022206507919156966 0 -0.021504257996188113 -0.02128478558101381 0 -0.021885675332669493 -0.021461839589347938 0 -0.021863463384256664 -0.020427760375062082 0 -0.021885675332669493 -0.021461839589347938 0 -0.021863463384256664 -0.020427760375062082 0 -0.02239292539678733 -0.020397390506414481 0 -0.021885675332669493 -0.021461839589347938 0 -0.022357144737828717 -0.021683242017133689 0 -0.02169484074052621 -0.022924898177138726 0 -0.021885675332669493 -0.021461839589347938 0 -0.021541066436756327 -0.022206507919156966 0 -0.02169484074052621 -0.022924898177138726 0 -0.022357144737828717 -0.021683242017133689 0 -0.023080783718579741 -0.020081670651578735 0 -0.02352037351441752 -0.020861508423293502 0 -0.022357144737828717 -0.021683242017133689 0 -0.022902715658657341 -0.022132831872280125 0 -0.021724978472840804 -0.023775152612847732 0 -0.022357144737828717 -0.021683242017133689 0 -0.022902715658657341 -0.022132831872280125 0 -0.02352037351441752 -0.020861508423293502 0 -0.021885675332669493 -0.021461839589347938 0 -0.022357144737828717 -0.021683242017133689 0 -0.02239292539678733 -0.020397390506414481 0 -0.022357144737828717 -0.021683242017133689 0 -0.023080783718579741 -0.020081670651578735 0 -0.02239292539678733 -0.020397390506414481 0 -0.023080783718579741 -0.020081670651578735 0 -0.02278904207284969 -0.019423387128311133 0 -0.023343770660513363 -0.019229843642208418 0 -0.023080783718579741 -0.020081670651578735 0 -0.023851913751112081 -0.019447356340680687 0 -0.023343770660513363 -0.019229843642208418 0 -0.023080783718579741 -0.020081670651578735 0 -0.02278904207284969 -0.019423387128311133 0 -0.02239292539678733 -0.020397390506414481 0 -0.02278904207284969 -0.019423387128311133 0 -0.022252453466711206 -0.01953982528886478 0 -0.02239292539678733 -0.020397390506414481 0 -0.02178143668969805 -0.019581051165860602 0 -0.022252453466711206 -0.01953982528886478 0 -0.021863463384256664 -0.020427760375062082 0 -0.02178143668969805 -0.019581051165860602 0 -0.022252453466711206 -0.01953982528886478 0 -0.022080422590640386 -0.018842869627630675 0 -0.022252453466711206 -0.01953982528886478 0 -0.021863463384256664 -0.020427760375062082 0 -0.02239292539678733 -0.020397390506414481 0 -0.021469730546572936 -0.025404886310247749 0 -0.02022839848407762 -0.023374526992263524 0 -0.018299659169611023 -0.02834225046266663 0 -0.020185505658699737 -0.025164984236238478 0 -0.019856557691469632 -0.028883266907366145 0 -0.02352037351441752 -0.020861508423293502 0 -0.024754599791506855 -0.019702803927019088 0 -0.024038353691221363 -0.022576360583015345 0 -0.02257999586978986 -0.021641004424262325 0 -0.021045961382929371 -0.025407976460871458 0 -0.022902715658657341 -0.022132831872280125 0 -0.02352037351441752 -0.020861508423293502 0 -0.024038353691221363 -0.022576360583015345 0 -0.02352037351441752 -0.020861508423293502 0 -0.023851913751112081 -0.019447356340680687 0 -0.024754599791506855 -0.019702803927019088 0 -0.023080783718579741 -0.020081670651578735 0 -0.02352037351441752 -0.020861508423293502 0 -0.023851913751112081 -0.019447356340680687 0 -0.020185505658699737 -0.025164984236238478 0 -0.020435483053114142 -0.019122981543102484 0 -0.021469730546572936 -0.025404886310247749 0 -0.02022839848407762 -0.023374526992263524 0 -0.023774689971252757 -0.019796807773807552 0 -0.018757309512767124 -0.025075290781760615 0 -0.017881595289621008 -0.019117072337034365 0 -0.020103065847898331 -0.021360545110004056 0 -0.024754599791506855 -0.019702803927019088 0 -0.024238002842831684 -0.018702966477270259 0 -0.024443371900510186 -0.018305955784887126 0 -0.02257999586978986 -0.021641004424262325 0 -0.024154078491511421 -0.018606049604793021 0 -0.02022839848407762 -0.023374526992263524 0 -0.023774689971252757 -0.019796807773807552 0 -0.024443371900510186 -0.018305955784887126 0 -0.023851913751112081 -0.019447356340680687 0 -0.024754599791506855 -0.019702803927019088 0 -0.024238002842831684 -0.018702966477270259 0 -0.023851913751112081 -0.019447356340680687 0 -0.024238002842831684 -0.018702966477270259 0 -0.023667509003304051 -0.018632927124484427 0 -0.024238002842831684 -0.018702966477270259 0 -0.023922149316500198 -0.017931333995706865 0 -0.023667509003304051 -0.018632927124484427 0 -0.024238002842831684 -0.018702966477270259 0 -0.023922149316500198 -0.017931333995706865 0 -0.024345346189941854 -0.017901612505509493 0 -0.023922149316500198 -0.017931333995706865 0 -0.024345346189941854 -0.017901612505509493 0 -0.024253652851657034 -0.017097422005047231 0 -0.023922149316500198 -0.017931333995706865 0 -0.023587282164778501 -0.017113033625725214 0 -0.024253652851657034 -0.017097422005047231 0 -0.024345346189941854 -0.017901612505509493 0 -0.024253652851657034 -0.017097422005047231 0 -0.024671317400646299 -0.017163957328797448 0 -0.024238002842831684 -0.018702966477270259 0 -0.024345346189941854 -0.017901612505509493 0 -0.024443371900510186 -0.018305955784887126 0 -0.017881595289621008 -0.019117072337034365 0 -0.019099792754606253 -0.016639504973024133 0 -0.017211538418030355 -0.013241687424480616 0 -0.020435483053114142 -0.019122981543102484 0 -0.023962338763223515 -0.015320787035087425 0 -0.023774689971252757 -0.019796807773807552 0 -0.024443371900510186 -0.018305955784887126 0 -0.025785849258723577 -0.015788052353805416 0 -0.024345346189941854 -0.017901612505509493 0 -0.024443371900510186 -0.018305955784887126 0 -0.024671317400646299 -0.017163957328797448 0 -0.017881595289621008 -0.019117072337034365 0 -0.019099792754606253 -0.016639504973024133 0 -0.020141373070043472 -0.018497367079677966 0 -0.022569986768275173 -0.018727990107986335 0 -0.023109738353994061 -0.018657990010750681 0 -0.022849639760442401 -0.017853590115446887 0 -0.022569986768275173 -0.018727990107986335 0 -0.02235546941263486 -0.018190614304394719 0 -0.022849639760442401 -0.017853590115446887 0 -0.022569986768275173 -0.018727990107986335 0 -0.02235546941263486 -0.018190614304394719 0 -0.022080422590640386 -0.018842869627630675 0 -0.021902237607224737 -0.018049329578329464 0 -0.02235546941263486 -0.018190614304394719 0 -0.022080422590640386 -0.018842869627630675 0 -0.022252453466711206 -0.01953982528886478 0 -0.022569986768275173 -0.018727990107986335 0 -0.022080422590640386 -0.018842869627630675 0 -0.02278904207284969 -0.019423387128311133 0 -0.022252453466711206 -0.01953982528886478 0 -0.022569986768275173 -0.018727990107986335 0 -0.02278904207284969 -0.019423387128311133 0 -0.023343770660513363 -0.019229843642208418 0 -0.023109738353994061 -0.018657990010750681 0 -0.02278904207284969 -0.019423387128311133 0 -0.022569986768275173 -0.018727990107986335 0 -0.023109738353994061 -0.018657990010750681 0 -0.023343770660513363 -0.019229843642208418 0 -0.023667509003304051 -0.018632927124484427 0 -0.023109738353994061 -0.018657990010750681 0 -0.023851913751112081 -0.019447356340680687 0 -0.023343770660513363 -0.019229843642208418 0 -0.023667509003304051 -0.018632927124484427 0 -0.023667509003304051 -0.018632927124484427 0 -0.023109738353994061 -0.018657990010750681 0 -0.023397643521051618 -0.01799053265875231 0 -0.023109738353994061 -0.018657990010750681 0 -0.023397643521051618 -0.01799053265875231 0 -0.022849639760442401 -0.017853590115446887 0 -0.023397643521051618 -0.01799053265875231 0 -0.023587282164778501 -0.017113033625725214 0 -0.022849639760442401 -0.017853590115446887 0 -0.023922149316500198 -0.017931333995706865 0 -0.023397643521051618 -0.01799053265875231 0 -0.023587282164778501 -0.017113033625725214 0 -0.023922149316500198 -0.017931333995706865 0 -0.023667509003304051 -0.018632927124484427 0 -0.023397643521051618 -0.01799053265875231 0 -0.023587282164778501 -0.017113033625725214 0 -0.022849639760442401 -0.017853590115446887 0 -0.02280164196895659 -0.016809718863916068 0 -0.02235546941263486 -0.018190614304394719 0 -0.022849639760442401 -0.017853590115446887 0 -0.022373941618805133 -0.017554509344188885 0 -0.021902237607224737 -0.018049329578329464 0 -0.02235546941263486 -0.018190614304394719 0 -0.022373941618805133 -0.017554509344188885 0 -0.022849639760442401 -0.017853590115446887 0 -0.022373941618805133 -0.017554509344188885 0 -0.02280164196895659 -0.016809718863916068 0 -0.022054251353283743 -0.016957304858650268 0 -0.022373941618805133 -0.017554509344188885 0 -0.02280164196895659 -0.016809718863916068 0 -0.022519316239695067 -0.016175560835548271 0 -0.022054251353283743 -0.016957304858650268 0 -0.02280164196895659 -0.016809718863916068 0 -0.02280164196895659 -0.016809718863916068 0 -0.023130124916872951 -0.015855347775568542 0 -0.023672340671856491 -0.016036942171491448 0 -0.022519316239695067 -0.016175560835548271 0 -0.02280164196895659 -0.016809718863916068 0 -0.023130124916872951 -0.015855347775568542 0 -0.022519316239695067 -0.016175560835548271 0 -0.0227149159359647 -0.015287708631821672 0 -0.023130124916872951 -0.015855347775568542 0 -0.023130124916872951 -0.015855347775568542 0 -0.023561183353263911 -0.015081507929704896 0 -0.023672340671856491 -0.016036942171491448 0 -0.0227149159359647 -0.015287708631821672 0 -0.023130124916872951 -0.015855347775568542 0 -0.023561183353263911 -0.015081507929704896 0 -0.0227149159359647 -0.015287708631821672 0 -0.023561183353263911 -0.015081507929704896 0 -0.023389968030579498 -0.014399658472462763 0 -0.023561183353263911 -0.015081507929704896 0 -0.024328623493503065 -0.014968286262398206 0 -0.024235922891908197 -0.014259423898120092 0 -0.023561183353263911 -0.015081507929704896 0 -0.024328623493503065 -0.014968286262398206 0 -0.023672340671856491 -0.016036942171491448 0 -0.024328623493503065 -0.014968286262398206 0 -0.023672340671856491 -0.016036942171491448 0 -0.024204412609348597 -0.01612610088603237 0 -0.023587282164778501 -0.017113033625725214 0 -0.02280164196895659 -0.016809718863916068 0 -0.023672340671856491 -0.016036942171491448 0 -0.023587282164778501 -0.017113033625725214 0 -0.023672340671856491 -0.016036942171491448 0 -0.024204412609348597 -0.01612610088603237 0 -0.023587282164778501 -0.017113033625725214 0 -0.024253652851657034 -0.017097422005047231 0 -0.024204412609348597 -0.01612610088603237 0 -0.024253652851657034 -0.017097422005047231 0 -0.02466400677245404 -0.016301606769884111 0 -0.024204412609348597 -0.01612610088603237 0 -0.024253652851657034 -0.017097422005047231 0 -0.024671317400646299 -0.017163957328797448 0 -0.02466400677245404 -0.016301606769884111 0 -0.024671317400646299 -0.017163957328797448 0 -0.02466400677245404 -0.016301606769884111 0 -0.025785849258723577 -0.015788052353805416 0 -0.023962338763223515 -0.015320787035087425 0 -0.025334853291519986 -0.015646167014727316 0 -0.02466400677245404 -0.016301606769884111 0 -0.025785849258723577 -0.015788052353805416 0 -0.024749017307837892 -0.015260756882942291 0 -0.02466400677245404 -0.016301606769884111 0 -0.024204412609348597 -0.01612610088603237 0 -0.024749017307837892 -0.015260756882942291 0 -0.024443371900510186 -0.018305955784887126 0 -0.024671317400646299 -0.017163957328797448 0 -0.025785849258723577 -0.015788052353805416 0 -0.025563003759555208 -0.013059581767158632 0 -0.025405138424549972 -0.014162721589028615 0 -0.025095098914585948 -0.014054373579569084 0 -0.02574665867296802 -0.015864845950049125 0 -0.025405138424549972 -0.014162721589028615 0 -0.024749017307837892 -0.015260756882942291 0 -0.023962338763223515 -0.015320787035087425 0 -0.025573474503363319 -0.013920483749979741 0 -0.024328623493503065 -0.014968286262398206 0 -0.024204412609348597 -0.01612610088603237 0 -0.024749017307837892 -0.015260756882942291 0 -0.025405138424549972 -0.014162721589028615 0 -0.024749017307837892 -0.015260756882942291 0 -0.02496778729509002 -0.014404835401059938 0 -0.024328623493503065 -0.014968286262398206 0 -0.024749017307837892 -0.015260756882942291 0 -0.02496778729509002 -0.014404835401059938 0 -0.02488587404943703 -0.01396874973634064 0 -0.025343046306061882 -0.013907576084838027 0 -0.025077980663975541 -0.013323597302792639 0 -0.024328623493503065 -0.014968286262398206 0 -0.02496778729509002 -0.014404835401059938 0 -0.02488587404943703 -0.01396874973634064 0 -0.025405138424549972 -0.014162721589028615 0 -0.02496778729509002 -0.014404835401059938 0 -0.025343046306061882 -0.013907576084838027 0 -0.02496778729509002 -0.014404835401059938 0 -0.02488587404943703 -0.01396874973634064 0 -0.025343046306061882 -0.013907576084838027 0 -0.019091666307888788 -0.0033887365888337325 0 -0.019583689512458508 -0.0051168464529967048 0 -0.012866590175123071 0.0054507596533627896 0 -0.014284540921458876 0.0017245529805961623 0 -0.012258937172908508 0.0034090529535287153 0 -0.025095098914585948 -0.014054373579569084 0 -0.025343046306061882 -0.013907576084838027 0 -0.025446680085670421 -0.01359684874136409 0 -0.025405138424549972 -0.014162721589028615 0 -0.025095098914585948 -0.014054373579569084 0 -0.025343046306061882 -0.013907576084838027 0 -0.019583689512458508 -0.0051168464529967048 0 -0.009488365333903943 0.0034847753410920872 0 -0.011194356276950255 0.0018582151485469489 0 -0.012136969845896139 0.0033865720325543542 0 -0.010387320964048602 0.0035705946590292759 0 -0.02488587404943703 -0.01396874973634064 0 -0.025077980663975541 -0.013323597302792639 0 -0.024783019218194084 -0.01351838515583452 0 -0.028038486376331793 -0.010262722681317636 0 -0.028935293679966261 -0.012825891501165016 0 -0.027206472727130841 -0.012738564436033686 0 -0.025343046306061882 -0.013907576084838027 0 -0.025446680085670421 -0.01359684874136409 0 -0.025077980663975541 -0.013323597302792639 0 -0.019583689512458508 -0.0051168464529967048 0 -0.027395793125994407 -0.01287619998818298 0 -0.027395793125994407 -0.01287619998818298 0 -0.024679602350865568 -0.012761827961521116 0 -0.026387971315132444 -0.011208825868339239 0 -0.027206472727130841 -0.012738564436033686 0 -0.024978076064871218 -0.012740285324650784 0 -0.025077980663975541 -0.013323597302792639 0 -0.024783019218194084 -0.01351838515583452 0 -0.024978076064871218 -0.012740285324650784 0 -0.024783019218194084 -0.01351838515583452 0 -0.024978076064871218 -0.012740285324650784 0 -0.024144152904831441 -0.013498172489869094 0 -0.024978076064871218 -0.012740285324650784 0 -0.023933769698018716 -0.012085267598833072 0 -0.024144152904831441 -0.013498172489869094 0 -0.023063164235020962 -0.013539394766458115 0 -0.023933769698018716 -0.012085267598833072 0 -0.024144152904831441 -0.013498172489869094 0 -0.024144152904831441 -0.013498172489869094 0 -0.023389968030579498 -0.014399658472462763 0 -0.024235922891908197 -0.014259423898120092 0 -0.023063164235020962 -0.013539394766458115 0 -0.024144152904831441 -0.013498172489869094 0 -0.023389968030579498 -0.014399658472462763 0 -0.023561183353263911 -0.015081507929704896 0 -0.023389968030579498 -0.014399658472462763 0 -0.024235922891908197 -0.014259423898120092 0 -0.024328623493503065 -0.014968286262398206 0 -0.02488587404943703 -0.01396874973634064 0 -0.024235922891908197 -0.014259423898120092 0 -0.02488587404943703 -0.01396874973634064 0 -0.024783019218194084 -0.01351838515583452 0 -0.024235922891908197 -0.014259423898120092 0 -0.024783019218194084 -0.01351838515583452 0 -0.024144152904831441 -0.013498172489869094 0 -0.024235922891908197 -0.014259423898120092 0 -0.0075518173447296326 0.0042437773187813848 0 -0.0067782195204951394 0.0035960511954697015 0 -0.0085242697845463976 0.0028013343219607106 0 -0.0075518173447296326 0.0042437773187813848 0 -0.0085242697845463976 0.0028013343219607106 0 -0.0083445078172514012 0.0055975067349088711 0 -0.0040927616527698177 0.0044667723859441802 0 -0.0049456160395442116 0.0061898546861971502 0 -0.0024808184209523902 0.00392330359415855 0 -0.0037152086393128043 0.008420924783805293 0 -0.00060803344830628371 0.006769951408612143 0 -0.0067782195204951394 0.0035960511954697015 0 -0.0064904034600431378 0.0031072373928233881 0 -0.0068517790435784331 0.0050392151126605143 0 -0.0075518173447296326 0.0042437773187813848 0 -0.0067782195204951394 0.0035960511954697015 0 -0.0068517790435784331 0.0050392151126605143 0 -0.0067782195204951394 0.0035960511954697015 0 -0.0064904034600431378 0.0031072373928233881 0 -0.0072331142194567884 0.0031301887857891715 0 -0.0022324344095310043 0.0043150114352536514 0 -0.0015553563920909744 0.0042936250522300698 0 -0.0024702835018708719 0.0031848990760374521 0 -0.0064904034600431378 0.0031072373928233881 0 -0.0072331142194567884 0.0031301887857891715 0 -0.0077256478043123593 0.002672494976986543 0 -0.0072331142194567884 0.0031301887857891715 0 -0.0077256478043123593 0.002672494976986543 0 -0.0086318444142530291 0.0036766494337123435 0 -0.0067782195204951394 0.0035960511954697015 0 -0.0072331142194567884 0.0031301887857891715 0 -0.0086318444142530291 0.0036766494337123435 0 -0.0068500243897294984 0.0035481308352174018 0 -0.0089053243501881953 0.003178705584783505 0 -0.0093085273770558349 0.0023977837768282832 0 -0.0077256478043123593 0.002672494976986543 0 -0.0086318444142530291 0.0036766494337123435 0 -0.0089053243501881953 0.003178705584783505 0 -0.009488365333903943 0.0034847753410920872 0 -0.0093085273770558349 0.0023977837768282832 0 -0.0086318444142530291 0.0036766494337123435 0 -0.010387320964048602 0.0035705946590292759 0 -0.014284540921458876 0.0017245529805961623 0 -0.011312324019609136 0.0021413676167964905 0 -0.012258937172908508 0.0034090529535287153 0 -0.012866590175123071 0.0054507596533627896 0 -0.012258937172908508 0.0034090529535287153 0 -0.010577581034162162 0.0043382300869119275 0 -0.011312324019609136 0.0021413676167964905 0 -0.012258937172908508 0.0034090529535287153 0 -0.010577581034162162 0.0043382300869119275 0 -0.0085242697845463976 0.0028013343219607106 0 -0.011312324019609136 0.0021413676167964905 0 -0.010577581034162162 0.0043382300869119275 0 -0.0085242697845463976 0.0028013343219607106 0 -0.010577581034162162 0.0043382300869119275 0 -0.0083445078172514012 0.0055975067349088711 0 -0.010577581034162162 0.0043382300869119275 0 -0.010393971312470629 0.0066828460913588884 0 -0.0083445078172514012 0.0055975067349088711 0 -0.012866590175123071 0.0054507596533627896 0 -0.010577581034162162 0.0043382300869119275 0 -0.010393971312470629 0.0066828460913588884 0 -0.019091666307888788 -0.0033887365888337325 0 -0.016502895411038849 -0.0063393630833877453 0 -0.019099792754606253 -0.016639504973024133 0 -0.017211538418030355 -0.013241687424480616 0 -0.021174221645208106 -0.015719023422021132 0 -0.023962338763223515 -0.015320787035087425 0 -0.016502895411038849 -0.0063393630833877453 0 -0.025563003759555208 -0.013059581767158632 0 -0.025095098914585948 -0.014054373579569084 0 -0.023996768882714199 -0.012036892809749615 0 -0.012866590175123071 0.0054507596533627896 0 -0.010393971312470629 0.0066828460913588884 0 -0.011495988759042973 0.0095209413207639412 0 -0.010393971312470629 0.0066828460913588884 0 -0.0085730376979310137 0.0087610743679487624 0 -0.011495988759042973 0.0095209413207639412 0 -0.010393971312470629 0.0066828460913588884 0 -0.0085730376979310137 0.0087610743679487624 0 -0.0083445078172514012 0.0055975067349088711 0 -0.0085730376979310137 0.0087610743679487624 0 -0.0056662036107327195 0.0080105749294392264 0 -0.005487716159995641 0.010810989455473211 0 -0.0085730376979310137 0.0087610743679487624 0 -0.0056662036107327195 0.0080105749294392264 0 -0.0083445078172514012 0.0055975067349088711 0 -0.0056662036107327195 0.0080105749294392264 0 -0.0083445078172514012 0.0055975067349088711 0 -0.0048806929432137968 0.0049832477142110372 0 -0.0075518173447296326 0.0042437773187813848 0 -0.0083445078172514012 0.0055975067349088711 0 -0.0068517790435784331 0.0050392151126605143 0 -0.008414822170695108 0.0054678510002252366 0 -0.0049456160395442116 0.0061898546861971502 0 -0.0056662036107327195 0.0080105749294392264 0 -0.0047644477427200909 0.0054299845967837098 0 -0.0025947873111152047 0.0076582823342444747 0 -0.0054837284143235158 0.0074174033181839787 0 -0.0049456160395442116 0.0061898546861971502 0 -0.0049456160395442116 0.0061898546861971502 0 -0.0005044008475737459 0.0065031027122260986 0 -0.0047644477427200909 0.0054299845967837098 0 -0.002327312239467381 0.006268065825237883 0 -0.0025947873111152047 0.0076582823342444747 0 -0.0056662036107327195 0.0080105749294392264 0 -0.003960409714975942 0.0094412704600692187 0 -0.005487716159995641 0.010810989455473211 0 -0.0056662036107327195 0.0080105749294392264 0 -0.003960409714975942 0.0094412704600692187 0 -0.0025947873111152047 0.0076582823342444747 0 -0.003960409714975942 0.0094412704600692187 0 -0.005487716159995641 0.010810989455473211 0 -0.0021409698123575531 0.011253096173276061 0 -0.005487716159995641 0.010810989455473211 0 -0.0050751647778874811 0.013556460922093156 0 -0.0021409698123575531 0.011253096173276061 0 -0.0085730376979310137 0.0087610743679487624 0 -0.005487716159995641 0.010810989455473211 0 -0.0083523618187985836 0.011645450660562993 0 -0.0069515202489059888 -0.0033875029080647893 0 -0.008929920370836673 0.002672072973829067 0 -0.005487716159995641 0.010810989455473211 0 -0.0050751647778874811 0.013556460922093156 0 -0.0083523618187985836 0.011645450660562993 0 -0.011911565088960583 -0.0097398475395830564 0 -0.012254975709327988 -0.0096802853511527686 0 -0.012030255059009225 -0.0099658209611657844 0 -0.011911565088960583 -0.0097398475395830564 0 -0.012254975709327988 -0.0096802853511527686 0 -0.011869358589305407 -0.0094006322251847033 0 -0.0070048887356107961 -0.015220028438952449 0 -0.0065046614962682358 -0.014639407936459401 0 -0.0086087866300215386 -0.013897884833169002 0 -0.0069515202489059888 -0.0033875029080647893 0 -0.0099248690436506606 -0.017246591100554959 0 -0.0069515202489059888 -0.0033875029080647893 0 -0.0020324952537449101 0.0055839170202213505 0 -0.0070048887356107961 -0.015220028438952449 0 -0.0065046614962682358 -0.014639407936459401 0 -0.0058218879194428469 -0.0145168287948453 0 -0.0069515202489059888 -0.0033875029080647893 0 -0.001814300402913519 -0.01484741184818502 0 -0.0035863158149723766 -0.0010125397261917149 0 -0.0026263460919611617 -0.00047029184182817478 0 -0.0016243308550095209 -0.0025677563912986012 0 -0.0060218953193218175 -0.018481963844005182 0 -0.0061956103754902264 -0.019114138837485761 0 -0.0065046614962682358 -0.014639407936459401 0 -0.0058218879194428469 -0.0145168287948453 0 -0.006391454136445659 -0.014385361153586141 0 -0.020141373070043472 -0.018497367079677966 0 -0.021174221645208106 -0.015719023422021132 0 -0.022632092055823075 -0.019529848697220024 0 -0.016502895411038849 -0.0063393630833877453 0 -0.017278974307448767 -0.014925218523069718 0 -0.019099792754606253 -0.016639504973024133 0 -0.020141373070043472 -0.018497367079677966 0 -0.021174221645208106 -0.015719023422021132 0 -0.011504512078620563 -0.009095130553162023 0 -0.011869358589305407 -0.0094006322251847033 0 -0.011613035368060496 -0.0095804056687983953 0 -0.016502895411038849 -0.0063393630833877453 0 -0.008929920370836673 0.002672072973829067 0 -0.0085730376979310137 0.0087610743679487624 0 -0.011495988759042973 0.0095209413207639412 0 -0.0083523618187985836 0.011645450660562993 0 -0.011911565088960583 -0.0097398475395830564 0 -0.011613035368060496 -0.0095804056687983953 0 -0.0117643367865439 -0.010082860996289121 0 -0.022632092055823075 -0.019529848697220024 0 -0.020103065847898331 -0.021360545110004056 0 -0.024066798029817135 -0.02332770856726183 0 -0.017278974307448767 -0.014925218523069718 0 -0.016750617599258975 -0.020863923705216381 0 -0.011911565088960583 -0.0097398475395830564 0 -0.011869358589305407 -0.0094006322251847033 0 -0.011613035368060496 -0.0095804056687983953 0 -0.020141373070043472 -0.018497367079677966 0 -0.022632092055823075 -0.019529848697220024 0 -0.020103065847898331 -0.021360545110004056 0 -0.017881595289621008 -0.019117072337034365 0 -0.020141373070043472 -0.018497367079677966 0 -0.020103065847898331 -0.021360545110004056 0 -0.020103065847898331 -0.021360545110004056 0 -0.019540949391824075 -0.024484884207923902 0 -0.024066798029817135 -0.02332770856726183 0 -0.022243614985438351 -0.024628644073139364 0 -0.016750617599258975 -0.020863923705216381 0 -0.018757309512767124 -0.025075290781760615 0 -0.020103065847898331 -0.021360545110004056 0 -0.019540949391824075 -0.024484884207923902 0 -0.019540949391824075 -0.024484884207923902 0 -0.022735166380448504 -0.023905024348998889 0 -0.021666468684521874 -0.025640651700258529 0 -0.0093543208316670626 -0.023764623151278776 0 -0.0099793830448017019 -0.023740823408679255 0 -0.0098900801740500078 -0.025290292513090031 0 -0.016750617599258975 -0.020863923705216381 0 -0.0099248690436506606 -0.017246591100554959 0 -0.021666468684521874 -0.025640651700258529 0 -0.023851645580336808 -0.027103613553061869 0 -0.021492067638334438 -0.027337139435805104 0 -0.016750617599258975 -0.020863923705216381 0 -0.017064600640880067 -0.026212624995938034 0 -0.022735166380448504 -0.023905024348998889 0 -0.021666468684521874 -0.025640651700258529 0 -0.023851645580336808 -0.027103613553061869 0 -0.018757309512767124 -0.025075290781760615 0 -0.020253116391765701 -0.026351642336878239 0 -0.019796032383089381 -0.029189073196543208 0 -0.019540949391824075 -0.024484884207923902 0 -0.021666468684521874 -0.025640651700258529 0 -0.020253116391765701 -0.026351642336878239 0 -0.021666468684521874 -0.025640651700258529 0 -0.020253116391765701 -0.026351642336878239 0 -0.021492067638334438 -0.027337139435805104 0 -0.018757309512767124 -0.025075290781760615 0 -0.019540949391824075 -0.024484884207923902 0 -0.020253116391765701 -0.026351642336878239 0 -0.0065046614962682358 -0.014639407936459401 0 -0.0063946521562092216 -0.014384457342898586 0 -0.0086087866300215386 -0.013897884833169002 0 -0.010808462640837107 -0.023981431510361934 0 -0.011190816099116326 -0.023319616480975181 0 -0.011747787809115425 -0.02467940155121948 0 0.0019734922690730957 -0.021372093832040067 0 0.0017073681594434059 -0.021452488711386677 0 0.001745705233661688 -0.02207400037840827 0 -0.0061956103754902264 -0.019114138837485761 0 -0.0048252672744251938 -0.022663133752571014 0 0.001848412338525513 -0.021344272401901006 0 0.0019734922690730957 -0.021372093832040067 0 0.0017073681594434059 -0.021452488711386677 0 -0.001814300402913519 -0.01484741184818502 0 -0.00096904223070333495 -0.016794577625551962 0 -0.001814300402913519 -0.01484741184818502 0 -0.0061956103754902264 -0.019114138837485761 0 -0.0061956103754902264 -0.019114138837485761 0 -0.0099248690436506606 -0.017246591100554959 0 -0.010808462640837107 -0.023981431510361934 0 -0.011190816099116326 -0.023319616480975181 0 -0.01015592679123307 -0.023579300681229976 0 -0.011911565088960583 -0.0097398475395830564 0 -0.0117643367865439 -0.010082860996289121 0 -0.012030255059009225 -0.0099658209611657844 0 -0.0093543208316670626 -0.023764623151278776 0 -0.010170991721455996 -0.023566110765184254 0 -0.0099793830448017019 -0.023740823408679255 0 -0.0099248690436506606 -0.017246591100554959 0 -0.0090215244344460013 -0.018925802577479327 0 -0.01015592679123307 -0.023579300681229976 0 -0.0099793830448017019 -0.023740823408679255 0 -0.010312114449808773 -0.024247587215956719 0 -0.010808462640837107 -0.023981431510361934 0 -0.010312114449808773 -0.024247587215956719 0 -0.010719007235159358 -0.024663825515048119 0 -0.010808462640837107 -0.023981431510361934 0 -0.01015592679123307 -0.023579300681229976 0 -0.010312114449808773 -0.024247587215956719 0 -0.010312114449808773 -0.024247587215956719 0 -0.010719007235159358 -0.024663825515048119 0 -0.0098900801740500078 -0.025290292513090031 0 -0.0099793830448017019 -0.023740823408679255 0 -0.010312114449808773 -0.024247587215956719 0 -0.0098900801740500078 -0.025290292513090031 0 -0.010719007235159358 -0.024663825515048119 0 -0.0098900801740500078 -0.025290292513090031 0 -0.010848581389671447 -0.025534571089353881 0 -0.010808462640837107 -0.023981431510361934 0 -0.010719007235159358 -0.024663825515048119 0 -0.011747787809115425 -0.02467940155121948 0 -0.010719007235159358 -0.024663825515048119 0 -0.010848581389671447 -0.025534571089353881 0 -0.011747787809115425 -0.02467940155121948 0 -0.011558783144949739 -0.025671813823269302 0 -0.010848581389671447 -0.025534571089353881 0 -0.011747787809115425 -0.02467940155121948 0 -0.010848581389671447 -0.025534571089353881 0 -0.011373099477311143 -0.026407869883176435 0 -0.010459733296376591 -0.02680082610617493 0 -0.011558783144949739 -0.025671813823269302 0 -0.010848581389671447 -0.025534571089353881 0 -0.011373099477311143 -0.026407869883176435 0 -0.011558783144949739 -0.025671813823269302 0 -0.011373099477311143 -0.026407869883176435 0 -0.012265213193706133 -0.026050729631739974 0 -0.0098900801740500078 -0.025290292513090031 0 -0.010848581389671447 -0.025534571089353881 0 -0.010459733296376591 -0.02680082610617493 0 -0.017064600640880067 -0.026212624995938034 0 -0.015004296088463924 -0.031709048235447124 0 -0.023851645580336808 -0.027103613553061869 0 -0.024842375220203619 -0.030182161266015566 0 -0.022370829968785883 -0.029047595853298556 0 -0.015004296088463924 -0.031709048235447124 0 -0.013212413233408897 -0.036495379213742407 0 -0.013930454796049947 -0.036118685384871188 0 -0.014318518918792199 -0.035157355279761285 0 -0.015437681228150889 -0.035614399156185889 0 -0.01261617382540293 -0.036303221721728757 0 -0.012633798382468234 -0.036339503823071835 0 -0.012652763406427851 -0.036375715195983427 0 -0.012701676019075811 -0.031031051973410453 0 -0.015004296088463924 -0.031709048235447124 0 -0.012619046154430928 -0.036303026665670486 0 -0.01261617382540293 -0.036303221721728757 0 -0.012633798382468234 -0.036339503823071835 0 -0.012619046154430928 -0.036303026665670486 0 -0.012633798382468234 -0.036339503823071835 0 -0.01263967966201464 -0.036362863871905723 0 -0.012652763406427851 -0.036375715195983427 0 -0.01263967966201464 -0.036362863871905723 0 -0.012694066614149395 -0.036406478788032361 0 -0.012633798382468234 -0.036339503823071835 0 -0.012652763406427851 -0.036375715195983427 0 -0.01263967966201464 -0.036362863871905723 0 -0.013930454796049947 -0.036118685384871188 0 -0.013570913592457391 -0.035193078449963257 0 -0.014318518918792199 -0.035157355279761285 0 -0.013570913592457391 -0.035193078449963257 0 -0.014318518918792199 -0.035157355279761285 0 -0.013678205239716018 -0.034887469549204096 0 -0.013212413233408897 -0.036495379213742407 0 -0.012982573956760743 -0.035634918419110671 0 -0.013678205239716018 -0.034887469549204096 0 -0.01330914512896746 -0.035169323144482664 0 -0.012921285026934935 -0.035544035325011623 0 -0.012652763406427851 -0.036375715195983427 0 -0.012771725192393616 -0.036395628962250279 0 -0.012694066614149395 -0.036406478788032361 0 -0.013570913592457391 -0.035193078449963257 0 -0.013678205239716018 -0.034887469549204096 0 -0.01330914512896746 -0.035169323144482664 0 -0.016692847139701279 -0.033756780128014058 0 -0.015627980783200608 -0.034247768111916273 0 -0.018238009684313158 -0.032804387782023145 0 -0.016692847139701279 -0.033756780128014058 0 -0.015627980783200608 -0.034247768111916273 0 -0.015265964091989553 -0.034377087331989319 0 -0.014318518918792199 -0.035157355279761285 0 -0.013678205239716018 -0.034887469549204096 0 -0.015627980783200608 -0.034247768111916273 0 -0.013678205239716018 -0.034887469549204096 0 -0.015627980783200608 -0.034247768111916273 0 -0.015265964091989553 -0.034377087331989319 0 -0.014318518918792199 -0.035157355279761285 0 -0.015627980783200608 -0.034247768111916273 0 -0.015437681228150889 -0.035614399156185889 0 -0.019491563194654133 -0.033355538278666344 0 -0.01790840756424817 -0.033090992436465169 0 -0.015627980783200608 -0.034247768111916273 0 -0.015437681228150889 -0.035614399156185889 0 -0.018238009684313158 -0.032804387782023145 0 -0.022015017995316286 -0.031363168301290781 0 -0.019796032383089381 -0.029189073196543208 0 -0.018238009684313158 -0.032804387782023145 0 -0.022015017995316286 -0.031363168301290781 0 -0.022370829968785883 -0.029047595853298556 0 -0.019796032383089381 -0.029189073196543208 0 -0.015004296088463924 -0.031709048235447124 0 -0.019491563194654133 -0.033355538278666344 0 -0.024842375220203619 -0.030182161266015566 0 -0.022015017995316286 -0.031363168301290781 0 -0.022370829968785883 -0.029047595853298556 0 -0.023851645580336808 -0.027103613553061869 0 -0.022370829968785883 -0.029047595853298556 0 -0.021492067638334438 -0.027337139435805104 0 -0.022370829968785883 -0.029047595853298556 0 -0.021492067638334438 -0.027337139435805104 0 -0.019796032383089381 -0.029189073196543208 0 -0.020253116391765701 -0.026351642336878239 0 -0.021492067638334438 -0.027337139435805104 0 -0.019796032383089381 -0.029189073196543208 0 -0.019796032383089381 -0.029189073196543208 0 -0.018299659169611023 -0.02834225046266663 0 -0.018602518257505044 -0.029857350088008518 0 -0.021469730546572936 -0.025404886310247749 0 -0.019796032383089381 -0.029189073196543208 0 -0.018299659169611023 -0.02834225046266663 0 -0.024038353691221363 -0.022576360583015345 0 -0.020684259154853061 -0.026224951966968234 0 -0.021724978472840804 -0.023775152612847732 0 -0.022902715658657341 -0.022132831872280125 0 -0.024038353691221363 -0.022576360583015345 0 -0.021724978472840804 -0.023775152612847732 0 -0.024038353691221363 -0.022576360583015345 0 -0.020684259154853061 -0.026224951966968234 0 -0.018777912447405357 -0.029514219612708923 0 -0.018299659169611023 -0.02834225046266663 0 -0.018602518257505044 -0.029857350088008518 0 -0.018777912447405357 -0.029514219612708923 0 -0.021045961382929371 -0.025407976460871458 0 -0.019136302487382517 -0.029112105987500025 0 -0.019796032383089381 -0.029189073196543208 0 -0.018602518257505044 -0.029857350088008518 0 -0.018238009684313158 -0.032804387782023145 0 -0.018602518257505044 -0.029857350088008518 0 -0.018238009684313158 -0.032804387782023145 0 -0.018777912447405357 -0.029514219612708923 0 -0.021439930963828874 -0.023217419148622458 0 -0.021541066436756327 -0.022206507919156966 0 -0.02169484074052621 -0.022924898177138726 0 -0.021439930963828874 -0.023217419148622458 0 -0.02169484074052621 -0.022924898177138726 0 -0.021584571423041984 -0.023995319947797772 0 -0.02169484074052621 -0.022924898177138726 0 -0.021724978472840804 -0.023775152612847732 0 -0.021584571423041984 -0.023995319947797772 0 -0.022357144737828717 -0.021683242017133689 0 -0.02169484074052621 -0.022924898177138726 0 -0.021724978472840804 -0.023775152612847732 0 -0.020684259154853061 -0.026224951966968234 0 -0.021724978472840804 -0.023775152612847732 0 -0.02149575606334872 -0.024876410993377066 0 -0.020684259154853061 -0.026224951966968234 0 -0.02149575606334872 -0.024876410993377066 0 -0.021468208072156127 -0.024732946245919658 0 -0.02149575606334872 -0.024876410993377066 0 -0.021600305716941631 -0.024416182420444171 0 -0.021468208072156127 -0.024732946245919658 0 -0.021724978472840804 -0.023775152612847732 0 -0.02149575606334872 -0.024876410993377066 0 -0.021584571423041984 -0.023995319947797772 0 -0.02149575606334872 -0.024876410993377066 0 -0.021600305716941631 -0.024416182420444171 0 -0.021584571423041984 -0.023995319947797772 0 -0.021600305716941631 -0.024416182420444171 0 -0.021584571423041984 -0.023995319947797772 0 -0.021522634567181499 -0.02399173468646694 0 -0.021522634567181499 -0.02399173468646694 0 -0.021530677184252299 -0.024182509234920841 0 -0.021257465771061777 -0.023858637184428853 0 -0.021439930963828874 -0.023217419148622458 0 -0.021584571423041984 -0.023995319947797772 0 -0.021522634567181499 -0.02399173468646694 0 -0.021600305716941631 -0.024416182420444171 0 -0.021522634567181499 -0.02399173468646694 0 -0.021530677184252299 -0.024182509234920841 0 -0.021600305716941631 -0.024416182420444171 0 -0.021530677184252299 -0.024182509234920841 0 -0.021539033998843025 -0.024280222669713039 0 -0.021530677184252299 -0.024182509234920841 0 -0.021539033998843025 -0.024280222669713039 0 -0.021554866346858322 -0.02422927293447423 0 -0.021600305716941631 -0.024416182420444171 0 -0.021539033998843025 -0.024280222669713039 0 -0.021468208072156127 -0.024732946245919658 0 -0.021539033998843025 -0.024280222669713039 0 -0.021468208072156127 -0.024732946245919658 0 -0.021215844924365155 -0.024091789286142199 0 -0.021435081078699306 -0.024175672490690817 0 -0.021215844924365155 -0.024091789286142199 0 -0.021381386923496382 -0.024242718003728739 0 -0.018789292054520405 -0.027753308101818145 0 -0.019520469885745888 -0.032700940046448849 0 -0.021539033998843025 -0.024280222669713039 0 -0.021435081078699306 -0.024175672490690817 0 -0.021215844924365155 -0.024091789286142199 0 -0.021539033998843025 -0.024280222669713039 0 -0.021435081078699306 -0.024175672490690817 0 -0.021554866346858322 -0.02422927293447423 0 -0.021435081078699306 -0.024175672490690817 0 -0.021554866346858322 -0.02422927293447423 0 -0.021524938658942373 -0.02418483026514039 0 -0.021554866346858322 -0.02422927293447423 0 -0.021585519932952074 -0.02421770333574249 0 -0.021524938658942373 -0.02418483026514039 0 -0.018238009684313158 -0.032804387782023145 0 -0.018777912447405357 -0.029514219612708923 0 -0.017957899835741236 -0.032004078101674473 0 -0.018238009684313158 -0.032804387782023145 0 -0.017957899835741236 -0.032004078101674473 0 -0.017412917282968534 -0.033107285828808813 0 -0.020684259154853061 -0.026224951966968234 0 -0.021468208072156127 -0.024732946245919658 0 -0.021215844924365155 -0.024091789286142199 0 -0.020684259154853061 -0.026224951966968234 0 -0.018777912447405357 -0.029514219612708923 0 -0.016119179581044536 -0.033097402874804775 0 -0.017957899835741236 -0.032004078101674473 0 -0.016119179581044536 -0.033097402874804775 0 -0.017412917282968534 -0.033107285828808813 0 -0.020326565736501552 -0.02688445810231789 0 -0.018789292054520405 -0.027753308101818145 0 -0.018777912447405357 -0.029514219612708923 0 -0.017957899835741236 -0.032004078101674473 0 -0.016119179581044536 -0.033097402874804775 0 -0.016119179581044536 -0.033097402874804775 0 -0.017412917282968534 -0.033107285828808813 0 -0.016563699004978314 -0.033823117142887327 0 -0.016692847139701279 -0.033756780128014058 0 -0.017412917282968534 -0.033107285828808813 0 -0.016563699004978314 -0.033823117142887327 0 -0.016692847139701279 -0.033756780128014058 0 -0.018238009684313158 -0.032804387782023145 0 -0.017412917282968534 -0.033107285828808813 0 -0.016692847139701279 -0.033756780128014058 0 -0.016563699004978314 -0.033823117142887327 0 -0.016115974831375515 -0.033954918746799463 0 -0.016563699004978314 -0.033823117142887327 0 -0.016244718756667866 -0.033899643815355859 0 -0.016115974831375515 -0.033954918746799463 0 -0.016119179581044536 -0.033097402874804775 0 -0.016563699004978314 -0.033823117142887327 0 -0.016070210238096461 -0.033777776489273006 0 -0.016563699004978314 -0.033823117142887327 0 -0.016244718756667866 -0.033899643815355859 0 -0.015967748292118476 -0.03378364855927829 0 -0.015115523848267911 -0.034165108538767149 0 -0.019520469885745888 -0.032700940046448849 0 -0.015967748292118476 -0.03378364855927829 0 -0.015689643026055314 -0.034041776295079165 0 -0.016026795075201061 -0.033995958441494806 0 -0.016244718756667866 -0.033899643815355859 0 -0.015967748292118476 -0.03378364855927829 0 -0.016026795075201061 -0.033995958441494806 0 -0.015975147403722679 -0.03387121069352006 0 -0.016244718756667866 -0.033899643815355859 0 -0.016026795075201061 -0.033995958441494806 0 -0.015975147403722679 -0.03387121069352006 0 -0.016244718756667866 -0.033899643815355859 0 -0.016115974831375515 -0.033954918746799463 0 -0.021524938658942373 -0.02418483026514039 0 -0.021381386923496382 -0.024242718003728739 0 -0.021683562138392048 -0.024003873595319452 0 -0.021524938658942373 -0.02418483026514039 0 -0.021762013582342445 -0.024120194603466632 0 -0.021683562138392048 -0.024003873595319452 0 -0.021585519932952074 -0.02421770333574249 0 -0.021524938658942373 -0.02418483026514039 0 -0.021762013582342445 -0.024120194603466632 0 -0.021435081078699306 -0.024175672490690817 0 -0.021524938658942373 -0.02418483026514039 0 -0.021381386923496382 -0.024242718003728739 0 -0.021050785549213656 -0.039351169127197314 0 -0.020995763678424779 -0.039642430071969992 0 -0.020841247592229554 -0.039506325131257784 0 -0.019520469885745888 -0.032700940046448849 0 -0.018071154350498726 -0.037883709013521623 0 -0.019520469885745888 -0.032700940046448849 0 -0.021683321430929596 -0.0315919232423316 0 -0.020995763678424779 -0.039642430071969992 0 -0.020826149383019979 -0.039678298039077908 0 -0.020808140084148764 -0.039829173331656031 0 -0.020995763678424779 -0.039642430071969992 0 -0.020841247592229554 -0.039506325131257784 0 -0.020826149383019979 -0.039678298039077908 0 -0.015689643026055314 -0.034041776295079165 0 -0.015715738354603263 -0.034370257254301484 0 -0.015325545910045341 -0.034724811917600115 0 -0.018071154350498726 -0.037883709013521623 0 -0.01865415476586188 -0.036433906305224723 0 -0.015715738354603263 -0.034370257254301484 0 -0.015658296252779917 -0.034582990135837252 0 -0.015325545910045341 -0.034724811917600115 0 -0.020995763678424779 -0.039642430071969992 0 -0.020808140084148764 -0.039829173331656031 0 -0.020911176885934864 -0.039856479688058277 0 -0.015935782212782409 -0.034040685376625669 0 -0.016026795075201061 -0.033995958441494806 0 -0.015977660105311136 -0.034121439580365877 0 -0.015935782212782409 -0.034040685376625669 0 -0.015887986242104885 -0.03393579210961524 0 -0.016026795075201061 -0.033995958441494806 0 -0.015935782212782409 -0.034040685376625669 0 -0.015887986242104885 -0.03393579210961524 0 -0.015679321431854704 -0.033901672964014369 0 -0.015975147403722679 -0.03387121069352006 0 -0.015887986242104885 -0.03393579210961524 0 -0.015766578775322389 -0.033842855998844616 0 -0.015975147403722679 -0.03387121069352006 0 -0.015887986242104885 -0.03393579210961524 0 -0.016026795075201061 -0.033995958441494806 0 -0.015689643026055314 -0.034041776295079165 0 -0.016026795075201061 -0.033995958441494806 0 -0.015887015484165164 -0.034149616283137924 0 -0.016026795075201061 -0.033995958441494806 0 -0.015977660105311136 -0.034121439580365877 0 -0.015887015484165164 -0.034149616283137924 0 -0.015977660105311136 -0.034121439580365877 0 -0.015935965795251413 -0.034247398157308644 0 -0.015887015484165164 -0.034149616283137924 0 -0.015977660105311136 -0.034121439580365877 0 -0.015935965795251413 -0.034247398157308644 0 -0.01608068987261815 -0.03424374854902569 0 -0.015689643026055314 -0.034041776295079165 0 -0.015887015484165164 -0.034149616283137924 0 -0.015715738354603263 -0.034370257254301484 0 -0.015935965795251413 -0.034247398157308644 0 -0.015887015484165164 -0.034149616283137924 0 -0.015715738354603263 -0.034370257254301484 0 -0.015935965795251413 -0.034247398157308644 0 -0.015715738354603263 -0.034370257254301484 0 -0.015782703856731028 -0.034420979071195339 0 -0.015782703856731028 -0.034420979071195339 0 -0.015811719696258407 -0.03448719482189834 0 -0.015658296252779917 -0.034582990135837252 0 -0.015715738354603263 -0.034370257254301484 0 -0.015782703856731028 -0.034420979071195339 0 -0.015658296252779917 -0.034582990135837252 0 -0.015935965795251413 -0.034247398157308644 0 -0.015811719696258407 -0.03448719482189834 0 -0.01608068987261815 -0.03424374854902569 0 -0.015935965795251413 -0.034247398157308644 0 -0.015782703856731028 -0.034420979071195339 0 -0.015811719696258407 -0.03448719482189834 0 -0.015935782212782409 -0.034040685376625669 0 -0.01608068987261815 -0.03424374854902569 0 -0.015679321431854704 -0.033901672964014369 0 -0.014673503957083165 -0.035646392949548578 0 -0.014645389718387714 -0.035502790745211073 0 -0.013143762163126113 -0.03672004382444706 0 -0.010961546056573294 -0.039097774237758336 0 -0.012448467310468602 -0.037149861460058185 0 -0.0078811530802796806 -0.042009275701707892 0 -0.0081713916641849189 -0.041730095284745208 0 -0.0083419463857894952 -0.0408749627287169 0 -0.015773597098740603 -0.034576960256485274 0 -0.012448467310468602 -0.037149861460058185 0 -0.0078811530802796806 -0.042009275701707892 0 -0.0079799842961198689 -0.042024138946551888 0 -0.0080691639071312753 -0.041945412500695861 0 -0.0079799842961198689 -0.042024138946551888 0 -0.0080691639071312753 -0.041945412500695861 0 -0.0080668933146521189 -0.042060253524617459 0 -0.0078811530802796806 -0.042009275701707892 0 -0.0079799842961198689 -0.042024138946551888 0 -0.0079667308077352311 -0.042082739657181241 0 -0.015935782212782409 -0.034040685376625669 0 -0.015977660105311136 -0.034121439580365877 0 -0.01608068987261815 -0.03424374854902569 0 -0.0078811530802796806 -0.042009275701707892 0 -0.0081713916641849189 -0.041730095284745208 0 -0.0080691639071312753 -0.041945412500695861 0 -0.0080691639071312753 -0.041945412500695861 0 -0.0082235676760509975 -0.042010379871107346 0 -0.0080668933146521189 -0.042060253524617459 0 -0.0081713916641849189 -0.041730095284745208 0 -0.0080691639071312753 -0.041945412500695861 0 -0.0082235676760509975 -0.042010379871107346 0 -0.0081713916641849189 -0.041730095284745208 0 -0.0084220359713545502 -0.041923881590177028 0 -0.0082235676760509975 -0.042010379871107346 0 -0.0081713916641849189 -0.041730095284745208 0 -0.0084220359713545502 -0.041923881590177028 0 -0.0084360054170249422 -0.041501679364618953 0 -0.0084220359713545502 -0.041923881590177028 0 -0.0086457926944288783 -0.041719287540642705 0 -0.0084360054170249422 -0.041501679364618953 0 -0.0086457926944288783 -0.041719287540642705 0 -0.0090271524526986061 -0.041667373421404474 0 -0.0087730085465695402 -0.042161379119087454 0 -0.0084220359713545502 -0.041923881590177028 0 -0.0086457926944288783 -0.041719287540642705 0 -0.0087730085465695402 -0.042161379119087454 0 -0.0086457926944288783 -0.041719287540642705 0 -0.0085912292544387658 -0.041265899595082145 0 -0.0090271524526986061 -0.041667373421404474 0 -0.0086457926944288783 -0.041719287540642705 0 -0.0085912292544387658 -0.041265899595082145 0 -0.0084360054170249422 -0.041501679364618953 0 -0.0085912292544387658 -0.041265899595082145 0 -0.0084360054170249422 -0.041501679364618953 0 -0.0083419463857894952 -0.0408749627287169 0 -0.0081713916641849189 -0.041730095284745208 0 -0.0084360054170249422 -0.041501679364618953 0 -0.0083419463857894952 -0.0408749627287169 0 -0.015887986242104885 -0.03393579210961524 0 -0.015679321431854704 -0.033901672964014369 0 -0.015766578775322389 -0.033842855998844616 0 -0.015577359513712606 -0.033792047972523886 0 -0.015679321431854704 -0.033901672964014369 0 -0.015766578775322389 -0.033842855998844616 0 -0.012060357164789754 -0.037160463407080478 0 -0.012448467310468602 -0.037149861460058185 0 -0.0084115595078544745 -0.04065804302549092 0 -0.0083419463857894952 -0.0408749627287169 0 -0.0086847553721284831 -0.040779958286104936 0 -0.0085912292544387658 -0.041265899595082145 0 -0.0083419463857894952 -0.0408749627287169 0 -0.0086847553721284831 -0.040779958286104936 0 -0.015577359513712606 -0.033792047972523886 0 -0.015680615131650592 -0.033765616066201556 0 -0.014834822502025337 -0.0334057536818183 0 -0.0084115595078544745 -0.04065804302549092 0 -0.0086847553721284831 -0.040779958286104936 0 -0.0084816873905977398 -0.039262496436531499 0 -0.012060357164789754 -0.037160463407080478 0 -0.011777599908875284 -0.036388093014978841 0 -0.015975147403722679 -0.03387121069352006 0 -0.015766578775322389 -0.033842855998844616 0 -0.015680615131650592 -0.033765616066201556 0 -0.015577359513712606 -0.033792047972523886 0 -0.015766578775322389 -0.033842855998844616 0 -0.015680615131650592 -0.033765616066201556 0 -0.0094500551161579432 -0.040719622301834672 0 -0.010595546260553163 -0.039125471849135306 0 -0.0084816873905977398 -0.039262496436531499 0 -0.0086847553721284831 -0.040779958286104936 0 -0.0094500551161579432 -0.040719622301834672 0 -0.0084816873905977398 -0.039262496436531499 0 -0.0086847553721284831 -0.040779958286104936 0 -0.0094500551161579432 -0.040719622301834672 0 -0.0090271524526986061 -0.041667373421404474 0 -0.0090271524526986061 -0.041667373421404474 0 -0.0099760847174969053 -0.041986094839926123 0 -0.0095423325558945168 -0.042507543957627403 0 -0.0094500551161579432 -0.040719622301834672 0 -0.0090271524526986061 -0.041667373421404474 0 -0.0099760847174969053 -0.041986094839926123 0 -0.0085912292544387658 -0.041265899595082145 0 -0.0086847553721284831 -0.040779958286104936 0 -0.0090271524526986061 -0.041667373421404474 0 -0.0090271524526986061 -0.041667373421404474 0 -0.0095423325558945168 -0.042507543957627403 0 -0.0087730085465695402 -0.042161379119087454 0 -0.010922578736789885 -0.04357366497709967 0 -0.00989349105247069 -0.043871951610952566 0 -0.0099760847174969053 -0.041986094839926123 0 -0.010880562714043711 -0.04368168315278273 0 -0.011053254105372402 -0.041500740388927607 0 -0.0099760847174969053 -0.041986094839926123 0 -0.010880562714043711 -0.04368168315278273 0 -0.0095423325558945168 -0.042507543957627403 0 -0.010880562714043711 -0.04368168315278273 0 -0.010724891970110974 -0.044921521540872381 0 -0.010036733707803341 -0.045225339197534187 0 -0.010907075008843385 -0.044701650868796669 0 -0.010724891970110974 -0.044921521540872381 0 -0.010214420123111108 -0.044852688153017829 0 -0.010907075008843385 -0.044701650868796669 0 -0.010880562714043711 -0.04368168315278273 0 -0.011709687373259196 -0.045158187303571656 0 -0.010907075008843385 -0.044701650868796669 0 -0.010214420123111108 -0.044852688153017829 0 -0.011709687373259196 -0.045158187303571656 0 -0.010907075008843385 -0.044701650868796669 0 -0.010880562714043711 -0.04368168315278273 0 -0.010724891970110974 -0.044921521540872381 0 -0.010880562714043711 -0.04368168315278273 0 -0.01208413050644923 -0.041867605124760773 0 -0.011709687373259196 -0.045158187303571656 0 -0.01208413050644923 -0.041867605124760773 0 -0.011053254105372402 -0.041500740388927607 0 -0.012397859241470917 -0.039359692828553963 0 -0.010880562714043711 -0.04368168315278273 0 -0.01208413050644923 -0.041867605124760773 0 -0.011053254105372402 -0.041500740388927607 0 -0.011053254105372402 -0.041500740388927607 0 -0.012397859241470917 -0.039359692828553963 0 -0.011880243885867574 -0.038626806345360129 0 -0.01208413050644923 -0.041867605124760773 0 -0.012397859241470917 -0.039359692828553963 0 -0.013493745887438494 -0.039551998990485455 0 -0.0094500551161579432 -0.040719622301834672 0 -0.0099760847174969053 -0.041986094839926123 0 -0.010510973283659785 -0.04061674043169762 0 -0.0099760847174969053 -0.041986094839926123 0 -0.011053254105372402 -0.041500740388927607 0 -0.010510973283659785 -0.04061674043169762 0 -0.010510973283659785 -0.04061674043169762 0 -0.010595546260553163 -0.039125471849135306 0 -0.011880243885867574 -0.038626806345360129 0 -0.011053254105372402 -0.041500740388927607 0 -0.010510973283659785 -0.04061674043169762 0 -0.011880243885867574 -0.038626806345360129 0 -0.0094500551161579432 -0.040719622301834672 0 -0.010510973283659785 -0.04061674043169762 0 -0.010595546260553163 -0.039125471849135306 0 -0.011880243885867574 -0.038626806345360129 0 -0.012723682735783785 -0.037086512429400489 0 -0.012315994282987033 -0.035514357877157482 0 -0.010595546260553163 -0.039125471849135306 0 -0.011880243885867574 -0.038626806345360129 0 -0.012315994282987033 -0.035514357877157482 0 -0.012397859241470917 -0.039359692828553963 0 -0.012723682735783785 -0.037086512429400489 0 -0.01343947024699216 -0.037916761067829048 0 -0.012397859241470917 -0.039359692828553963 0 -0.01343947024699216 -0.037916761067829048 0 -0.013493745887438494 -0.039551998990485455 0 -0.012397859241470917 -0.039359692828553963 0 -0.011880243885867574 -0.038626806345360129 0 -0.012723682735783785 -0.037086512429400489 0 -0.012723682735783785 -0.037086512429400489 0 -0.013169958542682311 -0.036126756607927045 0 -0.01343947024699216 -0.037916761067829048 0 -0.012982573956760743 -0.035634918419110671 0 -0.013074531983884146 -0.036108382568806018 0 -0.01330914512896746 -0.035169323144482664 0 -0.013169958542682311 -0.036126756607927045 0 -0.013063801385053806 -0.036168911552901653 0 -0.01330914512896746 -0.035169323144482664 0 -0.013169958542682311 -0.036126756607927045 0 -0.012921285026934935 -0.035544035325011623 0 -0.012723682735783785 -0.037086512429400489 0 -0.013169958542682311 -0.036126756607927045 0 -0.012921285026934935 -0.035544035325011623 0 -0.012723682735783785 -0.037086512429400489 0 -0.012921285026934935 -0.035544035325011623 0 -0.012315994282987033 -0.035514357877157482 0 -0.013678205239716018 -0.034887469549204096 0 -0.012921285026934935 -0.035544035325011623 0 -0.012315994282987033 -0.035514357877157482 0 -0.012315994282987033 -0.035514357877157482 0 -0.015265964091989553 -0.034377087331989319 0 -0.01516399685829849 -0.034186246415820389 0 -0.013678205239716018 -0.034887469549204096 0 -0.012315994282987033 -0.035514357877157482 0 -0.015265964091989553 -0.034377087331989319 0 -0.016692847139701279 -0.033756780128014058 0 -0.015265964091989553 -0.034377087331989319 0 -0.016115974831375515 -0.033954918746799463 0 -0.015265964091989553 -0.034377087331989319 0 -0.016115974831375515 -0.033954918746799463 0 -0.01516399685829849 -0.034186246415820389 0 -0.016115974831375515 -0.033954918746799463 0 -0.015680615131650592 -0.033765616066201556 0 -0.01516399685829849 -0.034186246415820389 0 -0.015975147403722679 -0.03387121069352006 0 -0.016115974831375515 -0.033954918746799463 0 -0.015680615131650592 -0.033765616066201556 0 -0.015680615131650592 -0.033765616066201556 0 -0.014834822502025337 -0.0334057536818183 0 -0.01516399685829849 -0.034186246415820389 0 -0.010595546260553163 -0.039125471849135306 0 -0.012315994282987033 -0.035514357877157482 0 -0.0084816873905977398 -0.039262496436531499 0 -0.012315994282987033 -0.035514357877157482 0 -0.014834822502025337 -0.0334057536818183 0 -0.01516399685829849 -0.034186246415820389 0 -0.012289768126172438 -0.035583278874207841 0 -0.011777599908875284 -0.036388093014978841 0 -0.024863373051895236 -0.025284332559818764 0 -0.024277846165700515 -0.02507063129512337 0 -0.024438628874545683 -0.025544819652451124 0 -0.025432677844149258 -0.024790510974036811 0 -0.024863373051895236 -0.025284332559818764 0 -0.024839747345977478 -0.024761069869315745 0 -0.024863373051895236 -0.025284332559818764 0 -0.024277846165700515 -0.02507063129512337 0 -0.024839747345977478 -0.024761069869315745 0 -0.024277846165700515 -0.02507063129512337 0 -0.02401026747237936 -0.025816430020734766 0 -0.023736473283421933 -0.025031162357876016 0 -0.024277846165700515 -0.02507063129512337 0 -0.023736473283421933 -0.025031162357876016 0 -0.024012600345431533 -0.024620197399096547 0 -0.024438628874545683 -0.025544819652451124 0 -0.02401026747237936 -0.025816430020734766 0 -0.024674243268554871 -0.025933599100517221 0 -0.024277846165700515 -0.02507063129512337 0 -0.024438628874545683 -0.025544819652451124 0 -0.02401026747237936 -0.025816430020734766 0 -0.024863373051895236 -0.025284332559818764 0 -0.024438628874545683 -0.025544819652451124 0 -0.024674243268554871 -0.025933599100517221 0 -0.025213275163202414 -0.026355346036098962 0 -0.025476671932112907 -0.025551036174513361 0 -0.024674243268554871 -0.025933599100517221 0 -0.025476671932112907 -0.025551036174513361 0 -0.024863373051895236 -0.025284332559818764 0 -0.024674243268554871 -0.025933599100517221 0 -0.026293777886281788 -0.026114424937306084 0 -0.025158299267059998 -0.024440432615350324 0 -0.02726524408632338 -0.025529837167453114 0 -0.027227211832754065 -0.025591029172002931 0 -0.027145681033736314 -0.025551461836317645 0 -0.025213275163202414 -0.026355346036098962 0 -0.024674243268554871 -0.025933599100517221 0 -0.024298947846883183 -0.026644499753846442 0 -0.027170989517106937 -0.025606364192045761 0 -0.027227211832754065 -0.025591029172002931 0 -0.027145681033736314 -0.025551461836317645 0 -0.026013556542422482 -0.023560580633345256 0 -0.025006080158045382 -0.02306179863235867 0 -0.025387955122119474 -0.022291460442007999 0 -0.026681734324265668 -0.024565338870221574 0 -0.025158299267059998 -0.024440432615350324 0 -0.025158299267059998 -0.024440432615350324 0 -0.024119638145550869 -0.02307063540332541 0 -0.025006080158045382 -0.02306179863235867 0 -0.025387955122119474 -0.022291460442007999 0 -0.024445921006817084 -0.022676871635296431 0 -0.023817784623352368 -0.0243624302397016 0 -0.025158299267059998 -0.024440432615350324 0 -0.02401026747237936 -0.025816430020734766 0 -0.024674243268554871 -0.025933599100517221 0 -0.024298947846883183 -0.026644499753846442 0 -0.023779415347114353 -0.022934607287309023 0 -0.023892441567174967 -0.023218281736455008 0 -0.023622059324029249 -0.02306948898623493 0 -0.023892441567174967 -0.023218281736455008 0 -0.023622059324029249 -0.02306948898623493 0 -0.023697149226894219 -0.023282997094959314 0 -0.023622059324029249 -0.02306948898623493 0 -0.023697149226894219 -0.023282997094959314 0 -0.023542629164181969 -0.023223784457021363 0 -0.023697149226894219 -0.023282997094959314 0 -0.023526442864633627 -0.023340016441371961 0 -0.023542629164181969 -0.023223784457021363 0 -0.024445921006817084 -0.022676871635296431 0 -0.024179528035351318 -0.023367412299942401 0 -0.023526442864633627 -0.023340016441371961 0 -0.024119638145550869 -0.02307063540332541 0 -0.023619167245354622 -0.023252865445167189 0 -0.025006080158045382 -0.02306179863235867 0 -0.024445921006817084 -0.022676871635296431 0 -0.024179528035351318 -0.023367412299942401 0 -0.023231307893937698 -0.023497581587526857 0 -0.023542629164181969 -0.023223784457021363 0 -0.023288055657486893 -0.023073610335386425 0 -0.023524857810283243 -0.023561397409081742 0 -0.024179528035351318 -0.023367412299942401 0 -0.023526442864633627 -0.023340016441371961 0 -0.023524857810283243 -0.023561397409081742 0 -0.023231307893937698 -0.023497581587526857 0 -0.023526442864633627 -0.023340016441371961 0 -0.023231307893937698 -0.023497581587526857 0 -0.023526442864633627 -0.023340016441371961 0 -0.023542629164181969 -0.023223784457021363 0 -0.023622059324029249 -0.02306948898623493 0 -0.023542629164181969 -0.023223784457021363 0 -0.023288055657486893 -0.023073610335386425 0 -0.023622059324029249 -0.02306948898623493 0 -0.023288055657486893 -0.023073610335386425 0 -0.023520438385176853 -0.022870645604824907 0 -0.022979547877545536 -0.023581949411831726 0 -0.023184028574777374 -0.023389533701658569 0 -0.022786155943645907 -0.02416122957588537 0 -0.022836547960031432 -0.024148456964378295 0 -0.022715576559115627 -0.024147233987057353 0 -0.022664289640354964 -0.024030141528506826 0 -0.022786155943645907 -0.02416122957588537 0 -0.022715576559115627 -0.024147233987057353 0 -0.023779415347114353 -0.022934607287309023 0 -0.023520438385176853 -0.022870645604824907 0 -0.023674507457093583 -0.022683122711434939 0 -0.023779415347114353 -0.022934607287309023 0 -0.023622059324029249 -0.02306948898623493 0 -0.023520438385176853 -0.022870645604824907 0 -0.023817784623352368 -0.0243624302397016 0 -0.023537435077108208 -0.024252191987085669 0 -0.022786155943645907 -0.02416122957588537 0 -0.02295040721371645 -0.024148918144060852 0 -0.022836547960031432 -0.024148456964378295 0 -0.023184028574777374 -0.023389533701658569 0 -0.023537435077108208 -0.024252191987085669 0 -0.02295040721371645 -0.024148918144060852 0 -0.022836547960031432 -0.024148456964378295 0 -0.022866997730571596 -0.02410074526015538 0 -0.022836547960031432 -0.024148456964378295 0 -0.022707548031139821 -0.024154697172654324 0 -0.022866997730571596 -0.02410074526015538 0 -0.022836547960031432 -0.024148456964378295 0 -0.022707548031139821 -0.024154697172654324 0 -0.022715576559115627 -0.024147233987057353 0 -0.022707548031139821 -0.024154697172654324 0 -0.022516783214398074 -0.024194475813220536 0 -0.022665276711021583 -0.024159027465067366 0 -0.022707548031139821 -0.024154697172654324 0 -0.022516783214398074 -0.024194475813220536 0 -0.022640907136635472 -0.024032466111586475 0 -0.022665276711021583 -0.024159027465067366 0 -0.02272767193267923 -0.024034172564494142 0 -0.022682009288773952 -0.024144819173281096 0 -0.022516783214398074 -0.024194475813220536 0 -0.022665276711021583 -0.024159027465067366 0 -0.022682009288773952 -0.024144819173281096 0 -0.022665276711021583 -0.024159027465067366 0 -0.022715576559115627 -0.024147233987057353 0 -0.02272767193267923 -0.024034172564494142 0 -0.022707548031139821 -0.024154697172654324 0 -0.022665276711021583 -0.024159027465067366 0 -0.022715576559115627 -0.024147233987057353 0 -0.022664289640354964 -0.024030141528506826 0 -0.022793165491986928 -0.023859679784040848 0 -0.02272767193267923 -0.024034172564494142 0 -0.022664289640354964 -0.024030141528506826 0 -0.022715576559115627 -0.024147233987057353 0 -0.02272767193267923 -0.024034172564494142 0 -0.023126218919083712 -0.023735344045742558 0 -0.022898825477962098 -0.023676645800615851 0 -0.022756614571904189 -0.023773700377903766 0 -0.022664289640354964 -0.024030141528506826 0 -0.022793165491986928 -0.023859679784040848 0 -0.022898825477962098 -0.023676645800615851 0 -0.022979547877545536 -0.023581949411831726 0 -0.022908342068174933 -0.023655463453824358 0 -0.022009252234018225 -0.021956842961618494 0 -0.020673129883065283 -0.022169965581434567 0 -0.023231307893937698 -0.023497581587526857 0 -0.023288055657486893 -0.023073610335386425 0 -0.022898825477962098 -0.023676645800615851 0 -0.023126218919083712 -0.023735344045742558 0 -0.023231307893937698 -0.023497581587526857 0 -0.022898825477962098 -0.023676645800615851 0 -0.019058952848260157 -0.019573820423993745 0 -0.020673129883065283 -0.022169965581434567 0 -0.020031291144313897 -0.021072362846790448 0 -0.019748385096086972 -0.021927547276597761 0 -0.02056073135741664 -0.021874289461402241 0 -0.022793165491986928 -0.023859679784040848 0 -0.022898825477962098 -0.023676645800615851 0 -0.022756614571904189 -0.023773700377903766 0 -0.022793165491986928 -0.023859679784040848 0 -0.022756614571904189 -0.023773700377903766 0 -0.02272767193267923 -0.024034172564494142 0 -0.020673129883065283 -0.022169965581434567 0 -0.022079851192091483 -0.024357320227127371 0 -0.022756614571904189 -0.023773700377903766 0 -0.02272767193267923 -0.024034172564494142 0 -0.022682009288773952 -0.024144819173281096 0 -0.02088598282431145 -0.023606371946952382 0 -0.021058997539581688 -0.023912476954101782 0 -0.021098344158030261 -0.023745263749620191 0 -0.021058997539581688 -0.023912476954101782 0 -0.021098344158030261 -0.023745263749620191 0 -0.021257465771061777 -0.023858637184428853 0 -0.020818085231709051 -0.02334625769878021 0 -0.021250607340326674 -0.023772110737230814 0 -0.020979456388744846 -0.021097447487704382 0 -0.02056073135741664 -0.021874289461402241 0 -0.021207986165027663 -0.022150431735460378 0 -0.019748385096086972 -0.021927547276597761 0 -0.0204602466312803 -0.022884326277448009 0 -0.02056073135741664 -0.021874289461402241 0 -0.020673129883065283 -0.022169965581434567 0 -0.020818085231709051 -0.02334625769878021 0 -0.0204602466312803 -0.022884326277448009 0 -0.02056073135741664 -0.021874289461402241 0 -0.021009910966358541 -0.022797912599466591 0 -0.02056073135741664 -0.021874289461402241 0 -0.021207986165027663 -0.022150431735460378 0 -0.021009910966358541 -0.022797912599466591 0 -0.021439930963828874 -0.023217419148622458 0 -0.021541066436756327 -0.022206507919156966 0 -0.021207986165027663 -0.022150431735460378 0 -0.021439930963828874 -0.023217419148622458 0 -0.021207986165027663 -0.022150431735460378 0 -0.021009910966358541 -0.022797912599466591 0 -0.021439930963828874 -0.023217419148622458 0 -0.021522634567181499 -0.02399173468646694 0 -0.021257465771061777 -0.023858637184428853 0 -0.021439930963828874 -0.023217419148622458 0 -0.021009910966358541 -0.022797912599466591 0 -0.021257465771061777 -0.023858637184428853 0 -0.0204602466312803 -0.022884326277448009 0 -0.021009910966358541 -0.022797912599466591 0 -0.021257465771061777 -0.023858637184428853 0 -0.021530677184252299 -0.024182509234920841 0 -0.021257465771061777 -0.023858637184428853 0 -0.021379505009955339 -0.024255430135539966 0 -0.022516783214398074 -0.024194475813220536 0 -0.022682009288773952 -0.024144819173281096 0 -0.022334556358259448 -0.024259096307553737 0 -0.022079851192091483 -0.024357320227127371 0 -0.021797055286034334 -0.024131316751693652 0 -0.021058997539581688 -0.023912476954101782 0 -0.021257465771061777 -0.023858637184428853 0 -0.021379505009955339 -0.024255430135539966 0 -0.022516783214398074 -0.024194475813220536 0 -0.022334556358259448 -0.024259096307553737 0 -0.022296514081896895 -0.024111976751116555 0 -0.021554866346858322 -0.02422927293447423 0 -0.021585519932952074 -0.02421770333574249 0 -0.021379505009955339 -0.024255430135539966 0 -0.021530677184252299 -0.024182509234920841 0 -0.021554866346858322 -0.02422927293447423 0 -0.021379505009955339 -0.024255430135539966 0 -0.021797055286034334 -0.024131316751693652 0 -0.021767544601051424 -0.024125525711517298 0 -0.022334556358259448 -0.024259096307553737 0 -0.021762013582342445 -0.024120194603466632 0 -0.022296514081896895 -0.024111976751116555 0 -0.021585519932952074 -0.02421770333574249 0 -0.021379505009955339 -0.024255430135539966 0 -0.021762013582342445 -0.024120194603466632 0 -0.021762013582342445 -0.024120194603466632 0 -0.022296514081896895 -0.024111976751116555 0 -0.022398873726428074 -0.023848998894099201 0 -0.021501165364039398 -0.031796235680226249 0 -0.021683321430929596 -0.0315919232423316 0 -0.021762013582342445 -0.024120194603466632 0 -0.022398873726428074 -0.023848998894099201 0 -0.021683562138392048 -0.024003873595319452 0 -0.020787196810087619 -0.039683950133156273 0 -0.020841247592229554 -0.039506325131257784 0 -0.020826149383019979 -0.039678298039077908 0 -0.020808140084148764 -0.039829173331656031 0 -0.020766759271407614 -0.039778956964919426 0 -0.020708704856576259 -0.039955757524907015 0 -0.020826149383019979 -0.039678298039077908 0 -0.020808140084148764 -0.039829173331656031 0 -0.020766759271407614 -0.039778956964919426 0 -0.020794144461638953 -0.039789334232943091 0 -0.020862465443746502 -0.03982301687022733 0 -0.020766759271407614 -0.039778956964919426 0 -0.020804946398151846 -0.040019470553323853 0 -0.020708704856576259 -0.039955757524907015 0 -0.020787196810087619 -0.039683950133156273 0 -0.020766759271407614 -0.039778956964919426 0 -0.020882763520610984 -0.039633355047856894 0 -0.020787196810087619 -0.039683950133156273 0 -0.020826149383019979 -0.039678298039077908 0 -0.020766759271407614 -0.039778956964919426 0 -0.020787196810087619 -0.039683950133156273 0 -0.020882763520610984 -0.039633355047856894 0 -0.02107493639253678 -0.039736727976641219 0 -0.020862465443746502 -0.03982301687022733 0 -0.021059245239652621 -0.03986412571498419 0 -0.020804946398151846 -0.040019470553323853 0 -0.020969401053240144 -0.040123625143284575 0 -0.020923995843732116 -0.040028989893947146 0 -0.020882763520610984 -0.039633355047856894 0 -0.02107493639253678 -0.039736727976641219 0 -0.021144521691334444 -0.03959333302913115 0 -0.022717568556531467 -0.023781650067970884 0 -0.022640907136635472 -0.024032466111586475 0 -0.022831384984638641 -0.023986127279311556 0 -0.022398873726428074 -0.023848998894099201 0 -0.022717568556531467 -0.023781650067970884 0 -0.022640907136635472 -0.024032466111586475 0 -0.021501165364039398 -0.031796235680226249 0 -0.021918480970390026 -0.031747902658525534 0 -0.022296514081896895 -0.024111976751116555 0 -0.022398873726428074 -0.023848998894099201 0 -0.022640907136635472 -0.024032466111586475 0 -0.022516783214398074 -0.024194475813220536 0 -0.022296514081896895 -0.024111976751116555 0 -0.022640907136635472 -0.024032466111586475 0 -0.022640907136635472 -0.024032466111586475 0 -0.022866997730571596 -0.02410074526015538 0 -0.022831384984638641 -0.023986127279311556 0 -0.022707548031139821 -0.024154697172654324 0 -0.022640907136635472 -0.024032466111586475 0 -0.022866997730571596 -0.02410074526015538 0 -0.02363779300758544 -0.025157119818525569 0 -0.023164766066516452 -0.023971534863191805 0 -0.024012600345431533 -0.024620197399096547 0 -0.02295040721371645 -0.024148918144060852 0 -0.022866997730571596 -0.02410074526015538 0 -0.023164766066516452 -0.023971534863191805 0 -0.023537435077108208 -0.024252191987085669 0 -0.023101729133074539 -0.024141413248042982 0 -0.023537435077108208 -0.024252191987085669 0 -0.023816492406832146 -0.024793328711209085 0 -0.023164766066516452 -0.023971534863191805 0 -0.023900223163254131 -0.024069037299387135 0 -0.024012600345431533 -0.024620197399096547 0 -0.023164766066516452 -0.023971534863191805 0 -0.023516357230971365 -0.023458044468931509 0 -0.023900223163254131 -0.024069037299387135 0 -0.022717568556531467 -0.023781650067970884 0 -0.023164766066516452 -0.023971534863191805 0 -0.022831384984638641 -0.023986127279311556 0 -0.022866997730571596 -0.02410074526015538 0 -0.023164766066516452 -0.023971534863191805 0 -0.022831384984638641 -0.023986127279311556 0 -0.02107493639253678 -0.039736727976641219 0 -0.021277019677894728 -0.039679818242838678 0 -0.02140631588204087 -0.039724945966512278 0 -0.022717568556531467 -0.023781650067970884 0 -0.023164766066516452 -0.023971534863191805 0 -0.023516357230971365 -0.023458044468931509 0 -0.021918480970390026 -0.031747902658525534 0 -0.022511247582146135 -0.031564133782133637 0 -0.02107493639253678 -0.039736727976641219 0 -0.021277019677894728 -0.039679818242838678 0 -0.021144521691334444 -0.03959333302913115 0 -0.021277019677894728 -0.039679818242838678 0 -0.021144521691334444 -0.03959333302913115 0 -0.021386063294288986 -0.039706593275933323 0 -0.021059245239652621 -0.03986412571498419 0 -0.021261982393070082 -0.039924352935175489 0 -0.020969401053240144 -0.040123625143284575 0 -0.021171561703972556 -0.040159331889016735 0 -0.021041015760494969 -0.040060489199141722 0 -0.021171561703972556 -0.040159331889016735 0 -0.021292630254389572 -0.040056195438392568 0 -0.021167843877737111 -0.040078581649852674 0 -0.021277019677894728 -0.039679818242838678 0 -0.021386063294288986 -0.039706593275933323 0 -0.02140631588204087 -0.039724945966512278 0 -0.022511247582146135 -0.031564133782133637 0 -0.022911022587378486 -0.031786531073857392 0 -0.023516357230971365 -0.023458044468931509 0 -0.024798450568053115 -0.023260183717765393 0 -0.024461441147539412 -0.023890661377986986 0 -0.021261982393070082 -0.039924352935175489 0 -0.02136852960222738 -0.039933970594415877 0 -0.02140631588204087 -0.039724945966512278 0 -0.021404043283798174 -0.039931629964667044 0 -0.021407687219195594 -0.03984250764814333 0 -0.021171561703972556 -0.040159331889016735 0 -0.021404043283798174 -0.039931629964667044 0 -0.021292630254389572 -0.040056195438392568 0 -0.021386063294288986 -0.039706593275933323 0 -0.02140631588204087 -0.039724945966512278 0 -0.021404043283798174 -0.039931629964667044 0 -0.021363481396454696 -0.039979233294308303 0 -0.021404043283798174 -0.039931629964667044 0 -0.021407687219195594 -0.03984250764814333 0 -0.025368503382213903 -0.023417760894102024 0 -0.025055392005818387 -0.023769039436710434 0 -0.024798450568053115 -0.023260183717765393 0 -0.025055392005818387 -0.023769039436710434 0 -0.024798450568053115 -0.023260183717765393 0 -0.024461441147539412 -0.023890661377986986 0 -0.025055392005818387 -0.023769039436710434 0 -0.025136719581611188 -0.024263732725950126 0 -0.024461441147539412 -0.023890661377986986 0 -0.025136719581611188 -0.024263732725950126 0 -0.024461441147539412 -0.023890661377986986 0 -0.024488115099378243 -0.024429634918922714 0 -0.023516357230971365 -0.023458044468931509 0 -0.024461441147539412 -0.023890661377986986 0 -0.023900223163254131 -0.024069037299387135 0 -0.024461441147539412 -0.023890661377986986 0 -0.023900223163254131 -0.024069037299387135 0 -0.024488115099378243 -0.024429634918922714 0 -0.024277846165700515 -0.02507063129512337 0 -0.024488115099378243 -0.024429634918922714 0 -0.024012600345431533 -0.024620197399096547 0 -0.023900223163254131 -0.024069037299387135 0 -0.024488115099378243 -0.024429634918922714 0 -0.024012600345431533 -0.024620197399096547 0 -0.025136719581611188 -0.024263732725950126 0 -0.024488115099378243 -0.024429634918922714 0 -0.024839747345977478 -0.024761069869315745 0 -0.025432677844149258 -0.024790510974036811 0 -0.025136719581611188 -0.024263732725950126 0 -0.024839747345977478 -0.024761069869315745 0 -0.024277846165700515 -0.02507063129512337 0 -0.024488115099378243 -0.024429634918922714 0 -0.024839747345977478 -0.024761069869315745 0 -0.021257516569540946 -0.039939490243817211 0 -0.021381722019357022 -0.039972485716338386 0 -0.021283941010544389 -0.039871031845540812 0 -0.022074830147484504 -0.042527514372298306 0 -0.022304225351380845 -0.04149263990524072 0 -0.022647562380337518 -0.042601559426150515 0 -0.021862929423244287 -0.040530883404122829 0 -0.021308326150965659 -0.042323156560707065 0 -0.021257516569540946 -0.039939490243817211 0 -0.021146614937133976 -0.03995204800663156 0 -0.021200603220339724 -0.039891379615126697 0 -0.021257516569540946 -0.039939490243817211 0 -0.021200603220339724 -0.039891379615126697 0 -0.021283941010544389 -0.039871031845540812 0 -0.021257516569540946 -0.039939490243817211 0 -0.021281827163089677 -0.040046736135493255 0 -0.021146614937133976 -0.03995204800663156 0 -0.021257516569540946 -0.039939490243817211 0 -0.021381722019357022 -0.039972485716338386 0 -0.021281827163089677 -0.040046736135493255 0 -0.02150106360202575 -0.040236948457067212 0 -0.021381722019357022 -0.039972485716338386 0 -0.021281827163089677 -0.040046736135493255 0 -0.021549522409302389 -0.040350469615054445 0 -0.021862929423244287 -0.040530883404122829 0 -0.02150106360202575 -0.040236948457067212 0 -0.021380964980906872 -0.040091491126452591 0 -0.021281827163089677 -0.040046736135493255 0 -0.021363481396454696 -0.039979233294308303 0 -0.021404043283798174 -0.039931629964667044 0 -0.021380964980906872 -0.040091491126452591 0 -0.02150106360202575 -0.040236948457067212 0 -0.021363481396454696 -0.039979233294308303 0 -0.021380964980906872 -0.040091491126452591 0 -0.021404043283798174 -0.039931629964667044 0 -0.021380964980906872 -0.040091491126452591 0 -0.021292630254389572 -0.040056195438392568 0 -0.021380964980906872 -0.040091491126452591 0 -0.021292630254389572 -0.040056195438392568 0 -0.021235919843062993 -0.040073184363714417 0 -0.021235919843062993 -0.040073184363714417 0 -0.021281827163089677 -0.040046736135493255 0 -0.021046671926152869 -0.040069103507887005 0 -0.021380964980906872 -0.040091491126452591 0 -0.021235919843062993 -0.040073184363714417 0 -0.021281827163089677 -0.040046736135493255 0 -0.021046671926152869 -0.040069103507887005 0 -0.021167843877737111 -0.040078581649852674 0 -0.021041015760494969 -0.040060489199141722 0 -0.021235919843062993 -0.040073184363714417 0 -0.021046671926152869 -0.040069103507887005 0 -0.021167843877737111 -0.040078581649852674 0 -0.021171561703972556 -0.040159331889016735 0 -0.021167843877737111 -0.040078581649852674 0 -0.021041015760494969 -0.040060489199141722 0 -0.021292630254389572 -0.040056195438392568 0 -0.021235919843062993 -0.040073184363714417 0 -0.021167843877737111 -0.040078581649852674 0 -0.021041015760494969 -0.040060489199141722 0 -0.020982528814590964 -0.040136262082604096 0 -0.020923995843732116 -0.040028989893947146 0 -0.020969401053240144 -0.040123625143284575 0 -0.021041015760494969 -0.040060489199141722 0 -0.020923995843732116 -0.040028989893947146 0 -0.021046671926152869 -0.040069103507887005 0 -0.021041015760494969 -0.040060489199141722 0 -0.020982528814590964 -0.040136262082604096 0 -0.020975767795724898 -0.040185554934815078 0 -0.020858045832263337 -0.040236433068589914 0 -0.020978466352825829 -0.04034341507012551 0 -0.021046671926152869 -0.040069103507887005 0 -0.020975767795724898 -0.040185554934815078 0 -0.020982528814590964 -0.040136262082604096 0 -0.020975767795724898 -0.040185554934815078 0 -0.020978466352825829 -0.04034341507012551 0 -0.020982528814590964 -0.040136262082604096 0 -0.021281827163089677 -0.040046736135493255 0 -0.021046671926152869 -0.040069103507887005 0 -0.021146614937133976 -0.03995204800663156 0 -0.020923740168489177 -0.040421711642740124 0 -0.021278770640813453 -0.039144730357217696 0 -0.021046671926152869 -0.040069103507887005 0 -0.020975767795724898 -0.040185554934815078 0 -0.020858045832263337 -0.040236433068589914 0 -0.020727259742290113 -0.054888095133402377 0 -0.018982608210588805 -0.055373865986470129 0 -0.019729339156399007 -0.054209966397335226 0 -0.021278770640813453 -0.039144730357217696 0 -0.020625450662975969 -0.045553668748155404 0 -0.020858045832263337 -0.040236433068589914 0 -0.020781362154737488 -0.040455414579330815 0 -0.020978466352825829 -0.04034341507012551 0 -0.020625450662975969 -0.045553668748155404 0 -0.019930873616778394 -0.048063028025375404 0 -0.018982608210588805 -0.055373865986470129 0 -0.017118895079145179 -0.055832926694428971 0 -0.01758774573485616 -0.054604795675652129 0 -0.019930873616778394 -0.048063028025375404 0 -0.019145949647739278 -0.048146022356939482 0 -0.017118895079145179 -0.055832926694428971 0 -0.015851601594522632 -0.054696625858795485 0 -0.01758774573485616 -0.054604795675652129 0 -0.017118895079145179 -0.055832926694428971 0 -0.015238663721263859 -0.056222357816002218 0 -0.015851601594522632 -0.054696625858795485 0 -0.019145949647739278 -0.048146022356939482 0 -0.017766946772084964 -0.047203242990766038 0 -0.021028364590483045 -0.040312662587818043 0 -0.021062862216110517 -0.040157809691279273 0 -0.021120566330867754 -0.040325426554701428 0 -0.020978466352825829 -0.04034341507012551 0 -0.021028364590483045 -0.040312662587818043 0 -0.020982528814590964 -0.040136262082604096 0 -0.021028364590483045 -0.040312662587818043 0 -0.020982528814590964 -0.040136262082604096 0 -0.021062862216110517 -0.040157809691279273 0 -0.020982528814590964 -0.040136262082604096 0 -0.020923995843732116 -0.040028989893947146 0 -0.021062862216110517 -0.040157809691279273 0 -0.020923995843732116 -0.040028989893947146 0 -0.020734548613706712 -0.039967608471663037 0 -0.020708704856576259 -0.039955757524907015 0 -0.020804946398151846 -0.040019470553323853 0 -0.020923995843732116 -0.040028989893947146 0 -0.020708704856576259 -0.039955757524907015 0 -0.021029992794309445 -0.040320629935752389 0 -0.02089182559937169 -0.039144930618104527 0 -0.020734548613706712 -0.039967608471663037 0 -0.020671964549729752 -0.040012218586641141 0 -0.020708704856576259 -0.039955757524907015 0 -0.020671964549729752 -0.040012218586641141 0 -0.020708704856576259 -0.039955757524907015 0 -0.020735709178492011 -0.039967975312961916 0 -0.020808140084148764 -0.039829173331656031 0 -0.020708704856576259 -0.039955757524907015 0 -0.020735709178492011 -0.039967975312961916 0 -0.020671964549729752 -0.040012218586641141 0 -0.020735709178492011 -0.039967975312961916 0 -0.020642149509640016 -0.040107774876470596 0 -0.020735709178492011 -0.039967975312961916 0 -0.020642149509640016 -0.040107774876470596 0 -0.02075472424380324 -0.040024990426186888 0 -0.017194184842068506 -0.046781843917746244 0 -0.017766946772084964 -0.047203242990766038 0 -0.02089182559937169 -0.039144930618104527 0 -0.017766946772084964 -0.047203242990766038 0 -0.020734548613706712 -0.039967608471663037 0 -0.020671964549729752 -0.040012218586641141 0 -0.020610485813830043 -0.040087726379153851 0 -0.020671964549729752 -0.040012218586641141 0 -0.020642149509640016 -0.040107774876470596 0 -0.020610485813830043 -0.040087726379153851 0 -0.015238663721263859 -0.056222357816002218 0 -0.014268816518385243 -0.055144375157527431 0 -0.015851601594522632 -0.054696625858795485 0 -0.017766946772084964 -0.047203242990766038 0 -0.0142536656140962 -0.054946406620674834 0 -0.013560100236573776 -0.053519124873239031 0 -0.013559416602357707 -0.053523321703926284 0 -0.01348022782883781 -0.053679000370615064 0 -0.013560100236573776 -0.053519124873239031 0 -0.01348022782883781 -0.053679000370615064 0 -0.013579400778601954 -0.053595095348741684 0 -0.01348022782883781 -0.053679000370615064 0 -0.013501268385965024 -0.053746612625920301 0 -0.013579400778601954 -0.053595095348741684 0 -0.014268816518385243 -0.055144375157527431 0 -0.014456673885691598 -0.053861339456393986 0 -0.013413532732448889 -0.05387594730974004 0 -0.014456673885691598 -0.053861339456393986 0 -0.013607546976740265 -0.053308801880019144 0 -0.013413532732448889 -0.05387594730974004 0 -0.0142536656140962 -0.054946406620674834 0 -0.013337679620620265 -0.053789968016359865 0 -0.01348022782883781 -0.053679000370615064 0 -0.013501268385965024 -0.053746612625920301 0 -0.013413532732448889 -0.05387594730974004 0 -0.014456673885691598 -0.053861339456393986 0 -0.015542844493594018 -0.053231818620445973 0 -0.015851601594522632 -0.054696625858795485 0 -0.014268816518385243 -0.055144375157527431 0 -0.014456673885691598 -0.053861339456393986 0 -0.015851601594522632 -0.054696625858795485 0 -0.014456673885691598 -0.053861339456393986 0 -0.015542844493594018 -0.053231818620445973 0 -0.014268636085340932 -0.052896620719454127 0 -0.015542844493594018 -0.053231818620445973 0 -0.014268636085340932 -0.052896620719454127 0 -0.014623355116211807 -0.05175926434450339 0 -0.014268636085340932 -0.052896620719454127 0 -0.013607546976740265 -0.053308801880019144 0 -0.012797011059121491 -0.051918050818648726 0 -0.014456673885691598 -0.053861339456393986 0 -0.014268636085340932 -0.052896620719454127 0 -0.013607546976740265 -0.053308801880019144 0 -0.014268636085340932 -0.052896620719454127 0 -0.014623355116211807 -0.05175926434450339 0 -0.012797011059121491 -0.051918050818648726 0 -0.012555319918404841 -0.050000010766566128 0 -0.014623355116211807 -0.05175926434450339 0 -0.012797011059121491 -0.051918050818648726 0 -0.012555319918404841 -0.050000010766566128 0 -0.0153047185603385 -0.049999835152310296 0 -0.014623355116211807 -0.05175926434450339 0 -0.015542844493594018 -0.053231818620445973 0 -0.014623355116211807 -0.05175926434450339 0 -0.017242065436903709 -0.052129927027617817 0 -0.0153047185603385 -0.049999835152310296 0 -0.014623355116211807 -0.05175926434450339 0 -0.017242065436903709 -0.052129927027617817 0 -0.0153047185603385 -0.049999835152310296 0 -0.01805495060969815 -0.049999898768332537 0 -0.017242065436903709 -0.052129927027617817 0 -0.01805495060969815 -0.049999898768332537 0 -0.017242065436903709 -0.052129927027617817 0 -0.018974319270059499 -0.052021259352228039 0 -0.017242065436903709 -0.052129927027617817 0 -0.018792055703645609 -0.052910433517330005 0 -0.018974319270059499 -0.052021259352228039 0 -0.017242065436903709 -0.052129927027617817 0 -0.017848577048334865 -0.053425990581544749 0 -0.01670834030994128 -0.053824746398952406 0 -0.017242065436903709 -0.052129927027617817 0 -0.017848577048334865 -0.053425990581544749 0 -0.018792055703645609 -0.052910433517330005 0 -0.015542844493594018 -0.053231818620445973 0 -0.017242065436903709 -0.052129927027617817 0 -0.01670834030994128 -0.053824746398952406 0 -0.01670834030994128 -0.053824746398952406 0 -0.015851601594522632 -0.054696625858795485 0 -0.01758774573485616 -0.054604795675652129 0 -0.015542844493594018 -0.053231818620445973 0 -0.01670834030994128 -0.053824746398952406 0 -0.015851601594522632 -0.054696625858795485 0 -0.017848577048334865 -0.053425990581544749 0 -0.01758774573485616 -0.054604795675652129 0 -0.018767625894451013 -0.053907800521187182 0 -0.017848577048334865 -0.053425990581544749 0 -0.01670834030994128 -0.053824746398952406 0 -0.01758774573485616 -0.054604795675652129 0 -0.018982608210588805 -0.055373865986470129 0 -0.01758774573485616 -0.054604795675652129 0 -0.018767625894451013 -0.053907800521187182 0 -0.018982608210588805 -0.055373865986470129 0 -0.018767625894451013 -0.053907800521187182 0 -0.019729339156399007 -0.054209966397335226 0 -0.018767625894451013 -0.053907800521187182 0 -0.019729339156399007 -0.054209966397335226 0 -0.019649451589887568 -0.053192746501616914 0 -0.020727259742290113 -0.054888095133402377 0 -0.020505059657122498 -0.053710460068814858 0 -0.019729339156399007 -0.054209966397335226 0 -0.020505059657122498 -0.053710460068814858 0 -0.019729339156399007 -0.054209966397335226 0 -0.019649451589887568 -0.053192746501616914 0 -0.019649451589887568 -0.053192746501616914 0 -0.020445937301816514 -0.052957382173415515 0 -0.021205717407066258 -0.053276584122430422 0 -0.020505059657122498 -0.053710460068814858 0 -0.019649451589887568 -0.053192746501616914 0 -0.021254747644688335 -0.053235254899956154 0 -0.019580472045755099 -0.053565332750869978 0 -0.021814001178407899 -0.050614101891275888 0 -0.02065601201598749 -0.052860124983409716 0 -0.021993850725754202 -0.052942379615340297 0 -0.02226030842565788 -0.053564694623110261 0 -0.020445937301816514 -0.052957382173415515 0 -0.019936074980552974 -0.052456627486801403 0 -0.021019972029033204 -0.052909221287630072 0 -0.020262770681927195 -0.052623179331336666 0 -0.022059422294870581 -0.052559854746646525 0 -0.019649451589887568 -0.053192746501616914 0 -0.020445937301816514 -0.052957382173415515 0 -0.019936074980552974 -0.052456627486801403 0 -0.019649451589887568 -0.053192746501616914 0 -0.018792055703645609 -0.052910433517330005 0 -0.019936074980552974 -0.052456627486801403 0 -0.018767625894451013 -0.053907800521187182 0 -0.019649451589887568 -0.053192746501616914 0 -0.018792055703645609 -0.052910433517330005 0 -0.017848577048334865 -0.053425990581544749 0 -0.018767625894451013 -0.053907800521187182 0 -0.018792055703645609 -0.052910433517330005 0 -0.018792055703645609 -0.052910433517330005 0 -0.018974319270059499 -0.052021259352228039 0 -0.019936074980552974 -0.052456627486801403 0 -0.019145212534335088 -0.052114980562373736 0 -0.020262770681927195 -0.052623179331336666 0 -0.018974319270059499 -0.052021259352228039 0 -0.02017462263625858 -0.051373268866897852 0 -0.02065601201598749 -0.052860124983409716 0 -0.01805495060969815 -0.049999898768332537 0 -0.02017462263625858 -0.051373268866897852 0 -0.02080552342139657 -0.049999865848340895 0 -0.01805495060969815 -0.049999898768332537 0 -0.018974319270059499 -0.052021259352228039 0 -0.02017462263625858 -0.051373268866897852 0 -0.02017462263625858 -0.051373268866897852 0 -0.02080552342139657 -0.049999865848340895 0 -0.02142863102336677 -0.051393749079927477 0 -0.02080552342139657 -0.049999865848340895 0 -0.02142863102336677 -0.051393749079927477 0 -0.02233672640693269 -0.050917497731188373 0 -0.02142863102336677 -0.051393749079927477 0 -0.021350766423539898 -0.052222118568456072 0 -0.022312785101135386 -0.051983110035967124 0 -0.02017462263625858 -0.051373268866897852 0 -0.02142863102336677 -0.051393749079927477 0 -0.021350766423539898 -0.052222118568456072 0 -0.02017462263625858 -0.051373268866897852 0 -0.021350766423539898 -0.052222118568456072 0 -0.02065601201598749 -0.052860124983409716 0 -0.021350766423539898 -0.052222118568456072 0 -0.02065601201598749 -0.052860124983409716 0 -0.021993850725754202 -0.052942379615340297 0 -0.023360634825276849 -0.05156078221464077 0 -0.023847017648951373 -0.052991365320223908 0 -0.022752608872620077 -0.053545845841867022 0 -0.021993850725754202 -0.052942379615340297 0 -0.022312785101135386 -0.051983110035967124 0 -0.022637261367385489 -0.053724038771120926 0 -0.023289645431539947 -0.052165530549327176 0 -0.022309821227627806 -0.052316014211698091 0 -0.021350766423539898 -0.052222118568456072 0 -0.021993850725754202 -0.052942379615340297 0 -0.022312785101135386 -0.051983110035967124 0 -0.023360634825276849 -0.05156078221464077 0 -0.022312785101135386 -0.051983110035967124 0 -0.022637261367385489 -0.053724038771120926 0 -0.023360634825276849 -0.05156078221464077 0 -0.022312785101135386 -0.051983110035967124 0 -0.02233672640693269 -0.050917497731188373 0 -0.023360634825276849 -0.05156078221464077 0 -0.02233672640693269 -0.050917497731188373 0 -0.023556274903521565 -0.049999920073514462 0 -0.02142863102336677 -0.051393749079927477 0 -0.022312785101135386 -0.051983110035967124 0 -0.02233672640693269 -0.050917497731188373 0 -0.02080552342139657 -0.049999865848340895 0 -0.02233672640693269 -0.050917497731188373 0 -0.023556274903521565 -0.049999920073514462 0 -0.0263066713999578 -0.049999922417803475 0 -0.023556274903521565 -0.049999920073514462 0 -0.024880903740001962 -0.051058887509868374 0 -0.023360634825276849 -0.05156078221464077 0 -0.023556274903521565 -0.049999920073514462 0 -0.024880903740001962 -0.051058887509868374 0 -0.023360634825276849 -0.05156078221464077 0 -0.024953687983854788 -0.05246802948206971 0 -0.023847017648951373 -0.052991365320223908 0 -0.023360634825276849 -0.05156078221464077 0 -0.024880903740001962 -0.051058887509868374 0 -0.024953687983854788 -0.05246802948206971 0 -0.026196651291661009 -0.054094079655622657 0 -0.024745257674401396 -0.053363295325135042 0 -0.023674467285106308 -0.053963559927822514 0 -0.024953687983854788 -0.05246802948206971 0 -0.024745257674401396 -0.053363295325135042 0 -0.023847017648951373 -0.052991365320223908 0 -0.026149423593835673 -0.053488787752814675 0 -0.022792412544090375 -0.050240828406803696 0 -0.024745257674401396 -0.053363295325135042 0 -0.023674467285106308 -0.053963559927822514 0 -0.023847017648951373 -0.052991365320223908 0 -0.023674467285106308 -0.053963559927822514 0 -0.023847017648951373 -0.052991365320223908 0 -0.022752608872620077 -0.053545845841867022 0 -0.020445937301816514 -0.052957382173415515 0 -0.021019972029033204 -0.052909221287630072 0 -0.021205717407066258 -0.053276584122430422 0 -0.022167327657738111 -0.052991495023744901 0 -0.022059422294870581 -0.052559854746646525 0 -0.021993850725754202 -0.052942379615340297 0 -0.022637261367385489 -0.053724038771120926 0 -0.022254326224822707 -0.053554550604230609 0 -0.021878090019421016 -0.052081605818605665 0 -0.022088880983293431 -0.052176476949817398 0 -0.02194373217213285 -0.051875935704350631 0 -0.022059422294870581 -0.052559854746646525 0 -0.021814001178407899 -0.050614101891275888 0 -0.022309821227627806 -0.052316014211698091 0 -0.022059422294870581 -0.052559854746646525 0 -0.022309821227627806 -0.052316014211698091 0 -0.021814001178407899 -0.050614101891275888 0 -0.02223015154752761 -0.042686095155770092 0 -0.022294027258259883 -0.042714669293803124 0 -0.022260907133748589 -0.042626200934141337 0 -0.022792412544090375 -0.050240828406803696 0 -0.022309821227627806 -0.052316014211698091 0 -0.022682705332461413 -0.05086115424401242 0 -0.021992202100006162 -0.050563162442591333 0 -0.021909520679851479 -0.050817131661761494 0 -0.022792412544090375 -0.050240828406803696 0 -0.021814001178407899 -0.050614101891275888 0 -0.022294027258259883 -0.042714669293803124 0 -0.022271423517048156 -0.04260694233520964 0 -0.022260907133748589 -0.042626200934141337 0 -0.021814001178407899 -0.050614101891275888 0 -0.021308326150965659 -0.042323156560707065 0 -0.020727259742290113 -0.054888095133402377 0 -0.020505059657122498 -0.053710460068814858 0 -0.021254747644688335 -0.053235254899956154 0 -0.020625450662975969 -0.045553668748155404 0 -0.021814001178407899 -0.050614101891275888 0 -0.022505634471060215 -0.04486713091262947 0 -0.021291640155563098 -0.048681180364483441 0 -0.019987049062398642 -0.045465868686460686 0 -0.020625450662975969 -0.045553668748155404 0 -0.021308326150965659 -0.042323156560707065 0 -0.022271423517048156 -0.04260694233520964 0 -0.022296683126726932 -0.042612971340552995 0 -0.022260907133748589 -0.042626200934141337 0 -0.022409145806203987 -0.042319648808037742 0 -0.02223015154752761 -0.042686095155770092 0 -0.022245791898767863 -0.04254583702527303 0 -0.024050700499193996 -0.04745468418031102 0 -0.022792412544090375 -0.050240828406803696 0 -0.021308326150965659 -0.042323156560707065 0 -0.022369437554565101 -0.04237448716564237 0 -0.022074830147484504 -0.042527514372298306 0 -0.022647562380337518 -0.042601559426150515 0 -0.022296683126726932 -0.042612971340552995 0 -0.022074830147484504 -0.042527514372298306 0 -0.022245791898767863 -0.04254583702527303 0 -0.022296683126726932 -0.042612971340552995 0 -0.022245791898767863 -0.04254583702527303 0 -0.022296683126726932 -0.042612971340552995 0 -0.022260907133748589 -0.042626200934141337 0 -0.02223015154752761 -0.042686095155770092 0 -0.022245791898767863 -0.04254583702527303 0 -0.022260907133748589 -0.042626200934141337 0 -0.0084668893008293875 -0.048217903175625881 0 -0.0081774596183534897 -0.047751078893425544 0 -0.0077753344745150046 -0.047879889495104487 0 -0.0084668893008293875 -0.048217903175625881 0 -0.0085360978961485489 -0.047922931323923168 0 -0.0081774596183534897 -0.047751078893425544 0 -0.0093350137826000903 -0.0463279294688776 0 -0.0084432752108855105 -0.045701950052835422 0 -0.0084668893008293875 -0.048217903175625881 0 -0.0085360978961485489 -0.047922931323923168 0 -0.0088733230208283241 -0.048049991365630179 0 -0.0092902493273014971 -0.047109883802778606 0 -0.0088499206693880509 -0.047500231131208437 0 -0.0088733230208283241 -0.048049991365630179 0 -0.0093350137826000903 -0.0463279294688776 0 -0.0086888779452244051 -0.048410128470890643 0 -0.0093350137826000903 -0.0463279294688776 0 -0.0095604284108092869 -0.046933750934050403 0 -0.0098831465705524531 -0.047273120247001428 0 -0.0092902493273014971 -0.047109883802778606 0 -0.0088733230208283241 -0.048049991365630179 0 -0.0086600935233321682 -0.047958726641801938 0 -0.0085360978961485489 -0.047922931323923168 0 -0.0088733230208283241 -0.048049991365630179 0 -0.0086600935233321682 -0.047958726641801938 0 -0.0085360978961485489 -0.047922931323923168 0 -0.0083342528080506718 -0.047658674613373635 0 -0.0085360978961485489 -0.047922931323923168 0 -0.0081774596183534897 -0.047751078893425544 0 -0.0083342528080506718 -0.047658674613373635 0 -0.0081774596183534897 -0.047751078893425544 0 -0.0083342528080506718 -0.047658674613373635 0 -0.0075039705239664835 -0.046968318960886712 0 -0.0081774596183534897 -0.047751078893425544 0 -0.0075039705239664835 -0.046968318960886712 0 -0.0077753344745150046 -0.047879889495104487 0 -0.0075039705239664835 -0.046968318960886712 0 -0.0067698471822384195 -0.046941558019973656 0 -0.0077753344745150046 -0.047879889495104487 0 -0.0075039705239664835 -0.046968318960886712 0 -0.0063838343221075521 -0.046072862269049629 0 -0.0065375772429050278 -0.046109092304186236 0 -0.0075039705239664835 -0.046968318960886712 0 -0.0067698471822384195 -0.046941558019973656 0 -0.0065375772429050278 -0.046109092304186236 0 -0.0079176068350131912 -0.043286220919569608 0 -0.0086425940883360208 -0.043957118441738018 0 -0.0091735072763383871 -0.043630140004545924 0 -0.0079176068350131912 -0.043286220919569608 0 -0.0086425940883360208 -0.043957118441738018 0 -0.0083454769347146712 -0.044192783969959945 0 -0.0074393310460899404 -0.045127125252255332 0 -0.0084432752108855105 -0.045701950052835422 0 -0.0099516910790143128 -0.043878626134120892 0 -0.0091735072763383871 -0.043630140004545924 0 -0.0090542446353942541 -0.044479704226181062 0 -0.0086425940883360208 -0.043957118441738018 0 -0.0091735072763383871 -0.043630140004545924 0 -0.0090542446353942541 -0.044479704226181062 0 -0.0090542446353942541 -0.044479704226181062 0 -0.0090871498185861165 -0.044573639576174266 0 -0.0083454769347146712 -0.044192783969959945 0 -0.0086425940883360208 -0.043957118441738018 0 -0.0090542446353942541 -0.044479704226181062 0 -0.0083454769347146712 -0.044192783969959945 0 -0.010725948925764572 -0.045594472418062151 0 -0.010724891970110974 -0.044921521540872381 0 -0.010214420123111108 -0.044852688153017829 0 -0.0090542446353942541 -0.044479704226181062 0 -0.010214420123111108 -0.044852688153017829 0 -0.0090871498185861165 -0.044573639576174266 0 -0.010012589461150696 -0.044920043734626242 0 -0.010045534971149999 -0.044973199109655727 0 -0.010725948925764572 -0.045594472418062151 0 -0.010724891970110974 -0.044921521540872381 0 -0.010036733707803341 -0.045225339197534187 0 -0.010725948925764572 -0.045594472418062151 0 -0.010036733707803341 -0.045225339197534187 0 -0.0098633056545414013 -0.046070658231802487 0 -0.0095423325558945168 -0.042507543957627403 0 -0.0084135854370825901 -0.042522652359310548 0 -0.0087730085465695402 -0.042161379119087454 0 -0.00989349105247069 -0.043871951610952566 0 -0.0088438701516367034 -0.044230166087234485 0 -0.010036733707803341 -0.045225339197534187 0 -0.0098633056545414013 -0.046070658231802487 0 -0.009240437386811625 -0.046223812566433584 0 -0.0093350137826000903 -0.0463279294688776 0 -0.010012589461150696 -0.044920043734626242 0 -0.0097503260700452423 -0.047058517144499101 0 -0.010725948925764572 -0.045594472418062151 0 -0.0098633056545414013 -0.046070658231802487 0 -0.0097503260700452423 -0.047058517144499101 0 -0.0098633056545414013 -0.046070658231802487 0 -0.0095539578366157282 -0.046608319355337366 0 -0.0098633056545414013 -0.046070658231802487 0 -0.0095539578366157282 -0.046608319355337366 0 -0.009240437386811625 -0.046223812566433584 0 -0.0092902493273014971 -0.047109883802778606 0 -0.009240437386811625 -0.046223812566433584 0 -0.0087766170208990971 -0.047010853020467029 0 -0.0097503260700452423 -0.047058517144499101 0 -0.0092902493273014971 -0.047109883802778606 0 -0.0095539578366157282 -0.046608319355337366 0 -0.0092902493273014971 -0.047109883802778606 0 -0.0095539578366157282 -0.046608319355337366 0 -0.009240437386811625 -0.046223812566433584 0 -0.0084135854370825901 -0.042522652359310548 0 -0.0082702134452886916 -0.042336797067606638 0 -0.0081554677223796158 -0.042357094084694437 0 -0.0084135854370825901 -0.042522652359310548 0 -0.0082702134452886916 -0.042336797067606638 0 -0.0083777692720393704 -0.042234963190695793 0 -0.0084135854370825901 -0.042522652359310548 0 -0.0087730085465695402 -0.042161379119087454 0 -0.0083777692720393704 -0.042234963190695793 0 -0.0084220359713545502 -0.041923881590177028 0 -0.0083777692720393704 -0.042234963190695793 0 -0.0082235676760509975 -0.042010379871107346 0 -0.0084220359713545502 -0.041923881590177028 0 -0.0087730085465695402 -0.042161379119087454 0 -0.0083777692720393704 -0.042234963190695793 0 -0.0083777692720393704 -0.042234963190695793 0 -0.0082235676760509975 -0.042010379871107346 0 -0.0081473226058192752 -0.042218015344622467 0 -0.0082235676760509975 -0.042010379871107346 0 -0.0080668933146521189 -0.042060253524617459 0 -0.0081473226058192752 -0.042218015344622467 0 -0.0080668933146521189 -0.042060253524617459 0 -0.0081473226058192752 -0.042218015344622467 0 -0.008041222783258346 -0.042145347196482816 0 -0.0081473226058192752 -0.042218015344622467 0 -0.0080541021168604905 -0.04220976017336122 0 -0.008041222783258346 -0.042145347196482816 0 -0.0082702134452886916 -0.042336797067606638 0 -0.0081473226058192752 -0.042218015344622467 0 -0.0081554677223796158 -0.042357094084694437 0 -0.0082702134452886916 -0.042336797067606638 0 -0.0083777692720393704 -0.042234963190695793 0 -0.0081473226058192752 -0.042218015344622467 0 -0.0081473226058192752 -0.042218015344622467 0 -0.0081554677223796158 -0.042357094084694437 0 -0.0080674268439180127 -0.042278593533763807 0 -0.0080221369354024248 -0.042299117944200729 0 -0.0080601619919233505 -0.042329514582496557 0 -0.0080201582785522901 -0.042329058950695546 0 -0.0080221369354024248 -0.042299117944200729 0 -0.0080601619919233505 -0.042329514582496557 0 -0.0080276135189189055 -0.042268774620352188 0 -0.0081554677223796158 -0.042357094084694437 0 -0.0080601619919233505 -0.042329514582496557 0 -0.0080674268439180127 -0.042278593533763807 0 -0.0080601619919233505 -0.042329514582496557 0 -0.0080674268439180127 -0.042278593533763807 0 -0.0080276135189189055 -0.042268774620352188 0 -0.0081473226058192752 -0.042218015344622467 0 -0.0080674268439180127 -0.042278593533763807 0 -0.0080541021168604905 -0.04220976017336122 0 -0.0080674268439180127 -0.042278593533763807 0 -0.0080232711972749535 -0.042226882485012135 0 -0.0080276135189189055 -0.042268774620352188 0 -0.0080674268439180127 -0.042278593533763807 0 -0.0080232711972749535 -0.042226882485012135 0 -0.0080541021168604905 -0.04220976017336122 0 -0.0080232711972749535 -0.042226882485012135 0 -0.0080276135189189055 -0.042268774620352188 0 -0.0079958583341846207 -0.042219591633400187 0 -0.0080221369354024248 -0.042299117944200729 0 -0.0080276135189189055 -0.042268774620352188 0 -0.0080026885025273626 -0.042263278875891985 0 -0.0080276135189189055 -0.042268774620352188 0 -0.0079958583341846207 -0.042219591633400187 0 -0.0080026885025273626 -0.042263278875891985 0 -0.0079958583341846207 -0.042219591633400187 0 -0.0079976010472398353 -0.042170806865238018 0 -0.0079755635434866339 -0.042178948610274117 0 -0.0080232711972749535 -0.042226882485012135 0 -0.0079958583341846207 -0.042219591633400187 0 -0.0079976010472398353 -0.042170806865238018 0 -0.0079755635434866339 -0.042178948610274117 0 -0.0079584938922419458 -0.042130617437519183 0 -0.0079597532296140309 -0.042164946275942444 0 -0.0079976010472398353 -0.042170806865238018 0 -0.0079755635434866339 -0.042178948610274117 0 -0.0079584938922419458 -0.042130617437519183 0 -0.0080232711972749535 -0.042226882485012135 0 -0.0079976010472398353 -0.042170806865238018 0 -0.0080541021168604905 -0.04220976017336122 0 -0.0079976010472398353 -0.042170806865238018 0 -0.0080541021168604905 -0.04220976017336122 0 -0.008041222783258346 -0.042145347196482816 0 -0.0079976010472398353 -0.042170806865238018 0 -0.008041222783258346 -0.042145347196482816 0 -0.0079667308077352311 -0.042082739657181241 0 -0.0079799842961198689 -0.042024138946551888 0 -0.0080668933146521189 -0.042060253524617459 0 -0.0079667308077352311 -0.042082739657181241 0 -0.0080668933146521189 -0.042060253524617459 0 -0.008041222783258346 -0.042145347196482816 0 -0.0079667308077352311 -0.042082739657181241 0 -0.0078811530802796806 -0.042009275701707892 0 -0.0079667308077352311 -0.042082739657181241 0 -0.0079307126044043108 -0.042099694049303735 0 -0.0079976010472398353 -0.042170806865238018 0 -0.0079667308077352311 -0.042082739657181241 0 -0.0079584938922419458 -0.042130617437519183 0 -0.0079584938922419458 -0.042130617437519183 0 -0.0079307126044043108 -0.042099694049303735 0 -0.0079597532296140309 -0.042164946275942444 0 -0.0079667308077352311 -0.042082739657181241 0 -0.0079584938922419458 -0.042130617437519183 0 -0.0079307126044043108 -0.042099694049303735 0 -0.0078811530802796806 -0.042009275701707892 0 -0.0080663181102485389 -0.042388691322854243 0 -0.0079927811985249769 -0.04224657071404387 0 -0.015773597098740603 -0.034576960256485274 0 -0.015404875732034225 -0.035097476562397839 0 -0.0078811530802796806 -0.042009275701707892 0 -0.0079307126044043108 -0.042099694049303735 0 -0.0079927811985249769 -0.04224657071404387 0 -0.010961546056573294 -0.039097774237758336 0 -0.011567374861119889 -0.038480591779327153 0 -0.014645389718387714 -0.035502790745211073 0 -0.015610529190214485 -0.034967371199964375 0 -0.015636644343585738 -0.034947549644161392 0 -0.015811719696258407 -0.03448719482189834 0 -0.01608068987261815 -0.03424374854902569 0 -0.015610529190214485 -0.034967371199964375 0 -0.014673503957083165 -0.035646392949548578 0 -0.014645389718387714 -0.035502790745211073 0 -0.015610529190214485 -0.034967371199964375 0 -0.0079790502040676618 -0.042214279772961383 0 -0.0079597532296140309 -0.042164946275942444 0 -0.0079927811985249769 -0.04224657071404387 0 -0.0079307126044043108 -0.042099694049303735 0 -0.0079597532296140309 -0.042164946275942444 0 -0.0079927811985249769 -0.04224657071404387 0 -0.0079958583341846207 -0.042219591633400187 0 -0.0079755635434866339 -0.042178948610274117 0 -0.0079790502040676618 -0.042214279772961383 0 -0.0079755635434866339 -0.042178948610274117 0 -0.0079790502040676618 -0.042214279772961383 0 -0.0079597532296140309 -0.042164946275942444 0 -0.015811719696258407 -0.03448719482189834 0 -0.015658296252779917 -0.034582990135837252 0 -0.015610529190214485 -0.034967371199964375 0 -0.0080216690900636062 -0.042324794044433456 0 -0.0080663181102485389 -0.042388691322854243 0 -0.0079927811985249769 -0.04224657071404387 0 -0.0080216690900636062 -0.042324794044433456 0 -0.0080663181102485389 -0.042388691322854243 0 -0.0080338677060231758 -0.042344637218295546 0 -0.0080216690900636062 -0.042324794044433456 0 -0.0080144331872342763 -0.042326200289637662 0 -0.0080338677060231758 -0.042344637218295546 0 -0.0079974282488322838 -0.042271205793437593 0 -0.0080026885025273626 -0.042263278875891985 0 -0.0080081955963584341 -0.042300245683018933 0 -0.0079958583341846207 -0.042219591633400187 0 -0.0079790502040676618 -0.042214279772961383 0 -0.0080026885025273626 -0.042263278875891985 0 -0.0079790502040676618 -0.042214279772961383 0 -0.0079974282488322838 -0.042271205793437593 0 -0.0080026885025273626 -0.042263278875891985 0 -0.0080216690900636062 -0.042324794044433456 0 -0.0079927811985249769 -0.04224657071404387 0 -0.0080074169114328908 -0.042296710317634441 0 -0.0079790502040676618 -0.042214279772961383 0 -0.0079974282488322838 -0.042271205793437593 0 -0.0079927811985249769 -0.04224657071404387 0 -0.0079974282488322838 -0.042271205793437593 0 -0.0079927811985249769 -0.04224657071404387 0 -0.0080074169114328908 -0.042296710317634441 0 -0.0079974282488322838 -0.042271205793437593 0 -0.0080068143854686198 -0.042305692493816036 0 -0.0080074169114328908 -0.042296710317634441 0 -0.0080068143854686198 -0.042305692493816036 0 -0.0080074169114328908 -0.042296710317634441 0 -0.0080144331872342763 -0.042326200289637662 0 -0.0080216690900636062 -0.042324794044433456 0 -0.0080074169114328908 -0.042296710317634441 0 -0.0080144331872342763 -0.042326200289637662 0 -0.0080068143854686198 -0.042305692493816036 0 -0.0080144331872342763 -0.042326200289637662 0 -0.0080106047826386181 -0.042327380245897578 0 -0.0080068143854686198 -0.042305692493816036 0 -0.0080081955963584341 -0.042300245683018933 0 -0.0080106047826386181 -0.042327380245897578 0 -0.0080081955963584341 -0.042300245683018933 0 -0.0080201582785522901 -0.042329058950695546 0 -0.0080106047826386181 -0.042327380245897578 0 -0.0079974282488322838 -0.042271205793437593 0 -0.0080068143854686198 -0.042305692493816036 0 -0.0080081955963584341 -0.042300245683018933 0 -0.0080221369354024248 -0.042299117944200729 0 -0.0080026885025273626 -0.042263278875891985 0 -0.0080081955963584341 -0.042300245683018933 0 -0.0080221369354024248 -0.042299117944200729 0 -0.0080081955963584341 -0.042300245683018933 0 -0.0080201582785522901 -0.042329058950695546 0 -0.0084950958583645854 -0.045884692365548985 0 -0.0079447295403499898 -0.045181095860145702 0 -0.0080201582785522901 -0.042329058950695546 0 -0.0080138567533857268 -0.042343980789744697 0 -0.0080284633393053941 -0.042360536257741527 0 -0.008646418874054821 -0.047661985076404831 0 -0.0086550176893041616 -0.047599957236744136 0 -0.0086116218490719931 -0.047855968606941059 0 -0.0080530098198628268 -0.042304894083978431 0 -0.0079781347968877966 -0.04237630035592619 0 -0.0081385914993126768 -0.042187785194029881 0 -0.0080201582785522901 -0.042329058950695546 0 -0.0080138567533857268 -0.042343980789744697 0 -0.0080106047826386181 -0.042327380245897578 0 -0.0080144331872342763 -0.042326200289637662 0 -0.0080106047826386181 -0.042327380245897578 0 -0.0080171471622501964 -0.042341257219428489 0 -0.0080144331872342763 -0.042326200289637662 0 -0.0080171471622501964 -0.042341257219428489 0 -0.0080338677060231758 -0.042344637218295546 0 -0.0080138567533857268 -0.042343980789744697 0 -0.0080106047826386181 -0.042327380245897578 0 -0.0080171471622501964 -0.042341257219428489 0 -0.0080171471622501964 -0.042341257219428489 0 -0.0080215159568933578 -0.042340165720424504 0 -0.0080473417984485585 -0.042332801802483125 0 -0.0080171471622501964 -0.042341257219428489 0 -0.0080215159568933578 -0.042340165720424504 0 -0.0080101194206775722 -0.042353905486169803 0 -0.0080101194206775722 -0.042353905486169803 0 -0.0079781347968877966 -0.04237630035592619 0 -0.0080284633393053941 -0.042360536257741527 0 -0.0080138567533857268 -0.042343980789744697 0 -0.0080101194206775722 -0.042353905486169803 0 -0.0080284633393053941 -0.042360536257741527 0 -0.0080138567533857268 -0.042343980789744697 0 -0.0080171471622501964 -0.042341257219428489 0 -0.0080101194206775722 -0.042353905486169803 0 -0.0080663181102485389 -0.042388691322854243 0 -0.0080603954848796969 -0.042342629174738522 0 -0.0081096189939358163 -0.042301599920431393 0 -0.0080663181102485389 -0.042388691322854243 0 -0.0080603954848796969 -0.042342629174738522 0 -0.0080338677060231758 -0.042344637218295546 0 -0.0080171471622501964 -0.042341257219428489 0 -0.0080338677060231758 -0.042344637218295546 0 -0.0080473417984485585 -0.042332801802483125 0 -0.0080603954848796969 -0.042342629174738522 0 -0.0080338677060231758 -0.042344637218295546 0 -0.0080473417984485585 -0.042332801802483125 0 -0.0080473417984485585 -0.042332801802483125 0 -0.0081096189939358163 -0.042301599920431393 0 -0.0080530098198628268 -0.042304894083978431 0 -0.0080215159568933578 -0.042340165720424504 0 -0.0080473417984485585 -0.042332801802483125 0 -0.0080530098198628268 -0.042304894083978431 0 -0.0080603954848796969 -0.042342629174738522 0 -0.0080473417984485585 -0.042332801802483125 0 -0.0081096189939358163 -0.042301599920431393 0 -0.0081096189939358163 -0.042301599920431393 0 -0.0080530098198628268 -0.042304894083978431 0 -0.0081385914993126768 -0.042187785194029881 0 -0.0080215159568933578 -0.042340165720424504 0 -0.0080530098198628268 -0.042304894083978431 0 -0.0079781347968877966 -0.04237630035592619 0 -0.0080215159568933578 -0.042340165720424504 0 -0.0080101194206775722 -0.042353905486169803 0 -0.0079781347968877966 -0.04237630035592619 0 -0.008646418874054821 -0.047661985076404831 0 -0.0086361983409474433 -0.047527809330218516 0 -0.0086706939292492975 -0.047647378405190947 0 -0.0083516643968684703 -0.046201014193067685 0 -0.0084950958583645854 -0.045884692365548985 0 -0.0088438701516367034 -0.044230166087234485 0 -0.0084950958583645854 -0.045884692365548985 0 -0.0086361983409474433 -0.047527809330218516 0 -0.0087766170208990971 -0.047010853020467029 0 -0.0087145566430268852 -0.047510308231765025 0 -0.0084135854370825901 -0.042522652359310548 0 -0.0079781347968877966 -0.04237630035592619 0 -0.008119175976550607 -0.042387051610296073 0 -0.0084950958583645854 -0.045884692365548985 0 -0.008592907456680168 -0.046808061305953885 0 -0.009240437386811625 -0.046223812566433584 0 -0.0082469290628300607 -0.047341853176881513 0 -0.0087766170208990971 -0.047010853020467029 0 -0.0086361983409474433 -0.047527809330218516 0 -0.0087145566430268852 -0.047510308231765025 0 -0.0086706939292492975 -0.047647378405190947 0 -0.0092902493273014971 -0.047109883802778606 0 -0.0087766170208990971 -0.047010853020467029 0 -0.0088499206693880509 -0.047500231131208437 0 -0.0087766170208990971 -0.047010853020467029 0 -0.0088499206693880509 -0.047500231131208437 0 -0.0087145566430268852 -0.047510308231765025 0 -0.0084135854370825901 -0.042522652359310548 0 -0.0081554677223796158 -0.042357094084694437 0 -0.008119175976550607 -0.042387051610296073 0 -0.0080601619919233505 -0.042329514582496557 0 -0.008119175976550607 -0.042387051610296073 0 -0.0080284633393053941 -0.042360536257741527 0 -0.0079781347968877966 -0.04237630035592619 0 -0.008119175976550607 -0.042387051610296073 0 -0.0080284633393053941 -0.042360536257741527 0 -0.0081554677223796158 -0.042357094084694437 0 -0.0080601619919233505 -0.042329514582496557 0 -0.008119175976550607 -0.042387051610296073 0 -0.0080601619919233505 -0.042329514582496557 0 -0.0080201582785522901 -0.042329058950695546 0 -0.0080284633393053941 -0.042360536257741527 0 -0.020808140084148764 -0.039829173331656031 0 -0.020735709178492011 -0.039967975312961916 0 -0.020911176885934864 -0.039856479688058277 0 -0.015658296252779917 -0.034582990135837252 0 -0.015610529190214485 -0.034967371199964375 0 -0.015325545910045341 -0.034724811917600115 0 -0.015610529190214485 -0.034967371199964375 0 -0.015636644343585738 -0.034947549644161392 0 -0.015325545910045341 -0.034724811917600115 0 -0.011567374861119889 -0.038480591779327153 0 -0.014523516845020934 -0.040602830243782563 0 -0.01865415476586188 -0.036433906305224723 0 -0.014523516845020934 -0.040602830243782563 0 -0.015636644343585738 -0.034947549644161392 0 -0.015325545910045341 -0.034724811917600115 0 -0.015122077972372491 -0.035567855224947917 0 -0.0081096189939358163 -0.042301599920431393 0 -0.008476400167835265 -0.042194654888879267 0 -0.0081385914993126768 -0.042187785194029881 0 -0.0080663181102485389 -0.042388691322854243 0 -0.0081096189939358163 -0.042301599920431393 0 -0.008476400167835265 -0.042194654888879267 0 -0.020911176885934864 -0.039856479688058277 0 -0.02075472424380324 -0.040024990426186888 0 -0.020802141932893103 -0.04006579318118228 0 -0.020735709178492011 -0.039967975312961916 0 -0.020911176885934864 -0.039856479688058277 0 -0.02075472424380324 -0.040024990426186888 0 -0.017194184842068506 -0.046781843917746244 0 -0.01565371470624902 -0.044809492097172353 0 -0.01376455051876352 -0.053368611956845211 0 -0.013592678412625677 -0.053787311131484133 0 -0.013579400778601954 -0.053595095348741684 0 -0.011954341831110151 -0.046588452045239571 0 -0.010889992342545972 -0.052009110164346409 0 -0.013560100236573776 -0.053519124873239031 0 -0.013694813449962212 -0.053395572940321885 0 -0.013579400778601954 -0.053595095348741684 0 -0.020642149509640016 -0.040107774876470596 0 -0.02075472424380324 -0.040024990426186888 0 -0.020751991371256641 -0.04010636987200672 0 -0.02075472424380324 -0.040024990426186888 0 -0.020751991371256641 -0.04010636987200672 0 -0.020802141932893103 -0.04006579318118228 0 -0.01565371470624902 -0.044809492097172353 0 -0.014523516845020934 -0.040602830243782563 0 -0.013593380673805722 -0.044465645075047314 0 -0.013719761748143863 -0.044312602180501523 0 -0.013705194412673455 -0.044430322598979895 0 -0.014523516845020934 -0.040602830243782563 0 -0.011954341831110151 -0.046588452045239571 0 -0.01565371470624902 -0.044809492097172353 0 -0.011954341831110151 -0.046588452045239571 0 -0.013694813449962212 -0.053395572940321885 0 -0.01376455051876352 -0.053368611956845211 0 -0.013579400778601954 -0.053595095348741684 0 -0.011954341831110151 -0.046588452045239571 0 -0.0079447295403499898 -0.045181095860145702 0 -0.008476400167835265 -0.042194654888879267 0 -0.0084955318363333192 -0.042121872935430099 0 -0.0081385914993126768 -0.042187785194029881 0 -0.0084113061731544304 -0.047994135325150095 0 -0.0086116218490719931 -0.047855968606941059 0 -0.0086319940021993193 -0.048213103556586853 0 -0.0084113061731544304 -0.047994135325150095 0 -0.0086319940021993193 -0.048213103556586853 0 -0.0084975414352474795 -0.048604022336274678 0 -0.0086319940021993193 -0.048213103556586853 0 -0.0084975414352474795 -0.048604022336274678 0 -0.0088312228450904817 -0.048778199611215503 0 -0.013592678412625677 -0.053787311131484133 0 -0.013501268385965024 -0.053746612625920301 0 -0.013579400778601954 -0.053595095348741684 0 -0.0087251422588055343 -0.047819992397969205 0 -0.0087555397380986791 -0.048211524829291232 0 -0.0088733230208283241 -0.048049991365630179 0 -0.0087251422588055343 -0.047819992397969205 0 -0.0088499206693880509 -0.047500231131208437 0 -0.0088733230208283241 -0.048049991365630179 0 -0.0087251422588055343 -0.047819992397969205 0 -0.0088499206693880509 -0.047500231131208437 0 -0.0087145566430268852 -0.047510308231765025 0 -0.0087251422588055343 -0.047819992397969205 0 -0.0087145566430268852 -0.047510308231765025 0 -0.0086706939292492975 -0.047647378405190947 0 -0.0087251422588055343 -0.047819992397969205 0 -0.0086617440868615257 -0.047793192771484541 0 -0.0086707684283755613 -0.047970058200676777 0 -0.008646418874054821 -0.047661985076404831 0 -0.0086706939292492975 -0.047647378405190947 0 -0.0086617440868615257 -0.047793192771484541 0 -0.0087251422588055343 -0.047819992397969205 0 -0.0086706939292492975 -0.047647378405190947 0 -0.0086617440868615257 -0.047793192771484541 0 -0.0086116218490719931 -0.047855968606941059 0 -0.0086617440868615257 -0.047793192771484541 0 -0.0086707684283755613 -0.047970058200676777 0 -0.008646418874054821 -0.047661985076404831 0 -0.0086116218490719931 -0.047855968606941059 0 -0.0086617440868615257 -0.047793192771484541 0 -0.0086116218490719931 -0.047855968606941059 0 -0.0086319940021993193 -0.048213103556586853 0 -0.0086707684283755613 -0.047970058200676777 0 -0.0086319940021993193 -0.048213103556586853 0 -0.0086707684283755613 -0.047970058200676777 0 -0.0087555397380986791 -0.048211524829291232 0 -0.0087251422588055343 -0.047819992397969205 0 -0.0086707684283755613 -0.047970058200676777 0 -0.0087555397380986791 -0.048211524829291232 0 -0.0086319940021993193 -0.048213103556586853 0 -0.0087555397380986791 -0.048211524829291232 0 -0.0088312228450904817 -0.048778199611215503 0 -0.0087555397380986791 -0.048211524829291232 0 -0.0088090301995202049 -0.048348960541477158 0 -0.0088312228450904817 -0.048778199611215503 0 -0.0087555397380986791 -0.048211524829291232 0 -0.0088733230208283241 -0.048049991365630179 0 -0.0088090301995202049 -0.048348960541477158 0 -0.0086600935233321682 -0.047958726641801938 0 -0.0088733230208283241 -0.048049991365630179 0 -0.0088090301995202049 -0.048348960541477158 0 -0.0088090301995202049 -0.048348960541477158 0 -0.0087813858052507004 -0.048913408425282433 0 -0.0087081634058701965 -0.048247573317201795 0 -0.0088090301995202049 -0.048348960541477158 0 -0.0087813858052507004 -0.048913408425282433 0 -0.0088312228450904817 -0.048778199611215503 0 -0.0087813858052507004 -0.048913408425282433 0 -0.0084580654857577941 -0.049058437805883912 0 -0.0090193319764258952 -0.049830989645581268 0 -0.0087813858052507004 -0.048913408425282433 0 -0.0088312228450904817 -0.048778199611215503 0 -0.0091153471783889245 -0.049557237283070404 0 -0.0087813858052507004 -0.048913408425282433 0 -0.0091153471783889245 -0.049557237283070404 0 -0.0090193319764258952 -0.049830989645581268 0 -0.0087813858052507004 -0.048913408425282433 0 -0.0086300848864947089 -0.048441337685183918 0 -0.0087081634058701965 -0.048247573317201795 0 -0.0087813858052507004 -0.048913408425282433 0 -0.0084580654857577941 -0.049058437805883912 0 -0.0086300848864947089 -0.048441337685183918 0 -0.010889992342545972 -0.052009110164346409 0 -0.011103114588299903 -0.051243004875787743 0 -0.013592678412625677 -0.053787311131484133 0 -0.013413532732448889 -0.05387594730974004 0 -0.013089429411314709 -0.053597303915952486 0 -0.013592678412625677 -0.053787311131484133 0 -0.013501268385965024 -0.053746612625920301 0 -0.013413532732448889 -0.05387594730974004 0 -0.0084975414352474795 -0.048604022336274678 0 -0.0088312228450904817 -0.048778199611215503 0 -0.0089529569807036014 -0.049429006425243567 0 -0.0088312228450904817 -0.048778199611215503 0 -0.0091153471783889245 -0.049557237283070404 0 -0.0089529569807036014 -0.049429006425243567 0 -0.0091153471783889245 -0.049557237283070404 0 -0.0089529569807036014 -0.049429006425243567 0 -0.010170896619042795 -0.05014109117589894 0 -0.011103114588299903 -0.051243004875787743 0 -0.011561957006680145 -0.050891511039805812 0 -0.013607546976740265 -0.053308801880019144 0 -0.013089429411314709 -0.053597303915952486 0 -0.012797011059121491 -0.051918050818648726 0 -0.013607546976740265 -0.053308801880019144 0 -0.013413532732448889 -0.05387594730974004 0 -0.013089429411314709 -0.053597303915952486 0 -0.0091153471783889245 -0.049557237283070404 0 -0.010170896619042795 -0.05014109117589894 0 -0.0099332431513227959 -0.050120824393929862 0 -0.0091153471783889245 -0.049557237283070404 0 -0.0099332431513227959 -0.050120824393929862 0 -0.0090193319764258952 -0.049830989645581268 0 -0.0099332431513227959 -0.050120824393929862 0 -0.010003186508384058 -0.049999241615298909 0 -0.0090193319764258952 -0.049830989645581268 0 -0.012551034700263173 -0.049999363900385972 0 -0.010170896619042795 -0.05014109117589894 0 -0.0099332431513227959 -0.050120824393929862 0 -0.012553804656925091 -0.049999670329580324 0 -0.011561957006680145 -0.050891511039805812 0 -0.012551034700263173 -0.049999363900385972 0 -0.0099332431513227959 -0.050120824393929862 0 -0.010003186508384058 -0.049999241615298909 0 -0.0082036367862087355 -0.049731598511048324 0 -0.0084580654857577941 -0.049058437805883912 0 -0.0085456751595817289 -0.049555991575869304 0 -0.0082036367862087355 -0.049731598511048324 0 -0.0084580654857577941 -0.049058437805883912 0 -0.0090193319764258952 -0.049830989645581268 0 -0.010003186508384058 -0.049999241615298909 0 -0.0082036367862087355 -0.049731598511048324 0 -0.0090193319764258952 -0.049830989645581268 0 -0.010003186508384058 -0.049999241615298909 0 -0.0082036367862087355 -0.049731598511048324 0 -0.0074607076290217015 -0.049998378903558495 0 -0.0082036367862087355 -0.049731598511048324 0 -0.0074607076290217015 -0.049998378903558495 0 -0.0085456751595817289 -0.049555991575869304 0 -0.0074556657189871435 -0.050000091513299233 0 -0.0071567306362282168 -0.050383183720708019 0 -0.0074556992970252487 -0.049999996632975156 0 -0.0047019135338615924 -0.049999980797114991 0 -0.0056755226107730108 -0.051211237394744778 0 -0.0047019135338615924 -0.049999980797114991 0 -0.0056755226107730108 -0.051211237394744778 0 -0.0043055327802033342 -0.051209338295058436 0 -0.0047019135338615924 -0.049999980797114991 0 -0.0043055327802033342 -0.051209338295058436 0 -0.0029316276469141061 -0.051211333149588041 0 -0.0047019135338615924 -0.049999980797114991 0 -0.0029316276469141061 -0.051211333149588041 0 -0.0019481115363277567 -0.049999992105499561 0 -0.009320891285203586 -0.048839744070548925 0 -0.008620006973632445 -0.048793338555450615 0 -0.0087488661283919144 -0.048056618755070057 0 -0.0056755226107730108 -0.051211237394744778 0 -0.0043055327802033342 -0.051209338295058436 0 -0.003911551873070393 -0.052411163040342101 0 -0.0060523140754712105 -0.050117672844042033 0 -0.0027536069266867712 -0.050950570862670352 0 -0.0043055327802033342 -0.051209338295058436 0 -0.003911551873070393 -0.052411163040342101 0 -0.0029316276469141061 -0.051211333149588041 0 -0.0060523140754712105 -0.050117672844042033 0 -0.0082403254040140286 -0.048556668137087554 0 -0.0085456751595817289 -0.049555991575869304 0 -0.009320891285203586 -0.048839744070548925 0 -0.008620006973632445 -0.048793338555450615 0 -0.0071567306362282168 -0.050383183720708019 0 -0.0060523140754712105 -0.050117672844042033 0 -0.0084580654857577941 -0.049058437805883912 0 -0.0085456751595817289 -0.049555991575869304 0 -0.008620006973632445 -0.048793338555450615 0 -0.0084580654857577941 -0.049058437805883912 0 -0.008620006973632445 -0.048793338555450615 0 -0.0086300848864947089 -0.048441337685183918 0 -0.0086300848864947089 -0.048441337685183918 0 -0.0087488661283919144 -0.048056618755070057 0 -0.0086093860915187285 -0.047934515799688861 0 -0.008620006973632445 -0.048793338555450615 0 -0.0086300848864947089 -0.048441337685183918 0 -0.0087488661283919144 -0.048056618755070057 0 -0.0084358678775825584 -0.047541519020365845 0 -0.0087488661283919144 -0.048056618755070057 0 -0.0081900373324874567 -0.047502195475535754 0 -0.0087488661283919144 -0.048056618755070057 0 -0.0081900373324874567 -0.047502195475535754 0 -0.0086093860915187285 -0.047934515799688861 0 -0.0083342528080506718 -0.047658674613373635 0 -0.0081900373324874567 -0.047502195475535754 0 -0.0086093860915187285 -0.047934515799688861 0 -0.0086600935233321682 -0.047958726641801938 0 -0.0083342528080506718 -0.047658674613373635 0 -0.0086093860915187285 -0.047934515799688861 0 -0.0086600935233321682 -0.047958726641801938 0 -0.0088090301995202049 -0.048348960541477158 0 -0.0087081634058701965 -0.048247573317201795 0 -0.0086600935233321682 -0.047958726641801938 0 -0.0087081634058701965 -0.048247573317201795 0 -0.0086093860915187285 -0.047934515799688861 0 -0.0086300848864947089 -0.048441337685183918 0 -0.0087081634058701965 -0.048247573317201795 0 -0.0086093860915187285 -0.047934515799688861 0 -0.0075039705239664835 -0.046968318960886712 0 -0.0076482192373811151 -0.046964024034601329 0 -0.0063838343221075521 -0.046072862269049629 0 -0.0043420854142903727 -0.04979279106137785 0 -0.002945060555878638 -0.049663550143287577 0 -0.0083342528080506718 -0.047658674613373635 0 -0.0075039705239664835 -0.046968318960886712 0 -0.0081900373324874567 -0.047502195475535754 0 -0.0075039705239664835 -0.046968318960886712 0 -0.0081900373324874567 -0.047502195475535754 0 -0.0076482192373811151 -0.046964024034601329 0 -0.0084358678775825584 -0.047541519020365845 0 -0.0081900373324874567 -0.047502195475535754 0 -0.0076482192373811151 -0.046964024034601329 0 -0.0060523140754712105 -0.050117672844042033 0 -0.0043420854142903727 -0.04979279106137785 0 -0.0012171006059883327 -0.052745458018767281 0 -0.00081575065427982039 -0.051329338255190045 0 0.00057580056792928748 -0.052147878046900256 0 -0.0030512323250086112 -0.051717001481589836 0 -0.0012171006059883327 -0.052745458018767281 0 -0.0023942464497493628 -0.050887530514320399 0 -0.0012171006059883327 -0.052745458018767281 0 -0.00081575065427982039 -0.051329338255190045 0 -0.0023942464497493628 -0.050887530514320399 0 -0.00081575065427982039 -0.051329338255190045 0 -0.0023942464497493628 -0.050887530514320399 0 -0.0019461610218560652 -0.049999796957249362 0 -0.0027536069266867712 -0.050950570862670352 0 -0.0019482737953124285 -0.050000311243567262 0 -0.00081575065427982039 -0.051329338255190045 0 -0.0019461610218560652 -0.049999796957249362 0 0.00082839192371798669 -0.049999831494257775 0 0.00083019103317466634 -0.050000229303394754 0 0.00085998260313998492 -0.052091536823955682 0 0.00083108090303766243 -0.049999945089238405 0 0.0025939235155436847 -0.051402619818645696 0 0.0033170674299089122 -0.049999619817641186 0 0.0025939235155436847 -0.051402619818645696 0 0.0012050961983612837 -0.052070378140434061 0 0.001515108647084506 -0.052701741494024082 0 0.00083108090303766243 -0.049999945089238405 0 0.0025939235155436847 -0.051402619818645696 0 0.0012050961983612837 -0.052070378140434061 0 -0.00081575065427982039 -0.051329338255190045 0 0.00082839192371798669 -0.049999831494257775 0 0.00057580056792928748 -0.052147878046900256 0 0.0058048980053143498 -0.049999614899945782 0 0.0043462814675638319 -0.051030827253431534 0 0.0065180742063843944 -0.051867143339300079 0 0.0058048980053143498 -0.049999614899945782 0 0.0033170674299089122 -0.049999619817641186 0 0.0043462814675638319 -0.051030827253431534 0 0.0025939235155436847 -0.051402619818645696 0 0.0033170674299089122 -0.049999619817641186 0 0.0043462814675638319 -0.051030827253431534 0 0.0025939235155436847 -0.051402619818645696 0 0.0043462814675638319 -0.051030827253431534 0 0.0037318873949504696 -0.05220119312096002 0 0.0043462814675638319 -0.051030827253431534 0 0.0037318873949504696 -0.05220119312096002 0 0.0065180742063843944 -0.051867143339300079 0 0.0048059874793976174 -0.053239607121673874 0 0.0037318873949504696 -0.05220119312096002 0 0.0065180742063843944 -0.051867143339300079 0 0.0037318873949504696 -0.05220119312096002 0 0.0027499014835200299 -0.053081850563874343 0 0.001515108647084506 -0.052701741494024082 0 0.0025939235155436847 -0.051402619818645696 0 0.0037318873949504696 -0.05220119312096002 0 0.001515108647084506 -0.052701741494024082 0 0.0048059874793976174 -0.053239607121673874 0 0.0037318873949504696 -0.05220119312096002 0 0.0027499014835200299 -0.053081850563874343 0 0.0027499014835200299 -0.053081850563874343 0 0.0049406036155334142 -0.054965288421844838 0 0.0012089648816406631 -0.053289408974484025 0 0.0037724225024534895 -0.053318049245706038 0 0.0015090899397826631 -0.053317644043949522 0 0.0048059874793976174 -0.053239607121673874 0 0.0027499014835200299 -0.053081850563874343 0 0.0049406036155334142 -0.054965288421844838 0 0.0048059874793976174 -0.053239607121673874 0 0.0049406036155334142 -0.054965288421844838 0 0.0066375898757270813 -0.053617573950436266 0 0.00085998260313998492 -0.052091536823955682 0 0.00065691452133480592 -0.053251939523947703 0 -0.0012171006059883327 -0.052745458018767281 0 0.00057580056792928748 -0.052147878046900256 0 0.00039435124839894375 -0.053276585777670138 0 0.0012050961983612837 -0.052070378140434061 0 0.001515108647084506 -0.052701741494024082 0 0.00059059867578665039 -0.053255768276961005 0 0.0027499014835200299 -0.053081850563874343 0 0.001515108647084506 -0.052701741494024082 0 0.0013578149798354733 -0.053095346387948536 0 0.001515108647084506 -0.052701741494024082 0 0.0013578149798354733 -0.053095346387948536 0 0.00059059867578665039 -0.053255768276961005 0 0.0027499014835200299 -0.053081850563874343 0 0.0013578149798354733 -0.053095346387948536 0 0.0012089648816406631 -0.053289408974484025 0 0.0013578149798354733 -0.053095346387948536 0 0.0012089648816406631 -0.053289408974484025 0 0.00059059867578665039 -0.053255768276961005 0 0.00057580056792928748 -0.052147878046900256 0 0.00039435124839894375 -0.053276585777670138 0 0.00059059867578665039 -0.053255768276961005 0 -0.0067698471822384195 -0.046941558019973656 0 -0.0065375772429050278 -0.046109092304186236 0 -0.0058285267504696748 -0.044281483954984206 0 -0.0074393310460899404 -0.045127125252255332 0 -0.0061831572628283527 -0.044481869059927161 0 -0.0063838343221075521 -0.046072862269049629 0 -0.0065375772429050278 -0.046109092304186236 0 -0.0058285267504696748 -0.044281483954984206 0 -0.0079176068350131912 -0.043286220919569608 0 -0.0070351496359630375 -0.043811739248740308 0 -0.0083454769347146712 -0.044192783969959945 0 -0.0079176068350131912 -0.043286220919569608 0 -0.0061299568265479956 -0.043756600386533895 0 -0.0058285267504696748 -0.044281483954984206 0 -0.0079176068350131912 -0.043286220919569608 0 -0.0070351496359630375 -0.043811739248740308 0 -0.0061299568265479956 -0.043756600386533895 0 -0.0061299568265479956 -0.043756600386533895 0 -0.0051247175869273999 -0.043621632160063213 0 -0.0046990113266143201 -0.043358941752212478 0 -0.0061299568265479956 -0.043756600386533895 0 -0.0046990113266143201 -0.043358941752212478 0 -0.005910769623977929 -0.043791698829077422 0 -0.0070351496359630375 -0.043811739248740308 0 -0.0061299568265479956 -0.043756600386533895 0 -0.005910769623977929 -0.043791698829077422 0 0.0012089648816406631 -0.053289408974484025 0 0.00059059867578665039 -0.053255768276961005 0 0.00090662332754668038 -0.053086552586546223 0 -0.002945060555878638 -0.049663550143287577 0 -0.0019704551750698903 -0.048448426232487317 0 -0.0063838343221075521 -0.046072862269049629 0 -0.0051247175869273999 -0.043621632160063213 0 -0.0058285267504696748 -0.044281483954984206 0 0.00039435124839894375 -0.053276585777670138 0 0.00059059867578665039 -0.053255768276961005 0 0.00090662332754668038 -0.053086552586546223 0 -0.0061299568265479956 -0.043756600386533895 0 -0.0051247175869273999 -0.043621632160063213 0 -0.0058285267504696748 -0.044281483954984206 0 0.0026170917871598063 -0.051804428995324156 0 0.0012089648816406631 -0.053289408974484025 0 0.00090662332754668038 -0.053086552586546223 0 0.0026170917871598063 -0.051804428995324156 0 0.00090662332754668038 -0.053086552586546223 0 0.0020189892703766413 -0.054090887453879508 0 0.0026170917871598063 -0.051804428995324156 0 0.0020189892703766413 -0.054090887453879508 0 0.0043954885748101616 -0.052804674163159822 0 -0.0019704551750698903 -0.048448426232487317 0 0.00035640360492642106 -0.048375386980008865 0 -0.0015542735795642628 -0.042227212272814715 0 -0.0046990113266143201 -0.043358941752212478 0 -0.0043520498154288635 -0.043853762258024599 0 -0.0051247175869273999 -0.043621632160063213 0 -0.0015542735795642628 -0.042227212272814715 0 -0.0046990113266143201 -0.043358941752212478 0 -0.0015542735795642628 -0.042227212272814715 0 -0.0043520498154288635 -0.043853762258024599 0 -0.0023397211877129766 -0.04411956868288653 0 -0.0043520498154288635 -0.043853762258024599 0 -0.0023397211877129766 -0.04411956868288653 0 -0.0036737756904761006 -0.045047227742312103 0 -0.0043520498154288635 -0.043853762258024599 0 -0.0036737756904761006 -0.045047227742312103 0 -0.0051866610805213192 -0.044845700107222893 0 -0.0015542735795642628 -0.042227212272814715 0 -0.0023397211877129766 -0.04411956868288653 0 -4.000676238471832e-05 -0.044064352676494209 0 -0.0015542735795642628 -0.042227212272814715 0 -4.000676238471832e-05 -0.044064352676494209 0 0.004040215439996362 -0.043079466840277053 0 -4.000676238471832e-05 -0.044064352676494209 0 -0.00151231914232916 -0.045646656952878499 0 0.0017236265186355722 -0.045620642043493788 0 -0.0023397211877129766 -0.04411956868288653 0 -4.000676238471832e-05 -0.044064352676494209 0 -0.00151231914232916 -0.045646656952878499 0 -0.00151231914232916 -0.045646656952878499 0 -0.0021829195346329249 -0.047273166638911825 0 0.0003726084869854857 -0.047413240648521447 0 -0.00151231914232916 -0.045646656952878499 0 0.0017236265186355722 -0.045620642043493788 0 0.0003726084869854857 -0.047413240648521447 0 -0.0036737756904761006 -0.045047227742312103 0 -0.0049364826053106435 -0.04575342396858724 0 -0.0051866610805213192 -0.044845700107222893 0 -0.0023397211877129766 -0.04411956868288653 0 -0.00151231914232916 -0.045646656952878499 0 -0.0036737756904761006 -0.045047227742312103 0 -0.00151231914232916 -0.045646656952878499 0 -0.0036737756904761006 -0.045047227742312103 0 -0.0034723389692933684 -0.046293088407410053 0 -0.00151231914232916 -0.045646656952878499 0 -0.0034723389692933684 -0.046293088407410053 0 -0.0021829195346329249 -0.047273166638911825 0 -0.0036737756904761006 -0.045047227742312103 0 -0.0034723389692933684 -0.046293088407410053 0 -0.0049364826053106435 -0.04575342396858724 0 -0.0034723389692933684 -0.046293088407410053 0 -0.0049364826053106435 -0.04575342396858724 0 -0.0047412005139534381 -0.046758757635613754 0 -0.0049364826053106435 -0.04575342396858724 0 -0.0062362435451531247 -0.045416970091281782 0 -0.0059726535009335807 -0.046227949835629993 0 -0.0049364826053106435 -0.04575342396858724 0 -0.0062362435451531247 -0.045416970091281782 0 -0.0051866610805213192 -0.044845700107222893 0 -0.0049364826053106435 -0.04575342396858724 0 -0.0059726535009335807 -0.046227949835629993 0 -0.0047412005139534381 -0.046758757635613754 0 -0.0062362435451531247 -0.045416970091281782 0 -0.0072545411939875272 -0.045758502931534918 0 -0.0059726535009335807 -0.046227949835629993 0 -0.0062362435451531247 -0.045416970091281782 0 -0.0051866610805213192 -0.044845700107222893 0 -0.0065523550473791849 -0.044630533884723551 0 -0.0065523550473791849 -0.044630533884723551 0 -0.0077971992560895917 -0.044945420579309635 0 -0.0077381078791302731 -0.044383244025518985 0 -0.0062362435451531247 -0.045416970091281782 0 -0.0065523550473791849 -0.044630533884723551 0 -0.0077971992560895917 -0.044945420579309635 0 -0.0062362435451531247 -0.045416970091281782 0 -0.0077971992560895917 -0.044945420579309635 0 -0.0072545411939875272 -0.045758502931534918 0 -0.0077971992560895917 -0.044945420579309635 0 -0.0072545411939875272 -0.045758502931534918 0 -0.0083643471022695308 -0.045384233604589 0 -0.0083643471022695308 -0.045384233604589 0 -0.0090545626925042453 -0.044969015024506481 0 -0.009539752323110974 -0.045350978429801826 0 -0.0077971992560895917 -0.044945420579309635 0 -0.0083643471022695308 -0.045384233604589 0 -0.0090545626925042453 -0.044969015024506481 0 -0.0090545626925042453 -0.044969015024506481 0 -0.010214420123111108 -0.044852688153017829 0 -0.0090871498185861165 -0.044573639576174266 0 -0.0090545626925042453 -0.044969015024506481 0 -0.010214420123111108 -0.044852688153017829 0 -0.009539752323110974 -0.045350978429801826 0 -0.0077971992560895917 -0.044945420579309635 0 -0.0090545626925042453 -0.044969015024506481 0 -0.0090871498185861165 -0.044573639576174266 0 -0.0077971992560895917 -0.044945420579309635 0 -0.0090871498185861165 -0.044573639576174266 0 -0.0077381078791302731 -0.044383244025518985 0 -0.0077381078791302731 -0.044383244025518985 0 -0.0071132968998960768 -0.0440588609210514 0 -0.0065389942452567301 -0.044184278263402418 0 -0.0077381078791302731 -0.044383244025518985 0 -0.0083454769347146712 -0.044192783969959945 0 -0.0071132968998960768 -0.0440588609210514 0 -0.0090871498185861165 -0.044573639576174266 0 -0.0077381078791302731 -0.044383244025518985 0 -0.0083454769347146712 -0.044192783969959945 0 -0.0070351496359630375 -0.043811739248740308 0 -0.0083454769347146712 -0.044192783969959945 0 -0.0071132968998960768 -0.0440588609210514 0 -0.0070351496359630375 -0.043811739248740308 0 -0.0071132968998960768 -0.0440588609210514 0 -0.005910769623977929 -0.043791698829077422 0 -0.0071132968998960768 -0.0440588609210514 0 -0.005910769623977929 -0.043791698829077422 0 -0.0065389942452567301 -0.044184278263402418 0 -0.005910769623977929 -0.043791698829077422 0 -0.0056597324551466294 -0.04422273740934541 0 -0.0065389942452567301 -0.044184278263402418 0 -0.0046990113266143201 -0.043358941752212478 0 -0.0043520498154288635 -0.043853762258024599 0 -0.005910769623977929 -0.043791698829077422 0 -0.0043520498154288635 -0.043853762258024599 0 -0.005910769623977929 -0.043791698829077422 0 -0.0056597324551466294 -0.04422273740934541 0 -0.0051866610805213192 -0.044845700107222893 0 -0.0065523550473791849 -0.044630533884723551 0 -0.0056597324551466294 -0.04422273740934541 0 -0.0043520498154288635 -0.043853762258024599 0 -0.0051866610805213192 -0.044845700107222893 0 -0.0056597324551466294 -0.04422273740934541 0 -0.0065523550473791849 -0.044630533884723551 0 -0.0056597324551466294 -0.04422273740934541 0 -0.0065389942452567301 -0.044184278263402418 0 -0.0065523550473791849 -0.044630533884723551 0 -0.0077381078791302731 -0.044383244025518985 0 -0.0065389942452567301 -0.044184278263402418 0 0.010939484894489508 -0.056857323451883976 0 0.012437246446979829 -0.057721593186453826 0 0.0083505944197607412 -0.05756850618561897 0 0.010939484894489508 -0.056857323451883976 0 0.0097260926213213698 -0.056340198925056678 0 0.0083505944197607412 -0.05756850618561897 0 0.013161503275940513 -0.056436372665220877 0 0.0092329746250191334 -0.055087196286471879 0 0.0097260926213213698 -0.056340198925056678 0 0.0089104152879023353 -0.055722628594693534 0 0.010682216731951171 -0.055239389992979303 0 0.010939484894489508 -0.056857323451883976 0 0.0097260926213213698 -0.056340198925056678 0 0.010682216731951171 -0.055239389992979303 0 0.010939484894489508 -0.056857323451883976 0 0.012522644928885465 -0.05579586047940506 0 0.010682216731951171 -0.055239389992979303 0 0.012522644928885465 -0.05579586047940506 0 0.012437246446979829 -0.057721593186453826 0 0.014638750781239721 -0.05591254920555272 0 0.012522644928885465 -0.05579586047940506 0 0.013829860020001184 -0.054589996117366917 0 0.014638750781239721 -0.05591254920555272 0 0.010939484894489508 -0.056857323451883976 0 0.012522644928885465 -0.05579586047940506 0 0.012437246446979829 -0.057721593186453826 0 0.013704938265866211 -0.054976698263336898 0 0.015908140980021041 -0.055529649817153394 0 0.013710295833627558 -0.056622337028338826 0 0.013704938265866211 -0.054976698263336898 0 0.01161236709540089 -0.055241498157676573 0 0.013710295833627558 -0.056622337028338826 0 0.013704938265866211 -0.054976698263336898 0 0.01161236709540089 -0.055241498157676573 0 0.011362967967033941 -0.05447466956725925 0 0.010222978996025818 -0.050669124670571483 0 0.013420879637178643 -0.054341996761358098 0 0.0080550753743113199 -0.045277205202285474 0 0.004897012890538747 -0.046255200000602549 0 0.004040215439996362 -0.043079466840277053 0 0.0080550753743113199 -0.045277205202285474 0 0.004897012890538747 -0.046255200000602549 0 0.0074548605737794127 -0.047470129168126936 0 0.010222978996025818 -0.050669124670571483 0 0.0092329746250191334 -0.055087196286471879 0 0.0017236265186355722 -0.045620642043493788 0 0.004897012890538747 -0.046255200000602549 0 0.004040215439996362 -0.043079466840277053 0 0.0017236265186355722 -0.045620642043493788 0 0.004897012890538747 -0.046255200000602549 0 0.0040423199362452115 -0.048125521529804476 0 -4.000676238471832e-05 -0.044064352676494209 0 0.0017236265186355722 -0.045620642043493788 0 0.004040215439996362 -0.043079466840277053 0 0.00035640360492642106 -0.048375386980008865 0 0.0051728446473608362 -0.049708713637889458 0 0.0056474974523873702 -0.057136031669697981 0 0.0077898579445302603 -0.057545314524783807 0 0.0069790459581342357 -0.05472195942903002 0 0.0092329746250191334 -0.055087196286471879 0 0.0072218337496588866 -0.055650455121167099 0 0.010222978996025818 -0.050669124670571483 0 0.0051728446473608362 -0.049708713637889458 0 0.0098167472921201222 -0.052827233014175433 0 0.0061912888973651471 -0.050385323247217104 0 0.0092287906634840062 -0.050980702374257683 0 0.0083505944197607412 -0.05756850618561897 0 0.0089104152879023353 -0.055722628594693534 0 0.0069790459581342357 -0.05472195942903002 0 0.0051728446473608362 -0.049708713637889458 0 0.0092329746250191334 -0.055087196286471879 0 0.0097260926213213698 -0.056340198925056678 0 0.0083505944197607412 -0.05756850618561897 0 0.0089104152879023353 -0.055722628594693534 0 0.0089104152879023353 -0.055722628594693534 0 0.0069790459581342357 -0.05472195942903002 0 0.0088226490511782284 -0.054101801140373273 0 0.0069790459581342357 -0.05472195942903002 0 0.0088226490511782284 -0.054101801140373273 0 0.0063840145766643061 -0.053095529501592478 0 0.0069790459581342357 -0.05472195942903002 0 0.0048050770158421753 -0.054237654508685215 0 0.0063840145766643061 -0.053095529501592478 0 0.0088226490511782284 -0.054101801140373273 0 0.008143402771173789 -0.052649269476735913 0 0.0063840145766643061 -0.053095529501592478 0 0.0056474974523873702 -0.057136031669697981 0 0.0069790459581342357 -0.05472195942903002 0 0.0048050770158421753 -0.054237654508685215 0 0.0020189892703766413 -0.054090887453879508 0 0.0056474974523873702 -0.057136031669697981 0 0.0048050770158421753 -0.054237654508685215 0 0.0020189892703766413 -0.054090887453879508 0 0.0048050770158421753 -0.054237654508685215 0 0.0043954885748101616 -0.052804674163159822 0 0.0048050770158421753 -0.054237654508685215 0 0.0043954885748101616 -0.052804674163159822 0 0.0063840145766643061 -0.053095529501592478 0 0.0026170917871598063 -0.051804428995324156 0 0.0043954885748101616 -0.052804674163159822 0 0.0068483022421929433 -0.051204086937190675 0 0.0037724225024534895 -0.053318049245706038 0 0.0078141041858882758 -0.053565485618863089 0 0.0043954885748101616 -0.052804674163159822 0 0.0063840145766643061 -0.053095529501592478 0 0.0068483022421929433 -0.051204086937190675 0 0.008143402771173789 -0.052649269476735913 0 0.0074769455607595894 -0.050643356050903088 0 0.0098193802595482188 -0.052674243593203246 0 0.0068766909557068968 -0.052286684637021914 0 0.0078141041858882758 -0.053565485618863089 0 0.008143402771173789 -0.052649269476735913 0 0.0063840145766643061 -0.053095529501592478 0 0.0074769455607595894 -0.050643356050903088 0 0.0074769455607595894 -0.050643356050903088 0 0.0098193802595482188 -0.052674243593203246 0 0.011994914562061306 -0.051349879836987793 0 0.0098193802595482188 -0.052674243593203246 0 0.011969054199283862 -0.053793171409934885 0 0.011994914562061306 -0.051349879836987793 0 0.0078141041858882758 -0.053565485618863089 0 0.011639557516738319 -0.053645855364943922 0 0.0088226490511782284 -0.054101801140373273 0 0.008143402771173789 -0.052649269476735913 0 0.0098193802595482188 -0.052674243593203246 0 0.0088226490511782284 -0.054101801140373273 0 0.0098193802595482188 -0.052674243593203246 0 0.010365503208671148 -0.054011175238821381 0 0.010365503208671148 -0.054011175238821381 0 0.010682216731951171 -0.055239389992979303 0 0.011969054199283862 -0.053793171409934885 0 0.0098193802595482188 -0.052674243593203246 0 0.010365503208671148 -0.054011175238821381 0 0.011969054199283862 -0.053793171409934885 0 0.0089104152879023353 -0.055722628594693534 0 0.0088226490511782284 -0.054101801140373273 0 0.010682216731951171 -0.055239389992979303 0 0.0088226490511782284 -0.054101801140373273 0 0.010365503208671148 -0.054011175238821381 0 0.010682216731951171 -0.055239389992979303 0 0.012522644928885465 -0.05579586047940506 0 0.013829860020001184 -0.054589996117366917 0 0.011969054199283862 -0.053793171409934885 0 0.012522644928885465 -0.05579586047940506 0 0.010682216731951171 -0.055239389992979303 0 0.011969054199283862 -0.053793171409934885 0 0.013829860020001184 -0.054589996117366917 0 0.011969054199283862 -0.053793171409934885 0 0.014023276111352316 -0.053331186370341163 0 0.011969054199283862 -0.053793171409934885 0 0.014023276111352316 -0.053331186370341163 0 0.011994914562061306 -0.051349879836987793 0 0.014023276111352316 -0.053331186370341163 0 0.011994914562061306 -0.051349879836987793 0 0.01392575454194391 -0.051924211395463112 0 0.011639557516738319 -0.053645855364943922 0 0.013481952577559209 -0.053777843057849384 0 0.011244061186026281 -0.056017231309291544 0 0.012427217923835757 -0.056078821158778366 0 0.011850290762476441 -0.054482661065881878 0 0.011244061186026281 -0.056017231309291544 0 0.011850290762476441 -0.054482661065881878 0 0.010371640496408928 -0.054881294428141353 0 0.0088854332368969585 -0.055881143062177382 0 0.011244061186026281 -0.056017231309291544 0 0.010371640496408928 -0.054881294428141353 0 0.010371640496408928 -0.054881294428141353 0 0.010883383982966462 -0.053348344646433767 0 0.0095540001907670168 -0.053968991324697936 0 0.011850290762476441 -0.054482661065881878 0 0.010371640496408928 -0.054881294428141353 0 0.010883383982966462 -0.053348344646433767 0 0.010883383982966462 -0.053348344646433767 0 0.0095540001907670168 -0.053968991324697936 0 0.010180129424791382 -0.052015025408449267 0 0.0091324385548255307 -0.054015420575845539 0 0.0099541145874010879 -0.051747071746917984 0 0.011850290762476441 -0.054482661065881878 0 0.010883383982966462 -0.053348344646433767 0 0.012158965140379967 -0.052312540664429384 0 0.011850290762476441 -0.054482661065881878 0 0.012158965140379967 -0.052312540664429384 0 0.013499335786525941 -0.054074520791606524 0 0.0049406036155334142 -0.054965288421844838 0 0.007986326646432465 -0.055269565796560144 0 0.0066375898757270813 -0.053617573950436266 0 0.007986326646432465 -0.055269565796560144 0 0.0066375898757270813 -0.053617573950436266 0 0.0087272605947429083 -0.053341313646504518 0 0.0088854332368969585 -0.055881143062177382 0 0.010371640496408928 -0.054881294428141353 0 0.0095540001907670168 -0.053968991324697936 0 0.0078141041858882758 -0.053565485618863089 0 0.0091324385548255307 -0.054015420575845539 0 0.0066375898757270813 -0.053617573950436266 0 0.0087272605947429083 -0.053341313646504518 0 0.0065180742063843944 -0.051867143339300079 0 0.0048059874793976174 -0.053239607121673874 0 0.0066375898757270813 -0.053617573950436266 0 0.0065180742063843944 -0.051867143339300079 0 0.0065180742063843944 -0.051867143339300079 0 0.0082923898701951822 -0.049999723904946163 0 0.0096599939872863329 -0.051685730252673201 0 0.0087272605947429083 -0.053341313646504518 0 0.0065180742063843944 -0.051867143339300079 0 0.0096599939872863329 -0.051685730252673201 0 0.0058048980053143498 -0.049999614899945782 0 0.0065180742063843944 -0.051867143339300079 0 0.0082923898701951822 -0.049999723904946163 0 0.010883383982966462 -0.053348344646433767 0 0.012158965140379967 -0.052312540664429384 0 0.010180129424791382 -0.052015025408449267 0 0.0099541145874010879 -0.051747071746917984 0 0.010780100863149993 -0.050000384558666441 0 0.0082923898701951822 -0.049999723904946163 0 0.0096599939872863329 -0.051685730252673201 0 0.010779729474642388 -0.049999865737433397 0 0.012158965140379967 -0.052312540664429384 0 0.010780617063882491 -0.049999994540952615 0 0.013304171714472405 -0.049999954683360028 0 0.012158965140379967 -0.052312540664429384 0 0.010180129424791382 -0.052015025408449267 0 0.010780617063882491 -0.049999994540952615 0 0.012158965140379967 -0.052312540664429384 0 0.013304171714472405 -0.049999954683360028 0 0.014634016303139773 -0.052079419437296527 0 0.012158965140379967 -0.052312540664429384 0 0.014634016303139773 -0.052079419437296527 0 0.013499335786525941 -0.054074520791606524 0 0.015287978960831592 -0.051642417704263616 0 0.015828199517776129 -0.050000278381324717 0 0.013304171714472405 -0.049999954683360028 0 0.014634016303139773 -0.052079419437296527 0 0.015828100275172771 -0.049999974817794057 0 0.015941614294974867 -0.051342681473368873 0 0.015830624108394368 -0.050000016308902009 0 0.017503653307602004 -0.051445788914523935 0 0.015830624108394368 -0.050000016308902009 0 0.018633031550959304 -0.049999610733588912 0 0.017503653307602004 -0.051445788914523935 0 0.018633031550959304 -0.049999610733588912 0 0.017503653307602004 -0.051445788914523935 0 0.019636878686300759 -0.051660940829622179 0 0.017503653307602004 -0.051445788914523935 0 0.018342413072294943 -0.052646562493821894 0 0.019636878686300759 -0.051660940829622179 0 0.015941614294974867 -0.051342681473368873 0 0.017503653307602004 -0.051445788914523935 0 0.016994523046955031 -0.052103737419302736 0 0.017503653307602004 -0.051445788914523935 0 0.016994523046955031 -0.052103737419302736 0 0.018342413072294943 -0.052646562493821894 0 0.016994523046955031 -0.052103737419302736 0 0.018342413072294943 -0.052646562493821894 0 0.017512284910263895 -0.052702638792938079 0 0.018877585777919353 -0.053130580085416539 0 0.018176604332363986 -0.054185223754366692 0 0.019328659834816922 -0.053653858320979263 0 0.019321614940850534 -0.055101715530040223 0 0.018577943063062964 -0.054918019600624972 0 0.018342413072294943 -0.052646562493821894 0 0.017512284910263895 -0.052702638792938079 0 0.017811553271055894 -0.053371320718328667 0 0.016748494580019715 -0.052622955406108562 0 0.017512284910263895 -0.052702638792938079 0 0.017811553271055894 -0.053371320718328667 0 0.016994523046955031 -0.052103737419302736 0 0.016748494580019715 -0.052622955406108562 0 0.017512284910263895 -0.052702638792938079 0 0.016748494580019715 -0.052622955406108562 0 0.0161978085596301 -0.05268986454078068 0 0.016919156224963202 -0.053500246502561064 0 0.016748494580019715 -0.052622955406108562 0 0.0161978085596301 -0.05268986454078068 0 0.015703435266934275 -0.052212642555985685 0 0.012427217923835757 -0.056078821158778366 0 0.011850290762476441 -0.054482661065881878 0 0.013499335786525941 -0.054074520791606524 0 0.0161978085596301 -0.05268986454078068 0 0.015703435266934275 -0.052212642555985685 0 0.015648597807944465 -0.052759828921991291 0 0.01533066720158608 -0.052751828046358487 0 0.015703435266934275 -0.052212642555985685 0 0.015648597807944465 -0.052759828921991291 0 0.013481952577559209 -0.053777843057849384 0 0.014617856138917076 -0.05324078683029982 0 0.016994523046955031 -0.052103737419302736 0 0.016748494580019715 -0.052622955406108562 0 0.015703435266934275 -0.052212642555985685 0 0.015941614294974867 -0.051342681473368873 0 0.016994523046955031 -0.052103737419302736 0 0.015703435266934275 -0.052212642555985685 0 0.015287978960831592 -0.051642417704263616 0 0.014617856138917076 -0.05324078683029982 0 0.024988346252849108 -0.051516765550942555 0 0.02417256069460685 -0.049999735607636014 0 0.022598216091976184 -0.052085142045430466 0 0.02417256069460685 -0.049999735607636014 0 0.022598216091976184 -0.052085142045430466 0 0.02144042024160743 -0.050006028344914029 0 0.022598216091976184 -0.052085142045430466 0 0.02144042024160743 -0.050006028344914029 0 0.020532482443578984 -0.051759975984384456 0 0.022598216091976184 -0.052085142045430466 0 0.020532482443578984 -0.051759975984384456 0 0.020911289073176315 -0.053160530330166947 0 0.021439192882132075 -0.050006526924906994 0 0.020101471480788523 -0.051668526513200745 0 0.018633031550959304 -0.049999610733588912 0 0.021438911945419921 -0.050006231275265441 0 0.019636878686300759 -0.051660940829622179 0 0.019328659834816922 -0.053653858320979263 0 0.020532482443578984 -0.051759975984384456 0 0.020911289073176315 -0.053160530330166947 0 0.018877585777919353 -0.053130580085416539 0 0.020101471480788523 -0.051668526513200745 0 0.019328659834816922 -0.053653858320979263 0 0.020513660374152962 -0.054303527914273592 0 0.020911289073176315 -0.053160530330166947 0 0.019328659834816922 -0.053653858320979263 0 0.020513660374152962 -0.054303527914273592 0 0.019321614940850534 -0.055101715530040223 0 0.020513660374152962 -0.054303527914273592 0 0.020911289073176315 -0.053160530330166947 0 0.022164134364050386 -0.054228026373938691 0 0.020513660374152962 -0.054303527914273592 0 0.022164134364050386 -0.054228026373938691 0 0.021176624210635805 -0.055501253992921315 0 0.022598216091976184 -0.052085142045430466 0 0.020911289073176315 -0.053160530330166947 0 0.022164134364050386 -0.054228026373938691 0 0.022598216091976184 -0.052085142045430466 0 0.022164134364050386 -0.054228026373938691 0 0.024346515021457991 -0.054086630132548282 0 0.022164134364050386 -0.054228026373938691 0 0.024346515021457991 -0.054086630132548282 0 0.02346720730804722 -0.056403405019797244 0 0.024988346252849108 -0.051516765550942555 0 0.022598216091976184 -0.052085142045430466 0 0.024346515021457991 -0.054086630132548282 0 0.024346515021457991 -0.054086630132548282 0 0.02346720730804722 -0.056403405019797244 0 0.026874853901758346 -0.055919488703287959 0 0.02346720730804722 -0.056403405019797244 0 0.022978787828629339 -0.059304710503154015 0 0.025783363606697526 -0.058516021599231013 0 0.022164134364050386 -0.054228026373938691 0 0.02346720730804722 -0.056403405019797244 0 0.021176624210635805 -0.055501253992921315 0 0.02346720730804722 -0.056403405019797244 0 0.021117383006048242 -0.057399318234417282 0 0.022978787828629339 -0.059304710503154015 0 0.02346720730804722 -0.056403405019797244 0 0.021117383006048242 -0.057399318234417282 0 0.021176624210635805 -0.055501253992921315 0 0.021117383006048242 -0.057399318234417282 0 0.021176624210635805 -0.055501253992921315 0 0.019321614940850534 -0.055101715530040223 0 0.020273126033657846 -0.056298014314105194 0 0.019338558721058122 -0.055216248541964011 0 0.020513660374152962 -0.054303527914273592 0 0.021176624210635805 -0.055501253992921315 0 0.019321614940850534 -0.055101715530040223 0 0.019302339960443709 -0.055341066381030993 0 0.019321614940850534 -0.055101715530040223 0 0.019042281950284071 -0.055319262368346389 0 0.019302339960443709 -0.055341066381030993 0 0.01925875011722716 -0.055674024219431899 0 0.019042281950284071 -0.055319262368346389 0 0.01925875011722716 -0.055674024219431899 0 0.019042281950284071 -0.055319262368346389 0 0.019012621836432691 -0.055719556436981822 0 0.01925875011722716 -0.055674024219431899 0 0.019012621836432691 -0.055719556436981822 0 0.01980805078728412 -0.055912251470360649 0 0.01925875011722716 -0.055674024219431899 0 0.019261835514741466 -0.055545349654212275 0 0.019200961028236718 -0.055460420811137223 0 0.01925875011722716 -0.055674024219431899 0 0.019321556033709813 -0.055543364134175273 0 0.019261835514741466 -0.055545349654212275 0 0.019302339960443709 -0.055341066381030993 0 0.01925875011722716 -0.055674024219431899 0 0.019321556033709813 -0.055543364134175273 0 0.020273126033657846 -0.056298014314105194 0 0.020655514789505773 -0.057812006339676002 0 0.019321556033709813 -0.055543364134175273 0 0.019261835514741466 -0.055545349654212275 0 0.019353670429312707 -0.055542722263433424 0 0.019261835514741466 -0.055545349654212275 0 0.019353670429312707 -0.055542722263433424 0 0.019200961028236718 -0.055460420811137223 0 0.020655514789505773 -0.057812006339676002 0 0.026241941935199836 -0.054723695766802735 0 0.022978787828629339 -0.059304710503154015 0 0.024866615115221272 -0.061162512256844541 0 0.025783363606697526 -0.058516021599231013 0 0.015758260395339535 -0.054307621316717264 0 0.017704926062466871 -0.055046177623990139 0 0.016519137309396987 -0.055897494688619584 0 0.015758260395339535 -0.054307621316717264 0 0.016919156224963202 -0.053500246502561064 0 0.017704926062466871 -0.055046177623990139 0 0.013829860020001184 -0.054589996117366917 0 0.014023276111352316 -0.053331186370341163 0 0.015758260395339535 -0.054307621316717264 0 0.013829860020001184 -0.054589996117366917 0 0.015758260395339535 -0.054307621316717264 0 0.014638750781239721 -0.05591254920555272 0 0.014023276111352316 -0.053331186370341163 0 0.015758260395339535 -0.054307621316717264 0 0.015648597807944465 -0.052759828921991291 0 0.014023276111352316 -0.053331186370341163 0 0.01392575454194391 -0.051924211395463112 0 0.015648597807944465 -0.052759828921991291 0 0.013481952577559209 -0.053777843057849384 0 0.015601075197612144 -0.05289780645898829 0 0.015758260395339535 -0.054307621316717264 0 0.015648597807944465 -0.052759828921991291 0 0.016919156224963202 -0.053500246502561064 0 0.0161978085596301 -0.05268986454078068 0 0.015648597807944465 -0.052759828921991291 0 0.016919156224963202 -0.053500246502561064 0 0.016919156224963202 -0.053500246502561064 0 0.017811553271055894 -0.053371320718328667 0 0.017704926062466871 -0.055046177623990139 0 0.016748494580019715 -0.052622955406108562 0 0.016919156224963202 -0.053500246502561064 0 0.017811553271055894 -0.053371320718328667 0 0.019321614940850534 -0.055101715530040223 0 0.018577943063062964 -0.054918019600624972 0 0.019042281950284071 -0.055319262368346389 0 0.018577943063062964 -0.054918019600624972 0 0.019042281950284071 -0.055319262368346389 0 0.017704926062466871 -0.055046177623990139 0 0.018176604332363986 -0.054185223754366692 0 0.017684713575990427 -0.055065054169319956 0 0.017704926062466871 -0.055046177623990139 0 0.019012621836432691 -0.055719556436981822 0 0.017969605305042616 -0.056354576996123902 0 0.017704926062466871 -0.055046177623990139 0 0.017969605305042616 -0.056354576996123902 0 0.016519137309396987 -0.055897494688619584 0 0.019042281950284071 -0.055319262368346389 0 0.017704926062466871 -0.055046177623990139 0 0.019012621836432691 -0.055719556436981822 0 0.019012621836432691 -0.055719556436981822 0 0.01980805078728412 -0.055912251470360649 0 0.018646034687882656 -0.056458406096032511 0 0.019012621836432691 -0.055719556436981822 0 0.017969605305042616 -0.056354576996123902 0 0.018646034687882656 -0.056458406096032511 0 0.017969605305042616 -0.056354576996123902 0 0.015908140980021041 -0.055529649817153394 0 0.016974342575169311 -0.056739374896545111 0 0.017969605305042616 -0.056354576996123902 0 0.016519137309396987 -0.055897494688619584 0 0.015748311135063552 -0.057275126678479289 0 0.017756986744941521 -0.056406495780634475 0 0.015731072754075578 -0.056367980324274557 0 0.016519137309396987 -0.055897494688619584 0 0.014638750781239721 -0.05591254920555272 0 0.015748311135063552 -0.057275126678479289 0 0.012437246446979829 -0.057721593186453826 0 0.014638750781239721 -0.05591254920555272 0 0.015748311135063552 -0.057275126678479289 0 0.015758260395339535 -0.054307621316717264 0 0.016519137309396987 -0.055897494688619584 0 0.014638750781239721 -0.05591254920555272 0 0.013161503275940513 -0.056436372665220877 0 0.015731072754075578 -0.056367980324274557 0 0.015908140980021041 -0.055529649817153394 0 0.015612227219959456 -0.057833604044910024 0 0.013710295833627558 -0.056622337028338826 0 0.01067605838505321 -0.050127321866803923 0 0.010509739444611896 -0.048990526865171212 0 0.011213557353457118 -0.049328669383228815 0 0.01067605838505321 -0.050127321866803923 0 0.011725534843088404 -0.049945363884068832 0 0.011213557353457118 -0.049328669383228815 0 0.01067605838505321 -0.050127321866803923 0 0.0098235966346680477 -0.049352255004314824 0 0.010266276956223213 -0.049248687583899949 0 0.012592023640192131 -0.054023362610380786 0 0.016347060128772701 -0.052258501162824003 0 0.015612227219959456 -0.057833604044910024 0 0.017252026855082411 -0.057638224505599078 0 0.017315898513850191 -0.05886868531776885 0 0.015612227219959456 -0.057833604044910024 0 0.017252026855082411 -0.057638224505599078 0 0.016974342575169311 -0.056739374896545111 0 0.015908140980021041 -0.055529649817153394 0 0.015612227219959456 -0.057833604044910024 0 0.016974342575169311 -0.056739374896545111 0 0.017969605305042616 -0.056354576996123902 0 0.016974342575169311 -0.056739374896545111 0 0.017852392849791753 -0.056958788104307385 0 0.017969605305042616 -0.056354576996123902 0 0.017852392849791753 -0.056958788104307385 0 0.018646034687882656 -0.056458406096032511 0 0.017852392849791753 -0.056958788104307385 0 0.018646034687882656 -0.056458406096032511 0 0.018526949123427387 -0.057740620960259802 0 0.017252026855082411 -0.057638224505599078 0 0.017852392849791753 -0.056958788104307385 0 0.018526949123427387 -0.057740620960259802 0 0.017252026855082411 -0.057638224505599078 0 0.016974342575169311 -0.056739374896545111 0 0.017852392849791753 -0.056958788104307385 0 0.01980805078728412 -0.055912251470360649 0 0.021839837708272955 -0.052631160025752091 0 0.022525399330098454 -0.052726139217336612 0 0.01980805078728412 -0.055912251470360649 0 0.018646034687882656 -0.056458406096032511 0 0.018526949123427387 -0.057740620960259802 0 0.01980805078728412 -0.055912251470360649 0 0.021839837708272955 -0.052631160025752091 0 0.018942544340073159 -0.055058156693053931 0 0.019930409062372072 -0.055764139838280574 0 0.020478337626752163 -0.055649142457320271 0 0.021839837708272955 -0.052631160025752091 0 0.022525399330098454 -0.052726139217336612 0 0.022268282078856318 -0.052897167832242867 0 0.022767079095277684 -0.05299711429919092 0 0.022268282078856318 -0.052897167832242867 0 0.022320893902072425 -0.053298671427974571 0 0.021839837708272955 -0.052631160025752091 0 0.022767079095277684 -0.05299711429919092 0 0.022268282078856318 -0.052897167832242867 0 0.021839837708272955 -0.052631160025752091 0 0.022767079095277684 -0.05299711429919092 0 0.023994668846692019 -0.052338705488946986 0 0.022525399330098454 -0.052726139217336612 0 0.022268282078856318 -0.052897167832242867 0 0.021250059110319519 -0.053266728595060049 0 0.017252026855082411 -0.057638224505599078 0 0.018526949123427387 -0.057740620960259802 0 0.017315898513850191 -0.05886868531776885 0 0.020478337626752163 -0.055649142457320271 0 0.016347060128772701 -0.052258501162824003 0 0.016138158963616294 -0.048235942267592972 0 0.016102432528191917 -0.050923905101362001 0 0.017766982683850498 -0.051897515734309306 0 0.016138158963616294 -0.048235942267592972 0 0.020833494321090194 -0.051283747617620154 0 0.017766982683850498 -0.051897515734309306 0 0.016347060128772701 -0.052258501162824003 0 0.022315690452848751 -0.052899082212872865 0 0.021250059110319519 -0.053266728595060049 0 0.022320893902072425 -0.053298671427974571 0 0.022967060246365852 -0.054668027075362662 0 0.022268282078856318 -0.052897167832242867 0 0.021250059110319519 -0.053266728595060049 0 0.022320893902072425 -0.053298671427974571 0 0.023365458766564432 -0.053726437584862057 0 0.022967060246365852 -0.054668027075362662 0 0.02477079419801426 -0.054542938784056076 0 0.023365458766564432 -0.053726437584862057 0 0.022320893902072425 -0.053298671427974571 0 0.022967060246365852 -0.054668027075362662 0 0.022767079095277684 -0.05299711429919092 0 0.023365458766564432 -0.053726437584862057 0 0.024359530176419678 -0.053213970028320436 0 0.022767079095277684 -0.05299711429919092 0 0.023365458766564432 -0.053726437584862057 0 0.022320893902072425 -0.053298671427974571 0 0.020833494321090194 -0.051283747617620154 0 0.020024981162592211 -0.053721397569249117 0 0.022351717889225658 -0.05553368496025992 0 0.020833494321090194 -0.051283747617620154 0 0.020024981162592211 -0.053721397569249117 0 0.017766982683850498 -0.051897515734309306 0 0.020024981162592211 -0.053721397569249117 0 0.017766982683850498 -0.051897515734309306 0 0.019366198616982907 -0.056126542416363452 0 0.017972602401561014 -0.05312523335819308 0 0.019325917294168129 -0.050849210596809281 0 0.017766982683850498 -0.051897515734309306 0 0.016610137241639806 -0.052350467112537068 0 0.017169320806878975 -0.052643951980076521 0 0.016102432528191917 -0.050923905101362001 0 0.017766982683850498 -0.051897515734309306 0 0.016610137241639806 -0.052350467112537068 0 0.0091237274862935903 -0.047711009498201562 0 0.010110419410129894 -0.048395403536381457 0 0.010062104353233179 -0.047167131395395384 0 0.016102432528191917 -0.050923905101362001 0 0.016610137241639806 -0.052350467112537068 0 0.014258011557889997 -0.050877147365555514 0 0.012135993709321594 -0.049421848258475044 0 0.011079282166808686 -0.049198014523548925 0 0.010110419410129894 -0.048395403536381457 0 0.011165556519851816 -0.046867232444884582 0 0.010062104353233179 -0.047167131395395384 0 0.011079282166808686 -0.049198014523548925 0 0.010758259919687129 -0.046772608472709219 0 0.0095845376350880019 -0.048257956401970822 0 0.010678771574373538 -0.048029680939026848 0 0.01054645581951206 -0.046809516476168635 0 0.010678771574373538 -0.048029680939026848 0 0.01054645581951206 -0.046809516476168635 0 0.011250713575030337 -0.04768906571016595 0 0.010678771574373538 -0.048029680939026848 0 0.011182985550561813 -0.04854390197286805 0 0.011250713575030337 -0.04768906571016595 0 0.01067605838505321 -0.050127321866803923 0 0.010509739444611896 -0.048990526865171212 0 0.010266276956223213 -0.049248687583899949 0 0.0095845376350880019 -0.048257956401970822 0 0.010678771574373538 -0.048029680939026848 0 0.010509739444611896 -0.048990526865171212 0 0.011079282166808686 -0.049198014523548925 0 0.010201963272852355 -0.048678045080020535 0 0.010509739444611896 -0.048990526865171212 0 0.011213557353457118 -0.049328669383228815 0 0.011182985550561813 -0.04854390197286805 0 0.010678771574373538 -0.048029680939026848 0 0.010509739444611896 -0.048990526865171212 0 0.011182985550561813 -0.04854390197286805 0 0.0098235966346680477 -0.049352255004314824 0 0.010230398069279015 -0.048800668745552535 0 0.010266276956223213 -0.049248687583899949 0 0.016347060128772701 -0.052258501162824003 0 0.011079282166808686 -0.049198014523548925 0 0.016138158963616294 -0.048235942267592972 0 0.016102432528191917 -0.050923905101362001 0 0.014258011557889997 -0.050877147365555514 0 0.010230398069279015 -0.048800668745552535 0 0.010509739444611896 -0.048990526865171212 0 0.010266276956223213 -0.049248687583899949 0 0.030363786683588589 -0.052079877999492249 0 0.031692870409202323 -0.050144733312558018 0 0.032580204553985734 -0.051980493093197667 0 0.030363786683588589 -0.052079877999492249 0 0.031692870409202323 -0.050144733312558018 0 0.030112372560101391 -0.049823490250791858 0 0.031547565324571383 -0.048425734700355202 0 0.031692870409202323 -0.050144733312558018 0 0.031250760380638953 -0.049230957308159372 0 0.031547565324571383 -0.048425734700355202 0 0.031250760380638953 -0.049230957308159372 0 0.030112372560101391 -0.049823490250791858 0 0.031692870409202323 -0.050144733312558018 0 0.031250760380638953 -0.049230957308159372 0 0.030112372560101391 -0.049823490250791858 0 0.031547565324571383 -0.048425734700355202 0 0.030112372560101391 -0.049823490250791858 0 0.028162669304373115 -0.049463354028713574 0 0.026241941935199836 -0.054723695766802735 0 0.023614741149880998 -0.052199609531902523 0 0.030363786683588589 -0.052079877999492249 0 0.030112372560101391 -0.049823490250791858 0 0.028162669304373115 -0.049463354028713574 0 0.030363786683588589 -0.052079877999492249 0 0.028162669304373115 -0.049463354028713574 0 0.028236478756095994 -0.053164488805867223 0 0.028162669304373115 -0.049463354028713574 0 0.026158747995220447 -0.05217051397424316 0 0.028236478756095994 -0.053164488805867223 0 0.01925875011722716 -0.055674024219431899 0 0.019200961028236718 -0.055460420811137223 0 0.018942544340073159 -0.055058156693053931 0 0.028162669304373115 -0.049463354028713574 0 0.026158747995220447 -0.05217051397424316 0 0.025072297134995817 -0.050511912596451852 0 0.023614741149880998 -0.052199609531902523 0 0.022139912146801208 -0.052764813321014653 0 0.01925875011722716 -0.055674024219431899 0 0.01980805078728412 -0.055912251470360649 0 0.018942544340073159 -0.055058156693053931 0 0.021839837708272955 -0.052631160025752091 0 0.025072297134995817 -0.050511912596451852 0 0.023994668846692019 -0.052338705488946986 0 0.026158747995220447 -0.05217051397424316 0 0.023994668846692019 -0.052338705488946986 0 0.024359530176419678 -0.053213970028320436 0 0.026158747995220447 -0.05217051397424316 0 0.025072297134995817 -0.050511912596451852 0 0.023994668846692019 -0.052338705488946986 0 0.02198561412880418 -0.052625720440682422 0 0.022139912146801208 -0.052764813321014653 0 0.022767079095277684 -0.05299711429919092 0 0.023994668846692019 -0.052338705488946986 0 0.024359530176419678 -0.053213970028320436 0 0.024359530176419678 -0.053213970028320436 0 0.02477079419801426 -0.054542938784056076 0 0.026201685545863117 -0.053672418402923326 0 0.023365458766564432 -0.053726437584862057 0 0.024359530176419678 -0.053213970028320436 0 0.02477079419801426 -0.054542938784056076 0 0.022315690452848751 -0.052899082212872865 0 0.025052819132958044 -0.055470068607564836 0 0.022967060246365852 -0.054668027075362662 0 0.02477079419801426 -0.054542938784056076 0 0.025442227513835899 -0.055698446452540538 0 0.020833494321090194 -0.051283747617620154 0 0.025442227513835899 -0.055698446452540538 0 0.022351717889225658 -0.05553368496025992 0 0.02477079419801426 -0.054542938784056076 0 0.027567837690374811 -0.05512307440702325 0 0.026201685545863117 -0.053672418402923326 0 0.02477079419801426 -0.054542938784056076 0 0.027567837690374811 -0.05512307440702325 0 0.025442227513835899 -0.055698446452540538 0 0.027567837690374811 -0.05512307440702325 0 0.026201685545863117 -0.053672418402923326 0 0.028236478756095994 -0.053164488805867223 0 0.026158747995220447 -0.05217051397424316 0 0.024359530176419678 -0.053213970028320436 0 0.026201685545863117 -0.053672418402923326 0 0.026158747995220447 -0.05217051397424316 0 0.026201685545863117 -0.053672418402923326 0 0.028236478756095994 -0.053164488805867223 0 0.027567837690374811 -0.05512307440702325 0 0.028236478756095994 -0.053164488805867223 0 0.031537900688131885 -0.055236799139941159 0 0.027567837690374811 -0.05512307440702325 0 0.031537900688131885 -0.055236799139941159 0 0.028874523022335577 -0.056976479279866175 0 0.032064054895752231 -0.054582852543121542 0 0.029069982478497337 -0.056899482787096965 0 0.030363786683588589 -0.052079877999492249 0 0.028236478756095994 -0.053164488805867223 0 0.031537900688131885 -0.055236799139941159 0 0.030363786683588589 -0.052079877999492249 0 0.031537900688131885 -0.055236799139941159 0 0.032580204553985734 -0.051980493093197667 0 0.03195671888499696 -0.059199293577305842 0 0.031961081668428731 -0.056625837814655952 0 0.028874523022335577 -0.056976479279866175 0 0.032645577300129576 -0.053864919294781384 0 0.031961081668428731 -0.056625837814655952 0 0.028874523022335577 -0.056976479279866175 0 0.027567837690374811 -0.05512307440702325 0 0.028874523022335577 -0.056976479279866175 0 0.027059288511984001 -0.056515098856642923 0 0.028874523022335577 -0.056976479279866175 0 0.027170178072919295 -0.057538991258694695 0 0.027059288511984001 -0.056515098856642923 0 0.026016421244436622 -0.055954579599977003 0 0.028088987165678092 -0.056542120218967026 0 0.027180532124658874 -0.055027297986182257 0 0.028874523022335577 -0.056976479279866175 0 0.027617229158895262 -0.058853939170957784 0 0.027170178072919295 -0.057538991258694695 0 0.03195671888499696 -0.059199293577305842 0 0.028874523022335577 -0.056976479279866175 0 0.027617229158895262 -0.058853939170957784 0 0.027105154475307782 -0.059188885907743856 0 0.028232329799736083 -0.057526710212485586 0 0.025411478902538167 -0.057753689665094365 0 0.027617229158895262 -0.058853939170957784 0 0.02370657944999616 -0.057914535505821499 0 0.027574556424106202 -0.056856335930637339 0 0.028088987165678092 -0.056542120218967026 0 0.02370657944999616 -0.057914535505821499 0 0.028232329799736083 -0.057526710212485586 0 0.023905124651103865 -0.0579043168916899 0 0.027574556424106202 -0.056856335930637339 0 0.028088987165678092 -0.056542120218967026 0 0.02790216184171012 -0.05589593321065299 0 0.025411478902538167 -0.057753689665094365 0 0.027617229158895262 -0.058853939170957784 0 0.025868524101727602 -0.057378077615103891 0 0.027617229158895262 -0.058853939170957784 0 0.027170178072919295 -0.057538991258694695 0 0.025868524101727602 -0.057378077615103891 0 0.027170178072919295 -0.057538991258694695 0 0.027059288511984001 -0.056515098856642923 0 0.025868524101727602 -0.057378077615103891 0 0.027567837690374811 -0.05512307440702325 0 0.027059288511984001 -0.056515098856642923 0 0.025442227513835899 -0.055698446452540538 0 0.027059288511984001 -0.056515098856642923 0 0.025868524101727602 -0.057378077615103891 0 0.025442227513835899 -0.055698446452540538 0 0.024449173298163911 -0.056902718530299434 0 0.025442227513835899 -0.055698446452540538 0 0.022351717889225658 -0.05553368496025992 0 0.025868524101727602 -0.057378077615103891 0 0.024449173298163911 -0.056902718530299434 0 0.025442227513835899 -0.055698446452540538 0 0.025411478902538167 -0.057753689665094365 0 0.025868524101727602 -0.057378077615103891 0 0.024449173298163911 -0.056902718530299434 0 0.024449173298163911 -0.056902718530299434 0 0.02370657944999616 -0.057914535505821499 0 0.022351717889225658 -0.05553368496025992 0 0.027574556424106202 -0.056856335930637339 0 0.02370657944999616 -0.057914535505821499 0 0.025379876404612051 -0.058232236079387649 0 0.025411478902538167 -0.057753689665094365 0 0.024449173298163911 -0.056902718530299434 0 0.02370657944999616 -0.057914535505821499 0 0.02370657944999616 -0.057914535505821499 0 0.025379876404612051 -0.058232236079387649 0 0.023608797162975727 -0.058312379835601814 0 0.025379876404612051 -0.058232236079387649 0 0.023608797162975727 -0.058312379835601814 0 0.026671727163112603 -0.0598868231481876 0 0.026035639862051391 -0.044527362581014515 0 0.021194938239856759 -0.043789174804606222 0 0.027584063419498081 -0.041014141660751527 0 0.025831501268498022 -0.04769704709362458 0 0.026035639862051391 -0.044527362581014515 0 0.021194938239856759 -0.043789174804606222 0 0.024982424729728094 -0.054327637595878109 0 0.029621062023110406 -0.045790793174699744 0 0.021194938239856759 -0.043789174804606222 0 0.027584063419498081 -0.041014141660751527 0 0.022601265008115864 -0.03686527594456316 0 0.038620407314821859 -0.030439671090438963 0 0.036497951146618073 -0.028635350166546093 0 0.038894609330762143 -0.027818960987342038 0 0.029621062023110406 -0.045790793174699744 0 0.032468933741438236 -0.030224564625621436 0 0.038620407314821859 -0.030439671090438963 0 0.039267454693353847 -0.02712282292463853 0 0.038894609330762143 -0.027818960987342038 0 0.027574556424106202 -0.056856335930637339 0 0.025379876404612051 -0.058232236079387649 0 0.026671727163112603 -0.0598868231481876 0 0.027574556424106202 -0.056856335930637339 0 0.028844845570953993 -0.05475021326353019 0 0.02790216184171012 -0.05589593321065299 0 0.026728143818740533 -0.060936199910982987 0 0.029621062023110406 -0.045790793174699744 0 0.028088987165678092 -0.056542120218967026 0 0.02790216184171012 -0.05589593321065299 0 0.027180532124658874 -0.055027297986182257 0 0.028844845570953993 -0.05475021326353019 0 0.027180532124658874 -0.055027297986182257 0 0.02740742695852871 -0.053152520973868363 0 0.028844845570953993 -0.05475021326353019 0 0.02790216184171012 -0.05589593321065299 0 0.027180532124658874 -0.055027297986182257 0 0.029621062023110406 -0.045790793174699744 0 0.03220764357235404 -0.041472598497272528 0 0.027180532124658874 -0.055027297986182257 0 0.02740742695852871 -0.053152520973868363 0 0.026241717641212692 -0.053544755083826681 0 0.026241717641212692 -0.053544755083826681 0 0.025005838255052142 -0.053912561639108576 0 0.025962220900809335 -0.051613020889153018 0 0.02740742695852871 -0.053152520973868363 0 0.026241717641212692 -0.053544755083826681 0 0.025962220900809335 -0.051613020889153018 0 0.026016421244436622 -0.055954579599977003 0 0.027180532124658874 -0.055027297986182257 0 0.025705098302083965 -0.054852559777854255 0 0.027180532124658874 -0.055027297986182257 0 0.026241717641212692 -0.053544755083826681 0 0.025705098302083965 -0.054852559777854255 0 0.010286090974990347 -0.045919998216915454 0 0.0095264610412175207 -0.04672798894369027 0 0.0087634811606536519 -0.043720688991924044 0 0.009520133315333636 -0.046489690097836427 0 0.0095836254019208908 -0.042872302887548036 0 0.010532396849652962 -0.044705014395681128 0 0.010286090974990347 -0.045919998216915454 0 0.0087634811606536519 -0.043720688991924044 0 0.0095264610412175207 -0.04672798894369027 0 0.0082818833276632111 -0.04382561416834984 0 0.010422021863854514 -0.042094848744814881 0 0.010532396849652962 -0.044705014395681128 0 0.011458515520527977 -0.044358932608665171 0 0.01109906653569497 -0.04545265750274264 0 0.010532396849652962 -0.044705014395681128 0 0.01109906653569497 -0.04545265750274264 0 0.010286090974990347 -0.045919998216915454 0 0.01109906653569497 -0.04545265750274264 0 0.011165556519851816 -0.046867232444884582 0 0.011868899933788582 -0.045333621547916994 0 0.01109906653569497 -0.04545265750274264 0 0.011165556519851816 -0.046867232444884582 0 0.010286090974990347 -0.045919998216915454 0 0.011165556519851816 -0.046867232444884582 0 0.010062104353233179 -0.047167131395395384 0 0.010286090974990347 -0.045919998216915454 0 0.010062104353233179 -0.047167131395395384 0 0.010286090974990347 -0.045919998216915454 0 0.0095264610412175207 -0.04672798894369027 0 0.0091237274862935903 -0.047711009498201562 0 0.010062104353233179 -0.047167131395395384 0 0.0095264610412175207 -0.04672798894369027 0 0.0091237274862935903 -0.047711009498201562 0 0.0095264610412175207 -0.04672798894369027 0 0.0074293219073388221 -0.046609874616952089 0 0.0095264610412175207 -0.04672798894369027 0 0.0074293219073388221 -0.046609874616952089 0 0.0082818833276632111 -0.04382561416834984 0 0.012135993709321594 -0.049421848258475044 0 0.019325917294168129 -0.050849210596809281 0 0.02370657944999616 -0.057914535505821499 0 0.019366198616982907 -0.056126542416363452 0 0.022351717889225658 -0.05553368496025992 0 0.020024981162592211 -0.053721397569249117 0 0.019366198616982907 -0.056126542416363452 0 0.022351717889225658 -0.05553368496025992 0 0.024982424729728094 -0.054327637595878109 0 0.019325917294168129 -0.050849210596809281 0 0.019325917294168129 -0.050849210596809281 0 0.017230257834275387 -0.044192172762452561 0 0.025831501268498022 -0.04769704709362458 0 0.029808255112146305 -0.051209567536898259 0 0.0287447783871096 -0.046423960049928131 0 0.02370657944999616 -0.057914535505821499 0 0.023608797162975727 -0.058312379835601814 0 0.019366198616982907 -0.056126542416363452 0 0.0074293219073388221 -0.046609874616952089 0 0.0082818833276632111 -0.04382561416834984 0 0.0059697151406675484 -0.042901566471059908 0 0.0082818833276632111 -0.04382561416834984 0 0.0059697151406675484 -0.042901566471059908 0 0.0077781781943942266 -0.039976367565406415 0 0.0082818833276632111 -0.04382561416834984 0 0.0077781781943942266 -0.039976367565406415 0 0.010422021863854514 -0.042094848744814881 0 0.026035639862051391 -0.044527362581014515 0 0.0287447783871096 -0.046423960049928131 0 0.027584063419498081 -0.041014141660751527 0 0.017230257834275387 -0.044192172762452561 0 0.0160918571289848 -0.039864393094242424 0 0.0059697151406675484 -0.042901566471059908 0 0.0045779746787248162 -0.038632496842757685 0 0.0077781781943942266 -0.039976367565406415 0 0.025831501268498022 -0.04769704709362458 0 0.026035639862051391 -0.044527362581014515 0 0.0287447783871096 -0.046423960049928131 0 0.0045779746787248162 -0.038632496842757685 0 0.0077781781943942266 -0.039976367565406415 0 0.0071088321537914707 -0.036031889107117077 0 0.0077781781943942266 -0.039976367565406415 0 0.010874156651970545 -0.036281863118932556 0 0.0071088321537914707 -0.036031889107117077 0 0.0077781781943942266 -0.039976367565406415 0 0.010422021863854514 -0.042094848744814881 0 0.010874156651970545 -0.036281863118932556 0 0.0087634811606536519 -0.043720688991924044 0 0.010767745822253654 -0.041177706363326079 0 0.0084937100228825446 -0.038702095928253064 0 0.0095836254019208908 -0.042872302887548036 0 0.0097516304469687249 -0.037431515368561874 0 0.0087634811606536519 -0.043720688991924044 0 0.010669693623912823 -0.043305190880600163 0 0.010767745822253654 -0.041177706363326079 0 0.010532396849652962 -0.044705014395681128 0 0.0087634811606536519 -0.043720688991924044 0 0.010669693623912823 -0.043305190880600163 0 0.011458515520527977 -0.044358932608665171 0 0.010669693623912823 -0.043305190880600163 0 0.012017799638449754 -0.04274890239841854 0 0.010532396849652962 -0.044705014395681128 0 0.011458515520527977 -0.044358932608665171 0 0.010669693623912823 -0.043305190880600163 0 0.010669693623912823 -0.043305190880600163 0 0.010767745822253654 -0.041177706363326079 0 0.012017799638449754 -0.04274890239841854 0 0.010767745822253654 -0.041177706363326079 0 0.0116631616097935 -0.039067148941362727 0 0.0084937100228825446 -0.038702095928253064 0 0.010767745822253654 -0.041177706363326079 0 0.012225350158374858 -0.040915176770625228 0 0.012017799638449754 -0.04274890239841854 0 0.010767745822253654 -0.041177706363326079 0 0.012225350158374858 -0.040915176770625228 0 0.0116631616097935 -0.039067148941362727 0 0.012225350158374858 -0.040915176770625228 0 0.013311848438782858 -0.039828723690613216 0 0.0116631616097935 -0.039067148941362727 0 0.013311848438782858 -0.039828723690613216 0 0.012998989561826945 -0.041350332950088359 0 0.013429433847361012 -0.039737983758308684 0 0.012225350158374858 -0.040915176770625228 0 0.013311848438782858 -0.039828723690613216 0 0.012998989561826945 -0.041350332950088359 0 0.0049619684623807012 -0.03840716638085221 0 0.0049533363561946667 -0.038409526431801656 0 0.0050005625627155834 -0.038399719135118769 0 0.012998989561826945 -0.041350332950088359 0 0.013718049033233041 -0.041494110345425252 0 0.013429433847361012 -0.039737983758308684 0 0.0080393656130378372 -0.040153259554104828 0 0.01237210498611197 -0.038914944802832203 0 0.0049619684623807012 -0.03840716638085221 0 0.0049680759715200898 -0.038399747797671156 0 0.0050005625627155834 -0.038399719135118769 0 0.012998989561826945 -0.041350332950088359 0 0.013718049033233041 -0.041494110345425252 0 0.01300937475166015 -0.04323395341771321 0 0.012225350158374858 -0.040915176770625228 0 0.012998989561826945 -0.041350332950088359 0 0.012017799638449754 -0.04274890239841854 0 0.0049276273196265973 -0.038403053405231258 0 0.0049347177939931429 -0.03841550577442264 0 0.0049074011416341667 -0.038444727998017569 0 0.0049276273196265973 -0.038403053405231258 0 0.0049074011416341667 -0.038444727998017569 0 0.0049168586504158727 -0.038426894859681315 0 0.0049276273196265973 -0.038403053405231258 0 0.0049487605605693088 -0.038403206599825566 0 0.0049347177939931429 -0.03841550577442264 0 0.0049487605605693088 -0.038403206599825566 0 0.0049619684623807012 -0.03840716638085221 0 0.0049680759715200898 -0.038399747797671156 0 0.0049487605605693088 -0.038403206599825566 0 0.0049619684623807012 -0.03840716638085221 0 0.0049347177939931429 -0.03841550577442264 0 0.0070323062197832414 -0.039057327200246614 0 0.0080393656130378372 -0.040153259554104828 0 0.0080393656130378372 -0.040153259554104828 0 0.0054697911587938096 -0.03948049569298382 0 0.0049347177939931429 -0.03841550577442264 0 0.0049074011416341667 -0.038444727998017569 0 0.0048585455414299761 -0.038529547172755474 0 0.013718049033233041 -0.041494110345425252 0 0.01300937475166015 -0.04323395341771321 0 0.013610696853346722 -0.044118974890491248 0 0.01300937475166015 -0.04323395341771321 0 0.012583857327791629 -0.044576922983704435 0 0.013610696853346722 -0.044118974890491248 0 0.0073863568669471765 -0.041436987701419924 0 0.0066286981604798895 -0.040392952013964228 0 0.0065864296417466857 -0.040738173723111511 0 0.0080393656130378372 -0.040153259554104828 0 0.010534547484969809 -0.042589928566953643 0 0.01300937475166015 -0.04323395341771321 0 0.012017799638449754 -0.04274890239841854 0 0.012206534614728155 -0.044131921478220017 0 0.012998989561826945 -0.041350332950088359 0 0.01300937475166015 -0.04323395341771321 0 0.012017799638449754 -0.04274890239841854 0 0.01300937475166015 -0.04323395341771321 0 0.012206534614728155 -0.044131921478220017 0 0.012583857327791629 -0.044576922983704435 0 0.011458515520527977 -0.044358932608665171 0 0.012017799638449754 -0.04274890239841854 0 0.012206534614728155 -0.044131921478220017 0 0.011458515520527977 -0.044358932608665171 0 0.012206534614728155 -0.044131921478220017 0 0.011868899933788582 -0.045333621547916994 0 0.011458515520527977 -0.044358932608665171 0 0.01109906653569497 -0.04545265750274264 0 0.011868899933788582 -0.045333621547916994 0 0.012206534614728155 -0.044131921478220017 0 0.011868899933788582 -0.045333621547916994 0 0.012583857327791629 -0.044576922983704435 0 0.012583857327791629 -0.044576922983704435 0 0.012238643506877554 -0.045877724865489806 0 0.013610696853346722 -0.044118974890491248 0 0.011868899933788582 -0.045333621547916994 0 0.012583857327791629 -0.044576922983704435 0 0.012238643506877554 -0.045877724865489806 0 0.012238643506877554 -0.045877724865489806 0 0.01065581070288972 -0.047011235270855212 0 0.01098468624683074 -0.046855274879019734 0 0.012238643506877554 -0.045877724865489806 0 0.011551132717739677 -0.046355934499083894 0 0.01098468624683074 -0.046855274879019734 0 0.01054645581951206 -0.046809516476168635 0 0.011868899933788582 -0.045333621547916994 0 0.011551132717739677 -0.046355934499083894 0 0.010758259919687129 -0.046772608472709219 0 0.011812956791480922 -0.045500135748864759 0 0.01054645581951206 -0.046809516476168635 0 0.011551132717739677 -0.046355934499083894 0 0.011250713575030337 -0.04768906571016595 0 0.011868899933788582 -0.045333621547916994 0 0.012238643506877554 -0.045877724865489806 0 0.011551132717739677 -0.046355934499083894 0 0.013802846672309375 -0.045833012464879329 0 0.013561422342326599 -0.046119039665278812 0 0.013567181762143537 -0.046040234558782651 0 0.0058613876619356721 -0.039409352222952082 0 0.0052478274050295664 -0.039296097100246993 0 0.0054285818205822645 -0.039041236390609434 0 0.0097901995615133647 -0.042243826390461349 0 0.008705579044892291 -0.044163919834993084 0 0.012238643506877554 -0.045877724865489806 0 0.013802846672309375 -0.045833012464879329 0 0.013561422342326599 -0.046119039665278812 0 0.011753597038464458 -0.045736414364467529 0 0.012803091776721204 -0.046955568209972216 0 0.0097901995615133647 -0.042243826390461349 0 0.010534547484969809 -0.042589928566953643 0 0.0058613876619356721 -0.039409352222952082 0 0.0058071132435267457 -0.040029473368535212 0 0.0066286981604798895 -0.040392952013964228 0 0.012238643506877554 -0.045877724865489806 0 0.013802846672309375 -0.045833012464879329 0 0.013610696853346722 -0.044118974890491248 0 0.0058613876619356721 -0.039409352222952082 0 0.0058071132435267457 -0.040029473368535212 0 0.0052478274050295664 -0.039296097100246993 0 0.004837739738349482 -0.038779057272608802 0 0.0051004387849583853 -0.03891506580604015 0 0.0052478274050295664 -0.039296097100246993 0 0.0053978842741448201 -0.039446573497823739 0 0.0052393250010757892 -0.039300439549518076 0 0.004837739738349482 -0.038779057272608802 0 0.0051004387849583853 -0.03891506580604015 0 0.0050047566519407427 -0.038627822256473217 0 0.004837739738349482 -0.038779057272608802 0 0.0050047566519407427 -0.038627822256473217 0 0.0048955856007448081 -0.038584182363774609 0 0.0049577801750760294 -0.038517889518410425 0 0.0048955856007448081 -0.038584182363774609 0 0.0049060073082827444 -0.038492882829962917 0 0.0050047566519407427 -0.038627822256473217 0 0.0049577801750760294 -0.038517889518410425 0 0.0048955856007448081 -0.038584182363774609 0 0.0050047566519407427 -0.038627822256473217 0 0.0049577801750760294 -0.038517889518410425 0 0.0050208868889950516 -0.038486571408210032 0 0.0058071132435267457 -0.040029473368535212 0 0.0066286981604798895 -0.040392952013964228 0 0.0065864296417466857 -0.040738173723111511 0 0.0053978842741448201 -0.039446573497823739 0 0.0054697911587938096 -0.03948049569298382 0 0.004837739738349482 -0.038779057272608802 0 0.0048955856007448081 -0.038584182363774609 0 0.0048585455414299761 -0.038529547172755474 0 0.0048955856007448081 -0.038584182363774609 0 0.0048585455414299761 -0.038529547172755474 0 0.0049060073082827444 -0.038492882829962917 0 0.0048585455414299761 -0.038529547172755474 0 0.004896684837433018 -0.038470943933997574 0 0.0049060073082827444 -0.038492882829962917 0 0.0049074011416341667 -0.038444727998017569 0 0.0048585455414299761 -0.038529547172755474 0 0.004896684837433018 -0.038470943933997574 0 0.0049074011416341667 -0.038444727998017569 0 0.004896684837433018 -0.038470943933997574 0 0.0049168586504158727 -0.038426894859681315 0 0.004896684837433018 -0.038470943933997574 0 0.0049060073082827444 -0.038492882829962917 0 0.0049168586504158727 -0.038426894859681315 0 0.0049060073082827444 -0.038492882829962917 0 0.0049168586504158727 -0.038426894859681315 0 0.0049577932380585558 -0.038417149870824861 0 0.0049276273196265973 -0.038403053405231258 0 0.0049168586504158727 -0.038426894859681315 0 0.0049337044856113512 -0.038373681878034298 0 0.0049577801750760294 -0.038517889518410425 0 0.0049577932380585558 -0.038417149870824861 0 0.0050208868889950516 -0.038486571408210032 0 0.0049577932380585558 -0.038417149870824861 0 0.0050208868889950516 -0.038486571408210032 0 0.0050040455520528604 -0.038325336187540054 0 0.0049577801750760294 -0.038517889518410425 0 0.0049060073082827444 -0.038492882829962917 0 0.0049577932380585558 -0.038417149870824861 0 0.0050208868889950516 -0.038486571408210032 0 0.005038633451151883 -0.038543468141738778 0 0.0050138254890331477 -0.038398228748497534 0 0.0050208868889950516 -0.038486571408210032 0 0.0050138254890331477 -0.038398228748497534 0 0.0050104209625804223 -0.038369230366057099 0 0.0050047566519407427 -0.038627822256473217 0 0.0050208868889950516 -0.038486571408210032 0 0.0050794181024738589 -0.038650177958435769 0 0.0050208868889950516 -0.038486571408210032 0 0.005038633451151883 -0.038543468141738778 0 0.0050794181024738589 -0.038650177958435769 0 -0.011558783144949739 -0.025671813823269302 0 -0.012265213193706133 -0.026050729631739974 0 -0.011747787809115425 -0.02467940155121948 0 -0.012701676019075811 -0.031031051973410453 0 -0.00367615224814603 -0.031757552933060519 0 -0.00367615224814603 -0.031757552933060519 0 0.0048432846143917083 -0.029964592966016747 0 0.005038633451151883 -0.038543468141738778 0 0.005027367584648103 -0.038436055774492162 0 0.0050138254890331477 -0.038398228748497534 0 0.0014770763129702616 -0.022772717025621846 0 0.001308628349229341 -0.022271862378909581 0 0.00072547289052921722 -0.022399450587849156 0 0.005038633451151883 -0.038543468141738778 0 0.005027367584648103 -0.038436055774492162 0 0.0050488735730492311 -0.038612513961829513 0 -0.00367615224814603 -0.031757552933060519 0 -0.0039656369367523066 -0.03878911466351094 0 -0.01259191533826734 -0.036285505739083859 0 -0.01263967966201464 -0.036362863871905723 0 -0.012621138538838974 -0.036418384401095107 0 -0.012619046154430928 -0.036303026665670486 0 -0.01259191533826734 -0.036285505739083859 0 -0.01263967966201464 -0.036362863871905723 0 -0.012621138538838974 -0.036418384401095107 0 -0.012632588387347269 -0.036401352620989119 0 -0.012694066614149395 -0.036406478788032361 0 -0.01263967966201464 -0.036362863871905723 0 -0.012621138538838974 -0.036418384401095107 0 -0.012694066614149395 -0.036406478788032361 0 -0.012621138538838974 -0.036418384401095107 0 -0.012632588387347269 -0.036401352620989119 0 -0.012438667170411175 -0.036401976399117984 0 -0.0039656369367523066 -0.03878911466351094 0 -0.0038214999192089476 -0.036994888023947521 0 0.0050488735730492311 -0.038612513961829513 0 0.0050039202676975406 -0.038700770725252805 0 0.0050133533481829537 -0.03882453097548548 0 -0.012632588387347269 -0.036401352620989119 0 -0.012694066614149395 -0.036406478788032361 0 -0.012782618217671796 -0.036355264181435899 0 -0.012771725192393616 -0.036395628962250279 0 -0.012694066614149395 -0.036406478788032361 0 -0.012782618217671796 -0.036355264181435899 0 0.0050794181024738589 -0.038650177958435769 0 0.0050039202676975406 -0.038700770725252805 0 0.004884137184779638 -0.038756838077994779 0 0.0051004387849583853 -0.03891506580604015 0 0.0050047566519407427 -0.038627822256473217 0 0.0050794181024738589 -0.038650177958435769 0 0.0051004387849583853 -0.03891506580604015 0 0.0050794181024738589 -0.038650177958435769 0 0.0052578713758378616 -0.03927914171720677 0 0.0050287259613988628 -0.039020398780340776 0 0.0049826465258260193 -0.03817356354782378 0 0.005038633451151883 -0.038543468141738778 0 0.0050794181024738589 -0.038650177958435769 0 0.0050039202676975406 -0.038700770725252805 0 0.005038633451151883 -0.038543468141738778 0 0.0050488735730492311 -0.038612513961829513 0 0.0050039202676975406 -0.038700770725252805 0 0.0050039202676975406 -0.038700770725252805 0 0.0048892178832198136 -0.038873534005955349 0 0.0050133533481829537 -0.03882453097548548 0 0.0052578713758378616 -0.03927914171720677 0 0.0052478274050295664 -0.039296097100246993 0 0.0054285818205822645 -0.039041236390609434 0 0.0049826465258260193 -0.03817356354782378 0 0.008705579044892291 -0.044163919834993084 0 0.0050039202676975406 -0.038700770725252805 0 0.004884137184779638 -0.038756838077994779 0 0.0048892178832198136 -0.038873534005955349 0 0.0051004387849583853 -0.03891506580604015 0 0.0052578713758378616 -0.03927914171720677 0 0.0052478274050295664 -0.039296097100246993 0 0.0048892178832198136 -0.038873534005955349 0 0.0048958029461241377 -0.03905643554364624 0 0.0048036281423049802 -0.038963547453856023 0 0.004884137184779638 -0.038756838077994779 0 0.0048892178832198136 -0.038873534005955349 0 0.0047952842054466418 -0.038949844544769706 0 0.0048892178832198136 -0.038873534005955349 0 0.0047952842054466418 -0.038949844544769706 0 0.0048036281423049802 -0.038963547453856023 0 0.0048892178832198136 -0.038873534005955349 0 0.0048958029461241377 -0.03905643554364624 0 0.0050133533481829537 -0.03882453097548548 0 -0.012093581533131866 -0.036102690901389067 0 -0.012438667170411175 -0.036401976399117984 0 -0.012479695679431841 -0.036169128534239169 0 -0.0020225316680383245 -0.039463655624693506 0 -0.0038214999192089476 -0.036994888023947521 0 -0.012093581533131866 -0.036102690901389067 0 -0.012479695679431841 -0.036169128534239169 0 -0.012372486163238772 -0.035921417773015739 0 -0.0021295631311976063 -0.044647419922378855 0 -0.0017211548446203738 -0.043660487903300314 0 0.0020057644330880105 -0.044521675621937408 0 -0.0021631314625737224 -0.044662996375016951 0 -0.0017211548446203738 -0.043660487903300314 0 -0.0037959077412944428 -0.041746474738637893 0 -0.0020225316680383245 -0.039463655624693506 0 -0.0023448458996155005 -0.040647688336979577 0 -0.0020225316680383245 -0.039463655624693506 0 0.0074491462007618891 -0.045210299468141195 0 0.0094343281919124309 -0.04744340232337356 0 0.0092982337505923031 -0.047905635922456655 0 0.0086020304857596895 -0.047505411943847053 0 -0.0021295631311976063 -0.044647419922378855 0 0.0020057644330880105 -0.044521675621937408 0 0.0054682564812134809 -0.049726321072065371 0 0.0059989005397530198 -0.046358482674373265 0 0.0074491462007618891 -0.045210299468141195 0 -0.012771725192393616 -0.036395628962250279 0 -0.013063801385053806 -0.036168911552901653 0 -0.012782618217671796 -0.036355264181435899 0 -0.013063801385053806 -0.036168911552901653 0 -0.012782618217671796 -0.036355264181435899 0 -0.012755916531560552 -0.03620731112400502 0 -0.012782618217671796 -0.036355264181435899 0 -0.012755916531560552 -0.03620731112400502 0 -0.012622735795634782 -0.036317859216829743 0 -0.012632588387347269 -0.036401352620989119 0 -0.012782618217671796 -0.036355264181435899 0 -0.012622735795634782 -0.036317859216829743 0 -0.012622735795634782 -0.036317859216829743 0 -0.012438667170411175 -0.036401976399117984 0 -0.012479695679431841 -0.036169128534239169 0 -0.012755916531560552 -0.03620731112400502 0 -0.012622735795634782 -0.036317859216829743 0 -0.012479695679431841 -0.036169128534239169 0 -0.012632588387347269 -0.036401352620989119 0 -0.012622735795634782 -0.036317859216829743 0 -0.012438667170411175 -0.036401976399117984 0 -0.012479695679431841 -0.036169128534239169 0 -0.012730186729099924 -0.036070868680885604 0 -0.012372486163238772 -0.035921417773015739 0 -0.014094984313682933 -0.036981114420410008 0 -0.011630418550191301 -0.041279466874640486 0 -0.012755916531560552 -0.03620731112400502 0 -0.012479695679431841 -0.036169128534239169 0 -0.012730186729099924 -0.036070868680885604 0 -0.013063801385053806 -0.036168911552901653 0 -0.012755916531560552 -0.03620731112400502 0 -0.012730186729099924 -0.036070868680885604 0 -0.015036741483959727 -0.038079930951290072 0 -0.01343947024699216 -0.037916761067829048 0 -0.013493745887438494 -0.039551998990485455 0 -0.013143593228297881 -0.03623890072199229 0 -0.014094984313682933 -0.036981114420410008 0 -0.013169958542682311 -0.036126756607927045 0 -0.013063801385053806 -0.036168911552901653 0 -0.012730186729099924 -0.036070868680885604 0 -0.013169958542682311 -0.036126756607927045 0 -0.015036741483959727 -0.038079930951290072 0 -0.01343947024699216 -0.037916761067829048 0 -0.015036741483959727 -0.038079930951290072 0 -0.013493745887438494 -0.039551998990485455 0 -0.017167191080837994 -0.040315009031072171 0 -0.015998849888131769 -0.039487340976307343 0 -0.012432599094199749 -0.042839426326980609 0 -0.013998429987104578 -0.041798304512737479 0 -0.013493745887438494 -0.039551998990485455 0 -0.019442355166073219 -0.040654526555267113 0 -0.013998429987104578 -0.041798304512737479 0 -0.019442355166073219 -0.040654526555267113 0 -0.011709687373259196 -0.045158187303571656 0 -0.012432599094199749 -0.042839426326980609 0 -0.011671886603738357 -0.046319525110653584 0 -0.01208413050644923 -0.041867605124760773 0 -0.013998429987104578 -0.041798304512737479 0 -0.011709687373259196 -0.045158187303571656 0 -0.01208413050644923 -0.041867605124760773 0 -0.013998429987104578 -0.041798304512737479 0 -0.013493745887438494 -0.039551998990485455 0 -0.0061710046983485638 -0.051261594848215845 0 -0.0063102433389013611 -0.049195444208425539 0 -0.0080350887592674121 -0.047805643828291125 0 -0.015036741483959727 -0.038079930951290072 0 -0.017167191080837994 -0.040315009031072171 0 -0.017518659319079005 -0.040071083039952285 0 -0.012432599094199749 -0.042839426326980609 0 -0.011630418550191301 -0.041279466874640486 0 -0.011588175727911985 -0.043524789087424812 0 -0.010628678083041724 -0.044181813666906565 0 -0.0090978047841572922 -0.043009065177318888 0 -0.012432599094199749 -0.042839426326980609 0 -0.0076327581437216135 -0.043499762371237788 0 -0.011630418550191301 -0.041279466874640486 0 -0.0076327581437216135 -0.043499762371237788 0 -0.0056484731090335541 -0.050136956655675989 0 -0.0053508529600196572 -0.049446328522082604 0 -0.0048850713269066185 -0.050645518821928637 0 -0.0061710046983485638 -0.051261594848215845 0 -0.0056484731090335541 -0.050136956655675989 0 -0.0048850713269066185 -0.050645518821928637 0 -0.0061710046983485638 -0.051261594848215845 0 -0.0056484731090335541 -0.050136956655675989 0 -0.0063102433389013611 -0.049195444208425539 0 -0.0056484731090335541 -0.050136956655675989 0 -0.0063102433389013611 -0.049195444208425539 0 -0.0053508529600196572 -0.049446328522082604 0 -0.0053508529600196572 -0.049446328522082604 0 -0.0053523205381936266 -0.048366858892390459 0 -0.0044244391265850285 -0.049393040418231303 0 -0.0063102433389013611 -0.049195444208425539 0 -0.0053508529600196572 -0.049446328522082604 0 -0.0053523205381936266 -0.048366858892390459 0 -0.0063102433389013611 -0.049195444208425539 0 -0.0053523205381936266 -0.048366858892390459 0 -0.0068166467263659266 -0.047818311551798318 0 -0.0053523205381936266 -0.048366858892390459 0 -0.0056966231713386451 -0.047148044942778695 0 -0.0068166467263659266 -0.047818311551798318 0 -0.0056966231713386451 -0.047148044942778695 0 -0.0069774894036325474 -0.046688900507702191 0 -0.0068166467263659266 -0.047818311551798318 0 -0.0053523205381936266 -0.048366858892390459 0 -0.0056966231713386451 -0.047148044942778695 0 -0.0046357875707049405 -0.047636811455569396 0 -0.0056966231713386451 -0.047148044942778695 0 -0.0059726535009335807 -0.046227949835629993 0 -0.0047412005139534381 -0.046758757635613754 0 -0.0056966231713386451 -0.047148044942778695 0 -0.0059726535009335807 -0.046227949835629993 0 -0.0069774894036325474 -0.046688900507702191 0 -0.0072545411939875272 -0.045758502931534918 0 -0.0059726535009335807 -0.046227949835629993 0 -0.0069774894036325474 -0.046688900507702191 0 -0.0072545411939875272 -0.045758502931534918 0 -0.0069774894036325474 -0.046688900507702191 0 -0.0081923090787889737 -0.046028487442289635 0 -0.0072545411939875272 -0.045758502931534918 0 -0.0083643471022695308 -0.045384233604589 0 -0.0081923090787889737 -0.046028487442289635 0 -0.0069774894036325474 -0.046688900507702191 0 -0.0081923090787889737 -0.046028487442289635 0 -0.0078051965165918087 -0.046951264169795261 0 -0.0078051965165918087 -0.046951264169795261 0 -0.0080350887592674121 -0.047805643828291125 0 -0.0091200188220774241 -0.046269107786598429 0 -0.0078051965165918087 -0.046951264169795261 0 -0.0068166467263659266 -0.047818311551798318 0 -0.0080350887592674121 -0.047805643828291125 0 -0.0069774894036325474 -0.046688900507702191 0 -0.0078051965165918087 -0.046951264169795261 0 -0.0068166467263659266 -0.047818311551798318 0 -0.0063102433389013611 -0.049195444208425539 0 -0.0068166467263659266 -0.047818311551798318 0 -0.0080350887592674121 -0.047805643828291125 0 -0.0061710046983485638 -0.051261594848215845 0 -0.0080350887592674121 -0.047805643828291125 0 -0.011709687373259196 -0.045158187303571656 0 -0.0080350887592674121 -0.047805643828291125 0 -0.0091200188220774241 -0.046269107786598429 0 -0.011709687373259196 -0.045158187303571656 0 -0.0091200188220774241 -0.046269107786598429 0 -0.009539752323110974 -0.045350978429801826 0 -0.011709687373259196 -0.045158187303571656 0 -0.0081923090787889737 -0.046028487442289635 0 -0.0078051965165918087 -0.046951264169795261 0 -0.0091200188220774241 -0.046269107786598429 0 -0.0081923090787889737 -0.046028487442289635 0 -0.0091200188220774241 -0.046269107786598429 0 -0.009539752323110974 -0.045350978429801826 0 -0.0083643471022695308 -0.045384233604589 0 -0.0081923090787889737 -0.046028487442289635 0 -0.009539752323110974 -0.045350978429801826 0 -0.010214420123111108 -0.044852688153017829 0 -0.009539752323110974 -0.045350978429801826 0 -0.011709687373259196 -0.045158187303571656 0 0.00013994221908551242 -0.045795811082805296 0 0.0059396361224883822 -0.049692540445579005 0 -0.0030138077138283318 -0.05187652895895703 0 -0.0010108213629810361 -0.050002178499016496 0 0.0018015211295082487 -0.050962289041556127 0 0.0092982337505923031 -0.047905635922456655 0 0.0097483769662028187 -0.048069115355928616 0 0.0090985268423313011 -0.048405439875605534 0 -0.0017211548446203738 -0.043660487903300314 0 0.0020057644330880105 -0.044521675621937408 0 -0.0014515390804966347 -0.039214425290208271 0 0.0059989005397530198 -0.046358482674373265 0 0.00013994221908551242 -0.045795811082805296 0 0.0094343281919124309 -0.04744340232337356 0 0.0092982337505923031 -0.047905635922456655 0 0.0097483769662028187 -0.048069115355928616 0 -0.0017211548446203738 -0.043660487903300314 0 -0.0037959077412944428 -0.041746474738637893 0 -0.0014515390804966347 -0.039214425290208271 0 -0.0037959077412944428 -0.041746474738637893 0 -0.0061929300589329342 -0.04012289078619246 0 -0.0014515390804966347 -0.039214425290208271 0 -0.007464823414256477 -0.041083056136764155 0 -0.0037959077412944428 -0.041746474738637893 0 -0.0061929300589329342 -0.04012289078619246 0 -0.0021631314625737224 -0.044662996375016951 0 -0.007464823414256477 -0.041083056136764155 0 -0.0037959077412944428 -0.041746474738637893 0 -0.0020225316680383245 -0.039463655624693506 0 -0.011630418550191301 -0.041279466874640486 0 -0.0076327581437216135 -0.043499762371237788 0 -0.0028790747324406491 -0.048158204954086861 0 -0.0057060464609229476 -0.045965299408913529 0 -0.0022832902573225017 -0.045274951545272113 0 -0.0031117511772488751 -0.044000063877761945 0 -0.0076327581437216135 -0.043499762371237788 0 0.00013994221908551242 -0.045795811082805296 0 -0.0048850713269066185 -0.050645518821928637 0 -0.0044244391265850285 -0.049393040418231303 0 -0.0032005346252496343 -0.049087906830685375 0 -0.0053508529600196572 -0.049446328522082604 0 -0.0048850713269066185 -0.050645518821928637 0 -0.0044244391265850285 -0.049393040418231303 0 -0.0030138077138283318 -0.05187652895895703 0 -0.0037676942181125552 -0.05068899491251249 0 -0.0010108213629810361 -0.050002178499016496 0 0.00013994221908551242 -0.045795811082805296 0 -0.0028790747324406491 -0.048158204954086861 0 -0.0032836255254962456 -0.049226421808483238 0 -0.0033143117718281534 -0.048167801895369219 0 -0.0021829195346329249 -0.047273166638911825 0 -0.0032005346252496343 -0.049087906830685375 0 -0.003520430287632968 -0.048742767135948127 0 -0.0039301676710634011 -0.048812363363988864 0 -0.0032836255254962456 -0.049226421808483238 0 -0.003520430287632968 -0.048742767135948127 0 -0.0033143117718281534 -0.048167801895369219 0 -0.0028790747324406491 -0.048158204954086861 0 -0.0028818490350714962 -0.048289001607736783 0 -0.003520430287632968 -0.048742767135948127 0 -0.0033143117718281534 -0.048167801895369219 0 -0.0038897747232902757 -0.048202613682226163 0 -0.0044244391265850285 -0.049393040418231303 0 -0.0044700452124995394 -0.048447737457880967 0 -0.0039301676710634011 -0.048812363363988864 0 -0.0053523205381936266 -0.048366858892390459 0 -0.0044244391265850285 -0.049393040418231303 0 -0.0044700452124995394 -0.048447737457880967 0 -0.0044244391265850285 -0.049393040418231303 0 -0.0032005346252496343 -0.049087906830685375 0 -0.0039301676710634011 -0.048812363363988864 0 -0.0044700452124995394 -0.048447737457880967 0 -0.0039301676710634011 -0.048812363363988864 0 -0.0038897747232902757 -0.048202613682226163 0 -0.003520430287632968 -0.048742767135948127 0 -0.0039301676710634011 -0.048812363363988864 0 -0.0038897747232902757 -0.048202613682226163 0 -0.0033143117718281534 -0.048167801895369219 0 -0.0038897747232902757 -0.048202613682226163 0 -0.0036651270291215106 -0.047363476593834594 0 -0.0044700452124995394 -0.048447737457880967 0 -0.0038897747232902757 -0.048202613682226163 0 -0.0046357875707049405 -0.047636811455569396 0 -0.0053523205381936266 -0.048366858892390459 0 -0.0044700452124995394 -0.048447737457880967 0 -0.0046357875707049405 -0.047636811455569396 0 -0.0056966231713386451 -0.047148044942778695 0 -0.0046357875707049405 -0.047636811455569396 0 -0.0047412005139534381 -0.046758757635613754 0 -0.0038897747232902757 -0.048202613682226163 0 -0.0046357875707049405 -0.047636811455569396 0 -0.0036651270291215106 -0.047363476593834594 0 -0.0046357875707049405 -0.047636811455569396 0 -0.0036651270291215106 -0.047363476593834594 0 -0.0047412005139534381 -0.046758757635613754 0 -0.0034723389692933684 -0.046293088407410053 0 -0.0036651270291215106 -0.047363476593834594 0 -0.0047412005139534381 -0.046758757635613754 0 -0.0033143117718281534 -0.048167801895369219 0 -0.0036651270291215106 -0.047363476593834594 0 -0.0021829195346329249 -0.047273166638911825 0 -0.0034723389692933684 -0.046293088407410053 0 -0.0036651270291215106 -0.047363476593834594 0 -0.0021829195346329249 -0.047273166638911825 0 -0.0032836255254962456 -0.049226421808483238 0 -0.0021829195346329249 -0.047273166638911825 0 0.0003726084869854857 -0.047413240648521447 0 -0.0037676942181125552 -0.05068899491251249 0 -0.0010108213629810361 -0.050002178499016496 0 0.0003726084869854857 -0.047413240648521447 0 -0.0028790747324406491 -0.048158204954086861 0 -0.00030616310118031324 -0.048006341093686782 0 -0.0010108213629810361 -0.050002178499016496 0 0.0003726084869854857 -0.047413240648521447 0 0.0018015211295082487 -0.050962289041556127 0 0.0059396361224883822 -0.049692540445579005 0 0.0072859492258023914 -0.048969199477988529 0 0.0017236265186355722 -0.045620642043493788 0 0.0003726084869854857 -0.047413240648521447 0 0.0040423199362452115 -0.048125521529804476 0 0.0040423199362452115 -0.048125521529804476 0 0.0018015211295082487 -0.050962289041556127 0 0.0077301220729461759 -0.048760618088272319 0 0.0090985268423313011 -0.048405439875605534 0 0.0082229884844373866 -0.048537190967368742 0 0.0077301220729461759 -0.048760618088272319 0 0.004897012890538747 -0.046255200000602549 0 0.0040423199362452115 -0.048125521529804476 0 0.0060658738029336157 -0.047642996048580612 0 0.0040423199362452115 -0.048125521529804476 0 0.0077301220729461759 -0.048760618088272319 0 0.0060658738029336157 -0.047642996048580612 0 0.0003726084869854857 -0.047413240648521447 0 0.0040423199362452115 -0.048125521529804476 0 0.0018015211295082487 -0.050962289041556127 0 0.0090985268423313011 -0.048405439875605534 0 0.0082229884844373866 -0.048537190967368742 0 0.0086020304857596895 -0.047505411943847053 0 0.0092982337505923031 -0.047905635922456655 0 0.0090985268423313011 -0.048405439875605534 0 0.0086020304857596895 -0.047505411943847053 0 0.0085482746482950754 -0.048240208826843552 0 0.009113041459313213 -0.048088009159970413 0 0.0088728826289557611 -0.04839149423855383 0 0.0082229884844373866 -0.048537190967368742 0 0.0099391079687803918 -0.047847471236492987 0 0.0088728826289557611 -0.04839149423855383 0 0.0077301220729461759 -0.048760618088272319 0 0.0091464839140952322 -0.048638230786424402 0 0.0088728826289557611 -0.04839149423855383 0 0.0091464839140952322 -0.048638230786424402 0 0.0098105404663170435 -0.047710594216962401 0 0.0088728826289557611 -0.04839149423855383 0 0.0082229884844373866 -0.048537190967368742 0 0.0077301220729461759 -0.048760618088272319 0 0.0077301220729461759 -0.048760618088272319 0 0.0074548605737794127 -0.047470129168126936 0 0.0091464839140952322 -0.048638230786424402 0 0.0080550753743113199 -0.045277205202285474 0 0.0074548605737794127 -0.047470129168126936 0 0.0091464839140952322 -0.048638230786424402 0 0.0077301220729461759 -0.048760618088272319 0 0.0060658738029336157 -0.047642996048580612 0 0.0074548605737794127 -0.047470129168126936 0 0.004897012890538747 -0.046255200000602549 0 0.0060658738029336157 -0.047642996048580612 0 0.0074548605737794127 -0.047470129168126936 0 0.013075870983669963 -0.051798256165423238 0 0.011924766086967527 -0.051007437972185009 0 0.012679910616519055 -0.050344083512312718 0 0.010222978996025818 -0.050669124670571483 0 0.010938144079681252 -0.048989163553347662 0 0.012592023640192131 -0.054023362610380786 0 0.013420879637178643 -0.054341996761358098 0 0.011924766086967527 -0.051007437972185009 0 0.011725534843088404 -0.049945363884068832 0 0.012679910616519055 -0.050344083512312718 0 0.01067605838505321 -0.050127321866803923 0 0.011924766086967527 -0.051007437972185009 0 0.011725534843088404 -0.049945363884068832 0 0.011725534843088404 -0.049945363884068832 0 0.012679910616519055 -0.050344083512312718 0 0.012312698714183048 -0.048678883948769458 0 0.010938144079681252 -0.048989163553347662 0 0.011232663003166147 -0.048225608375184685 0 0.0091464839140952322 -0.048638230786424402 0 0.0098105404663170435 -0.047710594216962401 0 0.010032042768409457 -0.04746949029682454 0 0.012312698714183048 -0.048678883948769458 0 0.011213557353457118 -0.049328669383228815 0 0.011182985550561813 -0.04854390197286805 0 0.011725534843088404 -0.049945363884068832 0 0.012312698714183048 -0.048678883948769458 0 0.011213557353457118 -0.049328669383228815 0 0.011551132717739677 -0.046355934499083894 0 0.012312698714183048 -0.048678883948769458 0 0.011250713575030337 -0.04768906571016595 0 0.011449104366560756 -0.046507782202213278 0 0.011232663003166147 -0.048225608375184685 0 0.012312698714183048 -0.048678883948769458 0 0.011182985550561813 -0.04854390197286805 0 0.011250713575030337 -0.04768906571016595 0 0.0098105404663170435 -0.047710594216962401 0 0.01098468624683074 -0.046855274879019734 0 0.010450324883781888 -0.047172678051855751 0 0.0098105404663170435 -0.047710594216962401 0 0.010032042768409457 -0.04746949029682454 0 0.01098468624683074 -0.046855274879019734 0 0.011551132717739677 -0.046355934499083894 0 0.010032042768409457 -0.04746949029682454 0 0.01098468624683074 -0.046855274879019734 0 0.01065581070288972 -0.047011235270855212 0 0.010450324883781888 -0.047172678051855751 0 0.010259939750132195 -0.047375573478459214 0 0.01065581070288972 -0.047011235270855212 0 0.01098468624683074 -0.046855274879019734 0 0.010450324883781888 -0.047172678051855751 0 0.01065581070288972 -0.047011235270855212 0 0.010259939750132195 -0.047375573478459214 0 0.010457605075940232 -0.047314499786524487 0 0.012803091776721204 -0.046955568209972216 0 0.008705579044892291 -0.044163919834993084 0 0.008705579044892291 -0.044163919834993084 0 0.0074491462007618891 -0.045210299468141195 0 0.010259939750132195 -0.047375573478459214 0 0.010457605075940232 -0.047314499786524487 0 0.0099391079687803918 -0.047847471236492987 0 0.0089137935887783661 -0.046600667846743 0 0.0089730726322112403 -0.046692873723390572 0 0.0086020304857596895 -0.047505411943847053 0 0.0094343281919124309 -0.04744340232337356 0 0.0089730726322112403 -0.046692873723390572 0 0.0086020304857596895 -0.047505411943847053 0 0.008705579044892291 -0.044163919834993084 0 0.009113041459313213 -0.048088009159970413 0 0.0088728826289557611 -0.04839149423855383 0 0.0098105404663170435 -0.047710594216962401 0 0.0099391079687803918 -0.047847471236492987 0 0.0098105404663170435 -0.047710594216962401 0 0.010259939750132195 -0.047375573478459214 0 0.0099391079687803918 -0.047847471236492987 0 0.0098105404663170435 -0.047710594216962401 0 0.010450324883781888 -0.047172678051855751 0 0.010259939750132195 -0.047375573478459214 0 0.052097559646560786 -0.040150651161817666 0 0.049999581251599222 -0.037718552765900561 0 0.049999153898935819 -0.042978495774492247 0 0.052097559646560786 -0.040150651161817666 0 0.049999581251599222 -0.037718552765900561 0 0.052066497578016839 -0.037477957728150206 0 0.052097559646560786 -0.040150651161817666 0 0.053649399751176635 -0.038977197103469696 0 0.052066497578016839 -0.037477957728150206 0 0.053649399751176635 -0.038977197103469696 0 0.054843573909866043 -0.038113271326936003 0 0.05487163883717211 -0.039679880692903152 0 0.054593870774856897 -0.040867444045532463 0 0.05487163883717211 -0.039679880692903152 0 0.056435913887415909 -0.040776591164521932 0 0.053649399751176635 -0.038977197103469696 0 0.054593870774856897 -0.040867444045532463 0 0.05487163883717211 -0.039679880692903152 0 0.054843573909866043 -0.038113271326936003 0 0.05487163883717211 -0.039679880692903152 0 0.056435913887415909 -0.040776591164521932 0 0.053716960168351736 -0.039272785459732777 0 0.054642922272790592 -0.040256592075414328 0 0.052097559646560786 -0.040150651161817666 0 0.053649399751176635 -0.038977197103469696 0 0.054366451226981624 -0.040628756360917895 0 0.052097559646560786 -0.040150651161817666 0 0.054366451226981624 -0.040628756360917895 0 0.052699464983720974 -0.042836706794802532 0 0.054366451226981624 -0.040628756360917895 0 0.052699464983720974 -0.042836706794802532 0 0.055225190311517812 -0.042332832315563923 0 0.054642922272790592 -0.040256592075414328 0 0.048379349080660598 -0.048768907687726119 0 0.052699464983720974 -0.042836706794802532 0 0.053870796319610274 -0.04503990982023031 0 0.055225190311517812 -0.042332832315563923 0 0.048993615170514669 -0.050040510840309013 0 0.048379349080660598 -0.048768907687726119 0 0.052097559646560786 -0.040150651161817666 0 0.052699464983720974 -0.042836706794802532 0 0.049999153898935819 -0.042978495774492247 0 0.052699464983720974 -0.042836706794802532 0 0.049999153898935819 -0.042978495774492247 0 0.051476521194699233 -0.045438074231253602 0 0.049999153898935819 -0.042978495774492247 0 0.051476521194699233 -0.045438074231253602 0 0.050108501632602269 -0.04765865105989156 0 0.049999153898935819 -0.042978495774492247 0 0.049993852692586459 -0.049999492075718112 0 0.050108501632602269 -0.04765865105989156 0 0.049993852692586459 -0.049999492075718112 0 0.050108501632602269 -0.04765865105989156 0 0.046723711157581435 -0.04999744946991775 0 0.044663129828010011 -0.049999703499512813 0 0.045276425342660624 -0.052163578551240569 0 0.043377145960188261 -0.050946952203219577 0 0.044663129828010011 -0.049999703499512813 0 0.046708889323466417 -0.049999995630328413 0 0.045276425342660624 -0.052163578551240569 0 0.046710197267806224 -0.049999455644602897 0 0.048413553165535687 -0.049743684867101845 0 0.050108501632602269 -0.04765865105989156 0 0.046723711157581435 -0.04999744946991775 0 0.051597936542718249 -0.047794207953299646 0 0.045276425342660624 -0.052163578551240569 0 0.042536402239182557 -0.052032664606016243 0 0.043377145960188261 -0.050946952203219577 0 0.045276425342660624 -0.052163578551240569 0 0.042463545507683706 -0.053536052257501354 0 0.042536402239182557 -0.052032664606016243 0 0.045276425342660624 -0.052163578551240569 0 0.044013177394171515 -0.054614344833491216 0 0.042463545507683706 -0.053536052257501354 0 0.048413553165535687 -0.049743684867101845 0 0.048993615170514669 -0.050040510840309013 0 0.051476521194699233 -0.045438074231253602 0 0.051597936542718249 -0.047794207953299646 0 0.053870796319610274 -0.04503990982023031 0 0.051476521194699233 -0.045438074231253602 0 0.050108501632602269 -0.04765865105989156 0 0.051597936542718249 -0.047794207953299646 0 0.052699464983720974 -0.042836706794802532 0 0.051476521194699233 -0.045438074231253602 0 0.053870796319610274 -0.04503990982023031 0 0.039986559148047551 -0.053653700572374813 0 0.042463545507683706 -0.053536052257501354 0 0.041630611293548885 -0.05577892355689007 0 0.044013177394171515 -0.054614344833491216 0 0.042463545507683706 -0.053536052257501354 0 0.041630611293548885 -0.05577892355689007 0 0.039986559148047551 -0.053653700572374813 0 0.038700828651674894 -0.053775743047478626 0 0.039018788050980004 -0.053643502275632922 0 0.039886506714436352 -0.053602917455006303 0 0.040205963424508731 -0.055112094511081386 0 0.039986559148047551 -0.053653700572374813 0 0.042463545507683706 -0.053536052257501354 0 0.04098886646503392 -0.052409618901637325 0 0.039986559148047551 -0.053653700572374813 0 0.04098886646503392 -0.052409618901637325 0 0.039302543330306423 -0.051917413986094334 0 0.042463545507683706 -0.053536052257501354 0 0.042536402239182557 -0.052032664606016243 0 0.04098886646503392 -0.052409618901637325 0 0.042536402239182557 -0.052032664606016243 0 0.041290596327809355 -0.051197261283836636 0 0.043377145960188261 -0.050946952203219577 0 0.04098886646503392 -0.052409618901637325 0 0.041290596327809355 -0.051197261283836636 0 0.039302543330306423 -0.051917413986094334 0 0.042536402239182557 -0.052032664606016243 0 0.04098886646503392 -0.052409618901637325 0 0.041290596327809355 -0.051197261283836636 0 0.041290596327809355 -0.051197261283836636 0 0.042617090073717799 -0.049999794841457293 0 0.040571382841285593 -0.049999740867062041 0 0.041290596327809355 -0.051197261283836636 0 0.040571382841285593 -0.049999740867062041 0 0.039302543330306423 -0.051917413986094334 0 0.041290596327809355 -0.051197261283836636 0 0.042617090073717799 -0.049999794841457293 0 0.043377145960188261 -0.050946952203219577 0 0.044663129828010011 -0.049999703499512813 0 0.042617090073717799 -0.049999794841457293 0 0.043377145960188261 -0.050946952203219577 0 0.037838407772602549 -0.049999861020552983 0 0.040570850494117537 -0.049999767696465629 0 0.039250370177710596 -0.051877965142468924 0 0.040571372768049785 -0.050000345123218187 0 0.0392937617440587 -0.05188435370951032 0 0.037838407772602549 -0.049999861020552983 0 0.039250370177710596 -0.051877965142468924 0 0.036787253362793919 -0.052037700447918799 0 0.038190362271149601 -0.053305935264084128 0 0.036916820575175043 -0.053405598963313025 0 0.036787253362793919 -0.052037700447918799 0 0.039250370177710596 -0.051877965142468924 0 0.038190362271149601 -0.053305935264084128 0 0.036787253362793919 -0.052037700447918799 0 0.039986559148047551 -0.053653700572374813 0 0.039302543330306423 -0.051917413986094334 0 0.038335431694572743 -0.053353888005862452 0 0.0392937617440587 -0.05188435370951032 0 0.038255847826369864 -0.053316884910549957 0 0.039986559148047551 -0.053653700572374813 0 0.038335431694572743 -0.053353888005862452 0 0.038700828651674894 -0.053775743047478626 0 0.038335431694572743 -0.053353888005862452 0 0.037522054755910118 -0.053988266177170438 0 0.038700828651674894 -0.053775743047478626 0 0.038255847826369864 -0.053316884910549957 0 0.037623062700199078 -0.053987786861904793 0 0.038190362271149601 -0.053305935264084128 0 0.037522054755910118 -0.053988266177170438 0 0.036916820575175043 -0.053405598963313025 0 0.037770770067524446 -0.053933056095289408 0 0.037291723123343376 -0.053637023951588148 0 0.037180158426258436 -0.054085731230215893 0 0.037522054755910118 -0.053988266177170438 0 0.037770770067524446 -0.053933056095289408 0 0.037180158426258436 -0.054085731230215893 0 0.037770770067524446 -0.053933056095289408 0 0.037291723123343376 -0.053637023951588148 0 0.037452934757499771 -0.053851228872294946 0 0.037770770067524446 -0.053933056095289408 0 0.038397021637818336 -0.053733680112950093 0 0.037452934757499771 -0.053851228872294946 0 0.037522054755910118 -0.053988266177170438 0 0.037770770067524446 -0.053933056095289408 0 0.038700828651674894 -0.053775743047478626 0 0.037770770067524446 -0.053933056095289408 0 0.038700828651674894 -0.053775743047478626 0 0.038397021637818336 -0.053733680112950093 0 0.039018788050980004 -0.053643502275632922 0 0.03868461244556206 -0.053712436964240447 0 0.038397021637818336 -0.053733680112950093 0 0.038700828651674894 -0.053775743047478626 0 0.039018788050980004 -0.053643502275632922 0 0.038397021637818336 -0.053733680112950093 0 0.039018788050980004 -0.053643502275632922 0 0.038885883324128387 -0.053680421206096222 0 0.03868461244556206 -0.053712436964240447 0 0.040205963424508731 -0.055112094511081386 0 0.048379349080660598 -0.048768907687726119 0 0.044013177394171515 -0.054614344833491216 0 0.041630611293548885 -0.05577892355689007 0 0.042830694937878402 -0.057491291814559115 0 0.038885883324128387 -0.053680421206096222 0 0.038729155641191594 -0.053904090900262824 0 0.03878871786158581 -0.053956211617495711 0 0.054593870774856897 -0.040867444045532463 0 0.055643060900054497 -0.042764765173416409 0 0.056435913887415909 -0.040776591164521932 0 0.048379349080660598 -0.048768907687726119 0 0.045719265661490531 -0.047427932544479627 0 0.038885883324128387 -0.053680421206096222 0 0.03868461244556206 -0.053712436964240447 0 0.038729155641191594 -0.053904090900262824 0 0.03868461244556206 -0.053712436964240447 0 0.038729155641191594 -0.053904090900262824 0 0.038324499728187002 -0.053755412817847237 0 0.038397021637818336 -0.053733680112950093 0 0.038324499728187002 -0.053755412817847237 0 0.037452934757499771 -0.053851228872294946 0 0.03868461244556206 -0.053712436964240447 0 0.038397021637818336 -0.053733680112950093 0 0.038324499728187002 -0.053755412817847237 0 0.041655410781173546 -0.04812022887825574 0 0.036479147524151295 -0.055453692931966087 0 0.038324499728187002 -0.053755412817847237 0 0.038546250889765127 -0.054838091332983389 0 0.037452934757499771 -0.053851228872294946 0 0.038729155641191594 -0.053904090900262824 0 0.038324499728187002 -0.053755412817847237 0 0.038546250889765127 -0.054838091332983389 0 0.045719265661490531 -0.047427932544479627 0 0.041655410781173546 -0.04812022887825574 0 0.038729155641191594 -0.053904090900262824 0 0.038853460800390441 -0.054065829226766969 0 0.038546250889765127 -0.054838091332983389 0 0.051141147120776449 -0.039631548654171574 0 0.045719265661490531 -0.047427932544479627 0 0.04454568578049295 -0.049343722330600907 0 0.045719265661490531 -0.047427932544479627 0 0.045820387980254701 -0.042578943904607633 0 0.047585350778214658 -0.043063466300049077 0 0.046157518681952704 -0.041384268342388161 0 0.045820387980254701 -0.042578943904607633 0 0.04701754714848317 -0.044538744064068547 0 0.047585350778214658 -0.043063466300049077 0 0.036130322529328199 -0.0526803432446721 0 0.037022970893745968 -0.052585747726278921 0 0.037452934757499771 -0.053851228872294946 0 0.036130322529328199 -0.0526803432446721 0 0.037022970893745968 -0.052585747726278921 0 0.036444317500412229 -0.051714834071584136 0 0.037022970893745968 -0.052585747726278921 0 0.037176815962578935 -0.052896319771379201 0 0.037226108780748592 -0.051991011526814915 0 0.037176815962578935 -0.052896319771379201 0 0.037291723123343376 -0.053637023951588148 0 0.037180158426258436 -0.054085731230215893 0 0.037022970893745968 -0.052585747726278921 0 0.037176815962578935 -0.052896319771379201 0 0.037291723123343376 -0.053637023951588148 0 0.037022970893745968 -0.052585747726278921 0 0.037291723123343376 -0.053637023951588148 0 0.037452934757499771 -0.053851228872294946 0 0.037120730340322865 -0.053207538895558099 0 0.038505611952344851 -0.051558068257696675 0 0.036930144295491733 -0.054775864026624668 0 0.037120730340322865 -0.053207538895558099 0 0.036930144295491733 -0.054775864026624668 0 0.037180158426258436 -0.054085731230215893 0 0.037176815962578935 -0.052896319771379201 0 0.037120730340322865 -0.053207538895558099 0 0.037180158426258436 -0.054085731230215893 0 0.037176815962578935 -0.052896319771379201 0 0.037120730340322865 -0.053207538895558099 0 0.037303683782760111 -0.051916281714830405 0 0.037176815962578935 -0.052896319771379201 0 0.037303683782760111 -0.051916281714830405 0 0.037226108780748592 -0.051991011526814915 0 0.037303683782760111 -0.051916281714830405 0 0.038505611952344851 -0.051558068257696675 0 0.03750103245395537 -0.050924322656341621 0 0.037120730340322865 -0.053207538895558099 0 0.037303683782760111 -0.051916281714830405 0 0.038505611952344851 -0.051558068257696675 0 0.038505611952344851 -0.051558068257696675 0 0.039580064482630364 -0.050429426201530875 0 0.039549871252942688 -0.050307697822088833 0 0.038505611952344851 -0.051558068257696675 0 0.039549871252942688 -0.050307697822088833 0 0.038448903219215437 -0.050396825495452886 0 0.039580064482630364 -0.050429426201530875 0 0.039955741503230606 -0.04992949205516381 0 0.039549871252942688 -0.050307697822088833 0 0.036492897131261706 -0.055114632382311284 0 0.034731384217287976 -0.054238024181265575 0 0.039580064482630364 -0.050429426201530875 0 0.039413834080492115 -0.050798227247734626 0 0.039295598617111779 -0.049078517523513152 0 0.039106437390769813 -0.051056735813563417 0 0.036492897131261706 -0.055114632382311284 0 0.038505611952344851 -0.051558068257696675 0 0.039580064482630364 -0.050429426201530875 0 0.039413834080492115 -0.050798227247734626 0 0.038505611952344851 -0.051558068257696675 0 0.040262509376301249 -0.05385188911223307 0 0.036930144295491733 -0.054775864026624668 0 0.036492897131261706 -0.055114632382311284 0 0.037244855565206 -0.054817993218330974 0 0.034348134203886757 -0.056368821887834548 0 0.034757494139591429 -0.054489348159447629 0 0.036930144295491733 -0.054775864026624668 0 0.036492897131261706 -0.055114632382311284 0 0.031368846088618854 -0.056029608232150988 0 0.034348134203886757 -0.056368821887834548 0 0.034757494139591429 -0.054489348159447629 0 0.032174746982275265 -0.055175514063963621 0 0.034757494139591429 -0.054489348159447629 0 0.032996322261654151 -0.053730941962119312 0 0.032174746982275265 -0.055175514063963621 0 0.034757494139591429 -0.054489348159447629 0 0.03660284613368895 -0.054173756890050571 0 0.036930144295491733 -0.054775864026624668 0 0.03660284613368895 -0.054173756890050571 0 0.036930144295491733 -0.054775864026624668 0 0.037180158426258436 -0.054085731230215893 0 0.037522054755910118 -0.053988266177170438 0 0.03660284613368895 -0.054173756890050571 0 0.037180158426258436 -0.054085731230215893 0 0.037522054755910118 -0.053988266177170438 0 0.03660284613368895 -0.054173756890050571 0 0.036916820575175043 -0.053405598963313025 0 0.034757494139591429 -0.054489348159447629 0 0.03660284613368895 -0.054173756890050571 0 0.03504000281994573 -0.053123206806014324 0 0.03660284613368895 -0.054173756890050571 0 0.036916820575175043 -0.053405598963313025 0 0.03504000281994573 -0.053123206806014324 0 0.036916820575175043 -0.053405598963313025 0 0.03504000281994573 -0.053123206806014324 0 0.036787253362793919 -0.052037700447918799 0 0.03504000281994573 -0.053123206806014324 0 0.036787253362793919 -0.052037700447918799 0 0.034087852069148931 -0.051552513978610409 0 0.036787253362793919 -0.052037700447918799 0 0.03510560437775001 -0.049999714176144586 0 0.034087852069148931 -0.051552513978610409 0 0.037838407772602549 -0.049999861020552983 0 0.036787253362793919 -0.052037700447918799 0 0.03510560437775001 -0.049999714176144586 0 0.03510560437775001 -0.049999714176144586 0 0.032372671386170122 -0.049999647886350772 0 0.034087852069148931 -0.051552513978610409 0 0.032372671386170122 -0.049999647886350772 0 0.034087852069148931 -0.051552513978610409 0 0.032019397254447357 -0.052135893740201666 0 0.03504000281994573 -0.053123206806014324 0 0.032019397254447357 -0.052135893740201666 0 0.032996322261654151 -0.053730941962119312 0 0.03504000281994573 -0.053123206806014324 0 0.034087852069148931 -0.051552513978610409 0 0.032019397254447357 -0.052135893740201666 0 0.034757494139591429 -0.054489348159447629 0 0.03504000281994573 -0.053123206806014324 0 0.032996322261654151 -0.053730941962119312 0 0.032996322261654151 -0.053730941962119312 0 0.029556837350739995 -0.053985757422915892 0 0.032174746982275265 -0.055175514063963621 0 0.029556837350739995 -0.053985757422915892 0 0.029341787558124267 -0.051871530316177653 0 0.026788899729096847 -0.0524334761949765 0 0.032019397254447357 -0.052135893740201666 0 0.029556837350739995 -0.053985757422915892 0 0.029341787558124267 -0.051871530316177653 0 0.032019397254447357 -0.052135893740201666 0 0.032996322261654151 -0.053730941962119312 0 0.029556837350739995 -0.053985757422915892 0 0.032019397254447357 -0.052135893740201666 0 0.029341787558124267 -0.051871530316177653 0 0.029639388753148956 -0.049999613549564746 0 0.029341787558124267 -0.051871530316177653 0 0.029639388753148956 -0.049999613549564746 0 0.026906092974681144 -0.049999641183003651 0 0.032372671386170122 -0.049999647886350772 0 0.032019397254447357 -0.052135893740201666 0 0.029639388753148956 -0.049999613549564746 0 0.024988346252849108 -0.051516765550942555 0 0.02417256069460685 -0.049999735607636014 0 0.026906092974681144 -0.049999641183003651 0 0.029341787558124267 -0.051871530316177653 0 0.026906092974681144 -0.049999641183003651 0 0.026788899729096847 -0.0524334761949765 0 0.024988346252849108 -0.051516765550942555 0 0.026906092974681144 -0.049999641183003651 0 0.026788899729096847 -0.0524334761949765 0 0.024346515021457991 -0.054086630132548282 0 0.026788899729096847 -0.0524334761949765 0 0.026726880352157936 -0.054095940625638647 0 0.024988346252849108 -0.051516765550942555 0 0.024346515021457991 -0.054086630132548282 0 0.026788899729096847 -0.0524334761949765 0 0.029556837350739995 -0.053985757422915892 0 0.026788899729096847 -0.0524334761949765 0 0.026726880352157936 -0.054095940625638647 0 0.029556837350739995 -0.053985757422915892 0 0.026726880352157936 -0.054095940625638647 0 0.026874853901758346 -0.055919488703287959 0 0.024346515021457991 -0.054086630132548282 0 0.026726880352157936 -0.054095940625638647 0 0.026874853901758346 -0.055919488703287959 0 0.02346720730804722 -0.056403405019797244 0 0.026874853901758346 -0.055919488703287959 0 0.025783363606697526 -0.058516021599231013 0 0.029556837350739995 -0.053985757422915892 0 0.026874853901758346 -0.055919488703287959 0 0.028654666244798531 -0.057420973021470804 0 0.026874853901758346 -0.055919488703287959 0 0.028654666244798531 -0.057420973021470804 0 0.025783363606697526 -0.058516021599231013 0 0.029556837350739995 -0.053985757422915892 0 0.031457884135085032 -0.056256091151088559 0 0.028654666244798531 -0.057420973021470804 0 0.03346061441683474 -0.058545804801604207 0 0.031457884135085032 -0.056256091151088559 0 0.03060196562883552 -0.059451218075664773 0 0.031457884135085032 -0.056256091151088559 0 0.028654666244798531 -0.057420973021470804 0 0.03060196562883552 -0.059451218075664773 0 0.029781143980769965 -0.053871948529408985 0 0.031368846088618854 -0.056029608232150988 0 0.028654666244798531 -0.057420973021470804 0 0.03060196562883552 -0.059451218075664773 0 0.027738910840610375 -0.060311759708707086 0 0.039295598617111779 -0.049078517523513152 0 0.039955741503230606 -0.04992949205516381 0 0.038423795156237291 -0.049907611191791726 0 0.039580064482630364 -0.050429426201530875 0 0.039295598617111779 -0.049078517523513152 0 0.039955741503230606 -0.04992949205516381 0 0.034731384217287976 -0.054238024181265575 0 0.03233070211436858 -0.054196067593208427 0 0.039295598617111779 -0.049078517523513152 0 0.036191277954531489 -0.048022349712221878 0 0.038423795156237291 -0.049907611191791726 0 0.024866615115221272 -0.061162512256844541 0 0.027738910840610375 -0.060311759708707086 0 0.025783363606697526 -0.058516021599231013 0 0.031547565324571383 -0.048425734700355202 0 0.036191277954531489 -0.048022349712221878 0 0.034342963220629567 -0.049561921374700571 0 0.026241941935199836 -0.054723695766802735 0 0.03233070211436858 -0.054196067593208427 0 0.028654666244798531 -0.057420973021470804 0 0.027738910840610375 -0.060311759708707086 0 0.025783363606697526 -0.058516021599231013 0 0.035475153793799959 -0.05219538909314151 0 0.03824550027664414 -0.049992885251516038 0 0.034998256422413325 -0.052882489794858469 0 0.032580204553985734 -0.051980493093197667 0 0.034342963220629567 -0.049561921374700571 0 0.031692870409202323 -0.050144733312558018 0 0.032580204553985734 -0.051980493093197667 0 0.034342963220629567 -0.049561921374700571 0 0.031547565324571383 -0.048425734700355202 0 0.031692870409202323 -0.050144733312558018 0 0.034342963220629567 -0.049561921374700571 0 0.036191277954531489 -0.048022349712221878 0 0.034342963220629567 -0.049561921374700571 0 0.038423795156237291 -0.049907611191791726 0 0.034998256422413325 -0.052882489794858469 0 0.034342963220629567 -0.049561921374700571 0 0.038423795156237291 -0.049907611191791726 0 0.039955741503230606 -0.04992949205516381 0 0.038423795156237291 -0.049907611191791726 0 0.040881641617227335 -0.049944000777485578 0 0.040881641617227335 -0.049944000777485578 0 0.045354951165885143 -0.044743797625073536 0 0.041060074416707351 -0.046407387473120974 0 0.041102490838771558 -0.049863995707468002 0 0.042207206416871514 -0.048613444066947516 0 0.038423795156237291 -0.049907611191791726 0 0.040881641617227335 -0.049944000777485578 0 0.039299852111988186 -0.052695844676818794 0 0.035913847544998226 -0.051580552609900215 0 0.038423795156237291 -0.049907611191791726 0 0.039299852111988186 -0.052695844676818794 0 0.045354951165885143 -0.044743797625073536 0 0.041123011521770392 -0.04208780637610534 0 0.041060074416707351 -0.046407387473120974 0 0.045354951165885143 -0.044743797625073536 0 0.048019597334780326 -0.039592243276029108 0 0.04347707940126163 -0.038696602275559586 0 0.045354951165885143 -0.044743797625073536 0 0.04347707940126163 -0.038696602275559586 0 0.041123011521770392 -0.04208780637610534 0 0.039299852111988186 -0.052695844676818794 0 0.035796312303269663 -0.054020267434292217 0 0.037855748832984752 -0.055635883534296195 0 0.042207206416871514 -0.048613444066947516 0 0.043417612385220156 -0.048088412095757913 0 0.035796312303269663 -0.054020267434292217 0 0.034288996033524019 -0.056524143210451669 0 0.037855748832984752 -0.055635883534296195 0 0.035913847544998226 -0.051580552609900215 0 0.039299852111988186 -0.052695844676818794 0 0.035796312303269663 -0.054020267434292217 0 0.032645577300129576 -0.053864919294781384 0 0.035913847544998226 -0.051580552609900215 0 0.035796312303269663 -0.054020267434292217 0 0.032064054895752231 -0.054582852543121542 0 0.035475153793799959 -0.05219538909314151 0 0.031537900688131885 -0.055236799139941159 0 0.034998256422413325 -0.052882489794858469 0 0.032580204553985734 -0.051980493093197667 0 0.032645577300129576 -0.053864919294781384 0 0.035796312303269663 -0.054020267434292217 0 0.034288996033524019 -0.056524143210451669 0 0.032645577300129576 -0.053864919294781384 0 0.031961081668428731 -0.056625837814655952 0 0.034288996033524019 -0.056524143210451669 0 0.03195671888499696 -0.059199293577305842 0 0.031961081668428731 -0.056625837814655952 0 0.034288996033524019 -0.056524143210451669 0 0.039013430136573948 -0.043988004961787001 0 0.043417612385220156 -0.048088412095757913 0 0.034288996033524019 -0.056524143210451669 0 0.036135529032023717 -0.059095800211441583 0 0.037855748832984752 -0.055635883534296195 0 0.03195671888499696 -0.059199293577305842 0 0.034288996033524019 -0.056524143210451669 0 0.036135529032023717 -0.059095800211441583 0 0.026016421244436622 -0.055954579599977003 0 0.025705098302083965 -0.054852559777854255 0 0.024326892066300294 -0.055630504126370793 0 0.027105154475307782 -0.059188885907743856 0 0.039013430136573948 -0.043988004961787001 0 0.025705098302083965 -0.054852559777854255 0 0.024326892066300294 -0.055630504126370793 0 0.025005838255052142 -0.053912561639108576 0 0.039013430136573948 -0.043988004961787001 0 0.03436933370777448 -0.041383004703830585 0 0.044705939018002239 -0.027316974296125705 0 0.044832881129892491 -0.026831500302602746 0 0.044557866255609591 -0.026792980271079524 0 0.044832881129892491 -0.026831500302602746 0 0.044557866255609591 -0.026792980271079524 0 0.044664475845582571 -0.026397877006542773 0 0.044832881129892491 -0.026831500302602746 0 0.044773855766958318 -0.026405904745680522 0 0.044664475845582571 -0.026397877006542773 0 0.03436933370777448 -0.041383004703830585 0 0.033503771055801476 -0.031724150531589237 0 0.026241717641212692 -0.053544755083826681 0 0.025705098302083965 -0.054852559777854255 0 0.025005838255052142 -0.053912561639108576 0 0.044309832578931202 -0.026931561274697004 0 0.04409736540398787 -0.026789744345573737 0 0.044339391683414484 -0.026323898212065398 0 0.044557866255609591 -0.026792980271079524 0 0.044309832578931202 -0.026931561274697004 0 0.044339391683414484 -0.026323898212065398 0 0.044557866255609591 -0.026792980271079524 0 0.044513439463504084 -0.026219626371114794 0 0.044339391683414484 -0.026323898212065398 0 0.044557866255609591 -0.026792980271079524 0 0.044513439463504084 -0.026219626371114794 0 0.044664475845582571 -0.026397877006542773 0 0.044705939018002239 -0.027316974296125705 0 0.044557866255609591 -0.026792980271079524 0 0.044410638399881221 -0.027260920866758138 0 0.044557866255609591 -0.026792980271079524 0 0.044309832578931202 -0.026931561274697004 0 0.044410638399881221 -0.027260920866758138 0 0.044309832578931202 -0.026931561274697004 0 0.044410638399881221 -0.027260920866758138 0 0.044028905836194267 -0.027477831222128879 0 0.046724806883154932 -0.029508542911589341 0 0.041799899564225036 -0.03104125826113471 0 0.04541541334263912 -0.034660649382522619 0 0.04347707940126163 -0.038696602275559586 0 0.040436058558728269 -0.034203392552263005 0 0.050313676539344709 -0.035019861497195243 0 0.04541541334263912 -0.034660649382522619 0 0.048019597334780326 -0.039592243276029108 0 0.039013430136573948 -0.043988004961787001 0 0.046724806883154932 -0.029508542911589341 0 0.04541541334263912 -0.034660649382522619 0 0.048019597334780326 -0.039592243276029108 0 0.04347707940126163 -0.038696602275559586 0 0.04347707940126163 -0.038696602275559586 0 0.040317767373934159 -0.038078981598323326 0 0.040436058558728269 -0.034203392552263005 0 0.04347707940126163 -0.038696602275559586 0 0.040317767373934159 -0.038078981598323326 0 0.041123011521770392 -0.04208780637610534 0 0.040317767373934159 -0.038078981598323326 0 0.037982039078016457 -0.035982199803828656 0 0.03854647049488661 -0.039822253155310294 0 0.037982039078016457 -0.035982199803828656 0 0.036798608951769785 -0.037372461051496386 0 0.03854647049488661 -0.039822253155310294 0 0.036798608951769785 -0.037372461051496386 0 0.035878478986664769 -0.03949489965226459 0 0.03854647049488661 -0.039822253155310294 0 0.041799899564225036 -0.03104125826113471 0 0.039783166817536117 -0.030897928773878425 0 0.037982039078016457 -0.035982199803828656 0 0.040436058558728269 -0.034203392552263005 0 0.036058443840010834 -0.033783456665015622 0 0.044028905836194267 -0.027477831222128879 0 0.043605362757801761 -0.027618928939712406 0 0.043445623814335747 -0.028276775460426496 0 0.040317767373934159 -0.038078981598323326 0 0.037982039078016457 -0.035982199803828656 0 0.040436058558728269 -0.034203392552263005 0 0.044028905836194267 -0.027477831222128879 0 0.043886446678030488 -0.027155005751321282 0 0.04409736540398787 -0.026789744345573737 0 0.044309832578931202 -0.026931561274697004 0 0.044028905836194267 -0.027477831222128879 0 0.04409736540398787 -0.026789744345573737 0 0.044028905836194267 -0.027477831222128879 0 0.043605362757801761 -0.027618928939712406 0 0.043886446678030488 -0.027155005751321282 0 0.043605362757801761 -0.027618928939712406 0 0.043886446678030488 -0.027155005751321282 0 0.043497288353345674 -0.026937566719144532 0 0.043886446678030488 -0.027155005751321282 0 0.043819214190189117 -0.026625274289812009 0 0.043497288353345674 -0.026937566719144532 0 0.043819214190189117 -0.026625274289812009 0 0.043497288353345674 -0.026937566719144532 0 0.043513804754972289 -0.026323942176080559 0 0.043819214190189117 -0.026625274289812009 0 0.043513804754972289 -0.026323942176080559 0 0.043687740557843628 -0.025985049817339127 0 0.043819214190189117 -0.026625274289812009 0 0.044007766010710457 -0.026214269170961126 0 0.043687740557843628 -0.025985049817339127 0 0.04409736540398787 -0.026789744345573737 0 0.044007766010710457 -0.026214269170961126 0 0.044339391683414484 -0.026323898212065398 0 0.043819214190189117 -0.026625274289812009 0 0.04409736540398787 -0.026789744345573737 0 0.044007766010710457 -0.026214269170961126 0 0.043886446678030488 -0.027155005751321282 0 0.043819214190189117 -0.026625274289812009 0 0.04409736540398787 -0.026789744345573737 0 0.042261543208694116 -0.026391467593344511 0 0.042424768819713077 -0.026950246425008421 0 0.041816506564061252 -0.026883321905493335 0 0.042261543208694116 -0.026391467593344511 0 0.04264962677715483 -0.026414885238051612 0 0.042424768819713077 -0.026950246425008421 0 0.041816506564061252 -0.026883321905493335 0 0.041877507998036093 -0.026151772551656655 0 0.041287629326978124 -0.026592828168812425 0 0.042261543208694116 -0.026391467593344511 0 0.041816506564061252 -0.026883321905493335 0 0.041877507998036093 -0.026151772551656655 0 0.041877507998036093 -0.026151772551656655 0 0.042440870504084176 -0.02578511531638767 0 0.041845905151562245 -0.025466050034609181 0 0.042261543208694116 -0.026391467593344511 0 0.041877507998036093 -0.026151772551656655 0 0.042440870504084176 -0.02578511531638767 0 0.042261543208694116 -0.026391467593344511 0 0.04264962677715483 -0.026414885238051612 0 0.042440870504084176 -0.02578511531638767 0 0.04264962677715483 -0.026414885238051612 0 0.042440870504084176 -0.02578511531638767 0 0.0430640863978776 -0.026168658565436004 0 0.043497288353345674 -0.026937566719144532 0 0.043513804754972289 -0.026323942176080559 0 0.0430640863978776 -0.026168658565436004 0 0.043513804754972289 -0.026323942176080559 0 0.0430640863978776 -0.026168658565436004 0 0.04330110652079424 -0.025719623196808428 0 0.043497288353345674 -0.026937566719144532 0 0.0430640863978776 -0.026168658565436004 0 0.042963383645523476 -0.026872130552890849 0 0.04264962677715483 -0.026414885238051612 0 0.0430640863978776 -0.026168658565436004 0 0.042963383645523476 -0.026872130552890849 0 0.04264962677715483 -0.026414885238051612 0 0.042424768819713077 -0.026950246425008421 0 0.042963383645523476 -0.026872130552890849 0 0.042424768819713077 -0.026950246425008421 0 0.042963383645523476 -0.026872130552890849 0 0.042681743827854966 -0.027544037032043622 0 0.042963383645523476 -0.026872130552890849 0 0.042681743827854966 -0.027544037032043622 0 0.043185525846322778 -0.027459354108215671 0 0.042681743827854966 -0.027544037032043622 0 0.043185525846322778 -0.027459354108215671 0 0.043110250104254989 -0.027914781472408192 0 0.043605362757801761 -0.027618928939712406 0 0.043497288353345674 -0.026937566719144532 0 0.043185525846322778 -0.027459354108215671 0 0.043497288353345674 -0.026937566719144532 0 0.042963383645523476 -0.026872130552890849 0 0.043185525846322778 -0.027459354108215671 0 0.043605362757801761 -0.027618928939712406 0 0.043185525846322778 -0.027459354108215671 0 0.043110250104254989 -0.027914781472408192 0 0.043605362757801761 -0.027618928939712406 0 0.043110250104254989 -0.027914781472408192 0 0.043445623814335747 -0.028276775460426496 0 0.042681743827854966 -0.027544037032043622 0 0.043110250104254989 -0.027914781472408192 0 0.042130341976826302 -0.02854443306252024 0 0.043110250104254989 -0.027914781472408192 0 0.042130341976826302 -0.02854443306252024 0 0.043445623814335747 -0.028276775460426496 0 0.042681743827854966 -0.027544037032043622 0 0.042130341976826302 -0.02854443306252024 0 0.041977231662688318 -0.027770236787643902 0 0.042424768819713077 -0.026950246425008421 0 0.042681743827854966 -0.027544037032043622 0 0.041977231662688318 -0.027770236787643902 0 0.042424768819713077 -0.026950246425008421 0 0.041816506564061252 -0.026883321905493335 0 0.041977231662688318 -0.027770236787643902 0 0.041816506564061252 -0.026883321905493335 0 0.041304904792385959 -0.027775925720613718 0 0.041313138959820257 -0.027168507161029577 0 0.041816506564061252 -0.026883321905493335 0 0.041977231662688318 -0.027770236787643902 0 0.041304904792385959 -0.027775925720613718 0 0.041977231662688318 -0.027770236787643902 0 0.041304904792385959 -0.027775925720613718 0 0.041245784633418305 -0.028608076610151054 0 0.042130341976826302 -0.02854443306252024 0 0.041245784633418305 -0.028608076610151054 0 0.04032651170366721 -0.03033024539043502 0 0.042130341976826302 -0.02854443306252024 0 0.041977231662688318 -0.027770236787643902 0 0.041245784633418305 -0.028608076610151054 0 0.039783166817536117 -0.030897928773878425 0 0.039888169838361284 -0.030475506738856795 0 0.036058443840010834 -0.033783456665015622 0 0.037081075145781746 -0.032575438692927221 0 0.04032651170366721 -0.03033024539043502 0 0.03852008560715231 -0.031293853426407427 0 0.037081075145781746 -0.032575438692927221 0 0.04032651170366721 -0.03033024539043502 0 0.03852008560715231 -0.031293853426407427 0 0.037081075145781746 -0.032575438692927221 0 0.037209834947403389 -0.029369712521914549 0 0.03852008560715231 -0.031293853426407427 0 0.039472104177807374 -0.03089054325694203 0 0.04032651170366721 -0.03033024539043502 0 0.042130341976826302 -0.02854443306252024 0 0.043445623814335747 -0.028276775460426496 0 0.04032651170366721 -0.03033024539043502 0 0.03852008560715231 -0.031293853426407427 0 0.039472104177807374 -0.03089054325694203 0 0.038909760402634136 -0.030346495554800387 0 0.039472104177807374 -0.03089054325694203 0 0.038909760402634136 -0.030346495554800387 0 0.039896672450463626 -0.03107201988373956 0 0.036635677151468808 -0.032378289536088858 0 0.037920342740880963 -0.035089583492003758 0 0.036058443840010834 -0.033783456665015622 0 0.037081075145781746 -0.032575438692927221 0 0.036433055098731751 -0.034904525120548792 0 0.037081075145781746 -0.032575438692927221 0 0.036433055098731751 -0.034904525120548792 0 0.03502505655680422 -0.036759595062219923 0 0.037982039078016457 -0.035982199803828656 0 0.036058443840010834 -0.033783456665015622 0 0.036433055098731751 -0.034904525120548792 0 0.037081075145781746 -0.032575438692927221 0 0.03502505655680422 -0.036759595062219923 0 0.034354276615580555 -0.037155163102359043 0 0.036433055098731751 -0.034904525120548792 0 0.036798608951769785 -0.037372461051496386 0 0.03502505655680422 -0.036759595062219923 0 0.037982039078016457 -0.035982199803828656 0 0.036433055098731751 -0.034904525120548792 0 0.036798608951769785 -0.037372461051496386 0 0.037244877193044895 -0.035550550609786777 0 0.037920342740880963 -0.035089583492003758 0 0.03502505655680422 -0.036759595062219923 0 0.034369062459431617 -0.03721021647438548 0 0.035878478986664769 -0.03949489965226459 0 0.036798608951769785 -0.037372461051496386 0 0.03502505655680422 -0.036759595062219923 0 0.035878478986664769 -0.03949489965226459 0 0.037209834947403389 -0.029369712521914549 0 0.038909760402634136 -0.030346495554800387 0 0.039341337788741715 -0.028244031039477816 0 0.038909760402634136 -0.030346495554800387 0 0.039341337788741715 -0.028244031039477816 0 0.039896672450463626 -0.03107201988373956 0 0.03852008560715231 -0.031293853426407427 0 0.037209834947403389 -0.029369712521914549 0 0.038909760402634136 -0.030346495554800387 0 0.037920342740880963 -0.035089583492003758 0 0.041472404721566589 -0.031954995347296976 0 0.040343154438390073 -0.037544054348416414 0 0.040382531285543859 -0.037675083884267269 0 0.040153617861818272 -0.038136369499736505 0 0.040336396385749561 -0.037536715224364837 0 0.040382531285543859 -0.037675083884267269 0 0.040749489657177645 -0.037714897475842377 0 0.041472404721566589 -0.031954995347296976 0 0.041659342375425908 -0.033117545561679292 0 0.041110681730718725 -0.036939698439746899 0 0.040336396385749561 -0.037536715224364837 0 0.040749489657177645 -0.037714897475842377 0 0.040749489657177645 -0.037714897475842377 0 0.040701723664439839 -0.038389818125751457 0 0.041216769886489597 -0.038029226335424375 0 0.040382531285543859 -0.037675083884267269 0 0.040749489657177645 -0.037714897475842377 0 0.040701723664439839 -0.038389818125751457 0 0.040382531285543859 -0.037675083884267269 0 0.040701723664439839 -0.038389818125751457 0 0.040153617861818272 -0.038136369499736505 0 0.040701723664439839 -0.038389818125751457 0 0.040186633931235352 -0.03870529864559042 0 0.040153617861818272 -0.038136369499736505 0 0.040701723664439839 -0.038389818125751457 0 0.040942841148082672 -0.039219086134575462 0 0.041295367907438943 -0.039124590099226614 0 0.039121740274923308 -0.044426443028880304 0 0.040792311434769642 -0.040388599859550345 0 0.040701723664439839 -0.038389818125751457 0 0.040942841148082672 -0.039219086134575462 0 0.040186633931235352 -0.03870529864559042 0 0.036425046710884347 -0.043429247254547491 0 0.034129722935807433 -0.0421236349022725 0 0.034482569159479254 -0.046285788114027115 0 0.040701723664439839 -0.038389818125751457 0 0.041216769886489597 -0.038029226335424375 0 0.041295367907438943 -0.039124590099226614 0 0.037735399219612345 -0.040181294098456666 0 0.03743304003743303 -0.044186249526043227 0 0.034369062459431617 -0.03721021647438548 0 0.034129722935807433 -0.0421236349022725 0 0.035878478986664769 -0.03949489965226459 0 0.036425046710884347 -0.043429247254547491 0 0.034129722935807433 -0.0421236349022725 0 0.035878478986664769 -0.03949489965226459 0 0.041110681730718725 -0.036939698439746899 0 0.040749489657177645 -0.037714897475842377 0 0.041216769886489597 -0.038029226335424375 0 0.037920342740880963 -0.035089583492003758 0 0.037735399219612345 -0.040181294098456666 0 0.036425046710884347 -0.043429247254547491 0 0.03854647049488661 -0.039822253155310294 0 0.039161507353056707 -0.04533366360384497 0 0.03854647049488661 -0.039822253155310294 0 0.041123011521770392 -0.04208780637610534 0 0.039161507353056707 -0.04533366360384497 0 0.036425046710884347 -0.043429247254547491 0 0.035878478986664769 -0.03949489965226459 0 0.03854647049488661 -0.039822253155310294 0 0.040317767373934159 -0.038078981598323326 0 0.03854647049488661 -0.039822253155310294 0 0.041123011521770392 -0.04208780637610534 0 0.041123011521770392 -0.04208780637610534 0 0.041060074416707351 -0.046407387473120974 0 0.039161507353056707 -0.04533366360384497 0 0.036425046710884347 -0.043429247254547491 0 0.039161507353056707 -0.04533366360384497 0 0.034482569159479254 -0.046285788114027115 0 0.037924769986881206 -0.046062291049881451 0 0.03743304003743303 -0.044186249526043227 0 0.039161507353056707 -0.04533366360384497 0 0.037812703845050269 -0.049174455930234173 0 0.039559703727252475 -0.048949537153931515 0 0.039161507353056707 -0.04533366360384497 0 0.037812703845050269 -0.049174455930234173 0 0.0356812638834582 -0.046890911632563544 0 0.041060074416707351 -0.046407387473120974 0 0.039161507353056707 -0.04533366360384497 0 0.039559703727252475 -0.048949537153931515 0 0.040881641617227335 -0.049944000777485578 0 0.041060074416707351 -0.046407387473120974 0 0.039559703727252475 -0.048949537153931515 0 0.040881641617227335 -0.049944000777485578 0 0.039559703727252475 -0.048949537153931515 0 0.039549871252942688 -0.050307697822088833 0 0.039955741503230606 -0.04992949205516381 0 0.040881641617227335 -0.049944000777485578 0 0.039549871252942688 -0.050307697822088833 0 0.039559703727252475 -0.048949537153931515 0 0.039549871252942688 -0.050307697822088833 0 0.038448903219215437 -0.050396825495452886 0 0.037812703845050269 -0.049174455930234173 0 0.039559703727252475 -0.048949537153931515 0 0.038448903219215437 -0.050396825495452886 0 0.038505611952344851 -0.051558068257696675 0 0.038448903219215437 -0.050396825495452886 0 0.03750103245395537 -0.050924322656341621 0 0.03750103245395537 -0.050924322656341621 0 0.037447595918495648 -0.051299596697559881 0 0.037469437923161548 -0.051224197146001668 0 0.037812703845050269 -0.049174455930234173 0 0.038448903219215437 -0.050396825495452886 0 0.03750103245395537 -0.050924322656341621 0 0.037303683782760111 -0.051916281714830405 0 0.03750103245395537 -0.050924322656341621 0 0.037447595918495648 -0.051299596697559881 0 0.037303683782760111 -0.051916281714830405 0 0.037447595918495648 -0.051299596697559881 0 0.037226108780748592 -0.051991011526814915 0 0.037447595918495648 -0.051299596697559881 0 0.037465424900926171 -0.051174670833648177 0 0.037163197495066233 -0.051395333721368355 0 0.040492875141839225 -0.041583478049289593 0 0.042706744582260474 -0.040951350730830054 0 0.04177607423488066 -0.042299118473816164 0 0.039121740274923308 -0.044426443028880304 0 0.039651910254532512 -0.046652221757672807 0 0.037447595918495648 -0.051299596697559881 0 0.037465424900926171 -0.051174670833648177 0 0.037469437923161548 -0.051224197146001668 0 0.039121740274923308 -0.044426443028880304 0 0.03743304003743303 -0.044186249526043227 0 0.037812703845050269 -0.049174455930234173 0 0.03750103245395537 -0.050924322656341621 0 0.036765222962781278 -0.048566146655143888 0 0.03741423872941075 -0.051455516151917083 0 0.03777678407089885 -0.047959227747350751 0 0.037903945362268092 -0.045455096592988013 0 0.03773932350264117 -0.045368345135098964 0 0.037751001322245327 -0.045499772248841046 0 0.039121740274923308 -0.044426443028880304 0 0.03777678407089885 -0.047959227747350751 0 0.03777678407089885 -0.047959227747350751 0 0.03743304003743303 -0.044186249526043227 0 0.037812703845050269 -0.049174455930234173 0 0.035783036175179736 -0.047990835792682221 0 0.0356812638834582 -0.046890911632563544 0 0.037419495658783865 -0.048696269919290575 0 0.03777678407089885 -0.047959227747350751 0 0.042706744582260474 -0.040951350730830054 0 0.044831619373714174 -0.040389179101836828 0 0.044334040186015354 -0.041716929907039825 0 0.042706744582260474 -0.040951350730830054 0 0.043310262209054248 -0.042000738206066902 0 0.044334040186015354 -0.041716929907039825 0 0.039651910254532512 -0.046652221757672807 0 0.041440057434378196 -0.044404239401628007 0 0.037022970893745968 -0.052585747726278921 0 0.037163197495066233 -0.051395333721368355 0 0.037226108780748592 -0.051991011526814915 0 0.037447595918495648 -0.051299596697559881 0 0.037163197495066233 -0.051395333721368355 0 0.037226108780748592 -0.051991011526814915 0 0.037022970893745968 -0.052585747726278921 0 0.037163197495066233 -0.051395333721368355 0 0.036444317500412229 -0.051714834071584136 0 0.04540853039271351 -0.040596827000982758 0 0.045234618703241414 -0.040572285117730957 0 0.045442551047646933 -0.040596041691364194 0 0.041655410781173546 -0.04812022887825574 0 0.041440057434378196 -0.044404239401628007 0 0.04540853039271351 -0.040596827000982758 0 0.045234618703241414 -0.040572285117730957 0 0.045219829212949619 -0.040574075537414142 0 0.045381161354165776 -0.040654419691622305 0 0.045234618703241414 -0.040572285117730957 0 0.045442551047646933 -0.040596041691364194 0 0.042147796130363367 -0.044076450929863842 0 0.041440057434378196 -0.044404239401628007 0 0.041655410781173546 -0.04812022887825574 0 0.046342224441453632 -0.040007636942355214 0 0.045442551047646933 -0.040596041691364194 0 0.045561985299070483 -0.040569797374283532 0 0.045422167195856983 -0.04062623431963517 0 0.04540853039271351 -0.040596827000982758 0 0.045442551047646933 -0.040596041691364194 0 0.045422167195856983 -0.04062623431963517 0 0.045381161354165776 -0.040654419691622305 0 0.045442551047646933 -0.040596041691364194 0 0.045561985299070483 -0.040569797374283532 0 0.045561985299070483 -0.040569797374283532 0 0.045418577606473116 -0.040180346654782526 0 0.045422167195856983 -0.04062623431963517 0 0.045561985299070483 -0.040569797374283532 0 0.045841018254045636 -0.040372507764202016 0 0.045418577606473116 -0.040180346654782526 0 0.045381161354165776 -0.040654419691622305 0 0.045561985299070483 -0.040569797374283532 0 0.045366291347192493 -0.040820743237570956 0 0.045561985299070483 -0.040569797374283532 0 0.045366291347192493 -0.040820743237570956 0 0.045430242060441585 -0.040841537973003196 0 0.045355340677263177 -0.040382178245765295 0 0.045828721257446782 -0.039556343208651874 0 0.04565722432441665 -0.041159146353380728 0 0.044334040186015354 -0.041716929907039825 0 0.04436919990357887 -0.042051540680648439 0 0.041440057434378196 -0.044404239401628007 0 0.045084551608241936 -0.040052476470314298 0 0.045366291347192493 -0.040820743237570956 0 0.04565722432441665 -0.041159146353380728 0 0.044334040186015354 -0.041716929907039825 0 0.045069948026342205 -0.040558278820920252 0 0.045366291347192493 -0.040820743237570956 0 0.044334040186015354 -0.041716929907039825 0 0.045234618703241414 -0.040572285117730957 0 0.045069948026342205 -0.040558278820920252 0 0.045366291347192493 -0.040820743237570956 0 0.045381161354165776 -0.040654419691622305 0 0.045234618703241414 -0.040572285117730957 0 0.045366291347192493 -0.040820743237570956 0 0.045926949300753715 -0.040142509023840457 0 0.045828721257446782 -0.039556343208651874 0 0.045828721257446782 -0.039556343208651874 0 0.045779214478729686 -0.038871585477463777 0 0.04652571474740208 -0.036049698806802366 0 0.046496838904773179 -0.035083918081668081 0 0.04707086455570958 -0.035624304688534808 0 0.04652571474740208 -0.036049698806802366 0 0.045997858099832999 -0.035372407080823738 0 0.046496838904773179 -0.035083918081668081 0 0.045828721257446782 -0.039556343208651874 0 0.045761711805597384 -0.037291606849162294 0 0.045841018254045636 -0.040372507764202016 0 0.045570449024928392 -0.039716196727233012 0 0.045418577606473116 -0.040180346654782526 0 0.046496838904773179 -0.035083918081668081 0 0.04623422700715682 -0.034878024197976011 0 0.046388001096769299 -0.03445041639195532 0 0.045997858099832999 -0.035372407080823738 0 0.04623422700715682 -0.034878024197976011 0 0.04604994067002266 -0.034611845627604748 0 0.045997858099832999 -0.035372407080823738 0 0.046496838904773179 -0.035083918081668081 0 0.04623422700715682 -0.034878024197976011 0 0.04623422700715682 -0.034878024197976011 0 0.04604994067002266 -0.034611845627604748 0 0.046388001096769299 -0.03445041639195532 0 0.046496838904773179 -0.035083918081668081 0 0.046986284186845632 -0.034824243365363938 0 0.04707086455570958 -0.035624304688534808 0 0.046496838904773179 -0.035083918081668081 0 0.046986284186845632 -0.034824243365363938 0 0.046388001096769299 -0.03445041639195532 0 0.045653291928054562 -0.030538343671723076 0 0.046231706853011846 -0.030923019851125402 0 0.046224070574313256 -0.030227421347147451 0 0.04646434006663841 -0.032410376001830173 0 0.044334748885911483 -0.036735489660406073 0 0.046986284186845632 -0.034824243365363938 0 0.04707086455570958 -0.035624304688534808 0 0.047582991384050699 -0.035226953820017941 0 0.045779214478729686 -0.038871585477463777 0 0.044334748885911483 -0.036735489660406073 0 0.043310262209054248 -0.042000738206066902 0 0.04436919990357887 -0.042051540680648439 0 0.043049210107034483 -0.042998849490077345 0 0.043310262209054248 -0.042000738206066902 0 0.044334040186015354 -0.041716929907039825 0 0.04436919990357887 -0.042051540680648439 0 0.042706744582260474 -0.040951350730830054 0 0.043310262209054248 -0.042000738206066902 0 0.04177607423488066 -0.042299118473816164 0 0.043310262209054248 -0.042000738206066902 0 0.04177607423488066 -0.042299118473816164 0 0.043049210107034483 -0.042998849490077345 0 0.040792311434769642 -0.040388599859550345 0 0.044334748885911483 -0.036735489660406073 0 0.040186633931235352 -0.03870529864559042 0 0.039467543467454527 -0.038228898605486589 0 0.040153617861818272 -0.038136369499736505 0 0.046823747269548278 -0.030471744934815317 0 0.046231706853011846 -0.030923019851125402 0 0.046224070574313256 -0.030227421347147451 0 0.040343154438390073 -0.037544054348416414 0 0.039467543467454527 -0.038228898605486589 0 0.040153617861818272 -0.038136369499736505 0 0.041472404721566589 -0.031954995347296976 0 0.044334748885911483 -0.036735489660406073 0 0.041472404721566589 -0.031954995347296976 0 0.04327492173833937 -0.030410243681742544 0 0.046823747269548278 -0.030471744934815317 0 0.046224070574313256 -0.030227421347147451 0 0.046578033538195361 -0.02960025870729267 0 0.046224070574313256 -0.030227421347147451 0 0.045738531593708831 -0.029975637641603149 0 0.046083595053210108 -0.0294906928173083 0 0.045653291928054562 -0.030538343671723076 0 0.046224070574313256 -0.030227421347147451 0 0.045738531593708831 -0.029975637641603149 0 0.045738531593708831 -0.029975637641603149 0 0.046083595053210108 -0.0294906928173083 0 0.045638737285694016 -0.029482898067121753 0 0.046083595053210108 -0.0294906928173083 0 0.045850298677222838 -0.0290101580088661 0 0.045638737285694016 -0.029482898067121753 0 0.046224070574313256 -0.030227421347147451 0 0.046083595053210108 -0.0294906928173083 0 0.046578033538195361 -0.02960025870729267 0 0.046083595053210108 -0.0294906928173083 0 0.046578033538195361 -0.02960025870729267 0 0.0462637372509868 -0.028784095393253908 0 0.039896672450463626 -0.03107201988373956 0 0.04032651170366721 -0.03033024539043502 0 0.040354747429489933 -0.028848191654849455 0 0.039472104177807374 -0.03089054325694203 0 0.039896672450463626 -0.03107201988373956 0 0.04032651170366721 -0.03033024539043502 0 0.039896672450463626 -0.03107201988373956 0 0.040354747429489933 -0.028848191654849455 0 0.039951158855554052 -0.027329594802095639 0 0.041304904792385959 -0.027775925720613718 0 0.041245784633418305 -0.028608076610151054 0 0.040354747429489933 -0.028848191654849455 0 0.041245784633418305 -0.028608076610151054 0 0.04032651170366721 -0.03033024539043502 0 0.040354747429489933 -0.028848191654849455 0 0.04327492173833937 -0.030410243681742544 0 0.045013006311080413 -0.02466095692597212 0 0.041304904792385959 -0.027775925720613718 0 0.040354747429489933 -0.028848191654849455 0 0.040817343373596784 -0.027444441043523161 0 0.041304904792385959 -0.027775925720613718 0 0.040817343373596784 -0.027444441043523161 0 0.041313138959820257 -0.027168507161029577 0 0.040354747429489933 -0.028848191654849455 0 0.040817343373596784 -0.027444441043523161 0 0.039951158855554052 -0.027329594802095639 0 0.040817343373596784 -0.027444441043523161 0 0.039951158855554052 -0.027329594802095639 0 0.040775131366518835 -0.026939624087264073 0 0.045006603876139285 -0.017829346737357876 0 0.046329095283446316 -0.017890107432534771 0 0.048151134971960337 -0.017056043163068989 0 0.046083595053210108 -0.0294906928173083 0 0.0462637372509868 -0.028784095393253908 0 0.045850298677222838 -0.0290101580088661 0 0.045013006311080413 -0.02466095692597212 0 0.046954612197375137 -0.022678937838636979 0 0.0462637372509868 -0.028784095393253908 0 0.045850298677222838 -0.0290101580088661 0 0.045770689466105255 -0.028966036144473191 0 0.045006603876139285 -0.017829346737357876 0 0.046329095283446316 -0.017890107432534771 0 0.046366092456014862 -0.019106150940302807 0 0.046329095283446316 -0.017890107432534771 0 0.046366092456014862 -0.019106150940302807 0 0.047950984538018757 -0.019877254432179407 0 0.045006603876139285 -0.017829346737357876 0 0.046366092456014862 -0.019106150940302807 0 0.045693349819199473 -0.019805342867521648 0 0.045013006311080413 -0.02466095692597212 0 0.043228833602452638 -0.02207933390883008 0 0.039951158855554052 -0.027329594802095639 0 0.041102577319402665 -0.02570634148325562 0 0.041221589836075608 -0.024717355361129338 0 0.041102577319402665 -0.02570634148325562 0 0.041377970554021169 -0.026057581914020283 0 0.040799537309555593 -0.026491194242763146 0 0.041102577319402665 -0.02570634148325562 0 0.041845905151562245 -0.025466050034609181 0 0.041377970554021169 -0.026057581914020283 0 0.041877507998036093 -0.026151772551656655 0 0.041845905151562245 -0.025466050034609181 0 0.041377970554021169 -0.026057581914020283 0 0.041377970554021169 -0.026057581914020283 0 0.041287629326978124 -0.026592828168812425 0 0.040799537309555593 -0.026491194242763146 0 0.041877507998036093 -0.026151772551656655 0 0.041377970554021169 -0.026057581914020283 0 0.041287629326978124 -0.026592828168812425 0 0.041816506564061252 -0.026883321905493335 0 0.041313138959820257 -0.027168507161029577 0 0.041287629326978124 -0.026592828168812425 0 0.040817343373596784 -0.027444441043523161 0 0.041313138959820257 -0.027168507161029577 0 0.041287629326978124 -0.026592828168812425 0 0.041287629326978124 -0.026592828168812425 0 0.040775131366518835 -0.026939624087264073 0 0.040799537309555593 -0.026491194242763146 0 0.040817343373596784 -0.027444441043523161 0 0.041287629326978124 -0.026592828168812425 0 0.040775131366518835 -0.026939624087264073 0 0.039951158855554052 -0.027329594802095639 0 0.040775131366518835 -0.026939624087264073 0 0.040799537309555593 -0.026491194242763146 0 0.039951158855554052 -0.027329594802095639 0 0.041102577319402665 -0.02570634148325562 0 0.040799537309555593 -0.026491194242763146 0 0.050153250275982088 -0.018418502361134268 0 0.051823628138026427 -0.019669368393094071 0 0.050845059304322093 -0.020672339625957614 0 0.050153250275982088 -0.018418502361134268 0 0.048959974804886515 -0.020354141162061617 0 0.050845059304322093 -0.020672339625957614 0 0.050153250275982088 -0.018418502361134268 0 0.05114545579634236 -0.01649487944592604 0 0.051823628138026427 -0.019669368393094071 0 0.050153250275982088 -0.018418502361134268 0 0.048423377869374923 -0.018433527939226181 0 0.048959974804886515 -0.020354141162061617 0 0.046446463797900003 -0.018000938772182281 0 0.048462769902218691 -0.020031688486347909 0 0.046329095283446316 -0.017890107432534771 0 0.048423377869374923 -0.018433527939226181 0 0.048959974804886515 -0.020354141162061617 0 0.045017445672894327 -0.029027861558000155 0 0.047233063460188289 -0.029434702054584195 0 0.050153250275982088 -0.018418502361134268 0 0.048423377869374923 -0.018433527939226181 0 0.048151134971960337 -0.017056043163068989 0 0.045850298677222838 -0.0290101580088661 0 0.045770689466105255 -0.028966036144473191 0 0.045667803183101929 -0.028946054412808508 0 0.046329095283446316 -0.017890107432534771 0 0.048423377869374923 -0.018433527939226181 0 0.048151134971960337 -0.017056043163068989 0 0.045770689466105255 -0.028966036144473191 0 0.045672525742381002 -0.028920299872864774 0 0.045667803183101929 -0.028946054412808508 0 0.049546479188876801 -0.024981453372160897 0 0.053017343173680363 -0.021278465060446127 0 0.046954612197375137 -0.022678937838636979 0 0.049546479188876801 -0.024981453372160897 0 0.050153250275982088 -0.018418502361134268 0 0.048151134971960337 -0.017056043163068989 0 0.05114545579634236 -0.01649487944592604 0 0.047233063460188289 -0.029434702054584195 0 0.04571516583980216 -0.033090332997471397 0 0.046262548239466149 -0.033392188196455924 0 0.046490338760764666 -0.034343331661369408 0 0.045849355268534439 -0.033984754749392727 0 0.044849018643630841 -0.029378191882927604 0 0.045366415433340204 -0.029744415247490035 0 0.04505377603111136 -0.030175562042101395 0 0.049546479188876801 -0.024981453372160897 0 0.047233063460188289 -0.029434702054584195 0 0.044849018643630841 -0.029378191882927604 0 0.045638737285694016 -0.029482898067121753 0 0.045366415433340204 -0.029744415247490035 0 0.045850298677222838 -0.0290101580088661 0 0.044849018643630841 -0.029378191882927604 0 0.045638737285694016 -0.029482898067121753 0 0.045738531593708831 -0.029975637641603149 0 0.045638737285694016 -0.029482898067121753 0 0.045366415433340204 -0.029744415247490035 0 0.04646434006663841 -0.032410376001830173 0 0.04571516583980216 -0.033090332997471397 0 0.045738531593708831 -0.029975637641603149 0 0.045366415433340204 -0.029744415247490035 0 0.04505377603111136 -0.030175562042101395 0 0.046986284186845632 -0.034824243365363938 0 0.046375401882291528 -0.034393272288265803 0 0.046388001096769299 -0.03445041639195532 0 0.045653291928054562 -0.030538343671723076 0 0.045738531593708831 -0.029975637641603149 0 0.04505377603111136 -0.030175562042101395 0 0.04571516583980216 -0.033090332997471397 0 0.046265639243574942 -0.034256432958628125 0 0.04604994067002266 -0.034611845627604748 0 0.046377289973444272 -0.034389955452981638 0 0.046388001096769299 -0.03445041639195532 0 0.04571516583980216 -0.033090332997471397 0 0.045755892679089631 -0.033218967360490834 0 0.04604994067002266 -0.034611845627604748 0 0.046377289973444272 -0.034389955452981638 0 0.045849355268534439 -0.033984754749392727 0 0.045849355268534439 -0.033984754749392727 0 0.045556523080331035 -0.033677896245746131 0 0.045456335897599745 -0.034666072768077642 0 0.04604994067002266 -0.034611845627604748 0 0.045849355268534439 -0.033984754749392727 0 0.045456335897599745 -0.034666072768077642 0 0.044577359028373849 -0.038064421808226362 0 0.044271086317576022 -0.038743835117057625 0 0.045148747647132281 -0.038883824480681825 0 0.044898779000701682 -0.033921189199485162 0 0.045556523080331035 -0.033677896245746131 0 0.045456335897599745 -0.034666072768077642 0 0.048192467134384534 -0.032419318885825749 0 0.045034014814521205 -0.037179782313176105 0 0.052154790999340804 -0.027477720083644248 0 0.051937802202413043 -0.027738328391661668 0 0.051681818433810263 -0.027852863715113866 0 0.048192467134384534 -0.032419318885825749 0 0.048806382693753952 -0.030598988245550508 0 0.051936925335779385 -0.027709273864191426 0 0.051937802202413043 -0.027738328391661668 0 0.051564427040685097 -0.027676201233346461 0 0.051840486071629284 -0.027733176686727406 0 0.052608102940818698 -0.027397188030958249 0 0.052154790999340804 -0.027477720083644248 0 0.051937802202413043 -0.027738328391661668 0 0.053024705888959064 -0.0272387940386376 0 0.051937802202413043 -0.027738328391661668 0 0.051564427040685097 -0.027676201233346461 0 0.051535600346861991 -0.027934653396523693 0 0.050876618027211953 -0.028104914340991466 0 0.050817397731272362 -0.027872598296082161 0 0.051535600346861991 -0.027934653396523693 0 0.047233063460188289 -0.029434702054584195 0 0.048806382693753952 -0.030598988245550508 0 0.050817397731272362 -0.027872598296082161 0 0.051564427040685097 -0.027676201233346461 0 0.051535600346861991 -0.027934653396523693 0 0.046262548239466149 -0.033392188196455924 0 0.045849355268534439 -0.033984754749392727 0 0.045556523080331035 -0.033677896245746131 0 0.049546479188876801 -0.024981453372160897 0 0.052608102940818698 -0.027397188030958249 0 0.054496268150149255 -0.026777976427189831 0 0.053024705888959064 -0.0272387940386376 0 0.053193298877701141 -0.025950589320306389 0 0.054496268150149255 -0.026777976427189831 0 0.053193298877701141 -0.025950589320306389 0 0.053665805648014812 -0.024197937056298278 0 0.053024705888959064 -0.0272387940386376 0 0.053193298877701141 -0.025950589320306389 0 0.052228715718922979 -0.026152855393564805 0 0.052154790999340804 -0.027477720083644248 0 0.053024705888959064 -0.0272387940386376 0 0.052228715718922979 -0.026152855393564805 0 0.052154790999340804 -0.027477720083644248 0 0.052228715718922979 -0.026152855393564805 0 0.050473034593727345 -0.024762550846105937 0 0.052228715718922979 -0.026152855393564805 0 0.052296191418562774 -0.025176482340031489 0 0.050473034593727345 -0.024762550846105937 0 0.053193298877701141 -0.025950589320306389 0 0.052228715718922979 -0.026152855393564805 0 0.052296191418562774 -0.025176482340031489 0 0.052296191418562774 -0.025176482340031489 0 0.051409250457746684 -0.024130148162819078 0 0.050473034593727345 -0.024762550846105937 0 0.052296191418562774 -0.025176482340031489 0 0.051409250457746684 -0.024130148162819078 0 0.052279268670436828 -0.024048584690770994 0 0.052296191418562774 -0.025176482340031489 0 0.052279268670436828 -0.024048584690770994 0 0.053665805648014812 -0.024197937056298278 0 0.053193298877701141 -0.025950589320306389 0 0.052296191418562774 -0.025176482340031489 0 0.053665805648014812 -0.024197937056298278 0 0.051085038368970763 -0.025602924640054241 0 0.050000100129082202 -0.023905648232500191 0 0.051702265295819311 -0.026380382719648755 0 0.049999905983031619 -0.026742087366619996 0 0.049999976526000779 -0.023905536058069752 0 0.051409250457746684 -0.024130148162819078 0 0.050473034593727345 -0.024762550846105937 0 0.050877721149641814 -0.023222484960519776 0 0.051702265295819311 -0.026380382719648755 0 0.050848157006774086 -0.027856332229848131 0 0.051681818433810263 -0.027852863715113866 0 0.052154790999340804 -0.027477720083644248 0 0.051702265295819311 -0.026380382719648755 0 0.051681818433810263 -0.027852863715113866 0 0.052152658500577868 -0.027364979467732854 0 0.051085038368970763 -0.025602924640054241 0 0.050848157006774086 -0.027856332229848131 0 0.049999905983031619 -0.026742087366619996 0 0.049999570992020126 -0.02957647673069758 0 0.051702265295819311 -0.026380382719648755 0 0.050848157006774086 -0.027856332229848131 0 0.049999905983031619 -0.026742087366619996 0 0.050848157006774086 -0.027856332229848131 0 0.051053538032376937 -0.028965793280866761 0 0.051681818433810263 -0.027852863715113866 0 0.050848157006774086 -0.027856332229848131 0 0.051053538032376937 -0.028965793280866761 0 0.049999570992020126 -0.02957647673069758 0 0.052793434073257345 -0.029316094957585331 0 0.051053538032376937 -0.028965793280866761 0 0.051681818433810263 -0.027852863715113866 0 0.051936925335779385 -0.027709273864191426 0 0.051937802202413043 -0.027738328391661668 0 0.051681818433810263 -0.027852863715113866 0 0.048192467134384534 -0.032419318885825749 0 0.051687231449888321 -0.027800531764392025 0 0.048192467134384534 -0.032419318885825749 0 0.048262522677715455 -0.033549447436129136 0 0.044577359028373849 -0.038064421808226362 0 0.043536561871457012 -0.03842522676939629 0 0.044271086317576022 -0.038743835117057625 0 0.052793434073257345 -0.029316094957585331 0 0.051053538032376937 -0.028965793280866761 0 0.050444367991795712 -0.030252250229242543 0 0.051053538032376937 -0.028965793280866761 0 0.049999570992020126 -0.02957647673069758 0 0.050444367991795712 -0.030252250229242543 0 0.049998687681746382 -0.029578704242822967 0 0.048262522677715455 -0.033549447436129136 0 0.049999998965718134 -0.029577999152312216 0 0.050668741948536898 -0.030604664908799081 0 0.049999986565667287 -0.030834269998373184 0 0.048262522677715455 -0.033549447436129136 0 0.050000548584837684 -0.030836494357414816 0 0.048262522677715455 -0.033549447436129136 0 0.047965773034553995 -0.036421176663122556 0 0.049999581251599222 -0.037718552765900561 0 0.049999828855491764 -0.030834800607318909 0 0.051548933257714091 -0.034964097216393278 0 0.049999828855491764 -0.030834800607318909 0 0.052128621814238503 -0.03312099540873905 0 0.051548933257714091 -0.034964097216393278 0 0.05064614112520649 -0.030625017438800098 0 0.049999828855491764 -0.030834800607318909 0 0.052128621814238503 -0.03312099540873905 0 0.047965773034553995 -0.036421176663122556 0 0.049050309558865787 -0.038281077272533742 0 0.044099948579491309 -0.039454505920406502 0 0.044271086317576022 -0.038743835117057625 0 0.044714648462598386 -0.039343214658862015 0 0.043536561871457012 -0.03842522676939629 0 0.044099948579491309 -0.039454505920406502 0 0.044271086317576022 -0.038743835117057625 0 0.044271086317576022 -0.038743835117057625 0 0.044714648462598386 -0.039343214658862015 0 0.045148747647132281 -0.038883824480681825 0 0.044714648462598386 -0.039343214658862015 0 0.045148747647132281 -0.038883824480681825 0 0.045158782876027141 -0.039628648084405534 0 0.045570449024928392 -0.039716196727233012 0 0.045148747647132281 -0.038883824480681825 0 0.045158782876027141 -0.039628648084405534 0 0.045761711805597384 -0.037291606849162294 0 0.045034014814521205 -0.037179782313176105 0 0.045997858099832999 -0.035372407080823738 0 0.04604994067002266 -0.034611845627604748 0 0.045456335897599745 -0.034666072768077642 0 0.045158782876027141 -0.039628648084405534 0 0.044868727779775304 -0.040013154735126837 0 0.045418577606473116 -0.040180346654782526 0 0.045570449024928392 -0.039716196727233012 0 0.045158782876027141 -0.039628648084405534 0 0.045418577606473116 -0.040180346654782526 0 0.044099948579491309 -0.039454505920406502 0 0.044868727779775304 -0.040013154735126837 0 0.044771359478631062 -0.040771112281358671 0 0.044099948579491309 -0.039454505920406502 0 0.044714648462598386 -0.039343214658862015 0 0.044868727779775304 -0.040013154735126837 0 0.044714648462598386 -0.039343214658862015 0 0.045158782876027141 -0.039628648084405534 0 0.044868727779775304 -0.040013154735126837 0 0.053649399751176635 -0.038977197103469696 0 0.054843573909866043 -0.038113271326936003 0 0.053498431500024875 -0.035616761812721567 0 0.044868727779775304 -0.040013154735126837 0 0.044771359478631062 -0.040771112281358671 0 0.046157518681952704 -0.041384268342388161 0 0.053649399751176635 -0.038977197103469696 0 0.053498431500024875 -0.035616761812721567 0 0.052066497578016839 -0.037477957728150206 0 0.044808330814313332 -0.040370664165783804 0 0.046342224441453632 -0.040007636942355214 0 0.044868727779775304 -0.040013154735126837 0 0.045418577606473116 -0.040180346654782526 0 0.045422167195856983 -0.04062623431963517 0 0.045820387980254701 -0.042578943904607633 0 0.044771359478631062 -0.040771112281358671 0 0.046157518681952704 -0.041384268342388161 0 0.051141147120776449 -0.039631548654171574 0 0.049050309558865787 -0.038281077272533742 0 0.049999581251599222 -0.037718552765900561 0 0.052066497578016839 -0.037477957728150206 0 0.051548933257714091 -0.034964097216393278 0 0.052128621814238503 -0.03312099540873905 0 0.053498431500024875 -0.035616761812721567 0 0.051548933257714091 -0.034964097216393278 0 0.053498431500024875 -0.035616761812721567 0 0.052066497578016839 -0.037477957728150206 0 0.051548933257714091 -0.034964097216393278 0 0.051107175565487856 -0.015051874901630615 0 0.051772505071406037 -0.015092463488042336 0 0.051689898811872428 -0.015839004574242678 0 0.051107175565487856 -0.015051874901630615 0 0.051553836568111459 -0.014439673380978471 0 0.051772505071406037 -0.015092463488042336 0 0.051107175565487856 -0.015051874901630615 0 0.049999626732677029 -0.014700373841838702 0 0.050862065619413963 -0.014221336295092138 0 0.051107175565487856 -0.015051874901630615 0 0.049999626732677029 -0.014700373841838702 0 0.050000075840499862 -0.016661831629044208 0 0.050146879951842013 -0.011640683610646964 0 0.050461506317442326 -0.012442521884401592 0 0.05000000421139994 -0.014698222909256519 0 0.051381184156589307 -0.013337404257979864 0 0.050723119633813131 -0.013276671037351761 0 0.05000000421139994 -0.014698222909256519 0 0.049999984332339188 -0.013465237149308884 0 0.050723119633813131 -0.013276671037351761 0 0.049999878842110795 -0.014698856495008317 0 0.050146879951842013 -0.011640683610646964 0 0.050000241811818807 -0.013464199220115861 0 0.050461506317442326 -0.012442521884401592 0 0.049999999829798393 -0.01346522051889879 0 0.049999998381394038 -0.013207421333212019 0 0.050726081956392083 -0.013275283048143611 0 0.049999971847996226 -0.01320726377552721 0 0.050417808820533275 -0.012682101498631649 0 0.049999997640525026 -0.011877123085604582 0 0.050701742264245619 -0.013235013598700636 0 0.050417808820533275 -0.012682101498631649 0 0.05095765469230927 -0.012398532565450759 0 0.05000050094396543 -0.013206556263411709 0 0.050461506317442326 -0.012442521884401592 0 0.049999971847996226 -0.01320726377552721 0 0.050701742264245619 -0.013235013598700636 0 0.050417808820533275 -0.012682101498631649 0 0.050461506317442326 -0.012442521884401592 0 0.050192260135832459 -0.010013917913121326 0 0.050250898121382531 -0.011326266737428909 0 0.050213548011532598 -0.011329291934005776 0 0.050269329959220552 -0.011303198349379272 0 0.050701742264245619 -0.013235013598700636 0 0.051638817105848993 -0.012961398528939443 0 0.05095765469230927 -0.012398532565450759 0 0.050192260135832459 -0.010013917913121326 0 0.047705492292686495 -0.0019003257266508875 0 0.051107175565487856 -0.015051874901630615 0 0.050862065619413963 -0.014221336295092138 0 0.051553836568111459 -0.014439673380978471 0 0.049548986359107997 -0.0077775076579369804 0 0.049241742663029907 -0.0076379054952732256 0 0.048919455886133591 -0.0078734097789709134 0 0.050146879951842013 -0.011640683610646964 0 0.050192260135832459 -0.010013917913121326 0 0.050146879951842013 -0.011640683610646964 0 0.050642397180931789 -0.01101687424506873 0 0.04963482977065866 -0.007705803788917177 0 0.049548986359107997 -0.0077775076579369804 0 0.049241742663029907 -0.0076379054952732256 0 0.049241742663029907 -0.0076379054952732256 0 0.048852930870272857 -0.0075817869761604867 0 0.048919455886133591 -0.0078734097789709134 0 0.044576072987532224 0.0010065633051301855 0 0.045029574395642404 0.0017614105082657207 0 0.044342687982515269 0.0020312069261985322 0 0.048900211261788215 -0.009261881960358721 0 0.047705492292686495 -0.0019003257266508875 0 0.051553836568111459 -0.014439673380978471 0 0.052108321310256334 -0.014593498934743248 0 0.051772505071406037 -0.015092463488042336 0 0.050642397180931789 -0.01101687424506873 0 0.048900211261788215 -0.009261881960358721 0 0.044576072987532224 0.0010065633051301855 0 0.045495735753381221 0.0015320689693836718 0 0.046249507813961206 0.00084609205116942883 0 0.048900211261788215 -0.009261881960358721 0 0.04950737481267304 -0.0067879619581951781 0 0.045495735753381221 0.0015320689693836718 0 0.046151376042138981 0.0016975362441597266 0 0.045714772312529468 0.0024966583192180809 0 0.045495735753381221 0.0015320689693836718 0 0.045029574395642404 0.0017614105082657207 0 0.045714772312529468 0.0024966583192180809 0 0.045495735753381221 0.0015320689693836718 0 0.046249507813961206 0.00084609205116942883 0 0.046151376042138981 0.0016975362441597266 0 0.044576072987532224 0.0010065633051301855 0 0.045495735753381221 0.0015320689693836718 0 0.045029574395642404 0.0017614105082657207 0 0.05205639246630691 -0.015263953460901624 0 0.052165288751309158 -0.015386533728655755 0 0.052147989525283281 -0.015338310520575854 0 0.05205639246630691 -0.015263953460901624 0 0.052119621636234383 -0.01539163386990762 0 0.052165288751309158 -0.015386533728655755 0 0.052108321310256334 -0.014593498934743248 0 0.052119621636234383 -0.01539163386990762 0 0.051772505071406037 -0.015092463488042336 0 0.048900211261788215 -0.009261881960358721 0 0.05281089476653518 -0.017559165662593992 0 0.052270947662282082 -0.017520601855304522 0 0.05112774900758877 -0.017605628416630638 0 0.052119621636234383 -0.01539163386990762 0 0.051772505071406037 -0.015092463488042336 0 0.051689898811872428 -0.015839004574242678 0 0.052119621636234383 -0.01539163386990762 0 0.052227908753927819 -0.015445128667011494 0 0.051689898811872428 -0.015839004574242678 0 0.050909322483031511 -0.020745132519199655 0 0.051220276958671818 -0.020249772507979096 0 0.051254600805454978 -0.019245624532007639 0 0.052119621636234383 -0.01539163386990762 0 0.052165288751309158 -0.015386533728655755 0 0.052227908753927819 -0.015445128667011494 0 0.050909322483031511 -0.020745132519199655 0 0.050843523056108425 -0.02083012877192773 0 0.051220276958671818 -0.020249772507979096 0 0.051220276958671818 -0.020249772507979096 0 0.051254600805454978 -0.019245624532007639 0 0.051178642197901719 -0.019971321075719039 0 0.051254600805454978 -0.019245624532007639 0 0.050812519976749557 -0.018865593495509082 0 0.051178642197901719 -0.019971321075719039 0 0.051107175565487856 -0.015051874901630615 0 0.051689898811872428 -0.015839004574242678 0 0.050000075840499862 -0.016661831629044208 0 0.05112774900758877 -0.017605628416630638 0 0.050000032476288682 -0.016664346537555969 0 0.051254600805454978 -0.019245624532007639 0 0.049999929193274818 -0.01666759166218116 0 0.050812519976749557 -0.018865593495509082 0 0.049999929193274818 -0.01666759166218116 0 0.050812519976749557 -0.018865593495509082 0 0.049999455998095944 -0.019078111419470675 0 0.049999455998095944 -0.019078111419470675 0 0.050834291988564352 -0.020397811047806049 0 0.049999788186162269 -0.021492382475310309 0 0.050812519976749557 -0.018865593495509082 0 0.049999455998095944 -0.019078111419470675 0 0.050834291988564352 -0.020397811047806049 0 0.050812519976749557 -0.018865593495509082 0 0.050834291988564352 -0.020397811047806049 0 0.051178642197901719 -0.019971321075719039 0 0.050834291988564352 -0.020397811047806049 0 0.051178642197901719 -0.019971321075719039 0 0.051339376629375467 -0.020830500505010938 0 0.050834291988564352 -0.020397811047806049 0 0.050964953073821442 -0.021648742753945731 0 0.051339376629375467 -0.020830500505010938 0 0.050834291988564352 -0.020397811047806049 0 0.050964953073821442 -0.021648742753945731 0 0.049999788186162269 -0.021492382475310309 0 0.049999788186162269 -0.021492382475310309 0 0.050877721149641814 -0.023222484960519776 0 0.049998697228231428 -0.023902353050560952 0 0.050964953073821442 -0.021648742753945731 0 0.049999788186162269 -0.021492382475310309 0 0.050877721149641814 -0.023222484960519776 0 0.050964953073821442 -0.021648742753945731 0 0.050877721149641814 -0.023222484960519776 0 0.051592913102463119 -0.022033797985732163 0 0.051409250457746684 -0.024130148162819078 0 0.050877721149641814 -0.023222484960519776 0 0.051570312017505837 -0.023310860705420215 0 0.050473034593727345 -0.024762550846105937 0 0.050877721149641814 -0.023222484960519776 0 0.049998697228231428 -0.023902353050560952 0 0.053665805648014812 -0.024197937056298278 0 0.052124818374569996 -0.023015505689100234 0 0.052033655029601285 -0.021894792877350983 0 0.051823628138026427 -0.019669368393094071 0 0.052033655029601285 -0.021894792877350983 0 0.050845059304322093 -0.020672339625957614 0 0.053017343173680363 -0.021278465060446127 0 0.05212405888070485 -0.022177313810121394 0 0.052279268670436828 -0.024048584690770994 0 0.053665805648014812 -0.024197937056298278 0 0.052124818374569996 -0.023015505689100234 0 0.052279268670436828 -0.024048584690770994 0 0.051570312017505837 -0.023310860705420215 0 0.052124818374569996 -0.023015505689100234 0 0.050877721149641814 -0.023222484960519776 0 0.051570312017505837 -0.023310860705420215 0 0.051592913102463119 -0.022033797985732163 0 0.051570312017505837 -0.023310860705420215 0 0.052124818374569996 -0.023015505689100234 0 0.051592913102463119 -0.022033797985732163 0 0.051409250457746684 -0.024130148162819078 0 0.052279268670436828 -0.024048584690770994 0 0.051570312017505837 -0.023310860705420215 0 0.052124818374569996 -0.023015505689100234 0 0.051592913102463119 -0.022033797985732163 0 0.052033655029601285 -0.021894792877350983 0 0.051592913102463119 -0.022033797985732163 0 0.052033655029601285 -0.021894792877350983 0 0.051439832212851033 -0.021086865369905197 0 0.052033655029601285 -0.021894792877350983 0 0.051439832212851033 -0.021086865369905197 0 0.051309801876645654 -0.021907383645050599 0 0.051336025186084412 -0.021197309349930964 0 0.050594474041926116 -0.021316194689685517 0 0.051592913102463119 -0.022033797985732163 0 0.051439832212851033 -0.021086865369905197 0 0.051339376629375467 -0.020830500505010938 0 0.050964953073821442 -0.021648742753945731 0 0.051592913102463119 -0.022033797985732163 0 0.051339376629375467 -0.020830500505010938 0 0.051220276958671818 -0.020249772507979096 0 0.051439832212851033 -0.021086865369905197 0 0.051339376629375467 -0.020830500505010938 0 0.051220276958671818 -0.020249772507979096 0 0.051178642197901719 -0.019971321075719039 0 0.051339376629375467 -0.020830500505010938 0 0.050843523056108425 -0.02083012877192773 0 0.051439832212851033 -0.021086865369905197 0 0.049988918530002098 -0.021200500282972188 0 0.050843523056108425 -0.02083012877192773 0 0.051220276958671818 -0.020249772507979096 0 0.051439832212851033 -0.021086865369905197 0 0.050843523056108425 -0.02083012877192773 0 0.049988918530002098 -0.021200500282972188 0 0.05043074209565352 -0.020995925102335868 0 0.046306098523006947 -0.023157436138617017 0 0.046097692713265991 -0.022777648407931329 0 0.049992567112952933 -0.021146207870489087 0 0.049988918530002098 -0.021200500282972188 0 0.048934446208551856 -0.021339335203310938 0 0.049992567112952933 -0.021146207870489087 0 0.049988918530002098 -0.021200500282972188 0 0.05043074209565352 -0.020995925102335868 0 0.049988918530002098 -0.021200500282972188 0 0.049301387394122376 -0.021147972900492199 0 0.048934446208551856 -0.021339335203310938 0 0.049988918530002098 -0.021200500282972188 0 0.049907288156425769 -0.020778262432448496 0 0.049301387394122376 -0.021147972900492199 0 0.051439832212851033 -0.021086865369905197 0 0.049988918530002098 -0.021200500282972188 0 0.049907288156425769 -0.020778262432448496 0 0.049907288156425769 -0.020778262432448496 0 0.049301387394122376 -0.021147972900492199 0 0.048505254284681852 -0.021102986013928293 0 0.052033655029601285 -0.021894792877350983 0 0.051309801876645654 -0.021907383645050599 0 0.050845059304322093 -0.020672339625957614 0 0.049907288156425769 -0.020778262432448496 0 0.048505254284681852 -0.021102986013928293 0 0.047766925111323681 -0.02067198773331123 0 0.048505254284681852 -0.021102986013928293 0 0.045941825837005942 -0.021153770812729018 0 0.048934446208551856 -0.021339335203310938 0 0.049301387394122376 -0.021147972900492199 0 0.048505254284681852 -0.021102986013928293 0 0.048934446208551856 -0.021339335203310938 0 0.049907288156425769 -0.020778262432448496 0 0.047766925111323681 -0.02067198773331123 0 0.047950984538018757 -0.019877254432179407 0 0.048505254284681852 -0.021102986013928293 0 0.047766925111323681 -0.02067198773331123 0 0.045941825837005942 -0.021153770812729018 0 0.046366092456014862 -0.019106150940302807 0 0.047950984538018757 -0.019877254432179407 0 0.046680345465327178 -0.020069187970117947 0 0.047766925111323681 -0.02067198773331123 0 0.047950984538018757 -0.019877254432179407 0 0.046680345465327178 -0.020069187970117947 0 0.050594474041926116 -0.021316194689685517 0 0.048462769902218691 -0.020031688486347909 0 0.051309801876645654 -0.021907383645050599 0 0.048959974804886515 -0.020354141162061617 0 0.050845059304322093 -0.020672339625957614 0 0.041878869002852301 -0.024652649329637261 0 0.042492810426586258 -0.02377968108276626 0 0.042214412892851313 -0.024217376946610684 0 0.041878869002852301 -0.024652649329637261 0 0.042214412892851313 -0.024217376946610684 0 0.042277260584090592 -0.024906540279329401 0 0.041845905151562245 -0.025466050034609181 0 0.041878869002852301 -0.024652649329637261 0 0.042277260584090592 -0.024906540279329401 0 0.041102577319402665 -0.02570634148325562 0 0.041845905151562245 -0.025466050034609181 0 0.041878869002852301 -0.024652649329637261 0 0.041102577319402665 -0.02570634148325562 0 0.041878869002852301 -0.024652649329637261 0 0.041221589836075608 -0.024717355361129338 0 0.041878869002852301 -0.024652649329637261 0 0.041221589836075608 -0.024717355361129338 0 0.042492810426586258 -0.02377968108276626 0 0.041221589836075608 -0.024717355361129338 0 0.042492810426586258 -0.02377968108276626 0 0.04412230806519081 -0.022943037518950805 0 0.043228833602452638 -0.02207933390883008 0 0.044187142044771893 -0.023459411802060091 0 0.045693349819199473 -0.019805342867521648 0 0.045941825837005942 -0.021153770812729018 0 0.04412230806519081 -0.022943037518950805 0 0.046366092456014862 -0.019106150940302807 0 0.045693349819199473 -0.019805342867521648 0 0.046680345465327178 -0.020069187970117947 0 0.045693349819199473 -0.019805342867521648 0 0.046680345465327178 -0.020069187970117947 0 0.045941825837005942 -0.021153770812729018 0 0.047766925111323681 -0.02067198773331123 0 0.046680345465327178 -0.020069187970117947 0 0.045941825837005942 -0.021153770812729018 0 0.045874459802512459 -0.020973409055873294 0 0.046097692713265991 -0.022777648407931329 0 0.04412230806519081 -0.022943037518950805 0 0.042500957630338891 -0.024263068744509717 0 0.043181980793764306 -0.024857492456790229 0 0.042492810426586258 -0.02377968108276626 0 0.04412230806519081 -0.022943037518950805 0 0.042500957630338891 -0.024263068744509717 0 0.045941825837005942 -0.021153770812729018 0 0.04412230806519081 -0.022943037518950805 0 0.043181980793764306 -0.024857492456790229 0 0.042492810426586258 -0.02377968108276626 0 0.042500957630338891 -0.024263068744509717 0 0.042214412892851313 -0.024217376946610684 0 0.042214412892851313 -0.024217376946610684 0 0.042285498797743661 -0.024359222178530433 0 0.042277260584090592 -0.024906540279329401 0 0.042500957630338891 -0.024263068744509717 0 0.042214412892851313 -0.024217376946610684 0 0.042285498797743661 -0.024359222178530433 0 0.042651725275246084 -0.024777384707974248 0 0.042114369838228201 -0.025075882292737134 0 0.042249307061544318 -0.02393586533495283 0 0.042500957630338891 -0.024263068744509717 0 0.042776149094542089 -0.024563230103367459 0 0.042249307061544318 -0.02393586533495283 0 0.042500957630338891 -0.024263068744509717 0 0.042249307061544318 -0.02393586533495283 0 0.042285498797743661 -0.024359222178530433 0 0.042500957630338891 -0.024263068744509717 0 0.043181980793764306 -0.024857492456790229 0 0.042776149094542089 -0.024563230103367459 0 0.042970061047278282 -0.024703198009731094 0 0.043181980793764306 -0.024857492456790229 0 0.042776149094542089 -0.024563230103367459 0 0.042970061047278282 -0.024703198009731094 0 0.042776149094542089 -0.024563230103367459 0 0.042651725275246084 -0.024777384707974248 0 0.042776149094542089 -0.024563230103367459 0 0.042651725275246084 -0.024777384707974248 0 0.042249307061544318 -0.02393586533495283 0 0.042651725275246084 -0.024777384707974248 0 0.042728646406177358 -0.025140615823761394 0 0.042114369838228201 -0.025075882292737134 0 0.042728646406177358 -0.025140615823761394 0 0.042461397025686375 -0.025269676612052167 0 0.042114369838228201 -0.025075882292737134 0 0.041080328743057851 -0.025192027199315219 0 0.048006485664628097 -0.022096582928837025 0 0.042970061047278282 -0.024703198009731094 0 0.042728646406177358 -0.025140615823761394 0 0.043047555451061502 -0.02511417881287482 0 0.042728646406177358 -0.025140615823761394 0 0.043031584014804072 -0.025047954475311107 0 0.042881199896386286 -0.025237765334075582 0 0.042970061047278282 -0.024703198009731094 0 0.042651725275246084 -0.024777384707974248 0 0.042728646406177358 -0.025140615823761394 0 0.049992567112952933 -0.021146207870489087 0 0.05043074209565352 -0.020995925102335868 0 0.050260972857581264 -0.021195701210649131 0 0.046306098523006947 -0.023157436138617017 0 0.048006485664628097 -0.022096582928837025 0 0.050909322483031511 -0.020745132519199655 0 0.050843523056108425 -0.02083012877192773 0 0.05043074209565352 -0.020995925102335868 0 0.052270947662282082 -0.017520601855304522 0 0.048006485664628097 -0.022096582928837025 0 0.050909322483031511 -0.020745132519199655 0 0.05043074209565352 -0.020995925102335868 0 0.050260972857581264 -0.021195701210649131 0 0.052227908753927819 -0.015445128667011494 0 0.052090324643386941 -0.015419379676449402 0 0.05215570473974529 -0.015405300711529592 0 0.052090324643386941 -0.015419379676449402 0 0.05215570473974529 -0.015405300711529592 0 0.052109998659410996 -0.015409029642278738 0 0.043031584014804072 -0.025047954475311107 0 0.043090125783943209 -0.025349990312584638 0 0.042881199896386286 -0.025237765334075582 0 0.048006485664628097 -0.022096582928837025 0 0.047276368579725295 -0.01425879561689947 0 0.05215570473974529 -0.015405300711529592 0 0.052147989525283281 -0.015338310520575854 0 0.052109998659410996 -0.015409029642278738 0 0.052165288751309158 -0.015386533728655755 0 0.052227908753927819 -0.015445128667011494 0 0.05215570473974529 -0.015405300711529592 0 0.052165288751309158 -0.015386533728655755 0 0.05215570473974529 -0.015405300711529592 0 0.052147989525283281 -0.015338310520575854 0 0.046249507813961206 0.00084609205116942883 0 0.046784003551895013 0.0013680265981296197 0 0.048150664535621335 0.00050030937085180987 0 0.04950737481267304 -0.0067879619581951781 0 0.047276368579725295 -0.01425879561689947 0 0.046249507813961206 0.00084609205116942883 0 0.046784003551895013 0.0013680265981296197 0 0.046151376042138981 0.0016975362441597266 0 0.047472511302425205 0.00058431694832214182 0 0.046148764244917921 -0.0031791088380395179 0 0.046784003551895013 0.0013680265981296197 0 0.047009120378281775 0.0017650463957866313 0 0.046659058075469474 0.0022355709782842636 0 0.046784003551895013 0.0013680265981296197 0 0.047009120378281775 0.0017650463957866313 0 0.04790460167798466 0.0014941189954613126 0 0.047009120378281775 0.0017650463957866313 0 0.047381851092212456 0.0019427025249705336 0 0.047091241178051656 0.0022860618889919441 0 0.047009120378281775 0.0017650463957866313 0 0.046659058075469474 0.0022355709782842636 0 0.047091241178051656 0.0022860618889919441 0 0.046784003551895013 0.0013680265981296197 0 0.046151376042138981 0.0016975362441597266 0 0.046659058075469474 0.0022355709782842636 0 0.045534477987633479 -0.01140883543791006 0 0.045599766462105944 -0.011873909544172848 0 0.044223081754050035 -0.011953244292813768 0 0.04647028720440223 -0.0020935271914654806 0 0.046520170488971516 -0.0024634305015142112 0 0.044803565130200514 -0.0024783967685250131 0 0.046784003551895013 0.0013680265981296197 0 0.048150664535621335 0.00050030937085180987 0 0.04804917310389481 0.001301343657901413 0 0.047276368579725295 -0.01425879561689947 0 0.046148764244917921 -0.0031791088380395179 0 0.047009120378281775 0.0017650463957866313 0 0.04790460167798466 0.0014941189954613126 0 0.047381851092212456 0.0019427025249705336 0 0.04790460167798466 0.0014941189954613126 0 0.047381851092212456 0.0019427025249705336 0 0.047845053669654254 0.0019300671467005516 0 0.046148764244917921 -0.0031791088380395179 0 0.046478310926579641 0.00094313791382757267 0 0.047175536440580805 0.0011885495500195218 0 0.046478310926579641 0.00094313791382757267 0 0.047381851092212456 0.0019427025249705336 0 0.047896773056499115 0.0019724897179609286 0 0.047357046437066549 0.0025354591626126246 0 0.047323095134735545 0.0042352151120635768 0 0.045606202660492381 0.0043395328759351561 0 0.04653320007603659 0.0037532828797765022 0 0.045534477987633479 -0.01140883543791006 0 0.044223081754050035 -0.011953244292813768 0 0.044192590876657022 -0.011328362971302831 0 0.046478310926579641 0.00094313791382757267 0 0.045392957254678956 0.00093647744067327262 0 0.046148764244917921 -0.0031791088380395179 0 0.044392764748091007 -0.0075019428017420028 0 0.04647028720440223 -0.0020935271914654806 0 0.044776774821919815 -0.0021705946594273206 0 0.044803565130200514 -0.0024783967685250131 0 0.045392957254678956 0.00093647744067327262 0 0.043447000649746353 0.00068932891325224662 0 0.044392764748091007 -0.0075019428017420028 0 0.043326586129345868 -0.0053406644308071913 0 0.044776774821919815 -0.0021705946594273206 0 0.044803565130200514 -0.0024783967685250131 0 0.043056160283468564 -0.0024752888423117936 0 0.044776774821919815 -0.0021705946594273206 0 0.043053369567236349 -0.0022301017624752734 0 0.043056160283468564 -0.0024752888423117936 0 0.044223081754050035 -0.011953244292813768 0 0.043546963924616808 -0.011392439134151654 0 0.042945834348212718 -0.011967792718852637 0 0.045606202660492381 0.0043395328759351561 0 0.044729208506117328 0.0042957932165523707 0 0.044763792168121777 0.0042197459256892089 0 0.043347274520549893 -0.011200382436324487 0 0.042151628427271402 -0.010889985727680053 0 0.044223081754050035 -0.011953244292813768 0 0.043546963924616808 -0.011392439134151654 0 0.044192590876657022 -0.011328362971302831 0 0.042877245009474867 -0.018446621687898915 0 0.042567441226652424 -0.020865498175613076 0 0.042461397025686375 -0.025269676612052167 0 0.042667466952575103 -0.025398638186667599 0 0.042299401481010114 -0.025383639115538863 0 0.043546963924616808 -0.011392439134151654 0 0.044192590876657022 -0.011328362971302831 0 0.04289480605671165 -0.011275531888733231 0 0.042728646406177358 -0.025140615823761394 0 0.042461397025686375 -0.025269676612052167 0 0.042667466952575103 -0.025398638186667599 0 0.047276368579725295 -0.01425879561689947 0 0.042877245009474867 -0.018446621687898915 0 0.042728646406177358 -0.025140615823761394 0 0.042881199896386286 -0.025237765334075582 0 0.042667466952575103 -0.025398638186667599 0 0.043090125783943209 -0.025349990312584638 0 0.042881199896386286 -0.025237765334075582 0 0.042667466952575103 -0.025398638186667599 0 0.039954895664042964 -0.018989124954358696 0 0.038927447875518266 -0.025773565612848694 0 0.040942615710779263 -0.026815134832210947 0 0.042077275183245465 -0.026913544695517135 0 0.041084050696401107 -0.02587018660316405 0 0.040197288121202664 -0.0079716330906659458 0 0.040241900797302957 -0.0078452043759932866 0 0.040338702849158178 -0.0078490209872183157 0 0.039954895664042964 -0.018989124954358696 0 0.042567441226652424 -0.020865498175613076 0 0.042540995859836617 -0.015988943564692472 0 0.041136298329217467 -0.015834638571040491 0 0.04160047195008449 -0.014879836370551057 0 0.042567441226652424 -0.020865498175613076 0 0.042151628427271402 -0.010889985727680053 0 0.043546963924616808 -0.011392439134151654 0 0.04289480605671165 -0.011275531888733231 0 0.042890503208958625 -0.011774588956973614 0 0.043447000649746353 0.00068932891325224662 0 0.041839112807393886 -0.0002556356678061469 0 0.043295633545850983 -0.001240316691690381 0 0.04144420334867497 -0.001230661041561449 0 0.042044923779644451 -0.00091862099956514678 0 0.043973012888659145 0.0061728195170430728 0 0.043338179319076194 0.00618628730927094 0 0.043692412007465521 0.0059124668399978455 0 0.040053514809322198 -0.0077699502808924667 0 0.040115801039555643 -0.0077311945546024701 0 0.040168944734698245 -0.0078056448470439979 0 0.042678617260223768 -0.0074737958261915129 0 0.043054752601073769 -0.0072839735805668264 0 0.042818039727157413 -0.0076264553347853165 0 0.043546963924616808 -0.011392439134151654 0 0.042944557802317068 -0.011679776607749512 0 0.042945834348212718 -0.011967792718852637 0 0.041136298329217467 -0.015834638571040491 0 0.04160047195008449 -0.014879836370551057 0 0.041130584310690457 -0.015133553467896292 0 0.042151628427271402 -0.010889985727680053 0 0.043326586129345868 -0.0053406644308071913 0 0.042102662912638367 -0.0073332981514229179 0 0.042151628427271402 -0.010889985727680053 0 0.043054752601073769 -0.0072839735805668264 0 0.043058856492254542 -0.0076191204456138922 0 0.042818039727157413 -0.0076264553347853165 0 0.044620063167991129 -0.0028914483380734881 0 0.044631614237371824 -0.0040321249833079609 0 0.043289095271971029 -0.0029377658284996696 0 0.043326586129345868 -0.0053406644308071913 0 0.043447000649746353 0.00068932891325224662 0 0.043326586129345868 -0.0053406644308071913 0 0.04285473797026506 -0.0044812827969159452 0 0.043447000649746353 0.00068932891325224662 0 0.04285473797026506 -0.0044812827969159452 0 0.043447000649746353 0.00068932891325224662 0 0.04337066222461005 0.0012123606583569475 0 0.043295633545850983 -0.001240316691690381 0 0.04286635171074582 -0.00089149966445003408 0 0.042044923779644451 -0.00091862099956514678 0 0.04285473797026506 -0.0044812827969159452 0 0.041156309708487958 -0.0050866852089779136 0 0.042102662912638367 -0.0073332981514229179 0 0.041156309708487958 -0.0050866852089779136 0 0.042404887271567257 -0.0044397764941800132 0 0.042901846355555863 -0.0049933086682740898 0 0.041241646449976556 -0.0050479791914418938 0 0.042102662912638367 -0.0073332981514229179 0 0.04285473797026506 -0.0044812827969159452 0 0.040115801039555643 -0.0077311945546024701 0 0.040168944734698245 -0.0078056448470439979 0 0.040223104196177785 -0.0077166169176047638 0 0.040193695355801057 -0.0076838396610689639 0 0.040158860516494581 -0.0076902160267943043 0 0.040223104196177785 -0.0077166169176047638 0 0.040193695355801057 -0.0076838396610689639 0 0.040223104196177785 -0.0077166169176047638 0 0.040483681194778486 -0.007661742592983389 0 0.041156309708487958 -0.0050866852089779136 0 0.040173991971400265 -0.0063750400169508932 0 0.041839112807393886 -0.0002556356678061469 0 0.041156309708487958 -0.0050866852089779136 0 0.040197288121202664 -0.0079716330906659458 0 0.040053514809322198 -0.0077699502808924667 0 0.040168944734698245 -0.0078056448470439979 0 0.040197288121202664 -0.0079716330906659458 0 0.040168944734698245 -0.0078056448470439979 0 0.040241900797302957 -0.0078452043759932866 0 0.039954895664042964 -0.018989124954358696 0 0.042102662912638367 -0.0073332981514229179 0 0.040241900797302957 -0.0078452043759932866 0 0.040223104196177785 -0.0077166169176047638 0 0.040338702849158178 -0.0078490209872183157 0 0.040168944734698245 -0.0078056448470439979 0 0.040241900797302957 -0.0078452043759932866 0 0.040223104196177785 -0.0077166169176047638 0 0.040223104196177785 -0.0077166169176047638 0 0.040338702849158178 -0.0078490209872183157 0 0.040483681194778486 -0.007661742592983389 0 0.041839112807393886 -0.0002556356678061469 0 0.040606191845155286 -0.0037053912303881319 0 0.040338702849158178 -0.0078490209872183157 0 0.040483681194778486 -0.007661742592983389 0 0.040454394340388326 -0.0079808029841373102 0 0.040483681194778486 -0.007661742592983389 0 0.040633885011579073 -0.0078152884179676675 0 0.040454394340388326 -0.0079808029841373102 0 0.040483681194778486 -0.007661742592983389 0 0.040633885011579073 -0.0078152884179676675 0 0.040858119350591249 -0.0075939833611267825 0 0.040606191845155286 -0.0037053912303881319 0 0.040282355659900133 0.0012596830884558314 0 0.040980684798133445 0.0018908712244596034 0 0.040801754655662895 0.0019197754405341856 0 0.040891347227987374 0.0018764993771031263 0 0.039329488057198367 -0.015511305485856821 0 0.037612271432559873 -0.013237145569800641 0 0.040633885011579073 -0.0078152884179676675 0 0.040454394340388326 -0.0079808029841373102 0 0.040761537540194945 -0.0080166464997686072 0 0.040197288121202664 -0.0079716330906659458 0 0.040338702849158178 -0.0078490209872183157 0 0.040454394340388326 -0.0079808029841373102 0 0.039954895664042964 -0.018989124954358696 0 0.039329488057198367 -0.015511305485856821 0 0.036995436333730237 -0.023082864849787225 0 0.037906059148786829 -0.023217343250433606 0 0.037647870567194111 -0.023915815224047857 0 0.037906059148786829 -0.023217343250433606 0 0.037647870567194111 -0.023915815224047857 0 0.038134386833829553 -0.02406240851381419 0 0.038134386833829553 -0.02406240851381419 0 0.038285388592925344 -0.024533029939350543 0 0.038790206524506238 -0.023282871217059582 0 0.037906059148786829 -0.023217343250433606 0 0.038134386833829553 -0.02406240851381419 0 0.038790206524506238 -0.023282871217059582 0 0.037647870567194111 -0.023915815224047857 0 0.038134386833829553 -0.02406240851381419 0 0.03842279027198979 -0.024371976654968562 0 0.038927447875518266 -0.025773565612848694 0 0.038258495424854176 -0.024064098589026556 0 0.038134386833829553 -0.02406240851381419 0 0.03842279027198979 -0.024371976654968562 0 0.038285388592925344 -0.024533029939350543 0 0.03842279027198979 -0.024371976654968562 0 0.039625403826291365 -0.024740142895176617 0 0.039209496498798041 -0.02411409695723167 0 0.03842279027198979 -0.024371976654968562 0 0.038285388592925344 -0.024533029939350543 0 0.038537373158948292 -0.023731051063321889 0 0.03981307229275375 -0.025759667335532359 0 0.03842279027198979 -0.024371976654968562 0 0.039625403826291365 -0.024740142895176617 0 0.039625403826291365 -0.024740142895176617 0 0.040525405156687365 -0.024193169743725949 0 0.039209496498798041 -0.02411409695723167 0 0.039625403826291365 -0.024740142895176617 0 0.040661032543398479 -0.025127526969925543 0 0.040525405156687365 -0.024193169743725949 0 0.03981307229275375 -0.025759667335532359 0 0.039625403826291365 -0.024740142895176617 0 0.040661032543398479 -0.025127526969925543 0 0.040661032543398479 -0.025127526969925543 0 0.042114369838228201 -0.025075882292737134 0 0.040525405156687365 -0.024193169743725949 0 0.03981307229275375 -0.025759667335532359 0 0.040661032543398479 -0.025127526969925543 0 0.041084050696401107 -0.02587018660316405 0 0.040942615710779263 -0.026815134832210947 0 0.03981307229275375 -0.025759667335532359 0 0.041084050696401107 -0.02587018660316405 0 0.040661032543398479 -0.025127526969925543 0 0.041084050696401107 -0.02587018660316405 0 0.042114369838228201 -0.025075882292737134 0 0.042077275183245465 -0.026913544695517135 0 0.041084050696401107 -0.02587018660316405 0 0.042114369838228201 -0.025075882292737134 0 0.042461397025686375 -0.025269676612052167 0 0.042299401481010114 -0.025383639115538863 0 0.042114369838228201 -0.025075882292737134 0 0.042567441226652424 -0.020865498175613076 0 0.042027303806670031 -0.027415532086746019 0 0.042114369838228201 -0.025075882292737134 0 0.040525405156687365 -0.024193169743725949 0 0.042249307061544318 -0.02393586533495283 0 0.040525405156687365 -0.024193169743725949 0 0.042249307061544318 -0.02393586533495283 0 0.040180106147535026 -0.022401298657203004 0 0.042171312129928647 -0.023852089353162863 0 0.041706665341294448 -0.023479389844656692 0 0.042249307061544318 -0.02393586533495283 0 0.042672849612930358 -0.024652131164203405 0 0.043312714994021347 -0.024490339398218475 0 0.042249307061544318 -0.02393586533495283 0 0.042285498797743661 -0.024359222178530433 0 0.042672849612930358 -0.024652131164203405 0 0.042285498797743661 -0.024359222178530433 0 0.042672849612930358 -0.024652131164203405 0 0.042277260584090592 -0.024906540279329401 0 0.042672849612930358 -0.024652131164203405 0 0.043344035459455178 -0.02526292672435668 0 0.043312714994021347 -0.024490339398218475 0 0.042672849612930358 -0.024652131164203405 0 0.042847498995565426 -0.025344261307362708 0 0.043344035459455178 -0.02526292672435668 0 0.042847498995565426 -0.025344261307362708 0 0.04330110652079424 -0.025719623196808428 0 0.043344035459455178 -0.02526292672435668 0 0.0430640863978776 -0.026168658565436004 0 0.042847498995565426 -0.025344261307362708 0 0.04330110652079424 -0.025719623196808428 0 0.042440870504084176 -0.02578511531638767 0 0.0430640863978776 -0.026168658565436004 0 0.042847498995565426 -0.025344261307362708 0 0.042440870504084176 -0.02578511531638767 0 0.042847498995565426 -0.025344261307362708 0 0.042277260584090592 -0.024906540279329401 0 0.042672849612930358 -0.024652131164203405 0 0.042847498995565426 -0.025344261307362708 0 0.042277260584090592 -0.024906540279329401 0 0.042440870504084176 -0.02578511531638767 0 0.041845905151562245 -0.025466050034609181 0 0.042277260584090592 -0.024906540279329401 0 0.044094571418949152 -0.025771546588046416 0 0.044007766010710457 -0.026214269170961126 0 0.044339391683414484 -0.026323898212065398 0 0.044094571418949152 -0.025771546588046416 0 0.044007766010710457 -0.026214269170961126 0 0.043779673923187906 -0.025657017832940825 0 0.044007766010710457 -0.026214269170961126 0 0.043687740557843628 -0.025985049817339127 0 0.043779673923187906 -0.025657017832940825 0 0.043513804754972289 -0.026323942176080559 0 0.04330110652079424 -0.025719623196808428 0 0.043687740557843628 -0.025985049817339127 0 0.04330110652079424 -0.025719623196808428 0 0.043687740557843628 -0.025985049817339127 0 0.043344035459455178 -0.02526292672435668 0 0.043687740557843628 -0.025985049817339127 0 0.043779673923187906 -0.025657017832940825 0 0.043344035459455178 -0.02526292672435668 0 0.043779673923187906 -0.025657017832940825 0 0.043759165996262242 -0.025296043160791964 0 0.043344035459455178 -0.02526292672435668 0 0.043759165996262242 -0.025296043160791964 0 0.043344035459455178 -0.02526292672435668 0 0.043312714994021347 -0.024490339398218475 0 0.043759165996262242 -0.025296043160791964 0 0.044192287929216471 -0.025324589969394403 0 0.043312714994021347 -0.024490339398218475 0 0.044094571418949152 -0.025771546588046416 0 0.043759165996262242 -0.025296043160791964 0 0.044192287929216471 -0.025324589969394403 0 0.044094571418949152 -0.025771546588046416 0 0.043779673923187906 -0.025657017832940825 0 0.043759165996262242 -0.025296043160791964 0 0.037423739215984075 -0.021397365645318238 0 0.038071728803448598 -0.02235467119870059 0 0.03715404591511634 -0.022080361914169278 0 0.037423739215984075 -0.021397365645318238 0 0.038071728803448598 -0.02235467119870059 0 0.040180106147535026 -0.022401298657203004 0 0.04068016943080504 -0.023357562121193838 0 0.041706665341294448 -0.023479389844656692 0 0.038071728803448598 -0.02235467119870059 0 0.040180106147535026 -0.022401298657203004 0 0.039275125709971791 -0.023397261663924626 0 0.040525405156687365 -0.024193169743725949 0 0.039275125709971791 -0.023397261663924626 0 0.039209496498798041 -0.02411409695723167 0 0.040525405156687365 -0.024193169743725949 0 0.040180106147535026 -0.022401298657203004 0 0.039275125709971791 -0.023397261663924626 0 0.037032240499351964 -0.022800062823157514 0 0.038071728803448598 -0.02235467119870059 0 0.037112147703720136 -0.02245697123985603 0 0.038285388592925344 -0.024533029939350543 0 0.038071728803448598 -0.02235467119870059 0 0.038537373158948292 -0.023731051063321889 0 0.037489070935438032 -0.025964646792432836 0 0.038204176849193007 -0.021318040948491469 0 0.038071728803448598 -0.02235467119870059 0 0.039275125709971791 -0.023397261663924626 0 0.038537373158948292 -0.023731051063321889 0 0.03842279027198979 -0.024371976654968562 0 0.039209496498798041 -0.02411409695723167 0 0.038537373158948292 -0.023731051063321889 0 0.039275125709971791 -0.023397261663924626 0 0.039209496498798041 -0.02411409695723167 0 0.038537373158948292 -0.023731051063321889 0 0.037032240499351964 -0.022800062823157514 0 0.037112147703720136 -0.02245697123985603 0 0.036666922821047436 -0.022610277762571157 0 0.037112147703720136 -0.02245697123985603 0 0.036582703495589675 -0.022226234848056706 0 0.036666922821047436 -0.022610277762571157 0 0.037112147703720136 -0.02245697123985603 0 0.036582703495589675 -0.022226234848056706 0 0.03715404591511634 -0.022080361914169278 0 0.036106868532216778 -0.022337446538473887 0 0.036582703495589675 -0.022226234848056706 0 0.036666922821047436 -0.022610277762571157 0 0.036106868532216778 -0.022337446538473887 0 0.036582703495589675 -0.022226234848056706 0 0.036053877328666363 -0.021871551718062949 0 0.036053877328666363 -0.021871551718062949 0 0.036607366762930117 -0.021775432571407415 0 0.035947239568541303 -0.021288403635178983 0 0.036582703495589675 -0.022226234848056706 0 0.036053877328666363 -0.021871551718062949 0 0.036607366762930117 -0.021775432571407415 0 0.037423739215984075 -0.021397365645318238 0 0.036607366762930117 -0.021775432571407415 0 0.035947239568541303 -0.021288403635178983 0 0.038071728803448598 -0.02235467119870059 0 0.037112147703720136 -0.02245697123985603 0 0.03715404591511634 -0.022080361914169278 0 0.036582703495589675 -0.022226234848056706 0 0.03715404591511634 -0.022080361914169278 0 0.036607366762930117 -0.021775432571407415 0 0.037423739215984075 -0.021397365645318238 0 0.03715404591511634 -0.022080361914169278 0 0.036607366762930117 -0.021775432571407415 0 0.044094571418949152 -0.025771546588046416 0 0.044192287929216471 -0.025324589969394403 0 0.044360877190371864 -0.025903034096212158 0 0.044192287929216471 -0.025324589969394403 0 0.044360877190371864 -0.025903034096212158 0 0.044550347799253869 -0.025945313715100064 0 0.04068016943080504 -0.023357562121193838 0 0.040711776867759543 -0.023637309045358046 0 0.044360877190371864 -0.025903034096212158 0 0.044550347799253869 -0.025945313715100064 0 0.044513439463504084 -0.026219626371114794 0 0.044550347799253869 -0.025945313715100064 0 0.044513439463504084 -0.026219626371114794 0 0.044664475845582571 -0.026397877006542773 0 0.044094571418949152 -0.025771546588046416 0 0.044360877190371864 -0.025903034096212158 0 0.044339391683414484 -0.026323898212065398 0 0.044360877190371864 -0.025903034096212158 0 0.044513439463504084 -0.026219626371114794 0 0.044339391683414484 -0.026323898212065398 0 0.044832881129892491 -0.026831500302602746 0 0.044773855766958318 -0.026405904745680522 0 0.044881015024704859 -0.026367399720712208 0 0.044773855766958318 -0.026405904745680522 0 0.044694578550267171 -0.026250041946640237 0 0.04478065217623798 -0.026253483490106994 0 0.037839793630765221 -0.023900696334972563 0 0.033503771055801476 -0.031724150531589237 0 0.044773855766958318 -0.026405904745680522 0 0.04478065217623798 -0.026253483490106994 0 0.044881015024704859 -0.026367399720712208 0 0.044550347799253869 -0.025945313715100064 0 0.044664475845582571 -0.026397877006542773 0 0.044694578550267171 -0.026250041946640237 0 0.044773855766958318 -0.026405904745680522 0 0.044664475845582571 -0.026397877006542773 0 0.044694578550267171 -0.026250041946640237 0 0.044550347799253869 -0.025945313715100064 0 0.044694578550267171 -0.026250041946640237 0 0.04478065217623798 -0.026253483490106994 0 0.035947239568541303 -0.021288403635178983 0 0.035282141390143219 -0.021633924050041543 0 0.034957940370009329 -0.021428094812200333 0 0.040711776867759543 -0.023637309045358046 0 0.037839793630765221 -0.023900696334972563 0 0.035947239568541303 -0.021288403635178983 0 0.035282141390143219 -0.021633924050041543 0 0.035476935088614596 -0.021673327183559844 0 0.035282141390143219 -0.021633924050041543 0 0.035185323758632168 -0.022141057344303321 0 0.035152120195515647 -0.021831546859470117 0 0.034494872755151035 -0.021052805337031077 0 0.037839793630765221 -0.023900696334972563 0 0.037839793630765221 -0.023900696334972563 0 0.035385397323444603 -0.022900285619450306 0 0.035185323758632168 -0.022141057344303321 0 0.035152120195515647 -0.021831546859470117 0 0.035292140651586125 -0.022029711453971139 0 0.035152120195515647 -0.021831546859470117 0 0.034698628950166947 -0.021364260305088298 0 0.035292140651586125 -0.022029711453971139 0 0.035282141390143219 -0.021633924050041543 0 0.035476935088614596 -0.021673327183559844 0 0.034698628950166947 -0.021364260305088298 0 0.035282141390143219 -0.021633924050041543 0 0.035152120195515647 -0.021831546859470117 0 0.034698628950166947 -0.021364260305088298 0 0.036053877328666363 -0.021871551718062949 0 0.035947239568541303 -0.021288403635178983 0 0.035476935088614596 -0.021673327183559844 0 0.035476935088614596 -0.021673327183559844 0 0.035589893651019756 -0.021933830093642082 0 0.034698628950166947 -0.021364260305088298 0 0.036053877328666363 -0.021871551718062949 0 0.035476935088614596 -0.021673327183559844 0 0.035589893651019756 -0.021933830093642082 0 0.036106868532216778 -0.022337446538473887 0 0.035589893651019756 -0.021933830093642082 0 0.035416288402084363 -0.022551046281948765 0 0.036106868532216778 -0.022337446538473887 0 0.036053877328666363 -0.021871551718062949 0 0.035589893651019756 -0.021933830093642082 0 0.035589893651019756 -0.021933830093642082 0 0.034698628950166947 -0.021364260305088298 0 0.035416288402084363 -0.022551046281948765 0 0.034698628950166947 -0.021364260305088298 0 0.035416288402084363 -0.022551046281948765 0 0.034495528574603224 -0.022409632572664706 0 0.035118539418319099 -0.023258074523049611 0 0.035416288402084363 -0.022551046281948765 0 0.034495528574603224 -0.022409632572664706 0 0.035118539418319099 -0.023258074523049611 0 0.035819260689612921 -0.022952634817049962 0 0.035416288402084363 -0.022551046281948765 0 0.035118539418319099 -0.023258074523049611 0 0.035819260689612921 -0.022952634817049962 0 0.036036754786508633 -0.023385788479013882 0 0.035819260689612921 -0.022952634817049962 0 0.035416288402084363 -0.022551046281948765 0 0.036291042388985804 -0.022783763568434246 0 0.036106868532216778 -0.022337446538473887 0 0.035416288402084363 -0.022551046281948765 0 0.036291042388985804 -0.022783763568434246 0 0.036106868532216778 -0.022337446538473887 0 0.036291042388985804 -0.022783763568434246 0 0.036666922821047436 -0.022610277762571157 0 0.036291042388985804 -0.022783763568434246 0 0.036666922821047436 -0.022610277762571157 0 0.036641856468060965 -0.022949893605117001 0 0.037032240499351964 -0.022800062823157514 0 0.036666922821047436 -0.022610277762571157 0 0.036641856468060965 -0.022949893605117001 0 0.036641856468060965 -0.022949893605117001 0 0.036331833900900404 -0.023104449959295229 0 0.036768581641265549 -0.023389402738974482 0 0.037489070935438032 -0.025964646792432836 0 0.037612271432559873 -0.013237145569800641 0 0.037032240499351964 -0.022800062823157514 0 0.036641856468060965 -0.022949893605117001 0 0.036768581641265549 -0.023389402738974482 0 0.036331833900900404 -0.023104449959295229 0 0.036036754786508633 -0.023385788479013882 0 0.036768581641265549 -0.023389402738974482 0 0.035819260689612921 -0.022952634817049962 0 0.036291042388985804 -0.022783763568434246 0 0.036331833900900404 -0.023104449959295229 0 0.036291042388985804 -0.022783763568434246 0 0.036641856468060965 -0.022949893605117001 0 0.036331833900900404 -0.023104449959295229 0 0.035819260689612921 -0.022952634817049962 0 0.036331833900900404 -0.023104449959295229 0 0.036036754786508633 -0.023385788479013882 0 0.036338141962140129 -0.0096770855350994823 0 0.037612271432559873 -0.013237145569800641 0 0.037028658652289888 0.0033603139129022449 0 0.036535426618792118 0.0032657017973743087 0 0.036973141811307245 0.0037290420382858278 0 0.040633885011579073 -0.0078152884179676675 0 0.040761537540194945 -0.0080166464997686072 0 0.040858119350591249 -0.0075939833611267825 0 0.037612271432559873 -0.013237145569800641 0 0.040282355659900133 0.0012596830884558314 0 0.036535426618792118 0.0032657017973743087 0 0.036652842915010017 0.0038248028826285336 0 0.036790780997436469 0.0038480698694081271 0 0.040282355659900133 0.0012596830884558314 0 0.039584253892507346 0.0040353743822419521 0 0.039815550784756022 0.0029407968951461099 0 0.038852519330918101 0.0029489332732559764 0 0.039642057023440508 0.0022452375900598592 0 0.036535426618792118 0.0032657017973743087 0 0.036973141811307245 0.0037290420382858278 0 0.036790780997436469 0.0038480698694081271 0 0.040282355659900133 0.0012596830884558314 0 0.037590907383130624 0.003545629814881413 0 0.037590907383130624 0.003545629814881413 0 0.039584253892507346 0.0040353743822419521 0 0.036819385115185198 0.0039245727010722231 0 0.037590907383130624 0.003545629814881413 0 0.036973141811307245 0.0037290420382858278 0 0.036748192488772383 0.0039158229721116978 0 0.03731199767745242 0.0040783854652188091 0 0.036973141811307245 0.0037290420382858278 0 0.03731199767745242 0.0040783854652188091 0 0.037255112043612752 0.0036533611776066312 0 0.037590907383130624 0.003545629814881413 0 0.037134284882716528 0.0042546736955446614 0 0.037321824554367951 0.0036725695832533164 0 0.03725888611345015 0.0041632117601358241 0 0.037146898365851888 0.0034746145854538937 0 0.03731199767745242 0.0040783854652188091 0 0.037321824554367951 0.0036725695832533164 0 0.03725888611345015 0.0041632117601358241 0 0.03731199767745242 0.0040783854652188091 0 0.037321824554367951 0.0036725695832533164 0 0.037255112043612752 0.0036533611776066312 0 0.037399231844843193 0.0036607569570466176 0 0.037321824554367951 0.0036725695832533164 0 0.037255112043612752 0.0036533611776066312 0 0.037399231844843193 0.0036607569570466176 0 0.037321824554367951 0.0036725695832533164 0 0.037173269086257246 0.0035105709424031934 0 0.035971930165500633 -0.0098895601698608549 0 0.036338141962140129 -0.0096770855350994823 0 0.037028658652289888 0.0033603139129022449 0 0.036973141811307245 0.0037290420382858278 0 0.037255112043612752 0.0036533611776066312 0 0.037399231844843193 0.0036607569570466176 0 0.037028658652289888 0.0033603139129022449 0 0.037255112043612752 0.0036533611776066312 0 0.037625532411455047 0.0048496067075038379 0 0.037494685393349721 0.0045302751201727297 0 0.037755888087569058 0.0048537930467314732 0 0.037625532411455047 0.0048496067075038379 0 0.037755888087569058 0.0048537930467314732 0 0.037922547616209203 0.0050239231719773009 0 0.037625532411455047 0.0048496067075038379 0 0.037491671172613206 0.0049789704058095024 0 0.037922547616209203 0.0050239231719773009 0 0.037625532411455047 0.0048496067075038379 0 0.037491671172613206 0.0049789704058095024 0 0.037427146288803941 0.0044441704380868844 0 0.037491671172613206 0.0049789704058095024 0 0.03725888611345015 0.0041632117601358241 0 0.037257551792522957 0.0045199883648708184 0 0.037491671172613206 0.0049789704058095024 0 0.03725888611345015 0.0041632117601358241 0 0.037427146288803941 0.0044441704380868844 0 0.03725888611345015 0.0041632117601358241 0 0.037146898365851888 0.0034746145854538937 0 0.037257551792522957 0.0045199883648708184 0 0.03731199767745242 0.0040783854652188091 0 0.03725888611345015 0.0041632117601358241 0 0.037427146288803941 0.0044441704380868844 0 0.037467359377319431 0.0044824264834869522 0 0.03731199767745242 0.0040783854652188091 0 0.037494685393349721 0.0045302751201727297 0 0.03731199767745242 0.0040783854652188091 0 0.037427146288803941 0.0044441704380868844 0 0.037494685393349721 0.0045302751201727297 0 0.037625532411455047 0.0048496067075038379 0 0.037427146288803941 0.0044441704380868844 0 0.037494685393349721 0.0045302751201727297 0 0.039584253892507346 0.0040353743822419521 0 0.038330376181350136 0.0060863184815962094 0 0.037467359377319431 0.0044824264834869522 0 0.037494685393349721 0.0045302751201727297 0 0.037498478464792623 0.0045385523850732714 0 0.037565403516861509 0.004664990054491178 0 0.03740669063954568 0.004497333155833119 0 0.037584605858708889 0.0048004353140959893 0 0.037498478464792623 0.0045385523850732714 0 0.037565403516861509 0.004664990054491178 0 0.03740669063954568 0.004497333155833119 0 0.037467359377319431 0.0044824264834869522 0 0.037498478464792623 0.0045385523850732714 0 0.03740669063954568 0.004497333155833119 0 0.037494685393349721 0.0045302751201727297 0 0.037565403516861509 0.004664990054491178 0 0.037755888087569058 0.0048537930467314732 0 0.037494685393349721 0.0045302751201727297 0 0.037498478464792623 0.0045385523850732714 0 0.037565403516861509 0.004664990054491178 0 0.039321609219408062 0.0078899389819839568 0 0.039742981946840068 0.0066563711543453797 0 0.038979576391909146 0.0067310899002395036 0 0.039584253892507346 0.0040353743822419521 0 0.04087903915092287 0.0054173253671264982 0 0.039321609219408062 0.0078899389819839568 0 0.039742981946840068 0.0066563711543453797 0 0.04036489538095548 0.0069699516724733464 0 0.04079417381562838 0.0018919374931695037 0 0.040909381392732494 0.0018072100705742527 0 0.040891347227987374 0.0018764993771031263 0 0.040801754655662895 0.0019197754405341856 0 0.04079417381562838 0.0018919374931695037 0 0.040891347227987374 0.0018764993771031263 0 0.039742981946840068 0.0066563711543453797 0 0.039996583418297878 0.0056027832246587084 0 0.040519414902128507 0.0061875250415680903 0 0.040154095502502693 0.0063525293965385494 0 0.04087903915092287 0.0054173253671264982 0 0.039742981946840068 0.0066563711543453797 0 0.038979576391909146 0.0067310899002395036 0 0.039284096665468872 0.0059533849414069202 0 0.037755888087569058 0.0048537930467314732 0 0.037584605858708889 0.0048004353140959893 0 0.038556968087852778 0.0052371132891472633 0 0.038330376181350136 0.0060863184815962094 0 0.038419506415355228 0.0051074744551554054 0 0.037565403516861509 0.004664990054491178 0 0.037755888087569058 0.0048537930467314732 0 0.037584605858708889 0.0048004353140959893 0 0.038979576391909146 0.0067310899002395036 0 0.038556968087852778 0.0052371132891472633 0 0.039284096665468872 0.0059533849414069202 0 0.038556968087852778 0.0052371132891472633 0 0.039996583418297878 0.0056027832246587084 0 0.03956224198871422 0.0049465992471632936 0 0.039742981946840068 0.0066563711543453797 0 0.039996583418297878 0.0056027832246587084 0 0.039284096665468872 0.0059533849414069202 0 0.038556968087852778 0.0052371132891472633 0 0.039996583418297878 0.0056027832246587084 0 0.039284096665468872 0.0059533849414069202 0 0.039996583418297878 0.0056027832246587084 0 0.03956224198871422 0.0049465992471632936 0 0.040414994973247589 0.0048277005375448366 0 0.03956224198871422 0.0049465992471632936 0 0.039752708422923048 0.004727274190222141 0 0.039346240028349702 0.0047056176320183019 0 0.03956224198871422 0.0049465992471632936 0 0.039752708422923048 0.004727274190222141 0 0.040414994973247589 0.0048277005375448366 0 0.039752708422923048 0.004727274190222141 0 0.040157205826704824 0.0044827794562383935 0 0.040414994973247589 0.0048277005375448366 0 0.038556968087852778 0.0052371132891472633 0 0.038947270166513136 0.0045597163321916719 0 0.039346240028349702 0.0047056176320183019 0 0.038556968087852778 0.0052371132891472633 0 0.03956224198871422 0.0049465992471632936 0 0.039346240028349702 0.0047056176320183019 0 0.038556968087852778 0.0052371132891472633 0 0.037841461799205021 0.0048731107188946287 0 0.038947270166513136 0.0045597163321916719 0 0.038371808372989778 0.0071121437760369296 0 0.039436773356763266 0.0062978345352166414 0 0.039007468318166372 0.0093921354531276233 0 0.039117254453979518 0.0078136374509900752 0 0.040088772774746692 0.007799137949583446 0 0.038556968087852778 0.0052371132891472633 0 0.037922547616209203 0.0050239231719773009 0 0.037841461799205021 0.0048731107188946287 0 0.037755888087569058 0.0048537930467314732 0 0.038556968087852778 0.0052371132891472633 0 0.037922547616209203 0.0050239231719773009 0 0.037491671172613206 0.0049789704058095024 0 0.037922547616209203 0.0050239231719773009 0 0.037841461799205021 0.0048731107188946287 0 0.038371808372989778 0.0071121437760369296 0 0.037406082513556503 0.0074177274142894194 0 0.039007468318166372 0.0093921354531276233 0 0.03788169056819022 0.0094412798023837362 0 0.037084266857555101 0.01012460366672633 0 0.037491671172613206 0.0049789704058095024 0 0.037841461799205021 0.0048731107188946287 0 0.037396001095067612 0.005030156997891516 0 0.039007468318166372 0.0093921354531276233 0 0.039117254453979518 0.0078136374509900752 0 0.03788169056819022 0.0094412798023837362 0 0.039117254453979518 0.0078136374509900752 0 0.03788169056819022 0.0094412798023837362 0 0.038029677684749609 0.0077557632440738199 0 0.039117254453979518 0.0078136374509900752 0 0.039997190321820808 0.006869349072425205 0 0.040088772774746692 0.007799137949583446 0 0.039997190321820808 0.006869349072425205 0 0.039465089707494808 0.0066532401043665618 0 0.040074599609169828 0.0067935335255486055 0 0.039117254453979518 0.0078136374509900752 0 0.039997190321820808 0.006869349072425205 0 0.039465089707494808 0.0066532401043665618 0 0.039117254453979518 0.0078136374509900752 0 0.039465089707494808 0.0066532401043665618 0 0.038029677684749609 0.0077557632440738199 0 0.039448253575522937 0.0077055167377564245 0 0.038368636105331623 0.0086799230453870422 0 0.039465089707494808 0.0066532401043665618 0 0.040297633986352367 0.0070760282982564445 0 0.040074599609169828 0.0067935335255486055 0 0.039448253575522937 0.0077055167377564245 0 0.039982337177225172 0.0078764481250288357 0 0.03948733597866981 0.0086354713341021735 0 0.039715647133321097 0.0085976409995970754 0 0.039431367506513722 0.0083830651834893005 0 0.040478294523797517 0.006953862913527193 0 0.040838248680555321 0.0069851942854093005 0 0.039934366392745314 0.0071124017048460938 0 0.040384425665983117 0.0067972250099422246 0 0.039301235722078547 0.0079392171702474899 0 0.039934366392745314 0.0071124017048460938 0 0.040032086560398944 0.0069953828912560244 0 0.040384425665983117 0.0067972250099422246 0 0.040297633986352367 0.0070760282982564445 0 0.040045595387272495 0.0070729178885505228 0 0.039920780161146072 0.0075649102715041371 0 0.039934366392745314 0.0071124017048460938 0 0.040045595387272495 0.0070729178885505228 0 0.039920780161146072 0.0075649102715041371 0 0.040297633986352367 0.0070760282982564445 0 0.040045595387272495 0.0070729178885505228 0 0.040074599609169828 0.0067935335255486055 0 0.039934366392745314 0.0071124017048460938 0 0.040045595387272495 0.0070729178885505228 0 0.040005090217946501 0.0069536943527595688 0 0.040045595387272495 0.0070729178885505228 0 0.040074599609169828 0.0067935335255486055 0 0.040005090217946501 0.0069536943527595688 0 0.040074599609169828 0.0067935335255486055 0 0.040046950796154841 0.0067966052187036661 0 0.040092031102632306 0.00664197849171625 0 0.040074599609169828 0.0067935335255486055 0 0.040046950796154841 0.0067966052187036661 0 0.040005090217946501 0.0069536943527595688 0 0.040007122758157279 0.0069167778246110633 0 0.040046950796154841 0.0067966052187036661 0 0.040005090217946501 0.0069536943527595688 0 0.040007122758157279 0.0069167778246110633 0 0.040005090217946501 0.0069536943527595688 0 0.040032086560398944 0.0069953828912560244 0 0.039934366392745314 0.0071124017048460938 0 0.040005090217946501 0.0069536943527595688 0 0.040032086560398944 0.0069953828912560244 0 0.040032086560398944 0.0069953828912560244 0 0.040090492985412049 0.0071641852751994813 0 0.040384425665983117 0.0067972250099422246 0 0.040007122758157279 0.0069167778246110633 0 0.040090492985412049 0.0071641852751994813 0 0.039779006790726407 0.006609005039426242 0 0.040007122758157279 0.0069167778246110633 0 0.040032086560398944 0.0069953828912560244 0 0.040090492985412049 0.0071641852751994813 0 0.040007122758157279 0.0069167778246110633 0 0.039779006790726407 0.006609005039426242 0 0.03993706747590571 0.0065017889058594106 0 0.040046950796154841 0.0067966052187036661 0 0.03993706747590571 0.0065017889058594106 0 0.040092031102632306 0.00664197849171625 0 0.040007122758157279 0.0069167778246110633 0 0.040046950796154841 0.0067966052187036661 0 0.03993706747590571 0.0065017889058594106 0 0.03993706747590571 0.0065017889058594106 0 0.040049966378377919 0.0060365214770083135 0 0.040092031102632306 0.00664197849171625 0 0.039779006790726407 0.006609005039426242 0 0.03993706747590571 0.0065017889058594106 0 0.039435885171677586 0.0060245383740511567 0 0.03993706747590571 0.0065017889058594106 0 0.040049966378377919 0.0060365214770083135 0 0.039435885171677586 0.0060245383740511567 0 0.039997190321820808 0.006869349072425205 0 0.040074599609169828 0.0067935335255486055 0 0.040092031102632306 0.00664197849171625 0 0.039997190321820808 0.006869349072425205 0 0.040049966378377919 0.0060365214770083135 0 0.040092031102632306 0.00664197849171625 0 0.040049966378377919 0.0060365214770083135 0 0.038947270166513136 0.0045597163321916719 0 0.039346240028349702 0.0047056176320183019 0 0.039848546142334851 0.00613477489787328 0 0.039436773356763266 0.0062978345352166414 0 0.039997190321820808 0.006869349072425205 0 0.040049966378377919 0.0060365214770083135 0 0.040088772774746692 0.007799137949583446 0 0.040049966378377919 0.0060365214770083135 0 0.039346240028349702 0.0047056176320183019 0 0.039673015235387014 0.0051031174006775665 0 0.039673015235387014 0.0051031174006775665 0 0.040157205826704824 0.0044827794562383935 0 0.040365143602001136 0.0036857821423649439 0 0.039917134759920002 0.0049343627819340326 0 0.039686888259141108 0.0050242615341859935 0 0.040049966378377919 0.0060365214770083135 0 0.039673015235387014 0.0051031174006775665 0 0.039435885171677586 0.0060245383740511567 0 0.039752708422923048 0.004727274190222141 0 0.039346240028349702 0.0047056176320183019 0 0.039673015235387014 0.0051031174006775665 0 0.039752708422923048 0.004727274190222141 0 0.039673015235387014 0.0051031174006775665 0 0.040157205826704824 0.0044827794562383935 0 0.040157205826704824 0.0044827794562383935 0 0.041126515725861797 0.0041302678588400555 0 0.040414994973247589 0.0048277005375448366 0 0.041126515725861797 0.0041302678588400555 0 0.041321370509819176 0.0030467890843981159 0 0.040365143602001136 0.0036857821423649439 0 0.040157205826704824 0.0044827794562383935 0 0.041126515725861797 0.0041302678588400555 0 0.040365143602001136 0.0036857821423649439 0 0.042543702695550287 0.0051361537556726998 0 0.045498556199492224 0.0032555734605146901 0 0.041126515725861797 0.0041302678588400555 0 0.041321370509819176 0.0030467890843981159 0 0.042710221258297404 0.0038477451940158113 0 0.047993664978208436 0.0034246065682505978 0 0.047727951805344095 0.0035997067507712172 0 0.0477043739059137 0.0030695844442079818 0 0.042543702695550287 0.0051361537556726998 0 0.045902852608048071 0.0055569989319752692 0 0.040090492985412049 0.0071641852751994813 0 0.039779006790726407 0.006609005039426242 0 0.038816681579396661 0.0063965021571266234 0 0.039697742272940893 0.0075712701852921945 0 0.042543702695550287 0.0051361537556726998 0 0.039779006790726407 0.006609005039426242 0 0.038816681579396661 0.0063965021571266234 0 0.039435885171677586 0.0060245383740511567 0 0.042543702695550287 0.0051361537556726998 0 0.039686888259141108 0.0050242615341859935 0 0.040090492985412049 0.0071641852751994813 0 0.041882979660402012 0.0085725753374508301 0 0.041144317045904336 0.0071579494437071399 0 0.041882979660402012 0.0085725753374508301 0 0.041144317045904336 0.0071579494437071399 0 0.041976724287064261 0.0071713093392838162 0 0.040384425665983117 0.0067972250099422246 0 0.041144317045904336 0.0071579494437071399 0 0.041588295090053691 0.0063656836472191338 0 0.040090492985412049 0.0071641852751994813 0 0.040384425665983117 0.0067972250099422246 0 0.041144317045904336 0.0071579494437071399 0 0.041144317045904336 0.0071579494437071399 0 0.041976724287064261 0.0071713093392838162 0 0.041588295090053691 0.0063656836472191338 0 0.041882979660402012 0.0085725753374508301 0 0.041976724287064261 0.0071713093392838162 0 0.043353514477547921 0.0075554796750410399 0 0.041976724287064261 0.0071713093392838162 0 0.042536925916490623 0.0063143859276313195 0 0.043353514477547921 0.0075554796750410399 0 0.041976724287064261 0.0071713093392838162 0 0.042536925916490623 0.0063143859276313195 0 0.041588295090053691 0.0063656836472191338 0 0.042536925916490623 0.0063143859276313195 0 0.043452100289209733 0.0061808879705164237 0 0.042743496009909822 0.005710454972905411 0 0.042536925916490623 0.0063143859276313195 0 0.041588295090053691 0.0063656836472191338 0 0.042266083270167641 0.0058700920632714917 0 0.040384425665983117 0.0067972250099422246 0 0.041588295090053691 0.0063656836472191338 0 0.042347359052875462 0.0057345229293185576 0 0.043452100289209733 0.0061808879705164237 0 0.044681270341866884 0.006500218592490936 0 0.044327794174472371 0.0052078007550618389 0 0.044681270341866884 0.006500218592490936 0 0.04633613864177178 0.0046545799422336755 0 0.044327794174472371 0.0052078007550618389 0 0.047727951805344095 0.0035997067507712172 0 0.047448684370920001 0.0039395761646737679 0 0.047524494665405453 0.0033694204736393701 0 0.042536925916490623 0.0063143859276313195 0 0.043452100289209733 0.0061808879705164237 0 0.043353514477547921 0.0075554796750410399 0 0.045902852608048071 0.0055569989319752692 0 0.045935739198407398 0.0052254960118460654 0 0.043452100289209733 0.0061808879705164237 0 0.043353514477547921 0.0075554796750410399 0 0.044681270341866884 0.006500218592490936 0 0.047448684370920001 0.0039395761646737679 0 0.047263745232746214 0.0034062645946457333 0 0.047524494665405453 0.0033694204736393701 0 0.047263745232746214 0.0034062645946457333 0 0.047524494665405453 0.0033694204736393701 0 0.047364309391200801 0.0030859698748403378 0 0.047727951805344095 0.0035997067507712172 0 0.047524494665405453 0.0033694204736393701 0 0.0477043739059137 0.0030695844442079818 0 0.047524494665405453 0.0033694204736393701 0 0.0477043739059137 0.0030695844442079818 0 0.047364309391200801 0.0030859698748403378 0 0.0477043739059137 0.0030695844442079818 0 0.047364309391200801 0.0030859698748403378 0 0.047362545462674384 0.0027606408959898856 0 0.047364309391200801 0.0030859698748403378 0 0.047362545462674384 0.0027606408959898856 0 0.047246409652043124 0.0028936040892670019 0 0.044271392239975949 0.0042846624911793436 0 0.043549482400820738 0.0046171147418267115 0 0.043295391022898602 0.005033494360410961 0 0.04399672534573866 0.0043343185074047235 0 0.044271392239975949 0.0042846624911793436 0 0.043549482400820738 0.0046171147418267115 0 0.04399672534573866 0.0043343185074047235 0 0.042915385492890402 0.0047417931457230901 0 0.043549482400820738 0.0046171147418267115 0 0.042915385492890402 0.0047417931457230901 0 0.043549482400820738 0.0046171147418267115 0 0.043295391022898602 0.005033494360410961 0 0.042915385492890402 0.0047417931457230901 0 0.042558892324637283 0.0050017088106586978 0 0.043295391022898602 0.005033494360410961 0 0.045498556199492224 0.0032555734605146901 0 0.045667552324713312 0.0035719783981796975 0 0.042710221258297404 0.0038477451940158113 0 0.04399672534573866 0.0043343185074047235 0 0.042915385492890402 0.0047417931457230901 0 0.042710221258297404 0.0038477451940158113 0 0.042915385492890402 0.0047417931457230901 0 0.041683970187542475 0.0047051757861753798 0 0.041126515725861797 0.0041302678588400555 0 0.042710221258297404 0.0038477451940158113 0 0.041683970187542475 0.0047051757861753798 0 0.041126515725861797 0.0041302678588400555 0 0.041683970187542475 0.0047051757861753798 0 0.040414994973247589 0.0048277005375448366 0 0.041683970187542475 0.0047051757861753798 0 0.040414994973247589 0.0048277005375448366 0 0.04081910910855719 0.0054717526768099578 0 0.039996583418297878 0.0056027832246587084 0 0.040414994973247589 0.0048277005375448366 0 0.04081910910855719 0.0054717526768099578 0 0.04081910910855719 0.0054717526768099578 0 0.041575312053820472 0.0061198236318025304 0 0.040519414902128507 0.0061875250415680903 0 0.039996583418297878 0.0056027832246587084 0 0.04081910910855719 0.0054717526768099578 0 0.040519414902128507 0.0061875250415680903 0 0.042855742187021456 0.0048002830217459755 0 0.042064915124148922 0.0056274498119882463 0 0.042915385492890402 0.0047417931457230901 0 0.041683970187542475 0.0047051757861753798 0 0.041575312053820472 0.0061198236318025304 0 0.041683970187542475 0.0047051757861753798 0 0.04081910910855719 0.0054717526768099578 0 0.041575312053820472 0.0061198236318025304 0 0.042558892324637283 0.0050017088106586978 0 0.042442357302752538 0.0054213166235019599 0 0.043098138169903294 0.005531989522424968 0 0.041575312053820472 0.0061198236318025304 0 0.040519414902128507 0.0061875250415680903 0 0.040450956812195668 0.0070501778774520558 0 0.042064915124148922 0.0056274498119882463 0 0.04087903915092287 0.0054173253671264982 0 0.042558892324637283 0.0050017088106586978 0 0.042442357302752538 0.0054213166235019599 0 0.04199811498472774 0.0054771481110653742 0 0.039742981946840068 0.0066563711543453797 0 0.040519414902128507 0.0061875250415680903 0 0.040450956812195668 0.0070501778774520558 0 0.040909381392732494 0.0018072100705742527 0 0.040891347227987374 0.0018764993771031263 0 0.041032363464580786 0.0018358603882076365 0 0.042442357302752538 0.0054213166235019599 0 0.04199811498472774 0.0054771481110653742 0 0.042635393735728597 0.0058111224535278352 0 0.04087903915092287 0.0054173253671264982 0 0.042132230181776066 0.0041098960095302976 0 0.040980684798133445 0.0018908712244596034 0 0.040891347227987374 0.0018764993771031263 0 0.041032363464580786 0.0018358603882076365 0 0.042442357302752538 0.0054213166235019599 0 0.042635393735728597 0.0058111224535278352 0 0.043098138169903294 0.005531989522424968 0 0.041153027363050584 0.0018515819393283802 0 0.040980684798133445 0.0018908712244596034 0 0.041032363464580786 0.0018358603882076365 0 0.041839112807393886 -0.0002556356678061469 0 0.042132230181776066 0.0041098960095302976 0 0.043338179319076194 0.00618628730927094 0 0.042635393735728597 0.0058111224535278352 0 0.043098138169903294 0.005531989522424968 0 0.043338179319076194 0.00618628730927094 0 0.043098138169903294 0.005531989522424968 0 0.043692412007465521 0.0059124668399978455 0 0.043973012888659145 0.0061728195170430728 0 0.043692412007465521 0.0059124668399978455 0 0.044056416217724693 0.0054524448605600415 0 0.044743041882185232 0.0042613515232681164 0 0.044763792168121777 0.0042197459256892089 0 0.044770119304624025 0.0038433240748453434 0 0.043447000649746353 0.00068932891325224662 0 0.04443250629264358 0.005571700406310982 0 0.043098138169903294 0.005531989522424968 0 0.043692412007465521 0.0059124668399978455 0 0.044056416217724693 0.0054524448605600415 0 0.044271392239975949 0.0042846624911793436 0 0.044056416217724693 0.0054524448605600415 0 0.043295391022898602 0.005033494360410961 0 0.04431303445299635 0.0039161593506681384 0 0.04443250629264358 0.005571700406310982 0 0.042558892324637283 0.0050017088106586978 0 0.043098138169903294 0.005531989522424968 0 0.043295391022898602 0.005033494360410961 0 0.043098138169903294 0.005531989522424968 0 0.044056416217724693 0.0054524448605600415 0 0.043295391022898602 0.005033494360410961 0 0.044901452095218362 0.0037393393093751023 0 0.045745902951178981 0.0037374638185507137 0 0.046666552329001111 0.0032462523733387816 0 0.047024557928189312 0.0027351788381332082 0 0.04704865224614585 0.002657824197551078 0 0.046666552329001111 0.0032462523733387816 0 0.046063350945984398 0.0032665412352698982 0 0.046668179486089999 0.0033561633759033767 0 0.044271392239975949 0.0042846624911793436 0 0.044770119304624025 0.0038433240748453434 0 0.044901452095218362 0.0037393393093751023 0 0.044770119304624025 0.0038433240748453434 0 0.044901452095218362 0.0037393393093751023 0 0.045147840314233412 0.0038611714684139249 0 0.044901452095218362 0.0037393393093751023 0 0.045147840314233412 0.0038611714684139249 0 0.045745902951178981 0.0037374638185507137 0 0.044763792168121777 0.0042197459256892089 0 0.044770119304624025 0.0038433240748453434 0 0.045147840314233412 0.0038611714684139249 0 0.045606202660492381 0.0043395328759351561 0 0.044763792168121777 0.0042197459256892089 0 0.045147840314233412 0.0038611714684139249 0 0.045606202660492381 0.0043395328759351561 0 0.045147840314233412 0.0038611714684139249 0 0.045745902951178981 0.0037374638185507137 0 0.045606202660492381 0.0043395328759351561 0 0.045745902951178981 0.0037374638185507137 0 0.04653320007603659 0.0037532828797765022 0 0.045745902951178981 0.0037374638185507137 0 0.04653320007603659 0.0037532828797765022 0 0.046666552329001111 0.0032462523733387816 0 0.047323095134735545 0.0042352151120635768 0 0.04653320007603659 0.0037532828797765022 0 0.047431612225386999 0.0031409701024051515 0 0.047896773056499115 0.0019724897179609286 0 0.047357046437066549 0.0025354591626126246 0 0.047431612225386999 0.0031409701024051515 0 0.046478310926579641 0.00094313791382757267 0 0.047059358790952778 0.0033668207649111171 0 0.047357046437066549 0.0025354591626126246 0 0.047431612225386999 0.0031409701024051515 0 0.047244873602899848 0.0030085892591248066 0 0.047431612225386999 0.0031409701024051515 0 0.047244873602899848 0.0030085892591248066 0 0.04729004321094802 0.0029447809797140791 0 0.047431612225386999 0.0031409701024051515 0 0.046666552329001111 0.0032462523733387816 0 0.04729004321094802 0.0029447809797140791 0 0.04653320007603659 0.0037532828797765022 0 0.047431612225386999 0.0031409701024051515 0 0.046666552329001111 0.0032462523733387816 0 0.047314876118756614 0.0028348533646578434 0 0.047388556796195379 0.0031032387219105564 0 0.047209459743792051 0.0029668699267329192 0 0.046364759335856882 0.0027083376027368291 0 0.046659058075469474 0.0022355709782842636 0 0.047244873602899848 0.0030085892591248066 0 0.045714772312529468 0.0024966583192180809 0 0.047244873602899848 0.0030085892591248066 0 0.047246994332709062 0.0029635943595826865 0 0.047247537740726424 0.0029371206917293974 0 0.047244873602899848 0.0030085892591248066 0 0.04729004321094802 0.0029447809797140791 0 0.047246994332709062 0.0029635943595826865 0 0.046151376042138981 0.0016975362441597266 0 0.046659058075469474 0.0022355709782842636 0 0.045714772312529468 0.0024966583192180809 0 0.046659058075469474 0.0022355709782842636 0 0.047091241178051656 0.0022860618889919441 0 0.047244873602899848 0.0030085892591248066 0 0.047357046437066549 0.0025354591626126246 0 0.047091241178051656 0.0022860618889919441 0 0.047244873602899848 0.0030085892591248066 0 0.047381851092212456 0.0019427025249705336 0 0.047357046437066549 0.0025354591626126246 0 0.047091241178051656 0.0022860618889919441 0 0.047582911802846045 0.0025145683964252932 0 0.04729004321094802 0.0029447809797140791 0 0.047806374422924632 0.0025103785147081448 0 0.047582911802846045 0.0025145683964252932 0 0.047835671119716976 0.0021621056286945939 0 0.047806374422924632 0.0025103785147081448 0 0.047582911802846045 0.0025145683964252932 0 0.047645521532302441 0.0023795057620852444 0 0.047383040146595098 0.0025715167419923866 0 0.047582911802846045 0.0025145683964252932 0 0.047645521532302441 0.0023795057620852444 0 0.047835671119716976 0.0021621056286945939 0 0.047024557928189312 0.0027351788381332082 0 0.046666552329001111 0.0032462523733387816 0 0.04729004321094802 0.0029447809797140791 0 0.047582911802846045 0.0025145683964252932 0 0.04729004321094802 0.0029447809797140791 0 0.047383040146595098 0.0025715167419923866 0 0.047024557928189312 0.0027351788381332082 0 0.04729004321094802 0.0029447809797140791 0 0.047383040146595098 0.0025715167419923866 0 0.047024557928189312 0.0027351788381332082 0 0.047383040146595098 0.0025715167419923866 0 0.047212890366837915 0.002631874320679288 0 0.047383040146595098 0.0025715167419923866 0 0.047212890366837915 0.002631874320679288 0 0.047531814861406924 0.0025183986722642645 0 0.047212890366837915 0.002631874320679288 0 0.047531814861406924 0.0025183986722642645 0 0.047214763761415098 0.0027177575716089098 0 0.047645521532302441 0.0023795057620852444 0 0.047531814861406924 0.0025183986722642645 0 0.04800554414123382 0.0020996592031695023 0 0.047645521532302441 0.0023795057620852444 0 0.047383040146595098 0.0025715167419923866 0 0.047531814861406924 0.0025183986722642645 0 0.047531814861406924 0.0025183986722642645 0 0.047832151238153882 0.002505377399059496 0 0.04800554414123382 0.0020996592031695023 0 0.047645521532302441 0.0023795057620852444 0 0.04800554414123382 0.0020996592031695023 0 0.047835671119716976 0.0021621056286945939 0 0.047531814861406924 0.0025183986722642645 0 0.047610888690819343 0.0027430876833690761 0 0.04732681940714329 0.0028228014232472708 0 0.047531814861406924 0.0025183986722642645 0 0.047610888690819343 0.0027430876833690761 0 0.047832151238153882 0.002505377399059496 0 0.047531814861406924 0.0025183986722642645 0 0.047214763761415098 0.0027177575716089098 0 0.04732681940714329 0.0028228014232472708 0 0.047214763761415098 0.0027177575716089098 0 0.047148445925245384 0.0029169539974918152 0 0.04732681940714329 0.0028228014232472708 0 0.047214763761415098 0.0027177575716089098 0 0.04714531345449937 0.0028334956696340215 0 0.047148445925245384 0.0029169539974918152 0 0.04714531345449937 0.0028334956696340215 0 0.047112357646954928 0.0026986144912507582 0 0.047166799577584219 0.0027591767906530143 0 0.047214763761415098 0.0027177575716089098 0 0.04714531345449937 0.0028334956696340215 0 0.047112357646954928 0.0026986144912507582 0 0.047212890366837915 0.002631874320679288 0 0.047214763761415098 0.0027177575716089098 0 0.047112357646954928 0.0026986144912507582 0 0.047024557928189312 0.0027351788381332082 0 0.04704865224614585 0.002657824197551078 0 0.047112357646954928 0.0026986144912507582 0 0.047024557928189312 0.0027351788381332082 0 0.047212890366837915 0.002631874320679288 0 0.047112357646954928 0.0026986144912507582 0 0.045667552324713312 0.0035719783981796975 0 0.046063350945984398 0.0032665412352698982 0 0.047362545462674384 0.0027606408959898856 0 0.04704865224614585 0.002657824197551078 0 0.047166799577584219 0.0027591767906530143 0 0.04399672534573866 0.0043343185074047235 0 0.044271392239975949 0.0042846624911793436 0 0.044901452095218362 0.0037393393093751023 0 0.04704865224614585 0.002657824197551078 0 0.047112357646954928 0.0026986144912507582 0 0.047166799577584219 0.0027591767906530143 0 0.047362545462674384 0.0027606408959898856 0 0.047166799577584219 0.0027591767906530143 0 0.047246409652043124 0.0028936040892670019 0 0.04714531345449937 0.0028334956696340215 0 0.047166799577584219 0.0027591767906530143 0 0.047246409652043124 0.0028936040892670019 0 0.04714531345449937 0.0028334956696340215 0 0.047246409652043124 0.0028936040892670019 0 0.047082640009987388 0.0031361861114036745 0 0.047364309391200801 0.0030859698748403378 0 0.047246409652043124 0.0028936040892670019 0 0.047082640009987388 0.0031361861114036745 0 0.047263745232746214 0.0034062645946457333 0 0.047364309391200801 0.0030859698748403378 0 0.047082640009987388 0.0031361861114036745 0 0.04714531345449937 0.0028334956696340215 0 0.047082640009987388 0.0031361861114036745 0 0.047148445925245384 0.0029169539974918152 0 0.047082640009987388 0.0031361861114036745 0 0.047148445925245384 0.0029169539974918152 0 0.047046980233496127 0.0031563302294743728 0 0.047082640009987388 0.0031361861114036745 0 0.046787364811108803 0.003544404689137149 0 0.047046980233496127 0.0031563302294743728 0 0.047263745232746214 0.0034062645946457333 0 0.047082640009987388 0.0031361861114036745 0 0.046979815155663483 0.0036104030811537828 0 0.047082640009987388 0.0031361861114036745 0 0.046979815155663483 0.0036104030811537828 0 0.046787364811108803 0.003544404689137149 0 0.047448684370920001 0.0039395761646737679 0 0.046979815155663483 0.0036104030811537828 0 0.04633613864177178 0.0046545799422336755 0 0.046979815155663483 0.0036104030811537828 0 0.046787364811108803 0.003544404689137149 0 0.04633613864177178 0.0046545799422336755 0 0.047448684370920001 0.0039395761646737679 0 0.047263745232746214 0.0034062645946457333 0 0.046979815155663483 0.0036104030811537828 0 0.046787364811108803 0.003544404689137149 0 0.046764841952733255 0.0035522370397623486 0 0.047046980233496127 0.0031563302294743728 0 0.046787364811108803 0.003544404689137149 0 0.04633613864177178 0.0046545799422336755 0 0.046764841952733255 0.0035522370397623486 0 0.04633613864177178 0.0046545799422336755 0 0.046543075609369509 0.0037582862783090017 0 0.046764841952733255 0.0035522370397623486 0 0.045935739198407398 0.0052254960118460654 0 0.046316577350749157 0.0047736082260595681 0 0.047065221724311671 0.0032249346640993463 0 0.047366433233958782 0.002885770598268196 0 0.047663271506393899 0.0027326102177927265 0 0.047065221724311671 0.0032249346640993463 0 0.047366433233958782 0.002885770598268196 0 0.046965022699340532 0.003139749320944964 0 0.047065221724311671 0.0032249346640993463 0 0.046543075609369509 0.0037582862783090017 0 0.046965022699340532 0.003139749320944964 0 0.047065221724311671 0.0032249346640993463 0 0.046543075609369509 0.0037582862783090017 0 0.046764841952733255 0.0035522370397623486 0 0.047065221724311671 0.0032249346640993463 0 0.046764841952733255 0.0035522370397623486 0 0.047260807748574059 0.0031242633480001356 0 0.047065221724311671 0.0032249346640993463 0 0.047260807748574059 0.0031242633480001356 0 0.047663271506393899 0.0027326102177927265 0 0.047260807748574059 0.0031242633480001356 0 0.047492765938337789 0.0029608310121907212 0 0.047777065916721193 0.0029461944806312948 0 0.047260807748574059 0.0031242633480001356 0 0.047046980233496127 0.0031563302294743728 0 0.047492765938337789 0.0029608310121907212 0 0.046764841952733255 0.0035522370397623486 0 0.047260807748574059 0.0031242633480001356 0 0.047046980233496127 0.0031563302294743728 0 0.047046980233496127 0.0031563302294743728 0 0.04732681940714329 0.0028228014232472708 0 0.047492765938337789 0.0029608310121907212 0 0.047148445925245384 0.0029169539974918152 0 0.047046980233496127 0.0031563302294743728 0 0.04732681940714329 0.0028228014232472708 0 0.047610888690819343 0.0027430876833690761 0 0.04732681940714329 0.0028228014232472708 0 0.047492765938337789 0.0029608310121907212 0 0.047492765938337789 0.0029608310121907212 0 0.047864869457186585 0.0028772391689251549 0 0.047777065916721193 0.0029461944806312948 0 0.047610888690819343 0.0027430876833690761 0 0.047492765938337789 0.0029608310121907212 0 0.047864869457186585 0.0028772391689251549 0 0.047864869457186585 0.0028772391689251549 0 0.047912732422557738 0.0029286130126776025 0 0.047831469500003568 0.0024669215354861732 0 0.047864869457186585 0.0028772391689251549 0 0.048196410277527434 0.0029784080763917095 0 0.047912732422557738 0.0029286130126776025 0 0.048196410277527434 0.0029784080763917095 0 0.047777065916721193 0.0029461944806312948 0 0.048359014115401555 0.0025460193014668429 0 0.048196410277527434 0.0029784080763917095 0 0.048359014115401555 0.0025460193014668429 0 0.049221070848983951 0.002937222414265066 0 0.047864869457186585 0.0028772391689251549 0 0.048196410277527434 0.0029784080763917095 0 0.047777065916721193 0.0029461944806312948 0 0.047260807748574059 0.0031242633480001356 0 0.047777065916721193 0.0029461944806312948 0 0.047663271506393899 0.0027326102177927265 0 0.047777065916721193 0.0029461944806312948 0 0.047663271506393899 0.0027326102177927265 0 0.048359014115401555 0.0025460193014668429 0 0.047663271506393899 0.0027326102177927265 0 0.048359014115401555 0.0025460193014668429 0 0.048602610675499494 0.0018761285438298407 0 0.048359014115401555 0.0025460193014668429 0 0.048602610675499494 0.0018761285438298407 0 0.049278406683373063 0.0018128805773495057 0 0.048602610675499494 0.0018761285438298407 0 0.050001521470894296 0.0009228198538052012 0 0.049938002123413615 0.0009976130048197601 0 0.048602610675499494 0.0018761285438298407 0 0.050001521470894296 0.0009228198538052012 0 0.049278406683373063 0.0018128805773495057 0 0.047663271506393899 0.0027326102177927265 0 0.048602610675499494 0.0018761285438298407 0 0.047935448868814838 0.0024050848129697168 0 0.047366433233958782 0.002885770598268196 0 0.047663271506393899 0.0027326102177927265 0 0.047935448868814838 0.0024050848129697168 0 0.050859133701437423 0.00018110499513748486 0 0.049998846726849504 -0.0016611655783601101 0 0.049999909699319105 0.0008907686016503643 0 0.050859133701437423 0.00018110499513748486 0 0.050001521470894296 0.0009228198538052012 0 0.049278406683373063 0.0018128805773495057 0 0.050859133701437423 0.00018110499513748486 0 0.049278406683373063 0.0018128805773495057 0 0.049221070848983951 0.002937222414265066 0 0.050814938749046495 0.00011175096431137605 0 0.05057105654464103 -0.00029115249202236543 0 0.048359014115401555 0.0025460193014668429 0 0.049278406683373063 0.0018128805773495057 0 0.049221070848983951 0.002937222414265066 0 0.049998846726849504 -0.0016611655783601101 0 0.050000140185529833 -0.0042171952939123441 0 0.051929894273954502 -0.0033083746443093543 0 0.050859133701437423 0.00018110499513748486 0 0.049998846726849504 -0.0016611655783601101 0 0.051929894273954502 -0.0033083746443093543 0 0.05057105654464103 -0.00029115249202236543 0 0.050144265662618384 -0.0014331279432414302 0 0.048196410277527434 0.0029784080763917095 0 0.049221070848983951 0.002937222414265066 0 0.047912732422557738 0.0029286130126776025 0 0.050000140185529833 -0.0042171952939123441 0 0.051929894273954502 -0.0033083746443093543 0 0.052362144025161476 -0.0058978607934368349 0 0.050000140185529833 -0.0042171952939123441 0 0.052362144025161476 -0.0058978607934368349 0 0.049999852195463469 -0.0067698073412340628 0 0.052362144025161476 -0.0058978607934368349 0 0.049999852195463469 -0.0067698073412340628 0 0.051271135946170179 -0.0077641650691534494 0 0.049999852195463469 -0.0067698073412340628 0 0.051271135946170179 -0.0077641650691534494 0 0.04999997448009437 -0.0093229279328340357 0 0.051271135946170179 -0.0077641650691534494 0 0.04999997448009437 -0.0093229279328340357 0 0.051906457952637382 -0.0091285749119167058 0 0.051271135946170179 -0.0077641650691534494 0 0.052489681651927682 -0.007668512672905959 0 0.051906457952637382 -0.0091285749119167058 0 0.050144265662618384 -0.0014331279432414302 0 0.050108390887139247 -0.0033794472583540017 0 0.052362144025161476 -0.0058978607934368349 0 0.051271135946170179 -0.0077641650691534494 0 0.052489681651927682 -0.007668512672905959 0 0.047912732422557738 0.0029286130126776025 0 0.047831469500003568 0.0024669215354861732 0 0.047454870263158339 0.0016999907348888279 0 0.047610888690819343 0.0027430876833690761 0 0.047864869457186585 0.0028772391689251549 0 0.047832151238153882 0.002505377399059496 0 0.047864869457186585 0.0028772391689251549 0 0.047831469500003568 0.0024669215354861732 0 0.047832151238153882 0.002505377399059496 0 0.047831469500003568 0.0024669215354861732 0 0.047832151238153882 0.002505377399059496 0 0.04800554414123382 0.0020996592031695023 0 0.04800554414123382 0.0020996592031695023 0 0.047454870263158339 0.0016999907348888279 0 0.04818241128957354 0.0015513541754006916 0 0.047831469500003568 0.0024669215354861732 0 0.04800554414123382 0.0020996592031695023 0 0.047454870263158339 0.0016999907348888279 0 0.047454870263158339 0.0016999907348888279 0 0.04818241128957354 0.0015513541754006916 0 0.047605654644146005 -0.00050550370866176125 0 0.050108390887139247 -0.0033794472583540017 0 0.049649179157598589 -0.0032510599786128593 0 0.052489681651927682 -0.007668512672905959 0 0.05280964939189537 -0.0093136192243980752 0 0.051906457952637382 -0.0091285749119167058 0 0.04818241128957354 0.0015513541754006916 0 0.048998012769489868 0.0023683511714905395 0 0.048638169270414124 0.0023636194078718187 0 0.048619379287768334 0.001852765882292958 0 0.049649179157598589 -0.0032510599786128593 0 0.05251243743847496 -0.0099958848329788162 0 0.05280964939189537 -0.0093136192243980752 0 0.051906457952637382 -0.0091285749119167058 0 0.047835671119716976 0.0021621056286945939 0 0.04818241128957354 0.0015513541754006916 0 0.048007170049055012 0.002157518600819116 0 0.04800554414123382 0.0020996592031695023 0 0.047835671119716976 0.0021621056286945939 0 0.04818241128957354 0.0015513541754006916 0 0.04818241128957354 0.0015513541754006916 0 0.048007170049055012 0.002157518600819116 0 0.048346640465118926 0.00237400997874888 0 0.04818241128957354 0.0015513541754006916 0 0.048346640465118926 0.00237400997874888 0 0.048638169270414124 0.0023636194078718187 0 0.048007170049055012 0.002157518600819116 0 0.047806374422924632 0.0025103785147081448 0 0.048346640465118926 0.00237400997874888 0 0.047835671119716976 0.0021621056286945939 0 0.048007170049055012 0.002157518600819116 0 0.047806374422924632 0.0025103785147081448 0 0.047388556796195379 0.0031032387219105564 0 0.04904180086342326 -0.0018215797197873201 0 0.047806374422924632 0.0025103785147081448 0 0.048346640465118926 0.00237400997874888 0 0.048894692682050926 0.0025785915424008897 0 0.047246994332709062 0.0029635943595826865 0 0.047251272733913025 0.0029127904337760708 0 0.047258087004536084 0.0028750740154658517 0 0.047251272733913025 0.0029127904337760708 0 0.047247537740726424 0.0029371206917293974 0 0.047254859776597435 0.0028781214310838366 0 0.045029574395642404 0.0017614105082657207 0 0.045714772312529468 0.0024966583192180809 0 0.044342687982515269 0.0020312069261985322 0 0.046364759335856882 0.0027083376027368291 0 0.047705492292686495 -0.0019003257266508875 0 0.047246994332709062 0.0029635943595826865 0 0.047251272733913025 0.0029127904337760708 0 0.047247537740726424 0.0029371206917293974 0 0.05075207029725215 -0.0067499408631466707 0 0.04904180086342326 -0.0018215797197873201 0 0.049649179157598589 -0.0032510599786128593 0 0.04904180086342326 -0.0018215797197873201 0 0.05075207029725215 -0.0067499408631466707 0 0.049649179157598589 -0.0032510599786128593 0 0.049838132170673975 -0.0046376947261333795 0 0.050539279470174517 -0.0039519880716024748 0 0.050671402002706284 -0.0045329544996639852 0 0.048998012769489868 0.0023683511714905395 0 0.048638169270414124 0.0023636194078718187 0 0.048894692682050926 0.0025785915424008897 0 0.048346640465118926 0.00237400997874888 0 0.048638169270414124 0.0023636194078718187 0 0.048894692682050926 0.0025785915424008897 0 0.04904180086342326 -0.0018215797197873201 0 0.047705492292686495 -0.0019003257266508875 0 0.047251272733913025 0.0029127904337760708 0 0.047258087004536084 0.0028750740154658517 0 0.047254859776597435 0.0028781214310838366 0 0.049373898419167804 -0.0052923668892832822 0 0.04965380183536669 -0.0052495607410872813 0 0.04975904899197961 -0.0057173388973070401 0 0.051638817105848993 -0.012961398528939443 0 0.053113451145491694 -0.011457349801226842 0 0.051575541465617374 -0.011684203859176432 0 0.048636926418654164 -0.0060617009259709802 0 0.049373898419167804 -0.0052923668892832822 0 0.04975904899197961 -0.0057173388973070401 0 0.05251243743847496 -0.0099958848329788162 0 0.051378621597189582 -0.010927621254723395 0 0.051906457952637382 -0.0091285749119167058 0 0.050192260135832459 -0.010013917913121326 0 0.05075207029725215 -0.0067499408631466707 0 0.05075207029725215 -0.0067499408631466707 0 0.05164219944302844 -0.011232709512954422 0 0.04999997448009437 -0.0093229279328340357 0 0.051378621597189582 -0.010927621254723395 0 0.049999713127590738 -0.011875555142732553 0 0.051575541465617374 -0.011684203859176432 0 0.05095765469230927 -0.012398532565450759 0 0.049999997640525026 -0.011877123085604582 0 0.051638817105848993 -0.012961398528939443 0 0.051575541465617374 -0.011684203859176432 0 0.05095765469230927 -0.012398532565450759 0 0.05164219944302844 -0.011232709512954422 0 0.050000094508748323 -0.011876793152651933 0 0.050417808820533275 -0.012682101498631649 0 0.05095765469230927 -0.012398532565450759 0 0.049999997640525026 -0.011877123085604582 0 0.04999997448009437 -0.0093229279328340357 0 0.051378621597189582 -0.010927621254723395 0 0.051906457952637382 -0.0091285749119167058 0 0.012906955590504221 -0.0037241340444507248 0 0.013986311759758657 -0.0035934623449946925 0 0.013790576414992478 -0.0027806940325114902 0 0.013032712357030156 -0.0053483080400314768 0 0.011112601039707317 -0.0046362030657376499 0 0.013986311759758657 -0.0035934623449946925 0 0.011287080341929056 -0.0043934723116803428 0 0.014071638647334052 -0.0035389615915802034 0 0.013032712357030156 -0.0053483080400314768 0 0.011112601039707317 -0.0046362030657376499 0 0.011819047397197255 -0.0065660472631421307 0 0.013986311759758657 -0.0035934623449946925 0 0.014830095935385045 -0.0035746488322099131 0 0.014665321011124353 -0.0050688373291410682 0 0.014830095935385045 -0.0035746488322099131 0 0.014665321011124353 -0.0050688373291410682 0 0.015952422638207023 -0.004343188460106711 0 0.013032712357030156 -0.0053483080400314768 0 0.013986311759758657 -0.0035934623449946925 0 0.014665321011124353 -0.0050688373291410682 0 0.013491714283992564 -0.0068320161856914871 0 0.012532334354343427 -0.0083327955062012498 0 0.015428089222287557 -0.0092097182640623401 0 0.013032712357030156 -0.0053483080400314768 0 0.014665321011124353 -0.0050688373291410682 0 0.013491714283992564 -0.0068320161856914871 0 0.014665321011124353 -0.0050688373291410682 0 0.015237577031479446 -0.0069062342856877094 0 0.016167543716382855 -0.005504335565696121 0 0.014665321011124353 -0.0050688373291410682 0 0.013491714283992564 -0.0068320161856914871 0 0.015237577031479446 -0.0069062342856877094 0 0.013491714283992564 -0.0068320161856914871 0 0.015237577031479446 -0.0069062342856877094 0 0.015428089222287557 -0.0092097182640623401 0 0.013491714283992564 -0.0068320161856914871 0 0.011819047397197255 -0.0065660472631421307 0 0.012532334354343427 -0.0083327955062012498 0 0.013032712357030156 -0.0053483080400314768 0 0.013491714283992564 -0.0068320161856914871 0 0.011819047397197255 -0.0065660472631421307 0 0.011112601039707317 -0.0046362030657376499 0 0.011819047397197255 -0.0065660472631421307 0 0.010032053675283502 -0.0064847054042234632 0 0.011819047397197255 -0.0065660472631421307 0 0.010841135220625331 -0.0080175310456323291 0 0.010032053675283502 -0.0064847054042234632 0 0.011819047397197255 -0.0065660472631421307 0 0.010841135220625331 -0.0080175310456323291 0 0.012532334354343427 -0.0083327955062012498 0 0.00945277502149049 -0.0076830264803974839 0 0.0085461607414387183 -0.0064175459015817964 0 0.0083910934141944882 -0.0098248207977916051 0 0.010841135220625331 -0.0080175310456323291 0 0.00945277502149049 -0.0076830264803974839 0 0.010032053675283502 -0.0064847054042234632 0 0.0085461607414387183 -0.0064175459015817964 0 0.010032053675283502 -0.0064847054042234632 0 0.0084098816359843721 -0.0056383629916432624 0 0.00945277502149049 -0.0076830264803974839 0 0.0085461607414387183 -0.0064175459015817964 0 0.010032053675283502 -0.0064847054042234632 0 0.013344564638735538 -0.005309818059927157 0 0.014749613813193341 -0.005105211026106329 0 0.0085461607414387183 -0.0064175459015817964 0 0.0076539025750803928 -0.0058988265227248428 0 0.0083910934141944882 -0.0098248207977916051 0 0.024733150129920414 -0.020602571081543192 0 0.026470651393131948 -0.016611444575016343 0 0.028449033453859646 -0.023871335180716373 0 0.026129113308424549 -0.010846761330636981 0 0.024867452310193053 -0.021143979639509272 0 0.021763510658431181 -0.0079148057107636775 0 0.013075165896040093 -0.011458051406963449 0 0.019486121072514503 -0.00999491377409846 0 0.018569482101474688 -0.01031531390069358 0 0.02062866896819383 -0.016180791050911046 0 0.021763510658431181 -0.0079148057107636775 0 0.014749613813193341 -0.005105211026106329 0 0.0085461607414387183 -0.0064175459015817964 0 0.0076539025750803928 -0.0058988265227248428 0 0.0084315384008658359 -0.0056315568933638831 0 0.021763510658431181 -0.0079148057107636775 0 0.026129113308424549 -0.010846761330636981 0 0.02874802840279941 -0.0058673860472163398 0 0.028281047263273323 -0.0049410523568797857 0 0.028498507104733447 -0.0043813324041902186 0 0.028432483092410917 -0.0052322453084410435 0 0.028601591684938015 -0.0051717669604305107 0 0.028498507104733447 -0.0043813324041902186 0 0.021763510658431181 -0.0079148057107636775 0 0.029764960092597326 -0.0038348249498295498 0 0.02874802840279941 -0.0058673860472163398 0 0.028515337807312635 -0.0059534053805137769 0 0.028281047263273323 -0.0049410523568797857 0 0.014749613813193341 -0.005105211026106329 0 0.020896804663393477 -0.0032304151911247071 0 0.026129113308424549 -0.010846761330636981 0 0.029084230941181708 -0.0056161411174119567 0 0.032921294542479489 -0.011357054597213395 0 0.029966169095797846 -0.0061239073137170389 0 0.029757297772316033 -0.0089070935971516437 0 0.012906955590504221 -0.0037241340444507248 0 0.011934317041514016 -0.004021808245229009 0 0.012326361644695949 -0.0032367638516222885 0 0.011934317041514016 -0.004021808245229009 0 0.012326361644695949 -0.0032367638516222885 0 0.011716241915144652 -0.002456705640859611 0 0.011287080341929056 -0.0043934723116803428 0 0.014749613813193341 -0.005105211026106329 0 0.011112601039707317 -0.0046362030657376499 0 0.010032053675283502 -0.0064847054042234632 0 0.0084098816359843721 -0.0056383629916432624 0 0.012906955590504221 -0.0037241340444507248 0 0.012326361644695949 -0.0032367638516222885 0 0.012779476140004013 -0.0027542006779570742 0 0.011716241915144652 -0.002456705640859611 0 0.012739604996047456 -0.0019645932085598419 0 0.012779476140004013 -0.0027542006779570742 0 0.012326361644695949 -0.0032367638516222885 0 0.011716241915144652 -0.002456705640859611 0 0.012779476140004013 -0.0027542006779570742 0 0.029084230941181708 -0.0056161411174119567 0 0.028442521809773143 -0.0043040327343571829 0 0.028601591684938015 -0.0051717669604305107 0 0.028498507104733447 -0.0043813324041902186 0 0.028725541495829655 -0.0041879432227000758 0 0.028281047263273323 -0.0049410523568797857 0 0.028498507104733447 -0.0043813324041902186 0 0.028195434420145288 -0.0040513479613421199 0 0.028498507104733447 -0.0043813324041902186 0 0.028725541495829655 -0.0041879432227000758 0 0.028195434420145288 -0.0040513479613421199 0 0.011716241915144652 -0.002456705640859611 0 0.012279690489183221 -0.0014168058613538571 0 0.011566258016621266 -0.00092426376626986184 0 0.028725541495829655 -0.0041879432227000758 0 0.028109696240646947 -0.0034095860579469845 0 0.028485264978991547 -0.002571977672772085 0 0.020896804663393477 -0.0032304151911247071 0 0.019965467606515467 -0.0020419815662153706 0 0.028725541495829655 -0.0041879432227000758 0 0.028195434420145288 -0.0040513479613421199 0 0.028109696240646947 -0.0034095860579469845 0 0.011716241915144652 -0.002456705640859611 0 0.012739604996047456 -0.0019645932085598419 0 0.012279690489183221 -0.0014168058613538571 0 0.012739604996047456 -0.0019645932085598419 0 0.012279690489183221 -0.0014168058613538571 0 0.013001154614285925 -0.0012828383394092693 0 0.012739604996047456 -0.0019645932085598419 0 0.013331416866818446 -0.0015948300374195618 0 0.013001154614285925 -0.0012828383394092693 0 0.011877843882438751 0.00030231462115368267 0 0.013241980520015831 -0.0011692766416055566 0 0.01326441815034963 -0.0013060287627793263 0 0.01336254712210895 -0.002260219369119903 0 0.01418212031969939 -0.002020253899955859 0 0.011877843882438751 0.00030231462115368267 0 0.013088939335757903 -0.0025121942162729984 0 0.012739604996047456 -0.0019645932085598419 0 0.013331416866818446 -0.0015948300374195618 0 0.01336254712210895 -0.002260219369119903 0 0.012906955590504221 -0.0037241340444507248 0 0.012779476140004013 -0.0027542006779570742 0 0.013790576414992478 -0.0027806940325114902 0 0.01336254712210895 -0.002260219369119903 0 0.012779476140004013 -0.0027542006779570742 0 0.013790576414992478 -0.0027806940325114902 0 0.012739604996047456 -0.0019645932085598419 0 0.01336254712210895 -0.002260219369119903 0 0.012779476140004013 -0.0027542006779570742 0 0.013790576414992478 -0.0027806940325114902 0 0.01418212031969939 -0.002020253899955859 0 0.015498333273804508 -0.0028452772728879061 0 0.0078695594422614635 0.0042925867174140181 0 0.00706152273394912 0.003947685776731321 0 0.0073326387741637807 0.0046822840210930363 0 0.014830095935385045 -0.0035746488322099131 0 0.013790576414992478 -0.0027806940325114902 0 0.015498333273804508 -0.0028452772728879061 0 0.013986311759758657 -0.0035934623449946925 0 0.014830095935385045 -0.0035746488322099131 0 0.013790576414992478 -0.0027806940325114902 0 0.01336254712210895 -0.002260219369119903 0 0.013790576414992478 -0.0027806940325114902 0 0.01418212031969939 -0.002020253899955859 0 0.011185742624890894 0.00094256380959131835 0 0.0075427819331784669 0.00023936282264008999 0 0.0078695594422614635 0.0042925867174140181 0 0.0079067457878038271 0.0036908875269464269 0 0.00706152273394912 0.003947685776731321 0 0.0086894995146706219 0.0034706110372211244 0 0.0078695594422614635 0.0042925867174140181 0 0.0079067457878038271 0.0036908875269464269 0 0.011877843882438751 0.00030231462115368267 0 0.011185742624890894 0.00094256380959131835 0 0.0086894995146706219 0.0034706110372211244 0 0.0079067457878038271 0.0036908875269464269 0 0.0079511162102496331 0.0030215290995687862 0 0.0079067457878038271 0.0036908875269464269 0 0.00706152273394912 0.003947685776731321 0 0.0079511162102496331 0.0030215290995687862 0 0.00706152273394912 0.003947685776731321 0 0.0060117428827521531 0.0047839889286301427 0 0.0059434807836940802 0.0034440585861623151 0 0.0060117428827521531 0.0047839889286301427 0 0.0059434807836940802 0.0034440585861623151 0 0.0047752681430504968 0.0045044142091092256 0 0.0059434807836940802 0.0034440585861623151 0 0.0047752681430504968 0.0045044142091092256 0 0.0043598042156890796 0.0026513163459785474 0 0.0033448453857631189 0.0038882010394507621 0 0.0047752681430504968 0.0045044142091092256 0 0.0043598042156890796 0.0026513163459785474 0 0.0033448453857631189 0.0038882010394507621 0 0.0047752681430504968 0.0045044142091092256 0 0.0033551166346032467 0.0053620894741265848 0 0.0060117428827521531 0.0047839889286301427 0 0.0047752681430504968 0.0045044142091092256 0 0.0047541205993845313 0.0054668861330825162 0 0.0047752681430504968 0.0045044142091092256 0 0.0047541205993845313 0.0054668861330825162 0 0.0033551166346032467 0.0053620894741265848 0 0.0028941458322038222 0.0060202566141409472 0 0.0056726393647577233 0.0056884329723174238 0 0.0047541205993845313 0.0054668861330825162 0 0.0033847949129822198 0.0069968354758338071 0 0.0060141659795646526 0.0056676388679920559 0 0.0025658117549316019 0.0050198024287669606 0 0.0047373278853080425 0.0059300335143297953 0 0.0060141659795646526 0.0056676388679920559 0 0.0047541205993845313 0.0054668861330825162 0 0.0033551166346032467 0.0053620894741265848 0 0.0033847949129822198 0.0069968354758338071 0 0.0068601695021374117 0.005870972196262007 0 0.0075427819331784669 0.00023936282264008999 0 0.0047373278853080425 0.0059300335143297953 0 0.006430394060945234 0.0058786884136769078 0 0.0060141659795646526 0.0056676388679920559 0 0.00706152273394912 0.003947685776731321 0 0.0060117428827521531 0.0047839889286301427 0 0.006430394060945234 0.0058786884136769078 0 0.0060117428827521531 0.0047839889286301427 0 0.006430394060945234 0.0058786884136769078 0 0.0060141659795646526 0.0056676388679920559 0 0.0060117428827521531 0.0047839889286301427 0 0.0047541205993845313 0.0054668861330825162 0 0.0060141659795646526 0.0056676388679920559 0 -0.0015553563920909744 0.0042936250522300698 0 9.5447969134989622e-05 0.0054188873322243555 0 -0.00060803344830628371 0.006769951408612143 0 -0.0022324344095310043 0.0043150114352536514 0 -0.0015553563920909744 0.0042936250522300698 0 -0.00060803344830628371 0.006769951408612143 0 -0.0015553563920909744 0.0042936250522300698 0 0.00062575065505534851 0.004154636149837472 0 0.00066835966154836079 0.0030240258990827623 0 -0.0015553563920909744 0.0042936250522300698 0 0.00062575065505534851 0.004154636149837472 0 9.5447969134989622e-05 0.0054188873322243555 0 0.00062575065505534851 0.004154636149837472 0 9.5447969134989622e-05 0.0054188873322243555 0 0.0016959584582330607 0.00472830039828961 0 0.00062575065505534851 0.004154636149837472 0 0.00066835966154836079 0.0030240258990827623 0 0.002045038230986825 0.0033448288415466143 0 0.00062575065505534851 0.004154636149837472 0 0.0016959584582330607 0.00472830039828961 0 0.002045038230986825 0.0033448288415466143 0 0.0033448453857631189 0.0038882010394507621 0 0.0016959584582330607 0.00472830039828961 0 0.002045038230986825 0.0033448288415466143 0 0.0033448453857631189 0.0038882010394507621 0 0.0033551166346032467 0.0053620894741265848 0 0.0016959584582330607 0.00472830039828961 0 0.0028941458322038222 0.0060202566141409472 0 -0.0005044008475737459 0.0065031027122260986 0 0.0033847949129822198 0.0069968354758338071 0 0.0013277051795813287 0.0064721779067776009 0 -8.9474917872241826e-05 0.0078400229091235788 0 0.0033551166346032467 0.0053620894741265848 0 0.0016959584582330607 0.00472830039828961 0 0.0013277051795813287 0.0064721779067776009 0 0.0033551166346032467 0.0053620894741265848 0 0.0033847949129822198 0.0069968354758338071 0 0.0013277051795813287 0.0064721779067776009 0 9.5447969134989622e-05 0.0054188873322243555 0 0.0016959584582330607 0.00472830039828961 0 0.0013277051795813287 0.0064721779067776009 0 -0.0040927616527698177 0.0044667723859441802 0 -0.00045561885059105064 0.0066668291155223694 0 -0.0037152086393128043 0.008420924783805293 0 -0.00060803344830628371 0.006769951408612143 0 -8.9474917872241826e-05 0.0078400229091235788 0 9.5447969134989622e-05 0.0054188873322243555 0 0.0013277051795813287 0.0064721779067776009 0 0.00024399305355565651 0.0066922104749137894 0 9.5447969134989622e-05 0.0054188873322243555 0 0.00024399305355565651 0.0066922104749137894 0 -0.00060803344830628371 0.006769951408612143 0 0.0013277051795813287 0.0064721779067776009 0 0.00024399305355565651 0.0066922104749137894 0 -8.9474917872241826e-05 0.0078400229091235788 0 0.00024399305355565651 0.0066922104749137894 0 -0.00060803344830628371 0.006769951408612143 0 -8.9474917872241826e-05 0.0078400229091235788 0 -0.0047644477427200909 0.0054299845967837098 0 -0.002327312239467381 0.006268065825237883 0 -0.0011159251091204638 0.0050591872469557195 0 -0.002327312239467381 0.006268065825237883 0 -0.00082163960606578012 0.0069232221181661962 0 -0.0025947873111152047 0.0076582823342444747 0 -0.002327312239467381 0.006268065825237883 0 -0.0011159251091204638 0.0050591872469557195 0 -0.00082163960606578012 0.0069232221181661962 0 0.0010591216943892281 0.0066378101570570853 0 0.00081814939116168974 0.0090830516673152863 0 0.0037830369433730598 0.0071007180697324201 0 0.0025658117549316019 0.0050198024287669606 0 -0.0011159251091204638 0.0050591872469557195 0 0.0010591216943892281 0.0066378101570570853 0 -0.0011159251091204638 0.0050591872469557195 0 -0.00082163960606578012 0.0069232221181661962 0 0.0010591216943892281 0.0066378101570570853 0 -0.00082163960606578012 0.0069232221181661962 0 0.0010591216943892281 0.0066378101570570853 0 0.00081814939116168974 0.0090830516673152863 0 0.00073197583806807311 -0.004089008144457537 0 0.00029741883084004697 -0.00402275506491016 0 0.0021233812170423482 -0.0053346419244911392 0 0.00073197583806807311 -0.004089008144457537 0 0.00029741883084004697 -0.00402275506491016 0 0.00074095703335174692 -0.0029029273380783379 0 0.00081814939116168974 0.0090830516673152863 0 -0.0025947873111152047 0.0076582823342444747 0 -0.0021409698123575531 0.011253096173276061 0 -0.00082163960606578012 0.0069232221181661962 0 0.00081814939116168974 0.0090830516673152863 0 -0.0025947873111152047 0.0076582823342444747 0 -0.003960409714975942 0.0094412704600692187 0 -0.0025947873111152047 0.0076582823342444747 0 -0.0021409698123575531 0.011253096173276061 0 0.003582954156078426 -0.0049724839333400135 0 0.0036352469971692261 -0.0055929703045691156 0 0.0021233812170423482 -0.0053346419244911392 0 0.0075427819331784669 0.00023936282264008999 0 0.0025892497374678317 0.00097632168028410828 0 0.0037498206425190541 -0.0065563085098938739 0 0.0036352469971692261 -0.0055929703045691156 0 0.0021233812170423482 -0.0053346419244911392 0 0.0047373278853080425 0.0059300335143297953 0 0.006430394060945234 0.0058786884136769078 0 0.0037830369433730598 0.0071007180697324201 0 0.014665321011124353 -0.0050688373291410682 0 0.016167543716382855 -0.005504335565696121 0 0.015952422638207023 -0.004343188460106711 0 0.0098700769859738722 -0.0052699888306135352 0 0.0096198038706619103 -0.0055671102399764598 0 0.0075427819331784669 0.00023936282264008999 0 0.0096198038706619103 -0.0055671102399764598 0 0.014830095935385045 -0.0035746488322099131 0 0.015498333273804508 -0.0028452772728879061 0 0.015952422638207023 -0.004343188460106711 0 0.0025658117549316019 0.0050198024287669606 0 0.0047373278853080425 0.0059300335143297953 0 0.0037830369433730598 0.0071007180697324201 0 0.0025658117549316019 0.0050198024287669606 0 0.0010591216943892281 0.0066378101570570853 0 0.0037830369433730598 0.0071007180697324201 0 0.003582954156078426 -0.0049724839333400135 0 0.0021233812170423482 -0.0053346419244911392 0 0.0021401505476547284 -0.0044019883771387915 0 0.00072470891083312714 0.0023181972292252561 0 0.0025892497374678317 0.00097632168028410828 0 0.003582954156078426 -0.0049724839333400135 0 0.0021401505476547284 -0.0044019883771387915 0 0.0020363164520023542 -0.0032014807872213806 0 0.00073197583806807311 -0.004089008144457537 0 0.0021233812170423482 -0.0053346419244911392 0 0.0021401505476547284 -0.0044019883771387915 0 0.00089397891398748804 -0.0040046011907682458 0 0.0021210003193049718 -0.0033348238565134641 0 0.00073197583806807311 -0.004089008144457537 0 0.0021401505476547284 -0.0044019883771387915 0 0.0020363164520023542 -0.0032014807872213806 0 0.003582954156078426 -0.0049724839333400135 0 0.0033906122131429771 -0.0036369924768479907 0 0.0020363164520023542 -0.0032014807872213806 0 0.015237577031479446 -0.0069062342856877094 0 0.016167543716382855 -0.005504335565696121 0 0.016569350276468307 -0.0078945021915288495 0 0.0098700769859738722 -0.0052699888306135352 0 0.0092382798193914872 -0.0057843631763296989 0 0.015237577031479446 -0.0069062342856877094 0 0.016569350276468307 -0.0078945021915288495 0 0.015428089222287557 -0.0092097182640623401 0 0.0092382798193914872 -0.0057843631763296989 0 0.0085174334491960619 -0.0093435970722244941 0 0.016569350276468307 -0.0078945021915288495 0 0.01660089384298221 -0.010267365520433362 0 0.015428089222287557 -0.0092097182640623401 0 0.01660089384298221 -0.010267365520433362 0 0.016048576015384088 -0.010669391221122496 0 0.015428089222287557 -0.0092097182640623401 0 0.0085174334491960619 -0.0093435970722244941 0 0.011598021407378893 -0.011976850021930351 0 0.0085105699349956494 -0.0058068214815360829 0 0.0085573544728750079 -0.0084894763875182702 0 0.0088455888537324074 -0.0082794078820438276 0 0.003212265761381056 -0.0024237392020287265 0 0.0019447465096547717 -0.0032672765642527152 0 0.0031429050823273672 -0.0019233346723025763 0 0.0046103403534397324 -0.010215671797664824 0 0.0059008773577338925 -0.0092732984174866469 0 0.0064935561143634217 -0.013436119082049565 0 0.0061064117970222858 -0.0072348772522463148 0 0.0041897409205919195 -0.013567814266174641 0 0.0085174334491960619 -0.0093435970722244941 0 0.0061064117970222858 -0.0072348772522463148 0 0.0033906122131429771 -0.0036369924768479907 0 0.0032164956838124635 -0.0024029236736245506 0 0.0020363164520023542 -0.0032014807872213806 0 0.0092382798193914872 -0.0057843631763296989 0 0.0061064117970222858 -0.0072348772522463148 0 0.0019447465096547717 -0.0032672765642527152 0 0.0031429050823273672 -0.0019233346723025763 0 0.00074095703335174692 -0.0029029273380783379 0 0.00073197583806807311 -0.004089008144457537 0 0.0019447465096547717 -0.0032672765642527152 0 0.00074095703335174692 -0.0029029273380783379 0 0.0061064117970222858 -0.0072348772522463148 0 0.0021210003193049718 -0.0033348238565134641 0 0.00018851286522852682 -0.020842663916961105 0 0.00025990338995368254 -0.021560384204913206 0 0.00068445595185832224 -0.021436287517960298 0 0.00018851286522852682 -0.020842663916961105 0 0.001050890938007566 -0.021127922089712554 0 0.00068445595185832224 -0.021436287517960298 0 0.0031429050823273672 -0.0019233346723025763 0 0.00074095703335174692 -0.0029029273380783379 0 0.00036257519549857763 -0.0011884950902591078 0 0.0041897409205919195 -0.013567814266174641 0 0.00035182631768526776 -0.010273287681883663 0 0.0041897409205919195 -0.013567814266174641 0 0.0055070474637853549 -0.021694280044538213 0 0.009015339668393579 -0.019911729725525844 0 0.0099053186366386964 -0.018508813695387417 0 0.010580070493803467 -0.020908945161031655 0 0.010172468731942958 -0.017863924088766848 0 0.0099053186366386964 -0.018508813695387417 0 0.010580070493803467 -0.020908945161031655 0 0.009015339668393579 -0.019911729725525844 0 0.0092446323048208916 -0.01766160687299009 0 0.0099053186366386964 -0.018508813695387417 0 0.0082011019192468095 -0.012407717151958155 0 0.0088809097020633547 -0.011921510963973127 0 0.0081460837692025785 -0.01175323719676582 0 0.0092446323048208916 -0.01766160687299009 0 0.0098515313790171442 -0.017800442691580622 0 0.0099053186366386964 -0.018508813695387417 0 0.011598021407378893 -0.011976850021930351 0 0.0079935117794730712 -0.013282839237088461 0 0.0085174334491960619 -0.0093435970722244941 0 0.0079935117794730712 -0.013282839237088461 0 0.0046103403534397324 -0.010215671797664824 0 0.0048457394367021726 -0.013052839448089748 0 0.0064935561143634217 -0.013436119082049565 0 0.0098366501293146204 -0.017779575697660074 0 0.010172468731942958 -0.017863924088766848 0 0.0099053186366386964 -0.018508813695387417 0 0.0079935117794730712 -0.013282839237088461 0 0.0041897409205919195 -0.013567814266174641 0 0.0079935117794730712 -0.013282839237088461 0 0.0084907974358239286 -0.015998843827190169 0 0.00072470891083312714 0.0023181972292252561 0 -0.0020324952537449101 0.0055839170202213505 0 0.00029741883084004697 -0.00402275506491016 0 -0.0016243308550095209 -0.0025677563912986012 0 0.00074095703335174692 -0.0029029273380783379 0 -0.0016243308550095209 -0.0025677563912986012 0 0.00074095703335174692 -0.0029029273380783379 0 0.00036257519549857763 -0.0011884950902591078 0 -0.001814300402913519 -0.01484741184818502 0 0.00035182631768526776 -0.010273287681883663 0 -0.0026263460919611617 -0.00047029184182817478 0 -0.0016243308550095209 -0.0025677563912986012 0 0.00036257519549857763 -0.0011884950902591078 0 0.0018441669833253393 -0.021350655472920768 0 0.001050890938007566 -0.021127922089712554 0 0.0017073681594434059 -0.021452488711386677 0 0.0017073681594434059 -0.021452488711386677 0 0.0011745330923937564 -0.02174975006831794 0 0.001745705233661688 -0.02207400037840827 0 0.001050890938007566 -0.021127922089712554 0 0.0017073681594434059 -0.021452488711386677 0 0.0011745330923937564 -0.02174975006831794 0 0.0011745330923937564 -0.02174975006831794 0 0.00068445595185832224 -0.021436287517960298 0 0.00070810014150757869 -0.021879584400770875 0 0.001050890938007566 -0.021127922089712554 0 0.0011745330923937564 -0.02174975006831794 0 0.00068445595185832224 -0.021436287517960298 0 0.0011745330923937564 -0.02174975006831794 0 0.00097895031784843694 -0.022077236236844301 0 0.00070810014150757869 -0.021879584400770875 0 0.00097895031784843694 -0.022077236236844301 0 0.001308628349229341 -0.022271862378909581 0 0.00072547289052921722 -0.022399450587849156 0 0.0011745330923937564 -0.02174975006831794 0 0.00097895031784843694 -0.022077236236844301 0 0.001308628349229341 -0.022271862378909581 0 0.0011745330923937564 -0.02174975006831794 0 0.001308628349229341 -0.022271862378909581 0 0.001745705233661688 -0.02207400037840827 0 0.0014770763129702616 -0.022772717025621846 0 0.001308628349229341 -0.022271862378909581 0 0.001745705233661688 -0.02207400037840827 0 -0.00367615224814603 -0.031757552933060519 0 -0.0048252672744251938 -0.022663133752571014 0 0.009015339668393579 -0.019911729725525844 0 0.010580070493803467 -0.020908945161031655 0 0.0085262804438922604 -0.022934356249219467 0 0.00025990338995368254 -0.021560384204913206 0 0.00070810014150757869 -0.021879584400770875 0 0.00039159062541702214 -0.022265675633941395 0 0.00025990338995368254 -0.021560384204913206 0 0.00068445595185832224 -0.021436287517960298 0 0.00070810014150757869 -0.021879584400770875 0 0.00097895031784843694 -0.022077236236844301 0 0.00070810014150757869 -0.021879584400770875 0 0.00072547289052921722 -0.022399450587849156 0 0.00070810014150757869 -0.021879584400770875 0 0.00072547289052921722 -0.022399450587849156 0 0.00039159062541702214 -0.022265675633941395 0 0.0048432846143917083 -0.029964592966016747 0 0.0057908776026866383 -0.026340504536421831 0 0.0057908776026866383 -0.026340504536421831 0 0.0066813394043553267 -0.031519069841539994 0 0.010580070493803467 -0.020908945161031655 0 0.010953293547760073 -0.023916433330477414 0 0.0085262804438922604 -0.022934356249219467 0 0.0055070474637853549 -0.021694280044538213 0 0.0057908776026866383 -0.026340504536421831 0 0.0050208868889950516 -0.038486571408210032 0 0.0050104209625804223 -0.038369230366057099 0 0.0050040455520528604 -0.038325336187540054 0 0.0049577932380585558 -0.038417149870824861 0 0.0050040455520528604 -0.038325336187540054 0 0.0049550632598156291 -0.03834737114371279 0 0.0050040455520528604 -0.038325336187540054 0 0.0049550632598156291 -0.03834737114371279 0 0.0049581817833918296 -0.03824511143914109 0 0.0049168586504158727 -0.038426894859681315 0 0.0049337044856113512 -0.038373681878034298 0 0.0049550632598156291 -0.03834737114371279 0 0.0049168586504158727 -0.038426894859681315 0 0.0049577932380585558 -0.038417149870824861 0 0.0049550632598156291 -0.03834737114371279 0 0.0049337044856113512 -0.038373681878034298 0 0.0049550632598156291 -0.03834737114371279 0 0.0049431554015062175 -0.038328022780633297 0 0.0049550632598156291 -0.03834737114371279 0 0.0049431554015062175 -0.038328022780633297 0 0.0049581817833918296 -0.03824511143914109 0 0.0075356549207483831 -0.025089299958350842 0 0.01080141199527037 -0.015593452937093643 0 0.0066813394043553267 -0.031519069841539994 0 0.0075356549207483831 -0.025089299958350842 0 0.009015339668393579 -0.019911729725525844 0 0.0085262804438922604 -0.022934356249219467 0 0.0068374086183738665 -0.019507543604496146 0 0.0085262804438922604 -0.022934356249219467 0 0.0044529135487250083 -0.021308504074450389 0 0.0068374086183738665 -0.019507543604496146 0 0.011598021407378893 -0.011976850021930351 0 0.01080141199527037 -0.015593452937093643 0 0.009015339668393579 -0.019911729725525844 0 0.0092446323048208916 -0.01766160687299009 0 0.0068374086183738665 -0.019507543604496146 0 0.01623367095813066 -0.010874646187122129 0 0.013723530761275804 -0.012745628287236703 0 0.012869274806957258 -0.010032544175596786 0 0.013723530761275804 -0.012745628287236703 0 0.011078430847828639 -0.011986755138854836 0 0.012869274806957258 -0.010032544175596786 0 0.01121036068397935 -0.01468224594606579 0 0.013723530761275804 -0.012745628287236703 0 0.011078430847828639 -0.011986755138854836 0 0.011078430847828639 -0.011986755138854836 0 0.012869274806957258 -0.010032544175596786 0 0.011026542119992256 -0.0098525328334876615 0 0.010841135220625331 -0.0080175310456323291 0 0.011026542119992256 -0.0098525328334876615 0 0.012532334354343427 -0.0083327955062012498 0 0.012869274806957258 -0.010032544175596786 0 0.011026542119992256 -0.0098525328334876615 0 0.012532334354343427 -0.0083327955062012498 0 0.011598021407378893 -0.011976850021930351 0 0.014748605165512772 -0.010142444881812429 0 0.012869274806957258 -0.010032544175596786 0 0.012532334354343427 -0.0083327955062012498 0 0.015428089222287557 -0.0092097182640623401 0 0.016048576015384088 -0.010669391221122496 0 0.012869274806957258 -0.010032544175596786 0 0.015428089222287557 -0.0092097182640623401 0 0.028449033453859646 -0.023871335180716373 0 0.024396638749921769 -0.028484201379504966 0 0.022732926391079506 -0.023541224039584845 0 0.018569482101474688 -0.01031531390069358 0 0.020134038844147117 -0.016332104035037296 0 0.02062866896819383 -0.016180791050911046 0 0.024733150129920414 -0.020602571081543192 0 0.028449033453859646 -0.023871335180716373 0 0.022732926391079506 -0.023541224039584845 0 0.011078430847828639 -0.011986755138854836 0 0.011026542119992256 -0.0098525328334876615 0 0.0083910934141944882 -0.0098248207977916051 0 0.010841135220625331 -0.0080175310456323291 0 0.00945277502149049 -0.0076830264803974839 0 0.0083910934141944882 -0.0098248207977916051 0 0.010841135220625331 -0.0080175310456323291 0 0.011026542119992256 -0.0098525328334876615 0 0.0083910934141944882 -0.0098248207977916051 0 0.011078430847828639 -0.011986755138854836 0 0.0083910934141944882 -0.0098248207977916051 0 0.0092232292200826425 -0.013897498412859276 0 0.013075165896040093 -0.011458051406963449 0 0.018611266620402585 -0.02461852845160923 0 0.024867452310193053 -0.021143979639509272 0 0.018611266620402585 -0.02461852845160923 0 0.020134038844147117 -0.016332104035037296 0 0.02062866896819383 -0.016180791050911046 0 0.021568590003217696 -0.022598566584034838 0 0.028449033453859646 -0.023871335180716373 0 0.024396638749921769 -0.028484201379504966 0 0.03035755972277155 -0.030715881108358604 0 0.02093564268917689 -0.03066940766741583 0 0.018611266620402585 -0.02461852845160923 0 0.016852612299173578 -0.034730284836557872 0 0.014416049353594054 -0.03406685925789088 0 0.019204689024083534 -0.032729909458409749 0 0.014417691632078232 -0.030869828511487365 0 0.014416049353594054 -0.03406685925789088 0 0.019204689024083534 -0.032729909458409749 0 0.016852612299173578 -0.034730284836557872 0 0.018203970547402977 -0.034619791168809394 0 0.016243493175064964 -0.036069388047802839 0 0.016852612299173578 -0.034730284836557872 0 0.014416049353594054 -0.03406685925789088 0 0.016243493175064964 -0.036069388047802839 0 0.01121036068397935 -0.01468224594606579 0 0.011078430847828639 -0.011986755138854836 0 0.0092232292200826425 -0.013897498412859276 0 0.011872157372713958 -0.028056174872765495 0 0.012613063435203192 -0.028189901085033588 0 0.012656411258236891 -0.028353670222510039 0 0.0075356549207483831 -0.025089299958350842 0 0.018611266620402585 -0.02461852845160923 0 0.019360437096112324 -0.033381469499006701 0 0.019204689024083534 -0.032729909458409749 0 0.018203970547402977 -0.034619791168809394 0 0.017038900639195258 -0.028409030685608239 0 0.018611266620402585 -0.02461852845160923 0 0.019360437096112324 -0.033381469499006701 0 0.018203970547402977 -0.034619791168809394 0 0.019898376582813487 -0.035596440670108774 0 0.016852612299173578 -0.034730284836557872 0 0.019204689024083534 -0.032729909458409749 0 0.018203970547402977 -0.034619791168809394 0 0.018203970547402977 -0.034619791168809394 0 0.019898376582813487 -0.035596440670108774 0 0.016243493175064964 -0.036069388047802839 0 0.011872157372713958 -0.028056174872765495 0 0.012613063435203192 -0.028189901085033588 0 0.012471565424004743 -0.027655920979634159 0 0.017038900639195258 -0.028409030685608239 0 0.0098738163241511908 -0.034798618031272266 0 0.0075356549207483831 -0.025089299958350842 0 0.0098738163241511908 -0.034798618031272266 0 0.0049431554015062175 -0.038328022780633297 0 0.0049581817833918296 -0.03824511143914109 0 0.0049256259762546686 -0.038300508333948768 0 0.0098738163241511908 -0.034798618031272266 0 0.01237210498611197 -0.038914944802832203 0 0.0049561296870791116 -0.038367019325869708 0 0.0049596218040840996 -0.038387223667333686 0 0.0050005625627155834 -0.038399719135118769 0 0.0049337044856113512 -0.038373681878034298 0 0.0049431554015062175 -0.038328022780633297 0 0.0049365231992722514 -0.038363514600587845 0 0.0049431554015062175 -0.038328022780633297 0 0.0049256259762546686 -0.038300508333948768 0 0.0049365231992722514 -0.038363514600587845 0 0.0098738163241511908 -0.034798618031272266 0 0.0084576049290692925 -0.037090845853474524 0 0.0049561296870791116 -0.038367019325869708 0 0.0049365231992722514 -0.038363514600587845 0 0.0049596218040840996 -0.038387223667333686 0 0.0049487605605693088 -0.038403206599825566 0 0.0049596218040840996 -0.038387223667333686 0 0.0049680759715200898 -0.038399747797671156 0 0.0049276273196265973 -0.038403053405231258 0 0.0049487605605693088 -0.038403206599825566 0 0.0049596218040840996 -0.038387223667333686 0 0.0049276273196265973 -0.038403053405231258 0 0.0049337044856113512 -0.038373681878034298 0 0.0049365231992722514 -0.038363514600587845 0 0.0049276273196265973 -0.038403053405231258 0 0.0049365231992722514 -0.038363514600587845 0 0.0049596218040840996 -0.038387223667333686 0 0.019898376582813487 -0.035596440670108774 0 0.016243493175064964 -0.036069388047802839 0 0.015727579391622039 -0.038807989479530805 0 0.016243493175064964 -0.036069388047802839 0 0.015727579391622039 -0.038807989479530805 0 0.013556174685801409 -0.036881311673519088 0 0.014416049353594054 -0.03406685925789088 0 0.016243493175064964 -0.036069388047802839 0 0.013556174685801409 -0.036881311673519088 0 0.0049596218040840996 -0.038387223667333686 0 0.0049680759715200898 -0.038399747797671156 0 0.0050005625627155834 -0.038399719135118769 0 0.012755533801521616 -0.038973027128487638 0 0.01237210498611197 -0.038914944802832203 0 0.013311848438782858 -0.039828723690613216 0 0.014347591000447336 -0.03911723571652484 0 0.013556174685801409 -0.036881311673519088 0 0.01237210498611197 -0.038914944802832203 0 0.013528517031486631 -0.037956990868899705 0 0.0116631616097935 -0.039067148941362727 0 0.011411877141048066 -0.036270738004855287 0 0.0084937100228825446 -0.038702095928253064 0 0.013311848438782858 -0.039828723690613216 0 0.0116631616097935 -0.039067148941362727 0 0.013556174685801409 -0.036881311673519088 0 0.0116631616097935 -0.039067148941362727 0 0.011411877141048066 -0.036270738004855287 0 0.013556174685801409 -0.036881311673519088 0 0.011411877141048066 -0.036270738004855287 0 0.013556174685801409 -0.036881311673519088 0 0.012875448650350507 -0.033708400764260106 0 0.011411877141048066 -0.036270738004855287 0 0.012875448650350507 -0.033708400764260106 0 0.010530146263537727 -0.03095561810585325 0 0.014416049353594054 -0.03406685925789088 0 0.013556174685801409 -0.036881311673519088 0 0.012875448650350507 -0.033708400764260106 0 0.014417691632078232 -0.030869828511487365 0 0.012875448650350507 -0.033708400764260106 0 0.010530146263537727 -0.03095561810585325 0 0.014417691632078232 -0.030869828511487365 0 0.014416049353594054 -0.03406685925789088 0 0.012875448650350507 -0.033708400764260106 0 0.0097516304469687249 -0.037431515368561874 0 0.010419331991003634 -0.031385777223411834 0 0.011411877141048066 -0.036270738004855287 0 0.0084937100228825446 -0.038702095928253064 0 0.010530146263537727 -0.03095561810585325 0 0.010874156651970545 -0.036281863118932556 0 0.0089960836517146391 -0.033147556459261214 0 0.010530146263537727 -0.03095561810585325 0 0.0089960836517146391 -0.033147556459261214 0 0.0092507252331413357 -0.030965532474815372 0 0.010530146263537727 -0.03095561810585325 0 0.010874156651970545 -0.036281863118932556 0 0.0071088321537914707 -0.036031889107117077 0 0.0089960836517146391 -0.033147556459261214 0 0.0071088321537914707 -0.036031889107117077 0 0.006462278310478067 -0.032961122794109773 0 0.0089960836517146391 -0.033147556459261214 0 0.0160918571289848 -0.039864393094242424 0 0.014635441025999325 -0.03481226893975857 0 0.0071088321537914707 -0.036031889107117077 0 0.006462278310478067 -0.032961122794109773 0 0.0031834980117645927 -0.034167036231338085 0 0.0045779746787248162 -0.038632496842757685 0 0.0071088321537914707 -0.036031889107117077 0 0.0031834980117645927 -0.034167036231338085 0 0.006462278310478067 -0.032961122794109773 0 0.0050142791252205145 -0.030435189024433176 0 0.0031834980117645927 -0.034167036231338085 0 0.006462278310478067 -0.032961122794109773 0 0.0076742157237213223 -0.030391871852124584 0 0.0050142791252205145 -0.030435189024433176 0 0.006462278310478067 -0.032961122794109773 0 0.0089960836517146391 -0.033147556459261214 0 0.0076742157237213223 -0.030391871852124584 0 0.0089960836517146391 -0.033147556459261214 0 0.0092507252331413357 -0.030965532474815372 0 0.0076742157237213223 -0.030391871852124584 0 0.0092507252331413357 -0.030965532474815372 0 0.009512180287722322 -0.029233047408794084 0 0.0076742157237213223 -0.030391871852124584 0 0.009512180287722322 -0.029233047408794084 0 0.0076742157237213223 -0.030391871852124584 0 0.007702850917898644 -0.028130297748382584 0 0.007702850917898644 -0.028130297748382584 0 0.0095293504949898519 -0.027654194541425075 0 0.0090706247966269148 -0.024691052294137213 0 0.009512180287722322 -0.029233047408794084 0 0.007702850917898644 -0.028130297748382584 0 0.0095293504949898519 -0.027654194541425075 0 0.0050142791252205145 -0.030435189024433176 0 0.0044169567941492564 -0.026866992952442433 0 0.0016042463708219805 -0.02931620700279116 0 0.0076742157237213223 -0.030391871852124584 0 0.007702850917898644 -0.028130297748382584 0 0.0050142791252205145 -0.030435189024433176 0 0.007702850917898644 -0.028130297748382584 0 0.0050142791252205145 -0.030435189024433176 0 0.0044169567941492564 -0.026866992952442433 0 0.007702850917898644 -0.028130297748382584 0 0.0044169567941492564 -0.026866992952442433 0 0.0090706247966269148 -0.024691052294137213 0 0.0039726590714333678 -0.02600187554534102 0 0.0096154127113165927 -0.022054820003493136 0 0.0058052718939155144 -0.023625202838557919 0 0.0063969040909966687 -0.02052139498682776 0 0.0095537863777753664 -0.02206044862378008 0 0.0058052718939155144 -0.023625202838557919 0 0.0063969040909966687 -0.02052139498682776 0 0.0030952216425133793 -0.020234013111592716 0 0.0063969040909966687 -0.02052139498682776 0 0.0030952216425133793 -0.020234013111592716 0 0.0044213823583560555 -0.018353205001269298 0 0.0095293504949898519 -0.027654194541425075 0 0.0090706247966269148 -0.024691052294137213 0 0.011204015760706029 -0.028867012892753646 0 0.009317470316608286 -0.025000021630078733 0 0.014050366922979885 -0.027355074506495325 0 0.0090706247966269148 -0.024691052294137213 0 0.013861358153437961 -0.023740514458298254 0 0.018086517785558309 -0.026578509151352014 0 0.0090706247966269148 -0.024691052294137213 0 0.011299669981718729 -0.022765661079918283 0 0.013861358153437961 -0.023740514458298254 0 0.0044169567941492564 -0.026866992952442433 0 0.0090706247966269148 -0.024691052294137213 0 0.0095537863777753664 -0.02206044862378008 0 0.0090706247966269148 -0.024691052294137213 0 0.0095537863777753664 -0.02206044862378008 0 0.011299669981718729 -0.022765661079918283 0 0.0063969040909966687 -0.02052139498682776 0 0.0095537863777753664 -0.02206044862378008 0 0.0082919746622178176 -0.019214961987932509 0 0.0095537863777753664 -0.02206044862378008 0 0.01028518075213187 -0.019615591365395035 0 0.0082919746622178176 -0.019214961987932509 0 0.0095537863777753664 -0.02206044862378008 0 0.012400875064973459 -0.020723610370014384 0 0.01028518075213187 -0.019615591365395035 0 0.012400875064973459 -0.020723610370014384 0 0.013861358153437961 -0.023740514458298254 0 0.015513789146655212 -0.019780382098028768 0 0.0095537863777753664 -0.02206044862378008 0 0.012400875064973459 -0.020723610370014384 0 0.011299669981718729 -0.022765661079918283 0 0.012400875064973459 -0.020723610370014384 0 0.011299669981718729 -0.022765661079918283 0 0.013861358153437961 -0.023740514458298254 0 0.013861358153437961 -0.023740514458298254 0 0.018472930433048835 -0.02231884827037733 0 0.015513789146655212 -0.019780382098028768 0 0.013861358153437961 -0.023740514458298254 0 0.018472930433048835 -0.02231884827037733 0 0.018086517785558309 -0.026578509151352014 0 0.024733150129920414 -0.020602571081543192 0 0.022732926391079506 -0.023541224039584845 0 0.021178229967289679 -0.01834036987656501 0 0.018472930433048835 -0.02231884827037733 0 0.022732926391079506 -0.023541224039584845 0 0.021178229967289679 -0.01834036987656501 0 0.018472930433048835 -0.02231884827037733 0 0.022732926391079506 -0.023541224039584845 0 0.018086517785558309 -0.026578509151352014 0 0.024396638749921769 -0.028484201379504966 0 0.022732926391079506 -0.023541224039584845 0 0.018086517785558309 -0.026578509151352014 0 0.02093564268917689 -0.03066940766741583 0 0.014050366922979885 -0.027355074506495325 0 0.014417691632078232 -0.030869828511487365 0 0.010530146263537727 -0.03095561810585325 0 0.011204015760706029 -0.028867012892753646 0 0.009512180287722322 -0.029233047408794084 0 0.010530146263537727 -0.03095561810585325 0 0.011204015760706029 -0.028867012892753646 0 0.0092507252331413357 -0.030965532474815372 0 0.009512180287722322 -0.029233047408794084 0 0.010530146263537727 -0.03095561810585325 0 0.009512180287722322 -0.029233047408794084 0 0.0095293504949898519 -0.027654194541425075 0 0.011204015760706029 -0.028867012892753646 0 0.035292140651586125 -0.022029711453971139 0 0.035345693718997671 -0.022313207936941845 0 0.035851310773056262 -0.02230148212919069 0 0.033663354252564927 -0.026405826872185942 0 0.0364830415139826 -0.025967671488183786 0 0.035851310773056262 -0.02230148212919069 0 0.035345693718997671 -0.022313207936941845 0 0.035298238786141883 -0.022356052001324407 0 0.035851310773056262 -0.02230148212919069 0 0.033503771055801476 -0.031724150531589237 0 0.036643134401894609 -0.019595659135711107 0 0.035349355486150431 -0.022316490111599408 0 0.035345693718997671 -0.022313207936941845 0 0.035298238786141883 -0.022356052001324407 0 0.035185323758632168 -0.022141057344303321 0 0.035292140651586125 -0.022029711453971139 0 0.035345693718997671 -0.022313207936941845 0 0.036497951146618073 -0.028635350166546093 0 0.033663354252564927 -0.026405826872185942 0 0.0364830415139826 -0.025967671488183786 0 0.03220764357235404 -0.041472598497272528 0 0.033503771055801476 -0.031724150531589237 0 0.036497951146618073 -0.028635350166546093 0 0.0364830415139826 -0.025967671488183786 0 0.037487610397757984 -0.027204278933648209 0 0.036497951146618073 -0.028635350166546093 0 0.037487610397757984 -0.027204278933648209 0 0.038894609330762143 -0.027818960987342038 0 0.0364830415139826 -0.025967671488183786 0 0.037487610397757984 -0.027204278933648209 0 0.038012370517276899 -0.026371100074067511 0 0.0364830415139826 -0.025967671488183786 0 0.037606649164371633 -0.023204989376821816 0 0.040004578252469856 -0.023161839653147408 0 0.0364830415139826 -0.025967671488183786 0 0.037606649164371633 -0.023204989376821816 0 0.035851310773056262 -0.02230148212919069 0 0.03795852690165287 -0.025780043765846576 0 0.035633961725636008 -0.02288524745895654 0 0.035633961725636008 -0.02288524745895654 0 0.039666761386524384 -0.028403054641417732 0 0.0364830415139826 -0.025967671488183786 0 0.039085668130399626 -0.02432287862172872 0 0.038012370517276899 -0.026371100074067511 0 0.039085668130399626 -0.02432287862172872 0 0.038012370517276899 -0.026371100074067511 0 0.038894609330762143 -0.027818960987342038 0 0.038625344759362253 -0.025092118003956609 0 0.039267454693353847 -0.02712282292463853 0 0.038894609330762143 -0.027818960987342038 0 0.037487610397757984 -0.027204278933648209 0 0.038012370517276899 -0.026371100074067511 0 0.038894609330762143 -0.027818960987342038 0 0.027584063419498081 -0.041014141660751527 0 0.022601265008115864 -0.03686527594456316 0 0.026166767311660007 -0.035264240899883725 0 0.026166767311660007 -0.035264240899883725 0 0.024553986567563461 -0.029371395972626411 0 0.024106597974860675 -0.029689786373312231 0 0.014635441025999325 -0.03481226893975857 0 0.013461096313531382 -0.028624623972871407 0 0.022601265008115864 -0.03686527594456316 0 0.026166767311660007 -0.035264240899883725 0 0.024106597974860675 -0.029689786373312231 0 0.038625344759362253 -0.025092118003956609 0 0.039267454693353847 -0.02712282292463853 0 0.03939557587238153 -0.024441724815066256 0 0.032468933741438236 -0.030224564625621436 0 0.021960761924827144 -0.025834556578068126 0 0.0050142791252205145 -0.030435189024433176 0 0.0031834980117645927 -0.034167036231338085 0 0.0016042463708219805 -0.02931620700279116 0 0.035633961725636008 -0.02288524745895654 0 0.021960761924827144 -0.025834556578068126 0 0.024510519106868415 -0.022427888502378569 0 0.025462541642581465 -0.021714135228173833 0 0.025544015006846679 -0.02129775810923179 0 0.021960761924827144 -0.025834556578068126 0 0.013094339953418939 -0.025190208054415197 0 0.0177886693361144 -0.029051541745741243 0 0.015954749806602497 -0.030327037992030244 0 0.016978434150812415 -0.026022382082098089 0 0.013461096313531382 -0.028624623972871407 0 0.021960761924827144 -0.025834556578068126 0 0.013461096313531382 -0.028624623972871407 0 0.013094339953418939 -0.025190208054415197 0 0.0058052718939155144 -0.023625202838557919 0 0.0020834268154709011 -0.026225989196720298 0 0.0018737440407600105 -0.025466425106878077 0 0.0039726590714333678 -0.02600187554534102 0 0.013461096313531382 -0.028624623972871407 0 0.0021986759340069826 -0.024527854714574842 0 0.0030952216425133793 -0.020234013111592716 0 0.00093134484129144869 -0.020227280085596863 0 0.0058052718939155144 -0.023625202838557919 0 0.0018737440407600105 -0.025466425106878077 0 0.0030952216425133793 -0.020234013111592716 0 0.013094339953418939 -0.025190208054415197 0 0.0018956011989140961 -0.021311078813613615 0 0.025544015006846679 -0.02129775810923179 0 0.024982625173152716 -0.019324940264091688 0 0.024427416959634934 -0.019930648927939637 0 0.013094339953418939 -0.025190208054415197 0 0.012593887468296833 -0.019186861581083316 0 0.039946824933030416 -0.01973012957890459 0 0.036944677600863819 -0.019623489163150716 0 0.038655837365899504 -0.017770621475157282 0 0.039946824933030416 -0.01973012957890459 0 0.038064594963622599 -0.021598047457871292 0 0.036944677600863819 -0.019623489163150716 0 0.024510519106868415 -0.022427888502378569 0 0.025544015006846679 -0.02129775810923179 0 0.024427416959634934 -0.019930648927939637 0 0.040004578252469856 -0.023161839653147408 0 0.039946824933030416 -0.01973012957890459 0 0.038064594963622599 -0.021598047457871292 0 0.035633961725636008 -0.02288524745895654 0 0.033072527221679394 -0.019828699958005593 0 0.037606649164371633 -0.023204989376821816 0 0.040004578252469856 -0.023161839653147408 0 0.038064594963622599 -0.021598047457871292 0 0.038064594963622599 -0.021598047457871292 0 0.036944677600863819 -0.019623489163150716 0 0.035851310773056262 -0.02230148212919069 0 0.037606649164371633 -0.023204989376821816 0 0.038064594963622599 -0.021598047457871292 0 0.035851310773056262 -0.02230148212919069 0 0.034698628950166947 -0.021364260305088298 0 0.036944677600863819 -0.019623489163150716 0 0.0348939054808977 -0.017707053467651314 0 0.034964702824377657 -0.020320914220346698 0 0.034090402568674155 -0.022167821206035578 0 0.034698628950166947 -0.021364260305088298 0 0.035292140651586125 -0.022029711453971139 0 0.035851310773056262 -0.02230148212919069 0 0.034698628950166947 -0.021364260305088298 0 0.036944677600863819 -0.019623489163150716 0 0.035851310773056262 -0.02230148212919069 0 0.0369419425770054 -0.0084671047554574289 0 0.034090402568674155 -0.022167821206035578 0 0.035118539418319099 -0.023258074523049611 0 0.034280498023317674 -0.023049978916010676 0 0.034495528574603224 -0.022409632572664706 0 0.035971930165500633 -0.0098895601698608549 0 0.0369419425770054 -0.0084671047554574289 0 0.036944677600863819 -0.019623489163150716 0 0.0348939054808977 -0.017707053467651314 0 0.037600589164923898 -0.015813911844813306 0 0.036944677600863819 -0.019623489163150716 0 0.037600589164923898 -0.015813911844813306 0 0.038655837365899504 -0.017770621475157282 0 0.0369419425770054 -0.0084671047554574289 0 0.025387114192140993 -0.0084232307972337099 0 0.035889184564245356 -0.014112425797516924 0 0.0348939054808977 -0.017707053467651314 0 0.037600589164923898 -0.015813911844813306 0 0.035889184564245356 -0.014112425797516924 0 0.037600589164923898 -0.015813911844813306 0 0.039558742239525393 -0.014036140666764547 0 0.037600589164923898 -0.015813911844813306 0 0.039558742239525393 -0.014036140666764547 0 0.040023059239079874 -0.015744171840930857 0 0.025387114192140993 -0.0084232307972337099 0 0.019995238018853705 -0.016220252865688276 0 -0.00020219240554761078 -0.014077815428475559 0 0.00032862663293150381 -0.015291747720190815 0 0.00036364277120408785 -0.015923507332965329 0 -0.00020219240554761078 -0.014077815428475559 0 0.00032862663293150381 -0.015291747720190815 0 0.0018362905185466442 -0.015204282926096805 0 0.018015386236572072 -0.016119386312474056 0 0.019995238018853705 -0.016220252865688276 0 0.033072527221679394 -0.019828699958005593 0 0.019995238018853705 -0.016220252865688276 0 0.037600589164923898 -0.015813911844813306 0 0.040023059239079874 -0.015744171840930857 0 0.038655837365899504 -0.017770621475157282 0 0.024982625173152716 -0.019324940264091688 0 0.024427416959634934 -0.019930648927939637 0 0.024331590083140908 -0.017258208736029478 0 0.039946824933030416 -0.01973012957890459 0 0.040023059239079874 -0.015744171840930857 0 0.038655837365899504 -0.017770621475157282 0 0.012593887468296833 -0.019186861581083316 0 0.019995238018853705 -0.016220252865688276 0 0.00017598061375366617 -0.015735928861221393 0 0.0023713109675259502 -0.01761197070360155 0 0.0018362905185466442 -0.015204282926096805 0 0.00093134484129144869 -0.020227280085596863 0 0.00017598061375366617 -0.015735928861221393 0 0.0023713109675259502 -0.01761197070360155 0 0.0030952216425133793 -0.020234013111592716 0 0.00093134484129144869 -0.020227280085596863 0 0.0023713109675259502 -0.01761197070360155 0 0.0030952216425133793 -0.020234013111592716 0 0.0023713109675259502 -0.01761197070360155 0 0.0044213823583560555 -0.018353205001269298 0 0.0023713109675259502 -0.01761197070360155 0 0.0018362905185466442 -0.015204282926096805 0 0.004079937397488782 -0.0159869462996352 0 0.0023713109675259502 -0.01761197070360155 0 0.0044213823583560555 -0.018353205001269298 0 0.004079937397488782 -0.0159869462996352 0 -0.00020219240554761078 -0.014077815428475559 0 0.0018362905185466442 -0.015204282926096805 0 0.0047424927117492256 -0.012918019353905186 0 0.0018362905185466442 -0.015204282926096805 0 0.004079937397488782 -0.0159869462996352 0 0.0047424927117492256 -0.012918019353905186 0 0.025387114192140993 -0.0084232307972337099 0 0.013617923661713997 -0.0078188744957282258 0 0.028399049829885677 -0.0023808094141468342 0 0.028029720547819489 -0.0028472055170593014 0 0.026988627719184029 -0.002985937031819038 0 0.00032862663293150381 -0.015291747720190815 0 0.00017598061375366617 -0.015735928861221393 0 0.0018362905185466442 -0.015204282926096805 0 0.028029720547819489 -0.0028472055170593014 0 0.026988627719184029 -0.002985937031819038 0 0.027042354635470445 -0.0034194181414813046 0 0.028029720547819489 -0.0028472055170593014 0 0.027548971013242253 -0.003359361086502719 0 0.027042354635470445 -0.0034194181414813046 0 0.027548971013242253 -0.003359361086502719 0 0.028130501100067713 -0.0036355800801834027 0 0.028941263043569272 -0.0026039873902877577 0 0.028029720547819489 -0.0028472055170593014 0 0.027548971013242253 -0.003359361086502719 0 0.028941263043569272 -0.0026039873902877577 0 0.027548971013242253 -0.003359361086502719 0 0.028130501100067713 -0.0036355800801834027 0 0.027190374153683722 -0.0044410621265127794 0 0.031491730872136373 -0.0022952103097673426 0 0.030258434998163407 0.00050650099741809539 0 0.028941263043569272 -0.0026039873902877577 0 0.031658769826966401 -0.0016346710461820097 0 0.028907824315985247 -0.0025090828222233946 0 0.031658769826966401 -0.0016346710461820097 0 0.03175651877666566 0.0012501720966867783 0 0.032559071017616875 0.00019583115378746344 0 0.028130501100067713 -0.0036355800801834027 0 0.028941263043569272 -0.0026039873902877577 0 0.029107920203872636 -0.0040903527623868709 0 0.031658769826966401 -0.0016346710461820097 0 0.032971286484068128 -0.00065369036292911033 0 0.029107920203872636 -0.0040903527623868709 0 0.028941263043569272 -0.0026039873902877577 0 0.031658769826966401 -0.0016346710461820097 0 0.029107920203872636 -0.0040903527623868709 0 0.025387114192140993 -0.0084232307972337099 0 0.030258434998163407 0.00050650099741809539 0 0.033779140404605147 0.0024156722655822101 0 0.031371472606318312 0.0026564944155531272 0 0.03175651877666566 0.0012501720966867783 0 0.028399049829885677 -0.0023808094141468342 0 0.028029720547819489 -0.0028472055170593014 0 0.028907824315985247 -0.0025090828222233946 0 0.028029720547819489 -0.0028472055170593014 0 0.028941263043569272 -0.0026039873902877577 0 0.028907824315985247 -0.0025090828222233946 0 0.033779140404605147 0.0024156722655822101 0 0.03175651877666566 0.0012501720966867783 0 0.033255677068849042 0.0010358617336152195 0 0.0369419425770054 -0.0084671047554574289 0 0.035181680564622134 0.0037758220767730539 0 0.03175651877666566 0.0012501720966867783 0 0.033255677068849042 0.0010358617336152195 0 0.032559071017616875 0.00019583115378746344 0 0.033255677068849042 0.0010358617336152195 0 0.032559071017616875 0.00019583115378746344 0 0.032971286484068128 -0.00065369036292911033 0 0.032971286484068128 -0.00065369036292911033 0 0.037011004703752716 0.0021137785335964693 0 0.029107920203872636 -0.0040903527623868709 0 0.035181680564622134 0.0037758220767730539 0 0.03299817709820814 -0.00087663373154075758 0 0.036550040197673134 0.0016870942555307154 0 0.035850225402775437 -0.00014324220953674461 0 0.031658769826966401 -0.0016346710461820097 0 0.032559071017616875 0.00019583115378746344 0 0.032971286484068128 -0.00065369036292911033 0 0.035905081749753445 0.0038715177651579349 0 0.032971286484068128 -0.00065369036292911033 0 0.037011004703752716 0.0021137785335964693 0 0.035905081749753445 0.0038715177651579349 0 0.037011004703752716 0.0021137785335964693 0 0.037173269086257246 0.0035105709424031934 0 0.037011004703752716 0.0021137785335964693 0 0.037146898365851888 0.0034746145854538937 0 0.037173269086257246 0.0035105709424031934 0 0.037011004703752716 0.0021137785335964693 0 0.037146898365851888 0.0034746145854538937 0 0.037328638954828491 0.0042957222655997706 0 0.037321824554367951 0.0036725695832533164 0 0.037146898365851888 0.0034746145854538937 0 0.037173269086257246 0.0035105709424031934 0 0.037399231844843193 0.0036607569570466176 0 0.0366374214177018 0.0042293713854448549 0 0.037173269086257246 0.0035105709424031934 0 0.0366374214177018 0.0042293713854448549 0 0.035905081749753445 0.0038715177651579349 0 0.037173269086257246 0.0035105709424031934 0 0.026225840831462375 -0.008807693239172425 0 0.020497689888399284 -0.0080524784342822196 0 0.026550969783292751 -0.0089203570764187241 0 0.025925321598497666 -0.0048697966626624562 0 0.026148371195922341 -0.0049323093759717209 0 0.026550969783292751 -0.0089203570764187241 0 0.018072474420779347 -0.014452331014472278 0 0.012960995371437849 -0.010876853533136402 0 0.026550969783292751 -0.0089203570764187241 0 0.026148371195922341 -0.0049323093759717209 0 0.027161616120689947 -0.0054177573996747573 0 0.028062822925330633 -0.0067936391061586146 0 0.026550969783292751 -0.0089203570764187241 0 0.027161616120689947 -0.0054177573996747573 0 0.029966169095797846 -0.0061239073137170389 0 0.028062822925330633 -0.0067936391061586146 0 0.029757297772316033 -0.0089070935971516437 0 0.029966169095797846 -0.0061239073137170389 0 0.028062822925330633 -0.0067936391061586146 0 0.027161616120689947 -0.0054177573996747573 0 0.028062822925330633 -0.0067936391061586146 0 0.029757297772316033 -0.0089070935971516437 0 0.026550969783292751 -0.0089203570764187241 0 0.024733150129920414 -0.020602571081543192 0 0.026470651393131948 -0.016611444575016343 0 0.021178229967289679 -0.01834036987656501 0 0.026129113308424549 -0.010846761330636981 0 0.02349185614544121 -0.01689130517433135 0 0.032921294542479489 -0.011357054597213395 0 0.029757297772316033 -0.0089070935971516437 0 0.025592226540091318 -0.015453107301642226 0 0.026550969783292751 -0.0089203570764187241 0 0.025592226540091318 -0.015453107301642226 0 0.018072474420779347 -0.014452331014472278 0 0.029757297772316033 -0.0089070935971516437 0 0.026550969783292751 -0.0089203570764187241 0 0.025592226540091318 -0.015453107301642226 0 0.02349185614544121 -0.01689130517433135 0 0.016113521566748258 -0.019518706484400652 0 0.018472930433048835 -0.02231884827037733 0 0.021178229967289679 -0.01834036987656501 0 0.015513789146655212 -0.019780382098028768 0 0.025592226540091318 -0.015453107301642226 0 0.018072474420779347 -0.014452331014472278 0 0.015513789146655212 -0.019780382098028768 0 0.018072474420779347 -0.014452331014472278 0 0.015513789146655212 -0.019780382098028768 0 0.01129624496479247 -0.016865537953983007 0 0.012400875064973459 -0.020723610370014384 0 0.015513789146655212 -0.019780382098028768 0 0.01129624496479247 -0.016865537953983007 0 0.01129624496479247 -0.016865537953983007 0 0.0070814800522600524 -0.016573024357631479 0 0.012960995371437849 -0.010876853533136402 0 0.012400875064973459 -0.020723610370014384 0 0.01129624496479247 -0.016865537953983007 0 0.01028518075213187 -0.019615591365395035 0 0.01129624496479247 -0.016865537953983007 0 0.01028518075213187 -0.019615591365395035 0 0.0082919746622178176 -0.019214961987932509 0 0.01129624496479247 -0.016865537953983007 0 0.0082919746622178176 -0.019214961987932509 0 0.0070814800522600524 -0.016573024357631479 0 0.018072474420779347 -0.014452331014472278 0 0.01129624496479247 -0.016865537953983007 0 0.012960995371437849 -0.010876853533136402 0 0.0063969040909966687 -0.02052139498682776 0 0.0044213823583560555 -0.018353205001269298 0 0.0070814800522600524 -0.016573024357631479 0 0.0063969040909966687 -0.02052139498682776 0 0.0082919746622178176 -0.019214961987932509 0 0.0070814800522600524 -0.016573024357631479 0 0.0070814800522600524 -0.016573024357631479 0 0.004079937397488782 -0.0159869462996352 0 0.0047424927117492256 -0.012918019353905186 0 0.0044213823583560555 -0.018353205001269298 0 0.0070814800522600524 -0.016573024357631479 0 0.004079937397488782 -0.0159869462996352 0 0.0070814800522600524 -0.016573024357631479 0 0.0047424927117492256 -0.012918019353905186 0 0.012960995371437849 -0.010876853533136402 0 0.013617923661713997 -0.0078188744957282258 0 0.020497689888399284 -0.0080524784342822196 0 0.026988627719184029 -0.002985937031819038 0 0.025925321598497666 -0.0048697966626624562 0 0.02636251946576889 -0.0039641068684941275 0 0.025925321598497666 -0.0048697966626624562 0 0.02636251946576889 -0.0039641068684941275 0 0.026148371195922341 -0.0049323093759717209 0 0.02636251946576889 -0.0039641068684941275 0 0.026333677044229148 -0.0040331274354316691 0 0.026592882228754708 -0.0037389255370157107 0 0.02636251946576889 -0.0039641068684941275 0 0.026333677044229148 -0.0040331274354316691 0 0.026148371195922341 -0.0049323093759717209 0 0.026988627719184029 -0.002985937031819038 0 0.02636251946576889 -0.0039641068684941275 0 0.027042354635470445 -0.0034194181414813046 0 0.02636251946576889 -0.0039641068684941275 0 0.027042354635470445 -0.0034194181414813046 0 0.026592882228754708 -0.0037389255370157107 0 0.027548971013242253 -0.003359361086502719 0 0.027042354635470445 -0.0034194181414813046 0 0.026592882228754708 -0.0037389255370157107 0 0.027548971013242253 -0.003359361086502719 0 0.026592882228754708 -0.0037389255370157107 0 0.027190374153683722 -0.0044410621265127794 0 0.026333677044229148 -0.0040331274354316691 0 0.026592882228754708 -0.0037389255370157107 0 0.02631948409772936 -0.0039229628277372012 0 0.026333677044229148 -0.0040331274354316691 0 0.026619050908322343 -0.0038497535714873596 0 0.02631948409772936 -0.0039229628277372012 0 0.027635443077406483 -0.0033930548550094313 0 0.025287665765005161 -0.0037260711116017414 0 0.026619050908322343 -0.0038497535714873596 0 0.027219360758485401 -0.0033855667876275791 0 0.02631948409772936 -0.0039229628277372012 0 0.026619050908322343 -0.0038497535714873596 0 0.026783818043032079 -0.0042520910061249187 0 0.027219360758485401 -0.0033855667876275791 0 0.026333677044229148 -0.0040331274354316691 0 0.026619050908322343 -0.0038497535714873596 0 0.026783818043032079 -0.0042520910061249187 0 0.026333677044229148 -0.0040331274354316691 0 0.026783818043032079 -0.0042520910061249187 0 0.026148371195922341 -0.0049323093759717209 0 0.026783818043032079 -0.0042520910061249187 0 0.026148371195922341 -0.0049323093759717209 0 0.027161616120689947 -0.0054177573996747573 0 0.029966169095797846 -0.0061239073137170389 0 0.027161616120689947 -0.0054177573996747573 0 0.028195434420145288 -0.0040513479613421199 0 0.026783818043032079 -0.0042520910061249187 0 0.027161616120689947 -0.0054177573996747573 0 0.028195434420145288 -0.0040513479613421199 0 0.028195434420145288 -0.0040513479613421199 0 0.027219360758485401 -0.0033855667876275791 0 0.028109696240646947 -0.0034095860579469845 0 0.026783818043032079 -0.0042520910061249187 0 0.028195434420145288 -0.0040513479613421199 0 0.027219360758485401 -0.0033855667876275791 0 0.027219360758485401 -0.0033855667876275791 0 0.028109696240646947 -0.0034095860579469845 0 0.027694556377385684 -0.0027630562663382781 0 0.028109696240646947 -0.0034095860579469845 0 0.027694556377385684 -0.0027630562663382781 0 0.028485264978991547 -0.002571977672772085 0 0.027219360758485401 -0.0033855667876275791 0 0.027694556377385684 -0.0027630562663382781 0 0.02703529540693763 -0.0025245622393826953 0 0.027694556377385684 -0.0027630562663382781 0 0.027636069473091069 -0.0020023620565655575 0 0.02703529540693763 -0.0025245622393826953 0 0.027694556377385684 -0.0027630562663382781 0 0.027636069473091069 -0.0020023620565655575 0 0.028485264978991547 -0.002571977672772085 0 0.027636069473091069 -0.0020023620565655575 0 0.026856018436585801 -0.001316332820134423 0 0.028131746565839857 -0.00083811682605394288 0 0.028609313051865742 0.0048632407092279789 0 0.0197296288973128 0.0011499702113663514 0 0.027636069473091069 -0.0020023620565655575 0 0.026856018436585801 -0.001316332820134423 0 0.02703529540693763 -0.0025245622393826953 0 0.026983224155918601 -0.0018416371475735171 0 0.026663424928980585 -0.0023209305826719798 0 0.02703529540693763 -0.0025245622393826953 0 0.028609313051865742 0.0048632407092279789 0 0.027160615432292104 -0.0045961835774233732 0 0.028609313051865742 0.0048632407092279789 0 0.030362566206220364 0.0049121060358430354 0 0.026983224155918601 -0.0018416371475735171 0 0.026663424928980585 -0.0023209305826719798 0 0.026376245458647588 -0.0021554824874971856 0 0.026663424928980585 -0.0023209305826719798 0 0.02703529540693763 -0.0025245622393826953 0 0.026399654650621964 -0.0025982628609164545 0 0.027219360758485401 -0.0033855667876275791 0 0.02703529540693763 -0.0025245622393826953 0 0.026399654650621964 -0.0025982628609164545 0 0.026663424928980585 -0.0023209305826719798 0 0.026399654650621964 -0.0025982628609164545 0 0.026376245458647588 -0.0021554824874971856 0 0.026399654650621964 -0.0025982628609164545 0 0.026063937250394985 -0.0022736453205102177 0 0.026376245458647588 -0.0021554824874971856 0 0.025287665765005161 -0.0037260711116017414 0 0.033107328809022632 0.0023557875962629147 0 0.033107328809022632 0.0023557875962629147 0 0.030362566206220364 0.0049121060358430354 0 0.026592882228754708 -0.0037389255370157107 0 0.02631948409772936 -0.0039229628277372012 0 0.027190374153683722 -0.0044410621265127794 0 0.034819050683387406 0.011498426809090996 0 0.034358291328138835 0.011618801271154149 0 0.03461859804299755 0.011219258016290104 0 0.035046953963294832 0.011981498777084806 0 0.034819050683387406 0.011498426809090996 0 0.035468840662676394 0.011124065264464392 0 0.035046953963294832 0.011981498777084806 0 0.034819050683387406 0.011498426809090996 0 0.034358291328138835 0.011618801271154149 0 0.034358291328138835 0.011618801271154149 0 0.034294205550640083 0.011294133475844872 0 0.03461859804299755 0.011219258016290104 0 0.033968378050475569 0.011405467564209671 0 0.034358291328138835 0.011618801271154149 0 0.034294205550640083 0.011294133475844872 0 0.034294205550640083 0.011294133475844872 0 0.034364554180552592 0.01113595027670825 0 0.03461859804299755 0.011219258016290104 0 0.034364554180552592 0.01113595027670825 0 0.03461859804299755 0.011219258016290104 0 0.034367008464039485 0.011112151758389916 0 0.034294205550640083 0.011294133475844872 0 0.034364554180552592 0.01113595027670825 0 0.03422045887751201 0.011143680616519984 0 0.034364554180552592 0.01113595027670825 0 0.034342424703394832 0.011035911054094136 0 0.03422045887751201 0.011143680616519984 0 0.034819050683387406 0.011498426809090996 0 0.03461859804299755 0.011219258016290104 0 0.035468840662676394 0.011124065264464392 0 0.03461859804299755 0.011219258016290104 0 0.034367008464039485 0.011112151758389916 0 0.035021555984783966 0.011020824643329031 0 0.03461859804299755 0.011219258016290104 0 0.035468840662676394 0.011124065264464392 0 0.035021555984783966 0.011020824643329031 0 0.034252199328708037 0.011353656463281941 0 0.034367008464039485 0.011112151758389916 0 0.035021555984783966 0.011020824643329031 0 0.034252199328708037 0.011353656463281941 0 0.030199136992242748 0.013187288101059421 0 0.031846053731807308 0.011310491992485551 0 0.034252199328708037 0.011353656463281941 0 0.034367008464039485 0.011112151758389916 0 0.03436393193985509 0.011010653623852843 0 0.034342424703394832 0.011035911054094136 0 0.034367008464039485 0.011112151758389916 0 0.03436393193985509 0.011010653623852843 0 0.034414307648647717 0.011580916413335588 0 0.031436125362856365 0.011496451708858482 0 0.034364554180552592 0.01113595027670825 0 0.034342424703394832 0.011035911054094136 0 0.034367008464039485 0.011112151758389916 0 0.030199136992242748 0.013187288101059421 0 0.03026397937181419 0.012006595047892804 0 0.031846053731807308 0.011310491992485551 0 0.030199136992242748 0.013187288101059421 0 0.029554930695779177 0.012591015230955139 0 0.03026397937181419 0.012006595047892804 0 0.029051078187977072 0.01130991577610611 0 0.028132357532445904 0.011464606528795482 0 0.028212057525582018 0.010698343481741581 0 0.031436125362856365 0.011496451708858482 0 0.02770050114224052 0.012621254678000456 0 0.034342424703394832 0.011035911054094136 0 0.034226660019856754 0.01096241651311595 0 0.03422045887751201 0.011143680616519984 0 0.034226660019856754 0.01096241651311595 0 0.034100863789658604 0.010966251911954904 0 0.03422045887751201 0.011143680616519984 0 0.032715622081161404 0.011869247125529555 0 0.031436125362856365 0.011496451708858482 0 0.031436125362856365 0.011496451708858482 0 0.027685947855460608 0.0098261415470979711 0 0.027685947855460608 0.0098261415470979711 0 0.02770050114224052 0.012621254678000456 0 0.015405691762419349 0.005702011171188558 0 0.01880450685805736 0.010534864414183135 0 0.023385127790550901 0.009483278222417988 0 0.019909336657340994 0.010837013862604498 0 0.020541290128741539 0.0074124841111100027 0 0.027685947855460608 0.0098261415470979711 0 0.015405691762419349 0.005702011171188558 0 0.023301001048678889 0.01028840221388525 0 0.023385127790550901 0.009483278222417988 0 0.019909336657340994 0.010837013862604498 0 0.0238278752520165 0.0068128604035452315 0 0.024012533978855447 0.0049536520391951422 0 0.022545694637069576 0.0051729061454927764 0 0.0238278752520165 0.0068128604035452315 0 0.022545694637069576 0.0051729061454927764 0 0.022348938587495003 0.0062903526654646399 0 0.033968378050475569 0.011405467564209671 0 0.034100863789658604 0.010966251911954904 0 0.03422045887751201 0.011143680616519984 0 0.028609313051865742 0.0048632407092279789 0 0.027685947855460608 0.0098261415470979711 0 0.033968378050475569 0.011405467564209671 0 0.034294205550640083 0.011294133475844872 0 0.03422045887751201 0.011143680616519984 0 0.038001370055003009 0.0062491107728432013 0 0.03781266566277821 0.0091717678738778511 0 0.037084266857555101 0.01012460366672633 0 0.038138702815680901 0.0062743070193074651 0 0.037406082513556503 0.0074177274142894194 0 0.037401111785965488 0.0052213448793802641 0 0.038001370055003009 0.0062491107728432013 0 0.037396001095067612 0.005030156997891516 0 0.037491671172613206 0.0049789704058095024 0 0.037401111785965488 0.0052213448793802641 0 0.037396001095067612 0.005030156997891516 0 0.037491671172613206 0.0049789704058095024 0 0.037401111785965488 0.0052213448793802641 0 0.037257551792522957 0.0045199883648708184 0 0.037401111785965488 0.0052213448793802641 0 0.037257551792522957 0.0045199883648708184 0 0.037328638954828491 0.0042957222655997706 0 0.037146898365851888 0.0034746145854538937 0 0.037257551792522957 0.0045199883648708184 0 0.037328638954828491 0.0042957222655997706 0 0.037401111785965488 0.0052213448793802641 0 0.037328638954828491 0.0042957222655997706 0 0.038001370055003009 0.0062491107728432013 0 0.037328638954828491 0.0042957222655997706 0 0.038749324422420524 0.004325073992150933 0 0.038001370055003009 0.0062491107728432013 0 0.037011004703752716 0.0021137785335964693 0 0.038749324422420524 0.004325073992150933 0 0.041434161254273245 0.0037080803907950121 0 0.037011004703752716 0.0021137785335964693 0 0.037328638954828491 0.0042957222655997706 0 0.038749324422420524 0.004325073992150933 0 0.038749324422420524 0.004325073992150933 0 0.038001370055003009 0.0062491107728432013 0 0.040100472022830944 0.0052004475303367706 0 0.037304115990595625 0.0092342914072029991 0 0.040190078092752886 0.0094996052151535056 0 0.038001370055003009 0.0062491107728432013 0 0.03781266566277821 0.0091717678738778511 0 0.041737060648061895 0.0065529103712325398 0 0.038001370055003009 0.0062491107728432013 0 0.041737060648061895 0.0065529103712325398 0 0.040100472022830944 0.0052004475303367706 0 0.036380674391012162 0.011498762978705957 0 0.035468840662676394 0.011124065264464392 0 0.03695588382770653 0.010344403048114103 0 0.03781266566277821 0.0091717678738778511 0 0.036380674391012162 0.011498762978705957 0 0.03695588382770653 0.010344403048114103 0 0.038749324422420524 0.004325073992150933 0 0.040100472022830944 0.0052004475303367706 0 0.041434161254273245 0.0037080803907950121 0 0.041737060648061895 0.0065529103712325398 0 0.040100472022830944 0.0052004475303367706 0 0.041434161254273245 0.0037080803907950121 0 0.028130501100067713 -0.0036355800801834027 0 0.027190374153683722 -0.0044410621265127794 0 0.029107920203872636 -0.0040903527623868709 0 0.033107328809022632 0.0023557875962629147 0 0.035850225402775437 -0.00014324220953674461 0 0.045024440480770131 0.0051263983150036298 0 0.041737060648061895 0.0065529103712325398 0 0.041434161254273245 0.0037080803907950121 0 0.035046953963294832 0.011981498777084806 0 0.036380674391012162 0.011498762978705957 0 0.035468840662676394 0.011124065264464392 0 0.033107328809022632 0.0023557875962629147 0 0.040190078092752886 0.0094996052151535056 0 0.035468840662676394 0.011124065264464392 0 0.035021555984783966 0.011020824643329031 0 0.036704403063820078 0.010377283881897112 0 0.035765713262363871 0.010570275209358377 0 0.035021555984783966 0.011020824643329031 0 0.036704403063820078 0.010377283881897112 0 0.034252199328708037 0.011353656463281941 0 0.035765713262363871 0.010570275209358377 0 0.035021555984783966 0.011020824643329031 0 0.035765713262363871 0.010570275209358377 0 0.036704403063820078 0.010377283881897112 0 0.036705714828289535 0.0099361363355766671 0 0.035468840662676394 0.011124065264464392 0 0.036704403063820078 0.010377283881897112 0 0.03695588382770653 0.010344403048114103 0 0.036704403063820078 0.010377283881897112 0 0.03695588382770653 0.010344403048114103 0 0.037368136536675742 0.010009194736204626 0 0.03781266566277821 0.0091717678738778511 0 0.03695588382770653 0.010344403048114103 0 0.037368136536675742 0.010009194736204626 0 0.03781266566277821 0.0091717678738778511 0 0.037368136536675742 0.010009194736204626 0 0.037366794376593265 0.0099675264705599651 0 0.037368136536675742 0.010009194736204626 0 0.0373986836159459 0.0098981024728708716 0 0.037366794376593265 0.0099675264705599651 0 0.036704403063820078 0.010377283881897112 0 0.0373986836159459 0.0098981024728708716 0 0.037683402532009004 0.009817622376727243 0 0.036704403063820078 0.010377283881897112 0 0.037368136536675742 0.010009194736204626 0 0.0373986836159459 0.0098981024728708716 0 0.037513655762409885 0.0097676258787663516 0 0.038368636105331623 0.0086799230453870422 0 0.0373986836159459 0.0098981024728708716 0 0.03788169056819022 0.0094412798023837362 0 0.038029677684749609 0.0077557632440738199 0 0.0373986836159459 0.0098981024728708716 0 0.03788169056819022 0.0094412798023837362 0 0.037366794376593265 0.0099675264705599651 0 0.03788169056819022 0.0094412798023837362 0 0.037366794376593265 0.0099675264705599651 0 0.037084266857555101 0.01012460366672633 0 0.03781266566277821 0.0091717678738778511 0 0.037366794376593265 0.0099675264705599651 0 0.037084266857555101 0.01012460366672633 0 0.03948733597866981 0.0086354713341021735 0 0.038670416016637912 0.0096047752098822065 0 0.03903528755860227 0.0084542312940619931 0 0.038670416016637912 0.0096047752098822065 0 0.038072161060518368 0.0090217637064783866 0 0.03903528755860227 0.0084542312940619931 0 0.0373986836159459 0.0098981024728708716 0 0.038670416016637912 0.0096047752098822065 0 0.037683402532009004 0.009817622376727243 0 0.038670416016637912 0.0096047752098822065 0 0.037683402532009004 0.009817622376727243 0 0.038072161060518368 0.0090217637064783866 0 0.037683402532009004 0.009817622376727243 0 0.038072161060518368 0.0090217637064783866 0 0.036705714828289535 0.0099361363355766671 0 0.038072161060518368 0.0090217637064783866 0 0.036705714828289535 0.0099361363355766671 0 0.036411712460209363 0.0085529342899991635 0 0.036704403063820078 0.010377283881897112 0 0.037683402532009004 0.009817622376727243 0 0.036705714828289535 0.0099361363355766671 0 0.034252199328708037 0.011353656463281941 0 0.035765713262363871 0.010570275209358377 0 0.034597846593162632 0.010220793912011441 0 0.035765713262363871 0.010570275209358377 0 0.036705714828289535 0.0099361363355766671 0 0.034597846593162632 0.010220793912011441 0 0.036705714828289535 0.0099361363355766671 0 0.036411712460209363 0.0085529342899991635 0 0.034597846593162632 0.010220793912011441 0 0.036411712460209363 0.0085529342899991635 0 0.034597846593162632 0.010220793912011441 0 0.033897610702346412 0.0089289924830355128 0 0.036411712460209363 0.0085529342899991635 0 0.033897610702346412 0.0089289924830355128 0 0.03329773917117837 0.0061381613079380974 0 0.036411712460209363 0.0085529342899991635 0 0.035941475470863238 0.0050071256195093842 0 0.03329773917117837 0.0061381613079380974 0 0.036411712460209363 0.0085529342899991635 0 0.035941475470863238 0.0050071256195093842 0 0.039001402209075983 0.0076113579123378971 0 0.038093933832803843 0.0067187704347259963 0 0.038965698286762898 0.0074725063608775729 0 0.038072161060518368 0.0090217637064783866 0 0.036411712460209363 0.0085529342899991635 0 0.039001402209075983 0.0076113579123378971 0 0.038072161060518368 0.0090217637064783866 0 0.039001402209075983 0.0076113579123378971 0 0.03903528755860227 0.0084542312940619931 0 0.039001402209075983 0.0076113579123378971 0 0.039431367506513722 0.0083830651834893005 0 0.03903528755860227 0.0084542312940619931 0 0.03948733597866981 0.0086354713341021735 0 0.039431367506513722 0.0083830651834893005 0 0.03903528755860227 0.0084542312940619931 0 0.028808930730486713 0.010341911126449293 0 0.029587947796983198 0.011035511569261098 0 0.031743582907214414 0.010185742998021696 0 0.028808930730486713 0.010341911126449293 0 0.025955855068566385 0.011019291798995615 0 0.028139898321932068 0.015032899024902905 0 0.025955855068566385 0.011019291798995615 0 0.025563254595955487 0.014651859385888857 0 0.028139898321932068 0.015032899024902905 0 0.028914073979432239 0.010507929946158541 0 0.028716872113497993 0.013396084752125901 0 0.028808930730486713 0.010341911126449293 0 0.025955855068566385 0.011019291798995615 0 0.02804960772637748 0.0082011037769915088 0 0.025955855068566385 0.011019291798995615 0 0.023411143942578701 0.012512461863258356 0 0.024765905134451392 0.0089016136392730642 0 0.025955855068566385 0.011019291798995615 0 0.023411143942578701 0.012512461863258356 0 0.025563254595955487 0.014651859385888857 0 0.02770050114224052 0.012621254678000456 0 0.01880450685805736 0.010534864414183135 0 0.023411143942578701 0.012512461863258356 0 0.025563254595955487 0.014651859385888857 0 0.022884564654805008 0.015615034753755964 0 0.02765619489489092 0.019083956655209063 0 0.025563254595955487 0.014651859385888857 0 0.022884564654805008 0.015615034753755964 0 0.021890630866012242 0.013687690812669276 0 0.01880450685805736 0.010534864414183135 0 0.029587947796983198 0.011035511569261098 0 0.03026397937181419 0.012006595047892804 0 0.031846053731807308 0.011310491992485551 0 0.02765619489489092 0.019083956655209063 0 0.025563254595955487 0.014651859385888857 0 0.028139898321932068 0.015032899024902905 0 0.029554930695779177 0.012591015230955139 0 0.029587947796983198 0.011035511569261098 0 0.03026397937181419 0.012006595047892804 0 0.02770050114224052 0.012621254678000456 0 0.028716872113497993 0.013396084752125901 0 0.029587947796983198 0.011035511569261098 0 0.031846053731807308 0.011310491992485551 0 0.031743582907214414 0.010185742998021696 0 0.034252199328708037 0.011353656463281941 0 0.031846053731807308 0.011310491992485551 0 0.034597846593162632 0.010220793912011441 0 0.031846053731807308 0.011310491992485551 0 0.034597846593162632 0.010220793912011441 0 0.031743582907214414 0.010185742998021696 0 0.033897610702346412 0.0089289924830355128 0 0.031743582907214414 0.010185742998021696 0 0.03119094909858585 0.0084992081517914174 0 0.034597846593162632 0.010220793912011441 0 0.033897610702346412 0.0089289924830355128 0 0.031743582907214414 0.010185742998021696 0 0.028808930730486713 0.010341911126449293 0 0.031743582907214414 0.010185742998021696 0 0.03119094909858585 0.0084992081517914174 0 0.03119094909858585 0.0084992081517914174 0 0.029449194180514442 0.0061330304520047976 0 0.02804960772637748 0.0082011037769915088 0 0.03119094909858585 0.0084992081517914174 0 0.03329773917117837 0.0061381613079380974 0 0.029449194180514442 0.0061330304520047976 0 0.033897610702346412 0.0089289924830355128 0 0.03119094909858585 0.0084992081517914174 0 0.03329773917117837 0.0061381613079380974 0 0.035941475470863238 0.0050071256195093842 0 0.03329773917117837 0.0061381613079380974 0 0.032139181104782463 0.0024458559590724025 0 0.03329773917117837 0.0061381613079380974 0 0.030088368198642825 0.0038501856053241653 0 0.032139181104782463 0.0024458559590724025 0 0.03329773917117837 0.0061381613079380974 0 0.029449194180514442 0.0061330304520047976 0 0.030088368198642825 0.0038501856053241653 0 0.029449194180514442 0.0061330304520047976 0 0.027262578158361125 0.0036789442692166672 0 0.030088368198642825 0.0038501856053241653 0 0.029449194180514442 0.0061330304520047976 0 0.02624998357354846 0.0060885155215314639 0 0.027262578158361125 0.0036789442692166672 0 0.02624998357354846 0.0060885155215314639 0 0.023348469873558729 0.0030780848900064635 0 0.027262578158361125 0.0036789442692166672 0 0.029449194180514442 0.0061330304520047976 0 0.02624998357354846 0.0060885155215314639 0 0.02804960772637748 0.0082011037769915088 0 0.028808930730486713 0.010341911126449293 0 0.03119094909858585 0.0084992081517914174 0 0.02804960772637748 0.0082011037769915088 0 0.02624998357354846 0.0060885155215314639 0 0.02804960772637748 0.0082011037769915088 0 0.024765905134451392 0.0089016136392730642 0 0.025955855068566385 0.011019291798995615 0 0.02804960772637748 0.0082011037769915088 0 0.024765905134451392 0.0089016136392730642 0 0.023411143942578701 0.012512461863258356 0 0.024765905134451392 0.0089016136392730642 0 0.021313707709159864 0.0092066915160311999 0 0.02624998357354846 0.0060885155215314639 0 0.024765905134451392 0.0089016136392730642 0 0.022633680223357211 0.00639351954627327 0 0.024765905134451392 0.0089016136392730642 0 0.022633680223357211 0.00639351954627327 0 0.021313707709159864 0.0092066915160311999 0 0.02624998357354846 0.0060885155215314639 0 0.022633680223357211 0.00639351954627327 0 0.023348469873558729 0.0030780848900064635 0 0.022633680223357211 0.00639351954627327 0 0.01993798924400875 0.0041480012331183555 0 0.023348469873558729 0.0030780848900064635 0 0.01993798924400875 0.0041480012331183555 0 0.018711703437395644 0.0067514812200854847 0 0.016300056256796439 0.0036753673177008709 0 0.022633680223357211 0.00639351954627327 0 0.01993798924400875 0.0041480012331183555 0 0.018711703437395644 0.0067514812200854847 0 0.018711703437395644 0.0067514812200854847 0 0.014784570682774299 0.0059660532471318391 0 0.016300056256796439 0.0036753673177008709 0 0.014784570682774299 0.0059660532471318391 0 0.012327929020665575 0.0044893390379846677 0 0.016300056256796439 0.0036753673177008709 0 0.011416821423594107 0.0074537189594333511 0 0.012525586278445598 0.0090376888398957349 0 0.014784570682774299 0.0059660532471318391 0 0.011159535232937346 0.0072508216894012264 0 0.017075269700671535 0.011641838918599113 0 0.018711703437395644 0.0067514812200854847 0 0.014784570682774299 0.0059660532471318391 0 0.017075269700671535 0.011641838918599113 0 0.018711703437395644 0.0067514812200854847 0 0.021313707709159864 0.0092066915160311999 0 0.017075269700671535 0.011641838918599113 0 0.022633680223357211 0.00639351954627327 0 0.018711703437395644 0.0067514812200854847 0 0.021313707709159864 0.0092066915160311999 0 0.014784570682774299 0.0059660532471318391 0 0.012327929020665575 0.0044893390379846677 0 0.011159535232937346 0.0072508216894012264 0 0.0093063131664897943 0.0062171562998514151 0 0.012327929020665575 0.0044893390379846677 0 0.011159535232937346 0.0072508216894012264 0 0.011159535232937346 0.0072508216894012264 0 0.010281352358238864 0.006868095263113023 0 0.0091729450033869748 0.0067918575297895327 0 0.011159535232937346 0.0072508216894012264 0 0.010106035740094228 0.0069794999202005504 0 0.010281352358238864 0.006868095263113023 0 0.0093063131664897943 0.0062171562998514151 0 0.011159535232937346 0.0072508216894012264 0 0.010106035740094228 0.0069794999202005504 0 0.010033212572208785 0.0067357561229280053 0 0.010053509438315077 0.0065683351388649081 0 0.0099605624580640408 0.0069377307246707822 0 0.010106035740094228 0.0069794999202005504 0 0.010033212572208785 0.0067357561229280053 0 0.010281352358238864 0.006868095263113023 0 0.010106035740094228 0.0069794999202005504 0 0.010033212572208785 0.0067357561229280053 0 0.0099605624580640408 0.0069377307246707822 0 0.010033212572208785 0.0067357561229280053 0 0.010281352358238864 0.006868095263113023 0 0.0096257697369294092 0.0064054647154342653 0 0.010033212572208785 0.0067357561229280053 0 0.0096257697369294092 0.0064054647154342653 0 0.0095372494720432181 0.0062147034148450969 0 0.010033212572208785 0.0067357561229280053 0 0.0095372494720432181 0.0062147034148450969 0 0.0096867332658015816 0.0060829853145175465 0 0.0096257697369294092 0.0064054647154342653 0 0.0095372494720432181 0.0062147034148450969 0 0.0092694619245875659 0.0060097166203947261 0 0.0095372494720432181 0.0062147034148450969 0 0.0092694619245875659 0.0060097166203947261 0 0.0090470378046839869 0.0056449471796615963 0 0.0095372494720432181 0.0062147034148450969 0 0.0096867332658015816 0.0060829853145175465 0 0.0090470378046839869 0.0056449471796615963 0 0.010033212572208785 0.0067357561229280053 0 0.0096867332658015816 0.0060829853145175465 0 0.010053509438315077 0.0065683351388649081 0 0.0096867332658015816 0.0060829853145175465 0 0.010053509438315077 0.0065683351388649081 0 0.010191894090219691 0.0062201143781546167 0 0.01880450685805736 0.010534864414183135 0 0.012525586278445598 0.0090376888398957349 0 0.023411143942578701 0.012512461863258356 0 0.021313707709159864 0.0092066915160311999 0 0.017075269700671535 0.011641838918599113 0 0.023411143942578701 0.012512461863258356 0 0.022854371447699879 0.015446080553547049 0 0.017075269700671535 0.011641838918599113 0 0.010281352358238864 0.006868095263113023 0 0.0096257697369294092 0.0064054647154342653 0 0.0091729450033869748 0.0067918575297895327 0 0.0096257697369294092 0.0064054647154342653 0 0.0091729450033869748 0.0067918575297895327 0 0.0090998436443295184 0.0061579503606841021 0 0.0090998436443295184 0.0061579503606841021 0 0.0089268489020978038 0.0059407163395031274 0 0.0091539030455917349 0.0058087672289042847 0 0.0096257697369294092 0.0064054647154342653 0 0.0090998436443295184 0.0061579503606841021 0 0.0092694619245875659 0.0060097166203947261 0 0.0090998436443295184 0.0061579503606841021 0 0.0092694619245875659 0.0060097166203947261 0 0.0091539030455917349 0.0058087672289042847 0 0.0086616424072716962 0.0062015984279228092 0 0.0091729450033869748 0.0067918575297895327 0 0.0090998436443295184 0.0061579503606841021 0 0.0086616424072716962 0.0062015984279228092 0 0.0090998436443295184 0.0061579503606841021 0 0.0089268489020978038 0.0059407163395031274 0 0.0088043910014152724 0.0057469122425844186 0 0.0086616424072716962 0.0062015984279228092 0 0.0089268489020978038 0.0059407163395031274 0 0.0088043910014152724 0.0057469122425844186 0 0.0089268489020978038 0.0059407163395031274 0 0.0091042882706560586 0.0057144923535862261 0 0.015405691762419349 0.005702011171188558 0 0.0098299083275994979 0.0034843185407286352 0 0.015405691762419349 0.005702011171188558 0 0.0197296288973128 0.0011499702113663514 0 0.011369908082145384 0.0012935286573174597 0 0.011781140767203074 0.00064183464022837897 0 0.012173123216856608 0.0011502910710137662 0 0.011369908082145384 0.0012935286573174597 0 0.011781140767203074 0.00064183464022837897 0 0.011502531536075871 0.00054460134857850918 0 0.011781140767203074 0.00064183464022837897 0 0.012284460786111565 0.00065444150213793547 0 0.012173123216856608 0.0011502910710137662 0 0.011781140767203074 0.00064183464022837897 0 0.011414475098705251 0.00050676225778052708 0 0.01201657310669486 9.7554422855357224e-05 0 0.011781140767203074 0.00064183464022837897 0 0.012284460786111565 0.00065444150213793547 0 0.01201657310669486 9.7554422855357224e-05 0 0.01274609855742689 -0.00036622467660011172 0 0.0197296288973128 0.0011499702113663514 0 0.012284460786111565 0.00065444150213793547 0 0.012173123216856608 0.0011502910710137662 0 0.013093659851637672 0.0010160155931354089 0 0.0098299083275994979 0.0034843185407286352 0 0.010599257303175002 0.0030169082424591214 0 0.012284460786111565 0.00065444150213793547 0 0.013093659851637672 0.0010160155931354089 0 0.012585125054944905 0.00022816614793337516 0 0.0091042882706560586 0.0057144923535862261 0 0.0091539030455917349 0.0058087672289042847 0 0.0091196481768329972 0.0057218650698846142 0 0.0089268489020978038 0.0059407163395031274 0 0.0091042882706560586 0.0057144923535862261 0 0.0091539030455917349 0.0058087672289042847 0 0.0092694619245875659 0.0060097166203947261 0 0.0091539030455917349 0.0058087672289042847 0 0.0090470378046839869 0.0056449471796615963 0 0.0096867332658015816 0.0060829853145175465 0 0.0090470378046839869 0.0056449471796615963 0 0.0089176964542616935 0.0049331019996634445 0 0.0088195148209901115 0.0042089731003529937 0 0.0089176964542616935 0.0049331019996634445 0 0.0089707128428834753 0.0040615661018866874 0 0.0088195148209901115 0.0042089731003529937 0 0.0089707128428834753 0.0040615661018866874 0 0.0087047381854923177 0.0038172242060761099 0 0.0088195148209901115 0.0042089731003529937 0 0.0089176964542616935 0.0049331019996634445 0 0.0086138078565442099 0.0040717731349273764 0 0.0089176964542616935 0.0049331019996634445 0 0.0081755061006609231 0.0037126743148108341 0 0.0086138078565442099 0.0040717731349273764 0 0.0090470378046839869 0.0056449471796615963 0 0.0089176964542616935 0.0049331019996634445 0 0.0081755061006609231 0.0037126743148108341 0 0.0089868969482835449 0.0059463133498928629 0 0.010599257303175002 0.0030169082424591214 0 0.0091539030455917349 0.0058087672289042847 0 0.0090470378046839869 0.0056449471796615963 0 0.0091196481768329972 0.0057218650698846142 0 0.0096867332658015816 0.0060829853145175465 0 0.0089176964542616935 0.0049331019996634445 0 0.010191894090219691 0.0062201143781546167 0 0.0080297746006356696 0.0048512884488017124 0 0.01157894911614318 0.0052511334775585039 0 0.0089176964542616935 0.0049331019996634445 0 0.0089707128428834753 0.0040615661018866874 0 0.00915517559624234 0.0040478052377275336 0 0.0089707128428834753 0.0040615661018866874 0 0.0089487671059621261 0.0036186799564254437 0 0.00915517559624234 0.0040478052377275336 0 0.0089487671059621261 0.0036186799564254437 0 0.0092658744538858633 0.003700350769052542 0 0.00915517559624234 0.0040478052377275336 0 0.0089487671059621261 0.0036186799564254437 0 0.0087110419258474049 0.0029435139218566202 0 0.0092658744538858633 0.003700350769052542 0 0.0089707128428834753 0.0040615661018866874 0 0.0086977019464087642 0.0034172491538049742 0 0.0087047381854923177 0.0038172242060761099 0 0.0089707128428834753 0.0040615661018866874 0 0.0089487671059621261 0.0036186799564254437 0 0.0086977019464087642 0.0034172491538049742 0 0.0086977019464087642 0.0034172491538049742 0 0.0087110419258474049 0.0029435139218566202 0 0.0085203718906424145 0.0028599574798678835 0 0.0089487671059621261 0.0036186799564254437 0 0.0086977019464087642 0.0034172491538049742 0 0.0087110419258474049 0.0029435139218566202 0 0.010599257303175002 0.0030169082424591214 0 0.010745402737893182 0.0011492457800276008 0 0.0081755061006609231 0.0037126743148108341 0 0.0083532397392236477 0.0036776908727808783 0 0.0086138078565442099 0.0040717731349273764 0 0.010599257303175002 0.0030169082424591214 0 0.010379850091092793 0.0030613167183474324 0 0.0086977019464087642 0.0034172491538049742 0 0.0083532397392236477 0.0036776908727808783 0 0.0087047381854923177 0.0038172242060761099 0 0.0088195148209901115 0.0042089731003529937 0 0.0086138078565442099 0.0040717731349273764 0 0.0087047381854923177 0.0038172242060761099 0 0.0082676561508559874 0.0036707974056214374 0 0.0083532397392236477 0.0036776908727808783 0 0.0085203718906424145 0.0028599574798678835 0 0.0083532397392236477 0.0036776908727808783 0 0.0086138078565442099 0.0040717731349273764 0 0.0087047381854923177 0.0038172242060761099 0 0.0086977019464087642 0.0034172491538049742 0 0.0083532397392236477 0.0036776908727808783 0 0.0085203718906424145 0.0028599574798678835 0 0.0085203718906424145 0.0028599574798678835 0 0.0083913243983128206 0.0024447901015915577 0 0.0083094620865922612 0.0024978948863514216 0 0.013093659851637672 0.0010160155931354089 0 0.013232621342536196 -0.00024325840649589507 0 0.012585125054944905 0.00022816614793337516 0 0.0082676561508559874 0.0036707974056214374 0 0.0085203718906424145 0.0028599574798678835 0 0.0083913243983128206 0.0024447901015915577 0 0.0085203718906424145 0.0028599574798678835 0 0.0081980124614747293 0.0021555943437156877 0 0.0083094620865922612 0.0024978948863514216 0 0.0087110419258474049 0.0029435139218566202 0 0.0081980124614747293 0.0021555943437156877 0 0.0086300234594458691 0.0026736328033167434 0 0.0087110419258474049 0.0029435139218566202 0 0.0085203718906424145 0.0028599574798678835 0 0.0081980124614747293 0.0021555943437156877 0 0.0086894995146706219 0.0034706110372211244 0 0.0083094620865922612 0.0024978948863514216 0 0.0079511162102496331 0.0030215290995687862 0 0.0081980124614747293 0.0021555943437156877 0 0.0079511162102496331 0.0030215290995687862 0 0.0071621149648392213 0.0027830296659633884 0 0.0081980124614747293 0.0021555943437156877 0 0.0083094620865922612 0.0024978948863514216 0 0.0079511162102496331 0.0030215290995687862 0 0.00706152273394912 0.003947685776731321 0 0.0079511162102496331 0.0030215290995687862 0 0.0071621149648392213 0.0027830296659633884 0 0.01333840093974069 -0.0015740048579551097 0 0.013232621342536196 -0.00024325840649589507 0 0.013001154614285925 -0.0012828383394092693 0 0.013232621342536196 -0.00024325840649589507 0 0.013001154614285925 -0.0012828383394092693 0 0.012439187453188045 -0.00057620646389680346 0 0.0086894995146706219 0.0034706110372211244 0 0.0083913243983128206 0.0024447901015915577 0 0.0083094620865922612 0.0024978948863514216 0 0.011877843882438751 0.00030231462115368267 0 0.010745402737893182 0.0011492457800276008 0 0.012279690489183221 -0.0014168058613538571 0 0.012439187453188045 -0.00057620646389680346 0 0.011566258016621266 -0.00092426376626986184 0 0.012279690489183221 -0.0014168058613538571 0 0.013001154614285925 -0.0012828383394092693 0 0.012439187453188045 -0.00057620646389680346 0 0.012439187453188045 -0.00057620646389680346 0 0.011566258016621266 -0.00092426376626986184 0 0.01201657310669486 9.7554422855357224e-05 0 0.027636069473091069 -0.0020023620565655575 0 0.028131746565839857 -0.00083811682605394288 0 0.028485264978991547 -0.002571977672772085 0 0.011414475098705251 0.00050676225778052708 0 0.011566258016621266 -0.00092426376626986184 0 0.01201657310669486 9.7554422855357224e-05 0 0.0197296288973128 0.0011499702113663514 0 0.019965467606515467 -0.0020419815662153706 0 0.012284460786111565 0.00065444150213793547 0 0.01201657310669486 9.7554422855357224e-05 0 0.012585125054944905 0.00022816614793337516 0 0.013232621342536196 -0.00024325840649589507 0 0.012439187453188045 -0.00057620646389680346 0 0.012585125054944905 0.00022816614793337516 0 0.012439187453188045 -0.00057620646389680346 0 0.01201657310669486 9.7554422855357224e-05 0 0.012585125054944905 0.00022816614793337516 0 0.003086123556039112 0.00031479257618304484 0 0.00085899635196718738 0.0010356974331562311 0 0.0026205878383189023 -0.0020975677494097936 0 -0.00077664023054278299 0.0017068055303664619 0 0.00218658287882535 0.00071428839408584869 0 0.003086123556039112 0.00031479257618304484 0 0.00085899635196718738 0.0010356974331562311 0 0.0025607184481293167 0.0021693361160211614 0 -0.0032340287679021675 0.0017475805215064759 0 -0.0021563226836393661 0.0028293289670554096 0 -0.0024702835018708719 0.0031848990760374521 0 -0.0032340287679021675 0.0017475805215064759 0 -0.0021563226836393661 0.0028293289670554096 0 -0.0025203985574114404 0.00066847823381679201 0 -0.0031072278418307962 0.0018246420986704523 0 -0.0033105147016364114 0.0038390822034726092 0 -0.0015553563920909744 0.0042936250522300698 0 -0.0021563226836393661 0.0028293289670554096 0 -0.0024702835018708719 0.0031848990760374521 0 -0.0015746419322817398 0.0043559918545255771 0 -0.00077664023054278299 0.0017068055303664619 0 -0.0015553563920909744 0.0042936250522300698 0 0.00085899635196718738 0.0010356974331562311 0 0.00066835966154836079 0.0030240258990827623 0 0.00066835966154836079 0.0030240258990827623 0 0.0025607184481293167 0.0021693361160211614 0 0.002045038230986825 0.0033448288415466143 0 0.00085899635196718738 0.0010356974331562311 0 0.00066835966154836079 0.0030240258990827623 0 0.0025607184481293167 0.0021693361160211614 0 0.0033448453857631189 0.0038882010394507621 0 0.0025607184481293167 0.0021693361160211614 0 0.002045038230986825 0.0033448288415466143 0 0.0033448453857631189 0.0038882010394507621 0 0.0025607184481293167 0.0021693361160211614 0 0.0043598042156890796 0.0026513163459785474 0 0.0043598042156890796 0.0026513163459785474 0 0.0059834002103704995 0.0019181615017900507 0 0.0043730304244766569 0.0011962421637714429 0 0.0025607184481293167 0.0021693361160211614 0 0.0043598042156890796 0.0026513163459785474 0 0.0043730304244766569 0.0011962421637714429 0 0.00706152273394912 0.003947685776731321 0 0.0059434807836940802 0.0034440585861623151 0 0.0071621149648392213 0.0027830296659633884 0 0.0059434807836940802 0.0034440585861623151 0 0.0043598042156890796 0.0026513163459785474 0 0.0059834002103704995 0.0019181615017900507 0 0.0059434807836940802 0.0034440585861623151 0 0.0071621149648392213 0.0027830296659633884 0 0.0059834002103704995 0.0019181615017900507 0 0.0081980124614747293 0.0021555943437156877 0 0.0071621149648392213 0.0027830296659633884 0 0.0059834002103704995 0.0019181615017900507 0 0.0081980124614747293 0.0021555943437156877 0 0.0059834002103704995 0.0019181615017900507 0 0.0053524853371093202 -0.00046312991742210671 0 0.0081980124614747293 0.0021555943437156877 0 0.0086300234594458691 0.0026736328033167434 0 0.0091496224006497508 0.0028331027904188073 0 0.0078613926270219171 0.0018858221757037505 0 0.0078986132500433494 0.0014319214269251925 0 0.003086123556039112 0.00031479257618304484 0 0.0043730304244766569 0.0011962421637714429 0 0.0053524853371093202 -0.00046312991742210671 0 0.003086123556039112 0.00031479257618304484 0 0.0025607184481293167 0.0021693361160211614 0 0.0043730304244766569 0.0011962421637714429 0 0.0059834002103704995 0.0019181615017900507 0 0.0043730304244766569 0.0011962421637714429 0 0.0053524853371093202 -0.00046312991742210671 0 0.003086123556039112 0.00031479257618304484 0 0.0053524853371093202 -0.00046312991742210671 0 0.0026205878383189023 -0.0020975677494097936 0 0.0091496224006497508 0.0028331027904188073 0 0.0093006770154561401 0.0031441178486568953 0 0.0094438420544809727 0.0031600944524035929 0 0.0078986132500433494 0.0014319214269251925 0 0.00218658287882535 0.00071428839408584869 0 0.0091496224006497508 0.0028331027904188073 0 0.0092176330567796394 0.0032309689026685747 0 0.0093006770154561401 0.0031441178486568953 0 0.0093006770154561401 0.0031441178486568953 0 0.0093631991485272435 0.0032650175295865771 0 0.0094438420544809727 0.0031600944524035929 0 0.0092176330567796394 0.0032309689026685747 0 0.0093006770154561401 0.0031441178486568953 0 0.0093631991485272435 0.0032650175295865771 0 0.0088870854412630377 0.0028560562075717923 0 0.0087833152176176096 0.0036225015547472288 0 0.0086362694063630979 0.0025076200207551722 0 0.0087833152176176096 0.0036225015547472288 0 0.0087110419258474049 0.0029435139218566202 0 0.0086300234594458691 0.0026736328033167434 0 0.0087091309606045463 0.0027533776636217023 0 0.0087110419258474049 0.0029435139218566202 0 0.0098378626930659494 0.0036661974775174578 0 0.0092658744538858633 0.003700350769052542 0 0.0086300234594458691 0.0026736328033167434 0 0.0091496224006497508 0.0028331027904188073 0 0.0092176330567796394 0.0032309689026685747 0 0.0092658744538858633 0.003700350769052542 0 0.00915517559624234 0.0040478052377275336 0 0.0096640163122114486 0.0039271534385723313 0 0.00915517559624234 0.0040478052377275336 0 0.0096640163122114486 0.0039271534385723313 0 0.0099212476107063668 0.0041967876739908792 0 0.01157894911614318 0.0052511334775585039 0 0.0012176055528440692 0.0057256451395013763 0 0.0098378626930659494 0.0036661974775174578 0 0.0092658744538858633 0.003700350769052542 0 0.0096640163122114486 0.0039271534385723313 0 0.0087833152176176096 0.0036225015547472288 0 0.0019646122207917717 0.00051597619210143656 0 0.0069559549190598875 0.0039472634856485842 0 0.0023224050584748457 0.0018513690789814974 0 0.0032972841503872935 -6.8679016142733943e-05 0 0.0087833152176176096 0.0036225015547472288 0 0.0016293779909626618 0.0021317164538008277 0 0.0019646122207917717 0.00051597619210143656 0 0.0016293779909626618 0.0021317164538008277 0 0.0098378626930659494 0.0036661974775174578 0 0.0096640163122114486 0.0039271534385723313 0 0.010026546691360558 0.0039847971688631847 0 0.0096640163122114486 0.0039271534385723313 0 0.0099212476107063668 0.0041967876739908792 0 0.010026546691360558 0.0039847971688631847 0 0.0012176055528440692 0.0057256451395013763 0 -0.0068073983006364837 0.00028927447442165518 0 -0.00084681345972912876 0.0020752481025604255 0 -0.0023305472346674644 0.0050041584427289454 0 -0.0056808201295126173 0.0013307395685301393 0 0.0012176055528440692 0.0057256451395013763 0 0.0016293779909626618 0.0021317164538008277 0 -0.0027848164197766261 -0.00078994820743270877 0 -0.0032413134722257772 -0.0015415418050464267 0 -0.0040553210176289363 -0.0018398819784590499 0 0.0019646122207917717 0.00051597619210143656 0 -0.0053032137842697821 -0.0023294131846371361 0 -0.0025094148450787094 -0.001315926629983648 0 -0.0032413134722257772 -0.0015415418050464267 0 -0.0033536257849198781 -0.00222359060752742 0 -0.0027848164197766261 -0.00078994820743270877 0 -0.0040553210176289363 -0.0018398819784590499 0 -0.0053349917320147317 -0.0020247687243139705 0 0.00218658287882535 0.00071428839408584869 0 -0.0038193711727487721 -0.0012118746381318416 0 -0.00017218664758199902 -0.00052316444855437399 0 -0.0020112172133399135 -0.00070690550030917101 0 -0.0037021190847069448 -0.002058211757809781 0 -0.0020112172133399135 -0.00070690550030917101 0 -0.00076981351977438623 0.00067956921885882146 0 -0.0033945659191918854 -0.00089621315067935981 0 0.0016293779909626618 0.0021317164538008277 0 -0.0068073983006364837 0.00028927447442165518 0 -0.0032413134722257772 -0.0015415418050464267 0 -0.0040553210176289363 -0.0018398819784590499 0 -0.0033536257849198781 -0.00222359060752742 0 -0.00017218664758199902 -0.00052316444855437399 0 -0.0020112172133399135 -0.00070690550030917101 0 -0.00076981351977438623 0.00067956921885882146 0 -0.0027848164197766261 -0.00078994820743270877 0 -0.0025094148450787094 -0.001315926629983648 0 -0.0032413134722257772 -0.0015415418050464267 0 -0.00090932896816695898 0.00028937283490781225 0 -0.0025203985574114404 0.00066847823381679201 0 -0.0030983161260879823 -0.0011293827341445296 0 -0.0021563226836393661 0.0028293289670554096 0 -0.00090932896816695898 0.00028937283490781225 0 -0.0025203985574114404 0.00066847823381679201 0 0.0019646122207917717 0.00051597619210143656 0 0.00218658287882535 0.00071428839408584869 0 -0.0032340287679021675 0.0017475805215064759 0 -0.0025203985574114404 0.00066847823381679201 0 -0.0041173914564153046 0.00032030642784971434 0 -0.0025203985574114404 0.00066847823381679201 0 -0.0041173914564153046 0.00032030642784971434 0 -0.0030983161260879823 -0.0011293827341445296 0 -0.005378867204387564 -0.002043178904489087 0 -0.0038193711727487721 -0.0012118746381318416 0 -0.0058434496962700422 -0.0022121300528543317 0 -0.0033945659191918854 -0.00089621315067935981 0 -0.0037021190847069448 -0.002058211757809781 0 -0.0050101667756881022 -0.00086763169269853948 0 -0.0041173914564153046 0.00032030642784971434 0 -0.0030983161260879823 -0.0011293827341445296 0 -0.0020112172133399135 -0.00070690550030917101 0 -0.0033945659191918854 -0.00089621315067935981 0 -0.0037021190847069448 -0.002058211757809781 0 -0.0040553210176289363 -0.0018398819784590499 0 -0.0053349917320147317 -0.0020247687243139705 0 -0.0055061111126047052 -0.0025101466318371512 0 -0.0055706510261186578 -0.0031446339777802968 0 -0.0040191677100053546 -0.0022427939663108242 0 -0.005224965050073316 -0.003669535538209021 0 -0.0055061111126047052 -0.0025101466318371512 0 -0.0055706510261186578 -0.0031446339777802968 0 -0.0040191677100053546 -0.0022427939663108242 0 -0.0061926366383694576 -0.0033163302524227265 0 -0.0055061111126047052 -0.0025101466318371512 0 -0.0055706510261186578 -0.0031446339777802968 0 -0.0061926366383694576 -0.0033163302524227265 0 -0.0055706510261186578 -0.0031446339777802968 0 -0.005224965050073316 -0.003669535538209021 0 -0.014430955937662575 0.0065911042014473497 0 -0.014495830628547727 0.0056288761096354323 0 -0.015568208411780551 0.0057002071066157714 0 -0.014430955937662575 0.0065911042014473497 0 -0.014495830628547727 0.0056288761096354323 0 -0.014096020411626107 0.0061341192691702412 0 -0.0040553210176289363 -0.0018398819784590499 0 -0.0055061111126047052 -0.0025101466318371512 0 -0.0033536257849198781 -0.00222359060752742 0 -0.0042804221629567695 -0.0026828846266606144 0 -0.0068073983006364837 0.00028927447442165518 0 -0.0068073983006364837 0.00028927447442165518 0 -0.010725544075325546 0.0012185837397274146 0 -0.015115566958084423 0.0051540833267696073 0 -0.014495830628547727 0.0056288761096354323 0 -0.014627252351153195 0.0047288227064627708 0 -0.015115566958084423 0.0051540833267696073 0 -0.014495830628547727 0.0056288761096354323 0 -0.015568208411780551 0.0057002071066157714 0 -0.015115566958084423 0.0051540833267696073 0 -0.015568208411780551 0.0057002071066157714 0 -0.01582335841572197 0.0048234930140644066 0 -0.011149091135176438 -0.00063601663111819968 0 -0.010725544075325546 0.0012185837397274146 0 -0.016630060774670791 0.0046520919841601723 0 -0.015568208411780551 0.0057002071066157714 0 -0.01582335841572197 0.0048234930140644066 0 0.010191894090219691 0.0062201143781546167 0 0.010134897896270038 0.006616040186217198 0 0.010093422614068086 0.0066074712236354255 0 0.010053509438315077 0.0065683351388649081 0 0.010093422614068086 0.0066074712236354255 0 0.0099605624580640408 0.0069377307246707822 0 0.010053509438315077 0.0065683351388649081 0 0.010191894090219691 0.0062201143781546167 0 0.010093422614068086 0.0066074712236354255 0 0.010134897896270038 0.006616040186217198 0 0.010093422614068086 0.0066074712236354255 0 0.0099605624580640408 0.0069377307246707822 0 -0.013822161150659089 0.0065893976744569819 0 -0.014096020411626107 0.0061341192691702412 0 -0.013218159099374934 0.0054463856771279889 0 0.0012176055528440692 0.0057256451395013763 0 -0.002161005331269711 0.0064372350967870908 0 -0.013822161150659089 0.0065893976744569819 0 -0.014430955937662575 0.0065911042014473497 0 -0.014096020411626107 0.0061341192691702412 0 -0.014495830628547727 0.0056288761096354323 0 -0.013218159099374934 0.0054463856771279889 0 -0.014627252351153195 0.0047288227064627708 0 -0.014495830628547727 0.0056288761096354323 0 -0.014096020411626107 0.0061341192691702412 0 -0.013218159099374934 0.0054463856771279889 0 -0.0012547952884689399 0.0051894543762457191 0 -0.002161005331269711 0.0064372350967870908 0 -0.012242219834251698 0.0043084111703075986 0 -0.013218159099374934 0.0054463856771279889 0 -0.013793857266791857 0.0041992608935348952 0 0.0093063131664897943 0.0062171562998514151 0 0.010106035740094228 0.0069794999202005504 0 0.0099605624580640408 0.0069377307246707822 0 -0.013218159099374934 0.0054463856771279889 0 -0.013793857266791857 0.0041992608935348952 0 -0.014627252351153195 0.0047288227064627708 0 -0.013793857266791857 0.0041992608935348952 0 -0.014627252351153195 0.0047288227064627708 0 -0.014917963467809322 0.0039628774651623584 0 -0.013793857266791857 0.0041992608935348952 0 -0.014917963467809322 0.0039628774651623584 0 -0.014777939961211552 0.0032459295831441847 0 -0.013793857266791857 0.0041992608935348952 0 -0.014777939961211552 0.0032459295831441847 0 -0.013548399870171028 0.0029904552376004943 0 -0.012242219834251698 0.0043084111703075986 0 -0.013793857266791857 0.0041992608935348952 0 -0.013548399870171028 0.0029904552376004943 0 -0.015115566958084423 0.0051540833267696073 0 -0.01556051766511294 0.0042702996182706074 0 -0.01582335841572197 0.0048234930140644066 0 -0.016272267125135662 0.004236084915665371 0 -0.01556051766511294 0.0042702996182706074 0 -0.01582335841572197 0.0048234930140644066 0 -0.015115566958084423 0.0051540833267696073 0 -0.01556051766511294 0.0042702996182706074 0 -0.014627252351153195 0.0047288227064627708 0 -0.01556051766511294 0.0042702996182706074 0 -0.014627252351153195 0.0047288227064627708 0 -0.014917963467809322 0.0039628774651623584 0 -0.014917963467809322 0.0039628774651623584 0 -0.015740761185200094 0.0033584435298222495 0 -0.014777939961211552 0.0032459295831441847 0 -0.01556051766511294 0.0042702996182706074 0 -0.014917963467809322 0.0039628774651623584 0 -0.015740761185200094 0.0033584435298222495 0 -0.01556051766511294 0.0042702996182706074 0 -0.016226441461939061 0.003659879584342289 0 -0.015740761185200094 0.0033584435298222495 0 -0.016272267125135662 0.004236084915665371 0 -0.01556051766511294 0.0042702996182706074 0 -0.016226441461939061 0.003659879584342289 0 -0.016226441461939061 0.003659879584342289 0 -0.015740761185200094 0.0033584435298222495 0 -0.016560260559168757 0.0026591948985893892 0 -0.015740761185200094 0.0033584435298222495 0 -0.015836918644998872 0.0025816620542814857 0 -0.016560260559168757 0.0026591948985893892 0 -0.015740761185200094 0.0033584435298222495 0 -0.014777939961211552 0.0032459295831441847 0 -0.015836918644998872 0.0025816620542814857 0 -0.014777939961211552 0.0032459295831441847 0 -0.015836918644998872 0.0025816620542814857 0 -0.014850283000397892 0.0021942093559647476 0 -0.015836918644998872 0.0025816620542814857 0 -0.014850283000397892 0.0021942093559647476 0 -0.016500773683187666 0.0018686878649991885 0 -0.016166947482809967 0.0015891456777539174 0 -0.018780083423151146 0.0047610692474284056 0 -0.015836918644998872 0.0025816620542814857 0 -0.016500773683187666 0.0018686878649991885 0 -0.016560260559168757 0.0026591948985893892 0 -0.012242219834251698 0.0043084111703075986 0 -0.013548399870171028 0.0029904552376004943 0 -0.012238277011717964 0.0023820677421764924 0 -0.013548399870171028 0.0029904552376004943 0 -0.012238277011717964 0.0023820677421764924 0 -0.013376551470662348 0.0016297989993550766 0 -0.014777939961211552 0.0032459295831441847 0 -0.013548399870171028 0.0029904552376004943 0 -0.014850283000397892 0.0021942093559647476 0 -0.013548399870171028 0.0029904552376004943 0 -0.014850283000397892 0.0021942093559647476 0 -0.013376551470662348 0.0016297989993550766 0 -0.014850283000397892 0.0021942093559647476 0 -0.013376551470662348 0.0016297989993550766 0 -0.014703755544306954 0.00088455046988949006 0 -0.012238277011717964 0.0023820677421764924 0 -0.013376551470662348 0.0016297989993550766 0 -0.011492981020982361 0.00067105988063584441 0 -0.013376551470662348 0.0016297989993550766 0 -0.012264992647208506 -0.0008941614063169228 0 -0.011492981020982361 0.00067105988063584441 0 -0.013376551470662348 0.0016297989993550766 0 -0.014703755544306954 0.00088455046988949006 0 -0.012264992647208506 -0.0008941614063169228 0 -0.014703755544306954 0.00088455046988949006 0 -0.01508300492123049 -0.00042339208925493371 0 -0.012264992647208506 -0.0008941614063169228 0 -0.014423275206781608 -0.00035506082509519229 0 -0.013158025958312147 -0.00012336968396811187 0 -0.01508300492123049 -0.00042339208925493371 0 -0.0120897700143045 0.00085119204254699129 0 -0.012696920213810832 -0.0014421869153743423 0 -0.016500773683187666 0.0018686878649991885 0 -0.019397766727919034 0.0051501598767761227 0 -0.019815281101984005 0.0017153232663408586 0 -0.016500773683187666 0.0018686878649991885 0 -0.018511225251494751 0.0006974429757761483 0 -0.019815281101984005 0.0017153232663408586 0 -0.014850283000397892 0.0021942093559647476 0 -0.014703755544306954 0.00088455046988949006 0 -0.016500773683187666 0.0018686878649991885 0 -0.014703755544306954 0.00088455046988949006 0 -0.01508300492123049 -0.00042339208925493371 0 -0.016500773683187666 0.0018686878649991885 0 -0.01508300492123049 -0.00042339208925493371 0 -0.016500773683187666 0.0018686878649991885 0 -0.017372179432306012 -0.00030214319571497038 0 -0.018511225251494751 0.0006974429757761483 0 -0.017372179432306012 -0.00030214319571497038 0 -0.019926954380963997 3.7916458968203884e-05 0 -0.016500773683187666 0.0018686878649991885 0 -0.018511225251494751 0.0006974429757761483 0 -0.017372179432306012 -0.00030214319571497038 0 -0.018945166340662185 -0.0026058571743075103 0 -0.017395503610660893 0.00013742337025954721 0 -0.019171608436123849 -0.00055590443138897887 0 -0.017372179432306012 -0.00030214319571497038 0 -0.019926954380963997 3.7916458968203884e-05 0 -0.019171608436123849 -0.00055590443138897887 0 -0.020066550413257212 -0.00072373982658166579 0 -0.020593439559129848 -0.00025196954807388451 0 -0.017993363594756267 -0.002824470074705369 0 -0.015179230363612762 -0.0024038074496782174 0 -0.015643680073454073 -0.0048107814060828809 0 -0.01508300492123049 -0.00042339208925493371 0 -0.017372179432306012 -0.00030214319571497038 0 -0.015179230363612762 -0.0024038074496782174 0 -0.017993363594756267 -0.002824470074705369 0 -0.017372179432306012 -0.00030214319571497038 0 -0.015179230363612762 -0.0024038074496782174 0 -0.01508300492123049 -0.00042339208925493371 0 -0.012696920213810832 -0.0014421869153743423 0 -0.015179230363612762 -0.0024038074496782174 0 -0.012696920213810832 -0.0014421869153743423 0 -0.015179230363612762 -0.0024038074496782174 0 -0.012582160449908366 -0.0044531120223302006 0 -0.011688548899828706 0.0022571321605074231 0 -0.012254652160195306 0.002198882769528618 0 -0.010799754381054429 0.0089724103614584241 0 -0.010253953214570441 0.0095502283255772241 0 -0.0099585724567710903 0.0090291543870331913 0 -0.015179230363612762 -0.0024038074496782174 0 -0.012582160449908366 -0.0044531120223302006 0 -0.015643680073454073 -0.0048107814060828809 0 -0.010253953214570441 0.0095502283255772241 0 -0.011052589235108061 0.0094994386935123559 0 -0.010867585366500244 0.010142791006110843 0 -0.010799754381054429 0.0089724103614584241 0 -0.010253953214570441 0.0095502283255772241 0 -0.011052589235108061 0.0094994386935123559 0 -0.010294655189246753 0.0095945421636693187 0 -0.011062406535940596 0.010222811544740329 0 -0.010253953214570441 0.0095502283255772241 0 -0.0095121787259051065 0.0096749932138867345 0 -0.0099585724567710903 0.0090291543870331913 0 -0.010253953214570441 0.0095502283255772241 0 -0.0095121787259051065 0.0096749932138867345 0 -0.009928728187413062 0.010030614966392489 0 -0.0095121787259051065 0.0096749932138867345 0 -0.0089941149209469239 0.0090966644442300078 0 -0.0087382925020773796 0.0098106089829676293 0 -0.01635697359481731 0.0015230417608616564 0 -0.018321907793661114 0.003628062278000669 0 -0.017993363594756267 -0.002824470074705369 0 -0.01869576710112995 -0.0051157466240728559 0 -0.015643680073454073 -0.0048107814060828809 0 -0.018945166340662185 -0.0026058571743075103 0 -0.01635697359481731 0.0015230417608616564 0 -0.0095121787259051065 0.0096749932138867345 0 -0.0089941149209469239 0.0090966644442300078 0 -0.0099585724567710903 0.0090291543870331913 0 -0.01635697359481731 0.0015230417608616564 0 -0.012254652160195306 0.002198882769528618 0 -0.01325081172327725 0.0087760632811848659 0 -0.0044818378229151742 0.0077659927829504295 0 -0.011982007132435362 0.0092424772855586208 0 -0.012244907564537598 0.0090375213401350813 0 -0.012163147216753404 0.0088211106856223177 0 -0.01110681519040712 0.0023436942352382168 0 -0.0067578843519542717 0.0029229904952367308 0 -0.011982007132435362 0.0092424772855586208 0 -0.011621215231710674 0.0088825204308775225 0 -0.012163147216753404 0.0088211106856223177 0 0.0042605753008923769 0.0086494113114649485 0 0.004186625678220467 0.0086238879034644077 0 0.0044225105820908696 0.0084145572449272101 0 -0.0044818378229151742 0.0077659927829504295 0 -0.0067578843519542717 0.0029229904952367308 0 0.0020408675703490592 0.0080262866886797804 0 0.0033145424924023652 0.0086121345232051862 0 0.0046734299276642473 0.0057333781753473364 0 0.010912298104821904 0.0083633064235993232 0 -0.0044818378229151742 0.0077659927829504295 0 -0.012941974481748549 0.0089635638295953307 0 -0.012809601919419223 0.0096265112917514328 0 -0.013445341687984209 0.0099961710165101941 0 0.004186625678220467 0.0086238879034644077 0 0.0044225105820908696 0.0084145572449272101 0 0.0043498509083484231 0.0083449264663862724 0 -0.0044818378229151742 0.0077659927829504295 0 -0.0056677833705978163 0.0097189651531456173 0 -0.012809601919419223 0.0096265112917514328 0 -0.013445341687984209 0.0099961710165101941 0 -0.012442375715533855 0.010264351285930116 0 -0.012316087471823951 0.0092730905084050293 0 -0.012941974481748549 0.0089635638295953307 0 -0.012809601919419223 0.0096265112917514328 0 -0.012316087471823951 0.0092730905084050293 0 -0.012809601919419223 0.0096265112917514328 0 -0.012442375715533855 0.010264351285930116 0 -0.012316087471823951 0.0092730905084050293 0 -0.011645531283455853 0.0095504381963549042 0 -0.012442375715533855 0.010264351285930116 0 -0.01325081172327725 0.0087760632811848659 0 -0.011312308641906745 0.0096809366018675031 0 -0.011645531283455853 0.0095504381963549042 0 -0.011052589235108061 0.0094994386935123559 0 -0.010867585366500244 0.010142791006110843 0 -0.010799754381054429 0.0089724103614584241 0 -0.011052589235108061 0.0094994386935123559 0 -0.011621215231710674 0.0088825204308775225 0 -0.011645531283455853 0.0095504381963549042 0 -0.011052589235108061 0.0094994386935123559 0 -0.011621215231710674 0.0088825204308775225 0 -0.011688548899828706 0.0022571321605074231 0 -0.01110681519040712 0.0023436942352382168 0 -0.011982007132435362 0.0092424772855586208 0 -0.011645531283455853 0.0095504381963549042 0 -0.011621215231710674 0.0088825204308775225 0 -0.0095034652604744398 -0.0040601517152388626 0 -0.008537360771819576 -0.0026103368268483966 0 -0.010013891659189297 -0.0018473224814944053 0 -0.012582160449908366 -0.0044531120223302006 0 -0.0095034652604744398 -0.0040601517152388626 0 -0.010013891659189297 -0.0018473224814944053 0 -0.012696920213810832 -0.0014421869153743423 0 -0.012582160449908366 -0.0044531120223302006 0 -0.010013891659189297 -0.0018473224814944053 0 -0.012696920213810832 -0.0014421869153743423 0 -0.010013891659189297 -0.0018473224814944053 0 -0.010130324737194172 4.5328932460061229e-05 0 -0.010013891659189297 -0.0018473224814944053 0 -0.008614605475104245 -0.0012383758138756061 0 -0.010130324737194172 4.5328932460061229e-05 0 -0.008537360771819576 -0.0026103368268483966 0 -0.010013891659189297 -0.0018473224814944053 0 -0.008614605475104245 -0.0012383758138756061 0 -0.008614605475104245 -0.0012383758138756061 0 -0.0073461081540492886 -0.0017067625907531347 0 -0.0081886071508093568 0.00012424574564113698 0 0.0041196255472546982 0.00061822278794874692 0 0.0040754052714068725 0.00056729743241383729 0 0.0039130499033728965 0.00080983647788564499 0 0.0031119651731584966 -0.00058694555638939122 0 -0.0023513483435006308 0.00083792034559416627 0 0.011740042575661023 0.0024043195958239252 0 0.010248026815718564 0.0012719986225141675 0 0.0063109402164642781 -0.00031882880291334356 0 0.0070439646144840077 0.00060659479397448047 0 0.004165446567706458 0.00384933090434557 0 0.011740042575661023 0.0024043195958239252 0 0.0031119651731584966 -0.00058694555638939122 0 -0.008537360771819576 -0.0026103368268483966 0 -0.008614605475104245 -0.0012383758138756061 0 -0.0073461081540492886 -0.0017067625907531347 0 -0.0095034652604744398 -0.0040601517152388626 0 -0.008537360771819576 -0.0026103368268483966 0 -0.0064561119132961276 -0.0036308841518465948 0 -0.008537360771819576 -0.0026103368268483966 0 -0.0073461081540492886 -0.0017067625907531347 0 -0.0064561119132961276 -0.0036308841518465948 0 0.0031119651731584966 -0.00058694555638939122 0 -0.0067578843519542717 0.0029229904952367308 0 0.0070439646144840077 0.00060659479397448047 0 0.0046734299276642473 0.0057333781753473364 0 0.004165446567706458 0.00384933090434557 0 0.011740042575661023 0.0024043195958239252 0 0.012775728751808895 0.0049476122611359944 0 0.021467554459254409 0.006095328872608146 0 0.021606993780335176 0.0064510564532679338 0 0.021254248041329582 0.0065384097550678141 0 0.010912298104821904 0.0083633064235993232 0 0.012775728751808895 0.0049476122611359944 0 0.0020408675703490592 0.0080262866886797804 0 0.0046734299276642473 0.0057333781753473364 0 0.004165446567706458 0.00384933090434557 0 0.021606993780335176 0.0064510564532679338 0 0.021254248041329582 0.0065384097550678141 0 0.021683804552904286 0.006833759242321007 0 0.026289667063952697 0.0064976280860367542 0 0.031983269299663934 0.0083720758507823834 0 0.021030225377506161 0.0069555215063019553 0 0.021254248041329582 0.0065384097550678141 0 0.021683804552904286 0.006833759242321007 0 0.021030225377506161 0.0069555215063019553 0 0.021376299278601435 0.0073308294298897519 0 0.021683804552904286 0.006833759242321007 0 0.011740042575661023 0.0024043195958239252 0 0.026289667063952697 0.0064976280860367542 0 0.020877757522819403 0.0014219627142156731 0 0.021718595139336862 0.0053899009333943084 0 0.025161359818398069 0.0066020551096166663 0 0.026289667063952697 0.0064976280860367542 0 0.034868890057675982 0.0091829598617781116 0 0.020525183776426766 0.002010539391328925 0 0.020877757522819403 0.0014219627142156731 0 0.021718595139336862 0.0053899009333943084 0 0.020525183776426766 0.002010539391328925 0 0.018555287413344924 0.0045448228620319168 0 0.021718595139336862 0.0053899009333943084 0 0.018300940891735389 -0.0016738907195003423 0 0.020525183776426766 0.002010539391328925 0 0.020863391267526267 0.0014284093802640248 0 0.026012496963515572 0.0060060016781152206 0 0.026289667063952697 0.0064976280860367542 0 0.018300940891735389 -0.0016738907195003423 0 0.020525183776426766 0.002010539391328925 0 0.016294215502486151 0.0022325919308231125 0 0.020525183776426766 0.002010539391328925 0 0.016294215502486151 0.0022325919308231125 0 0.018555287413344924 0.0045448228620319168 0 0.016294215502486151 0.0022325919308231125 0 0.018555287413344924 0.0045448228620319168 0 0.014225107565508091 0.006174672362112007 0 0.0041196255472546982 0.00061822278794874692 0 0.0039526955277983666 0.0008387786647858545 0 0.0039130499033728965 0.00080983647788564499 0 0.010248026815718564 0.0012719986225141675 0 0.0058526995307675925 0.0012934693950500569 0 0.019745848049547085 0.0033313778957353895 0 0.0058526995307675925 0.0012934693950500569 0 0.018555287413344924 0.0045448228620319168 0 0.019295121173653496 0.0080737441866135917 0 0.014225107565508091 0.006174672362112007 0 0.019295121173653496 0.0080737441866135917 0 0.021718595139336862 0.0053899009333943084 0 0.024365072532315728 0.0099170270043695778 0 0.018555287413344924 0.0045448228620319168 0 0.019295121173653496 0.0080737441866135917 0 0.021718595139336862 0.0053899009333943084 0 -0.0120897700143045 0.00085119204254699129 0 -0.012696920213810832 -0.0014421869153743423 0 -0.010130324737194172 4.5328932460061229e-05 0 -0.0120897700143045 0.00085119204254699129 0 -0.010130324737194172 4.5328932460061229e-05 0 -0.0090372672444388076 0.0019974183875399341 0 -0.0081886071508093568 0.00012424574564113698 0 -0.010130324737194172 4.5328932460061229e-05 0 -0.0090372672444388076 0.0019974183875399341 0 -0.008614605475104245 -0.0012383758138756061 0 -0.0081886071508093568 0.00012424574564113698 0 -0.010130324737194172 4.5328932460061229e-05 0 0.0039526955277983666 0.0008387786647858545 0 0.0039130499033728965 0.00080983647788564499 0 0.0037450786455530067 0.0010057345169998983 0 -0.0023513483435006308 0.00083792034559416627 0 -0.0043470169957383203 0.00026455906799288594 0 0.0039526955277983666 0.0008387786647858545 0 0.0037450786455530067 0.0010057345169998983 0 0.0037818224947808289 0.0010179250883499801 0 -0.0043470169957383203 0.00026455906799288594 0 0.0058526995307675925 0.0012934693950500569 0 -0.0043470169957383203 0.00026455906799288594 0 -0.006291994554810834 0.00029003946284047359 0 -0.0086062889291678452 -0.0015450049963956743 0 -0.0082513564522948609 -0.0014137426168332207 0 -0.0091176157010311853 -0.00055252452784031918 0 -0.012264992647208506 -0.0008941614063169228 0 -0.0088593051873086266 -0.0011183463423492864 0 -0.0091176157010311853 -0.00055252452784031918 0 -0.013158025958312147 -0.00012336968396811187 0 -0.0043470169957383203 0.00026455906799288594 0 -0.012264992647208506 -0.0008941614063169228 0 -0.0091176157010311853 -0.00055252452784031918 0 -0.011492981020982361 0.00067105988063584441 0 -0.0091176157010311853 -0.00055252452784031918 0 -0.011492981020982361 0.00067105988063584441 0 -0.010368124136475643 0.0020668784353415782 0 -0.012238277011717964 0.0023820677421764924 0 -0.011492981020982361 0.00067105988063584441 0 -0.010368124136475643 0.0020668784353415782 0 0.012676940703358884 -0.0027687867509225582 0 0.010433523111980073 0.0021929409250125986 0 0.014460191037587578 0.0010187443475164083 0 -0.0082513564522948609 -0.0014137426168332207 0 -0.0091176157010311853 -0.00055252452784031918 0 -0.010368124136475643 0.0020668784353415782 0 0.0058526995307675925 0.0012934693950500569 0 -0.00040478316649882203 0.0015116606271475118 0 0.012327929020665575 0.0044893390379846677 0 0.010433523111980073 0.0021929409250125986 0 0.014460191037587578 0.0010187443475164083 0 0.0093063131664897943 0.0062171562998514151 0 0.012327929020665575 0.0044893390379846677 0 0.010433523111980073 0.0021929409250125986 0 -0.0012547952884689399 0.0051894543762457191 0 -0.00040478316649882203 0.0015116606271475118 0 -0.012242219834251698 0.0043084111703075986 0 -0.012238277011717964 0.0023820677421764924 0 -0.010368124136475643 0.0020668784353415782 0 0.019745848049547085 0.0033313778957353895 0 0.022157450716034616 0.0039043193398887012 0 0.017032286271842754 -0.0023532669090150036 0 0.018718108298897172 0.0013035541823686598 0 0.021791219984926474 -0.0015594314482501783 0 0.017032286271842754 -0.0023532669090150036 0 0.014460191037587578 0.0010187443475164083 0 0.018718108298897172 0.0013035541823686598 0 0.017032286271842754 -0.0023532669090150036 0 0.012676940703358884 -0.0027687867509225582 0 0.014460191037587578 0.0010187443475164083 0 0.014460191037587578 0.0010187443475164083 0 0.016300056256796439 0.0036753673177008709 0 0.018718108298897172 0.0013035541823686598 0 0.012327929020665575 0.0044893390379846677 0 0.014460191037587578 0.0010187443475164083 0 0.016300056256796439 0.0036753673177008709 0 0.01993798924400875 0.0041480012331183555 0 0.018718108298897172 0.0013035541823686598 0 0.023348469873558729 0.0030780848900064635 0 0.01993798924400875 0.0041480012331183555 0 0.016300056256796439 0.0036753673177008709 0 0.018718108298897172 0.0013035541823686598 0 0.023348469873558729 0.0030780848900064635 0 0.021791219984926474 -0.0015594314482501783 0 0.025422061126874337 0.0012626211622833376 0 0.018718108298897172 0.0013035541823686598 0 0.023348469873558729 0.0030780848900064635 0 0.021791219984926474 -0.0015594314482501783 0 0.03176927704362454 0.0064737788520592603 0 0.034868890057675982 0.0091829598617781116 0 0.021791219984926474 -0.0015594314482501783 0 0.026712188125218892 -0.00022647906444933237 0 0.025422061126874337 0.0012626211622833376 0 0.022157450716034616 0.0039043193398887012 0 0.03176927704362454 0.0064737788520592603 0 0.024365072532315728 0.0099170270043695778 0 0.029392430635356934 0.011718115146239355 0 0.025161359818398069 0.0066020551096166663 0 0.041516275145301297 0.0093636313801191591 0 0.041297439750115614 0.0094686337051289784 0 0.04146578862535362 0.0098183770650527753 0 0.023348469873558729 0.0030780848900064635 0 0.025422061126874337 0.0012626211622833376 0 0.027262578158361125 0.0036789442692166672 0 0.03176927704362454 0.0064737788520592603 0 0.027665088377177738 0.0011458649805556696 0 0.026712188125218892 -0.00022647906444933237 0 0.028042083785279781 0.0013890486197471383 0 0.025422061126874337 0.0012626211622833376 0 0.028042083785279781 0.0013890486197471383 0 0.025422061126874337 0.0012626211622833376 0 0.027262578158361125 0.0036789442692166672 0 0.028042083785279781 0.0013890486197471383 0 0.027262578158361125 0.0036789442692166672 0 0.030088368198642825 0.0038501856053241653 0 0.028042083785279781 0.0013890486197471383 0 0.030088368198642825 0.0038501856053241653 0 0.032139181104782463 0.0024458559590724025 0 0.03176927704362454 0.0064737788520592603 0 0.037054362814513749 0.0055368479792862859 0 0.02698969035499621 -6.3025578797011147e-05 0 0.028042083785279781 0.0013890486197471383 0 0.032139181104782463 0.0024458559590724025 0 0.040603282052062963 0.0084188470112837362 0 0.041193557382983817 0.0089741596690593745 0 0.04103190046935614 0.0093395639406889091 0 0.038093933832803843 0.0067187704347259963 0 0.037054362814513749 0.0055368479792862859 0 0.041193557382983817 0.0089741596690593745 0 0.04103190046935614 0.0093395639406889091 0 0.041297439750115614 0.0094686337051289784 0 0.04103190046935614 0.0093395639406889091 0 0.041297439750115614 0.0094686337051289784 0 0.041189286676660206 0.0098202106507241666 0 0.041516275145301297 0.0093636313801191591 0 0.041193557382983817 0.0089741596690593745 0 0.041297439750115614 0.0094686337051289784 0 0.041297439750115614 0.0094686337051289784 0 0.041189286676660206 0.0098202106507241666 0 0.04146578862535362 0.0098183770650527753 0 0.04103190046935614 0.0093395639406889091 0 0.041189286676660206 0.0098202106507241666 0 0.040595040989744223 0.0095320432401164064 0 0.041189286676660206 0.0098202106507241666 0 0.041171524035318555 0.010254230866353343 0 0.040827613715390232 0.010214620793879099 0 0.041189286676660206 0.0098202106507241666 0 0.041171524035318555 0.010254230866353343 0 0.041415269951256085 0.010241290837481782 0 0.041189286676660206 0.0098202106507241666 0 0.041415269951256085 0.010241290837481782 0 0.04146578862535362 0.0098183770650527753 0 0.041415269951256085 0.010241290837481782 0 0.041569567204690794 0.010115964856855208 0 0.04146578862535362 0.0098183770650527753 0 0.041687528825057815 0.010096513145224174 0 0.041569567204690794 0.010115964856855208 0 0.041645526292873734 0.009807005106084437 0 0.041569567204690794 0.010115964856855208 0 0.041645526292873734 0.009807005106084437 0 0.04146578862535362 0.0098183770650527753 0 0.021718595139336862 0.0053899009333943084 0 0.024365072532315728 0.0099170270043695778 0 0.025161359818398069 0.0066020551096166663 0 0.041516275145301297 0.0093636313801191591 0 0.041645526292873734 0.009807005106084437 0 0.04146578862535362 0.0098183770650527753 0 0.039431367506513722 0.0083830651834893005 0 0.039884627869171303 0.009129159230647825 0 0.039720401056344154 0.0088115983180534676 0 0.039001402209075983 0.0076113579123378971 0 0.039431367506513722 0.0083830651834893005 0 0.039720401056344154 0.0088115983180534676 0 0.039884627869171303 0.009129159230647825 0 0.039720401056344154 0.0088115983180534676 0 0.040101062087254745 0.0094822965905599649 0 0.040603282052062963 0.0084188470112837362 0 0.04103190046935614 0.0093395639406889091 0 0.040595040989744223 0.0095320432401164064 0 0.040603282052062963 0.0084188470112837362 0 0.039720401056344154 0.0088115983180534676 0 0.040595040989744223 0.0095320432401164064 0 0.039720401056344154 0.0088115983180534676 0 0.040595040989744223 0.0095320432401164064 0 0.040101062087254745 0.0094822965905599649 0 0.040603282052062963 0.0084188470112837362 0 0.039001402209075983 0.0076113579123378971 0 0.039720401056344154 0.0088115983180534676 0 0.041189286676660206 0.0098202106507241666 0 0.040595040989744223 0.0095320432401164064 0 0.040827613715390232 0.010214620793879099 0 0.040827613715390232 0.010214620793879099 0 0.040417226038919347 0.010025092102464475 0 0.040555745017374065 0.010524363866219565 0 0.040595040989744223 0.0095320432401164064 0 0.040101062087254745 0.0094822965905599649 0 0.040417226038919347 0.010025092102464475 0 0.040595040989744223 0.0095320432401164064 0 0.040827613715390232 0.010214620793879099 0 0.040417226038919347 0.010025092102464475 0 0.040101062087254745 0.0094822965905599649 0 0.040417226038919347 0.010025092102464475 0 0.040204937727145125 0.0099047228696034564 0 0.040417226038919347 0.010025092102464475 0 0.040204937727145125 0.0099047228696034564 0 0.040433133271337691 0.010674386888185297 0 0.040204937727145125 0.0099047228696034564 0 0.040433133271337691 0.010674386888185297 0 0.040332800982445717 0.010407705089976843 0 0.039884627869171303 0.009129159230647825 0 0.040101062087254745 0.0094822965905599649 0 0.040204937727145125 0.0099047228696034564 0 0.040433133271337691 0.010674386888185297 0 0.040504965254048217 0.011401104403858001 0 0.040455232623239988 0.011056668469774222 0 0.040433133271337691 0.010674386888185297 0 0.040332800982445717 0.010407705089976843 0 0.040455232623239988 0.011056668469774222 0 0.040417226038919347 0.010025092102464475 0 0.040433133271337691 0.010674386888185297 0 0.040555745017374065 0.010524363866219565 0 0.040433133271337691 0.010674386888185297 0 0.040639936374493139 0.011233852888569019 0 0.040555745017374065 0.010524363866219565 0 0.040433133271337691 0.010674386888185297 0 0.040639936374493139 0.011233852888569019 0 0.040504965254048217 0.011401104403858001 0 0.040639936374493139 0.011233852888569019 0 0.040762533539212512 0.010748747348374608 0 0.040863709397485605 0.011148182723604051 0 0.040639936374493139 0.011233852888569019 0 0.040555745017374065 0.010524363866219565 0 0.040762533539212512 0.010748747348374608 0 0.040827613715390232 0.010214620793879099 0 0.040555745017374065 0.010524363866219565 0 0.040762533539212512 0.010748747348374608 0 0.040827613715390232 0.010214620793879099 0 0.040762533539212512 0.010748747348374608 0 0.041011593543694193 0.010752438240241058 0 0.040762533539212512 0.010748747348374608 0 0.040863709397485605 0.011148182723604051 0 0.041011593543694193 0.010752438240241058 0 0.040863709397485605 0.011148182723604051 0 0.041011593543694193 0.010752438240241058 0 0.041201456590553229 0.011301719437879602 0 0.040863709397485605 0.011148182723604051 0 0.0408693981717742 0.011627358069338695 0 0.041201456590553229 0.011301719437879602 0 0.040639936374493139 0.011233852888569019 0 0.040863709397485605 0.011148182723604051 0 0.0408693981717742 0.011627358069338695 0 0.0408693981717742 0.011627358069338695 0 0.040627143076296474 0.011829731712673069 0 0.040844138032433634 0.012155552111280462 0 0.0408693981717742 0.011627358069338695 0 0.041232030932391479 0.01196281876911361 0 0.040844138032433634 0.012155552111280462 0 0.040639936374493139 0.011233852888569019 0 0.0408693981717742 0.011627358069338695 0 0.040627143076296474 0.011829731712673069 0 0.040639936374493139 0.011233852888569019 0 0.040627143076296474 0.011829731712673069 0 0.040504965254048217 0.011401104403858001 0 0.040627143076296474 0.011829731712673069 0 0.040493197851947847 0.011878624793416757 0 0.040504965254048217 0.011401104403858001 0 0.040627143076296474 0.011829731712673069 0 0.040493197851947847 0.011878624793416757 0 0.040503276207519298 0.012216677123043231 0 0.040504965254048217 0.011401104403858001 0 0.040455232623239988 0.011056668469774222 0 0.04052729000959187 0.011652233018512008 0 0.040493197851947847 0.011878624793416757 0 0.040504965254048217 0.011401104403858001 0 0.04052729000959187 0.011652233018512008 0 0.041422914889140842 0.010477165908089286 0 0.041497364172221683 0.010486006925202348 0 0.041508425871201321 0.010327372893166469 0 0.043240722679028724 0.011365786466463036 0 0.032143599927506775 0.0099421114070737671 0 0.021606993780335176 0.0064510564532679338 0 0.022031270297136342 0.0063251460231570251 0 0.021683804552904286 0.006833759242321007 0 0.032143599927506775 0.0099421114070737671 0 0.031983269299663934 0.0083720758507823834 0 0.041497364172221683 0.010486006925202348 0 0.041608024866007474 0.010315718401832871 0 0.041508425871201321 0.010327372893166469 0 0.041569567204690794 0.010115964856855208 0 0.041608024866007474 0.010315718401832871 0 0.041508425871201321 0.010327372893166469 0 0.041687528825057815 0.010096513145224174 0 0.041569567204690794 0.010115964856855208 0 0.041608024866007474 0.010315718401832871 0 0.041415269951256085 0.010241290837481782 0 0.041569567204690794 0.010115964856855208 0 0.041508425871201321 0.010327372893166469 0 0.041415269951256085 0.010241290837481782 0 0.041422914889140842 0.010477165908089286 0 0.041508425871201321 0.010327372893166469 0 0.041171524035318555 0.010254230866353343 0 0.041415269951256085 0.010241290837481782 0 0.041293751806651083 0.010614251223735192 0 0.041415269951256085 0.010241290837481782 0 0.041422914889140842 0.010477165908089286 0 0.041293751806651083 0.010614251223735192 0 0.041171524035318555 0.010254230866353343 0 0.040827613715390232 0.010214620793879099 0 0.041011593543694193 0.010752438240241058 0 0.041171524035318555 0.010254230866353343 0 0.041011593543694193 0.010752438240241058 0 0.041293751806651083 0.010614251223735192 0 0.041011593543694193 0.010752438240241058 0 0.041293751806651083 0.010614251223735192 0 0.041201456590553229 0.011301719437879602 0 0.041672211876208669 0.011052889041599892 0 0.041466651533707218 0.011130749598677355 0 0.041618037298587762 0.01140774660153049 0 0.043240722679028724 0.011365786466463036 0 0.04066189905439712 0.010353392019650251 0 0.041293751806651083 0.010614251223735192 0 0.041466651533707218 0.011130749598677355 0 0.041201456590553229 0.011301719437879602 0 0.041672211876208669 0.011052889041599892 0 0.041293751806651083 0.010614251223735192 0 0.041466651533707218 0.011130749598677355 0 0.041618037298587762 0.01140774660153049 0 0.041201456590553229 0.011301719437879602 0 0.041232030932391479 0.01196281876911361 0 0.041466651533707218 0.011130749598677355 0 0.041618037298587762 0.01140774660153049 0 0.041201456590553229 0.011301719437879602 0 0.0408693981717742 0.011627358069338695 0 0.041201456590553229 0.011301719437879602 0 0.041232030932391479 0.01196281876911361 0 0.041618037298587762 0.01140774660153049 0 0.041232030932391479 0.01196281876911361 0 0.041821874200397284 0.011914740697989708 0 0.042494386476559315 0.013831286645102473 0 0.028243454884782648 0.0092293591683847952 0 0.041770635392699602 0.011245459797047342 0 0.041618037298587762 0.01140774660153049 0 0.041569200435244175 0.011504410822073683 0 0.032143599927506775 0.0099421114070737671 0 0.028243454884782648 0.0092293591683847952 0 0.041672211876208669 0.011052889041599892 0 0.041770635392699602 0.011245459797047342 0 0.041618037298587762 0.01140774660153049 0 0.019984709156542258 0.010017583931857855 0 0.021024291861495358 0.0081421337162961432 0 0.019853579212752048 0.0089353490571725119 0 0.010912298104821904 0.0083633064235993232 0 0.032143599927506775 0.0099421114070737671 0 0.021467554459254409 0.006095328872608146 0 0.021606993780335176 0.0064510564532679338 0 0.022031270297136342 0.0063251460231570251 0 0.018825105302698344 0.009521365793186182 0 0.019984709156542258 0.010017583931857855 0 0.019853579212752048 0.0089353490571725119 0 0.021024291861495358 0.0081421337162961432 0 0.019853579212752048 0.0089353490571725119 0 0.01956262519300167 0.0080670987244621153 0 0.010912298104821904 0.0083633064235993232 0 0.012052921239345966 0.0083823907150447907 0 0.018825105302698344 0.009521365793186182 0 0.019853579212752048 0.0089353490571725119 0 0.01956262519300167 0.0080670987244621153 0 0.012052921239345966 0.0083823907150447907 0 0.012004739767418598 0.0069416952143702953 0 -0.013445341687984209 0.0099961710165101941 0 -0.013863221426890001 0.011059492310698542 0 -0.013235281326156581 0.011038015149514987 0 0.0044225105820908696 0.0084145572449272101 0 0.0043498509083484231 0.0083449264663862724 0 0.00464216724335455 0.0080970729272720407 0 0.0043498509083484231 0.0083449264663862724 0 0.0045758777242882465 0.0079659536774977589 0 0.00464216724335455 0.0080970729272720407 0 0.021024291861495358 0.0081421337162961432 0 0.01956262519300167 0.0080670987244621153 0 0.020251431273244327 0.0066175127244325815 0 -0.0056677833705978163 0.0097189651531456173 0 0.003900118784451798 0.0093474032823558182 0 -0.013863221426890001 0.011059492310698542 0 -0.013509935269171797 0.011951041518225578 0 -0.013235281326156581 0.011038015149514987 0 0.003900118784451798 0.0093474032823558182 0 0.012004739767418598 0.0069416952143702953 0 0.011976068693878463 0.0075060352167438602 0 0.01198635375871592 0.0070611206893809314 0 0.01178621884003361 0.0073814208532312318 0 0.012283244361717087 0.0073103011508035875 0 0.011976068693878463 0.0075060352167438602 0 0.012180799994206518 0.0070872088425829888 0 0.012038040236497172 0.007423501056595329 0 0.012004739767418598 0.0069416952143702953 0 0.011976068693878463 0.0075060352167438602 0 0.01198635375871592 0.0070611206893809314 0 0.012410328169612012 0.0069472128021525808 0 0.012250357247458101 0.0062772929920112096 0 0.01198635375871592 0.0070611206893809314 0 0.011627423092297244 0.0070085078798597976 0 0.028243454884782648 0.0092293591683847952 0 0.012004739767418598 0.0069416952143702953 0 0.012250357247458101 0.0062772929920112096 0 0.01198635375871592 0.0070611206893809314 0 0.012410328169612012 0.0069472128021525808 0 0.041232030932391479 0.01196281876911361 0 0.041821874200397284 0.011914740697989708 0 0.041442775280875671 0.012750799950251506 0 0.028243454884782648 0.0092293591683847952 0 0.026334763700127412 0.0099164183417984678 0 0.041232030932391479 0.01196281876911361 0 0.040935230545316163 0.012720821887289235 0 0.041442775280875671 0.012750799950251506 0 0.041232030932391479 0.01196281876911361 0 0.040935230545316163 0.012720821887289235 0 0.040844138032433634 0.012155552111280462 0 0.040935230545316163 0.012720821887289235 0 0.041442775280875671 0.012750799950251506 0 0.040933502739091632 0.013665494214185319 0 0.011627423092297244 0.0070085078798597976 0 0.01178621884003361 0.0073814208532312318 0 0.011518921594066785 0.0076887801805339048 0 0.026334763700127412 0.0099164183417984678 0 0.025962551600979843 0.010699661627539186 0 0.01198635375871592 0.0070611206893809314 0 0.011627423092297244 0.0070085078798597976 0 0.01178621884003361 0.0073814208532312318 0 0.011627423092297244 0.0070085078798597976 0 0.011518921594066785 0.0076887801805339048 0 0.010912142446194199 0.0077666281478608185 0 0.01178621884003361 0.0073814208532312318 0 0.011518921594066785 0.0076887801805339048 0 0.011805386259946172 0.0076257749406932014 0 0.011518921594066785 0.0076887801805339048 0 0.010912142446194199 0.0077666281478608185 0 0.011481170019656832 0.008266226471610634 0 0.011518921594066785 0.0076887801805339048 0 0.011481170019656832 0.008266226471610634 0 0.011807558543689943 0.007841537344249536 0 0.011518921594066785 0.0076887801805339048 0 0.011805386259946172 0.0076257749406932014 0 0.011807558543689943 0.007841537344249536 0 0.040935230545316163 0.012720821887289235 0 0.040933502739091632 0.013665494214185319 0 0.040621636061801067 0.013266841461263919 0 0.010912142446194199 0.0077666281478608185 0 0.010415076680925837 0.0088028442023712402 0 0.010656464031811032 0.0092732348462510068 0 0.025962551600979843 0.010699661627539186 0 0.025260565455834605 0.011667220565195893 0 0.010912142446194199 0.0077666281478608185 0 0.011481170019656832 0.008266226471610634 0 0.010656464031811032 0.0092732348462510068 0 0.011481170019656832 0.008266226471610634 0 0.01200287162178788 0.0082322264112402992 0 0.011967568324060075 0.0090405126278211463 0 0.01200287162178788 0.0082322264112402992 0 0.01255478827161304 0.0083057113169033529 0 0.011967568324060075 0.0090405126278211463 0 0.011481170019656832 0.008266226471610634 0 0.01200287162178788 0.0082322264112402992 0 0.011807558543689943 0.007841537344249536 0 0.011189194418323115 0.0068470688509111805 0 0.011985720949782154 0.0075879506055176 0 0.01200287162178788 0.0082322264112402992 0 0.01255478827161304 0.0083057113169033529 0 0.012079952820833382 0.007677977742560088 0 0.010223417999188095 0.0053048629270928968 0 0.0084892236291338914 0.0071609434718226837 0 0.0083431516394102245 0.0030678047713408848 0 0.011189194418323115 0.0068470688509111805 0 0.0080380916479023817 0.0089740036619288879 0 0.010223417999188095 0.0053048629270928968 0 0.010543252632755688 0.0075800536103098502 0 0.012079952820833382 0.007677977742560088 0 0.010288039043600383 0.011216894977405351 0 0.010543252632755688 0.0075800536103098502 0 0.0084892236291338914 0.0071609434718226837 0 0.010288039043600383 0.011216894977405351 0 0.010543252632755688 0.0075800536103098502 0 0.011909542341777572 0.0078646416932582862 0 0.010223417999188095 0.0053048629270928968 0 0.010543252632755688 0.0075800536103098502 0 0.0084892236291338914 0.0071609434718226837 0 0.003900118784451798 0.0093474032823558182 0 -0.0027858357079615795 0.0093761414080624373 0 0.011976068693878463 0.0075060352167438602 0 0.011951617722012862 0.0077234162244828059 0 0.011909542341777572 0.0078646416932582862 0 0.003900118784451798 0.0093474032823558182 0 0.012531203453176992 0.0070874851527993939 0 0.012283244361717087 0.0073103011508035875 0 0.011976068693878463 0.0075060352167438602 0 0.011909542341777572 0.0078646416932582862 0 0.011976068693878463 0.0075060352167438602 0 0.011805386259946172 0.0076257749406932014 0 0.011951617722012862 0.0077234162244828059 0 0.011976068693878463 0.0075060352167438602 0 0.01178621884003361 0.0073814208532312318 0 0.011805386259946172 0.0076257749406932014 0 0.011951617722012862 0.0077234162244828059 0 0.011807558543689943 0.007841537344249536 0 0.012079952820833382 0.007677977742560088 0 0.01200287162178788 0.0082322264112402992 0 0.011807558543689943 0.007841537344249536 0 0.012079952820833382 0.007677977742560088 0 0.011805386259946172 0.0076257749406932014 0 0.011951617722012862 0.0077234162244828059 0 0.011807558543689943 0.007841537344249536 0 0.010543252632755688 0.0075800536103098502 0 0.012079952820833382 0.007677977742560088 0 0.011909542341777572 0.0078646416932582862 0 0.011951617722012862 0.0077234162244828059 0 0.012079952820833382 0.007677977742560088 0 0.011909542341777572 0.0078646416932582862 0 0.040452058190349791 0.012459654218596908 0 0.040336453335118067 0.013045401808576246 0 0.040468991553741888 0.012738947676783966 0 0.040493197851947847 0.011878624793416757 0 0.040452058190349791 0.012459654218596908 0 0.040503276207519298 0.012216677123043231 0 0.040493197851947847 0.011878624793416757 0 0.040452058190349791 0.012459654218596908 0 0.040550697568557774 0.012149582349751832 0 0.040452058190349791 0.012459654218596908 0 0.040503276207519298 0.012216677123043231 0 0.040428491081427868 0.012767473028088457 0 0.040452058190349791 0.012459654218596908 0 0.040428491081427868 0.012767473028088457 0 0.040336453335118067 0.013045401808576246 0 0.040428491081427868 0.012767473028088457 0 0.040633585393067884 0.012679603219942503 0 0.04030307330463008 0.013428442440358429 0 0.040627143076296474 0.011829731712673069 0 0.040844138032433634 0.012155552111280462 0 0.040633585393067884 0.012679603219942503 0 0.040503276207519298 0.012216677123043231 0 0.040428491081427868 0.012767473028088457 0 0.040633585393067884 0.012679603219942503 0 0.040627143076296474 0.011829731712673069 0 0.040503276207519298 0.012216677123043231 0 0.040633585393067884 0.012679603219942503 0 0.040935230545316163 0.012720821887289235 0 0.040844138032433634 0.012155552111280462 0 0.040633585393067884 0.012679603219942503 0 0.040935230545316163 0.012720821887289235 0 0.040633585393067884 0.012679603219942503 0 0.040621636061801067 0.013266841461263919 0 0.040933502739091632 0.013665494214185319 0 0.040621636061801067 0.013266841461263919 0 0.040169847208740728 0.014509937337314609 0 0.040621636061801067 0.013266841461263919 0 0.04030307330463008 0.013428442440358429 0 0.040169847208740728 0.014509937337314609 0 0.04030307330463008 0.013428442440358429 0 0.039984403979435722 0.014157233834340179 0 0.040169847208740728 0.014509937337314609 0 0.040633585393067884 0.012679603219942503 0 0.040621636061801067 0.013266841461263919 0 0.04030307330463008 0.013428442440358429 0 0.04030307330463008 0.013428442440358429 0 0.040178823219263873 0.013596999813981714 0 0.040336453335118067 0.013045401808576246 0 0.040428491081427868 0.012767473028088457 0 0.04030307330463008 0.013428442440358429 0 0.040336453335118067 0.013045401808576246 0 0.04030307330463008 0.013428442440358429 0 0.040178823219263873 0.013596999813981714 0 0.039984403979435722 0.014157233834340179 0 0.040178823219263873 0.013596999813981714 0 0.040096764450978796 0.013870376888326949 0 0.040328249916622233 0.013385038019970812 0 0.040178823219263873 0.013596999813981714 0 0.040336453335118067 0.013045401808576246 0 0.040328249916622233 0.013385038019970812 0 0.040336453335118067 0.013045401808576246 0 0.040468991553741888 0.012738947676783966 0 0.040328249916622233 0.013385038019970812 0 0.040096764450978796 0.013870376888326949 0 0.039869915922200676 0.014187056695867117 0 0.04016544286047824 0.013805986719923493 0 0.040178823219263873 0.013596999813981714 0 0.040096764450978796 0.013870376888326949 0 0.039984403979435722 0.014157233834340179 0 0.039587019033291447 0.014694417945865091 0 0.039984403979435722 0.014157233834340179 0 0.039869915922200676 0.014187056695867117 0 0.040096764450978796 0.013870376888326949 0 0.039984403979435722 0.014157233834340179 0 0.039869915922200676 0.014187056695867117 0 0.039587019033291447 0.014694417945865091 0 0.039984403979435722 0.014157233834340179 0 0.040169847208740728 0.014509937337314609 0 0.025266726439877339 0.011800582099578778 0 0.025260565455834605 0.011667220565195893 0 0.010412537434295696 0.0092876955544968758 0 0.010415076680925837 0.0088028442023712402 0 0.010251163092274279 0.0096081855023674948 0 0.010412537434295696 0.0092876955544968758 0 0.010025113667365915 0.0098268040879271705 0 0.010251163092274279 0.0096081855023674948 0 0.010412537434295696 0.0092876955544968758 0 0.010025113667365915 0.0098268040879271705 0 0.010274836051193097 0.0094749893254564583 0 0.0077356040800817339 0.010260696504362201 0 0.010715061018323051 0.010458209136798837 0 0.010025113667365915 0.0098268040879271705 0 0.010274836051193097 0.0094749893254564583 0 0.0097275454134438128 0.010435605520677215 0 0.0097657288601196296 0.011276150579907225 0 0.0097275454134438128 0.010435605520677215 0 0.0095674844125889502 0.011024611676107854 0 0.0097657288601196296 0.011276150579907225 0 0.01062253490406488 0.011617813135253416 0 0.010206937387663586 0.010951774417016946 0 0.0077356040800817339 0.010260696504362201 0 0.023755573790849905 0.012115003211469581 0 0.025266726439877339 0.011800582099578778 0 0.023755573790849905 0.012115003211469581 0 0.010412537434295696 0.0092876955544968758 0 0.010274836051193097 0.0094749893254564583 0 0.010796433644069618 0.0091087830123696353 0 0.039587019033291447 0.014694417945865091 0 0.039869915922200676 0.014187056695867117 0 0.039506466871669109 0.014208737748935522 0 0.039869915922200676 0.014187056695867117 0 0.039506466871669109 0.014208737748935522 0 0.039974590616944722 0.013837308757118933 0 0.03025452748335886 0.014444953754343633 0 0.033393168787882788 0.014558173923881756 0 0.031827614337061834 0.011840416673692868 0 0.023755573790849905 0.012115003211469581 0 0.039109567576665873 0.014481547420368236 0 0.039869915922200676 0.014187056695867117 0 0.039974590616944722 0.013837308757118933 0 0.04016544286047824 0.013805986719923493 0 0.010059481460416471 0.010023667317199477 0 0.010295868949910822 0.0097110840279591784 0 0.010032788823611265 0.01012790629932352 0 0.010059481460416471 0.010023667317199477 0 0.01015347424331201 0.0099251634982734979 0 0.010295868949910822 0.0097110840279591784 0 0.010059481460416471 0.010023667317199477 0 0.010085007768812486 0.010216459900149725 0 0.010079113027748358 0.010026711664613356 0 0.010059481460416471 0.010023667317199477 0 0.010085007768812486 0.010216459900149725 0 0.0099894345885518498 0.010340997647214339 0 0.010079113027748358 0.010026711664613356 0 0.01008637471079799 0.0099935573117600884 0 0.01015347424331201 0.0099251634982734979 0 0.01255478827161304 0.0083057113169033529 0 0.012949905886201721 0.0088612138530811731 0 0.011967568324060075 0.0090405126278211463 0 0.0080380916479023817 0.0089740036619288879 0 0.0117694447741812 0.0094305258172550366 0 0.010079113027748358 0.010026711664613356 0 0.01008637471079799 0.0099935573117600884 0 0.010164681981477307 0.010072838956471189 0 0.010059481460416471 0.010023667317199477 0 0.010079113027748358 0.010026711664613356 0 0.01015347424331201 0.0099251634982734979 0 0.0117694447741812 0.0094305258172550366 0 0.010358957001550739 0.0093644627768490769 0 0.01015347424331201 0.0099251634982734979 0 0.010656464031811032 0.0092732348462510068 0 0.010295868949910822 0.0097110840279591784 0 0.011481170019656832 0.008266226471610634 0 0.011967568324060075 0.0090405126278211463 0 0.010656464031811032 0.0092732348462510068 0 0.010415076680925837 0.0088028442023712402 0 0.010656464031811032 0.0092732348462510068 0 0.010251163092274279 0.0096081855023674948 0 0.010251163092274279 0.0096081855023674948 0 0.010295868949910822 0.0097110840279591784 0 0.010086350872155311 0.0099771553655060314 0 0.010656464031811032 0.0092732348462510068 0 0.010251163092274279 0.0096081855023674948 0 0.010295868949910822 0.0097110840279591784 0 0.010295868949910822 0.0097110840279591784 0 0.010086350872155311 0.0099771553655060314 0 0.010032788823611265 0.01012790629932352 0 0.010086350872155311 0.0099771553655060314 0 0.0099109942300767469 0.010310252922939999 0 0.010032788823611265 0.01012790629932352 0 0.010086350872155311 0.0099771553655060314 0 0.0099109942300767469 0.010310252922939999 0 0.0099050559957737355 0.010202656753976561 0 0.010025113667365915 0.0098268040879271705 0 0.010251163092274279 0.0096081855023674948 0 0.0099050559957737355 0.010202656753976561 0 0.010251163092274279 0.0096081855023674948 0 0.010086350872155311 0.0099771553655060314 0 0.0099050559957737355 0.010202656753976561 0 0.0097275454134438128 0.010435605520677215 0 0.0097020588054449186 0.01069239260372944 0 0.0094606645964326243 0.011023685176058095 0 0.0099050559957737355 0.010202656753976561 0 0.0097275454134438128 0.010435605520677215 0 0.0097020588054449186 0.01069239260372944 0 0.010025113667365915 0.0098268040879271705 0 0.0099050559957737355 0.010202656753976561 0 0.0097275454134438128 0.010435605520677215 0 0.0099109942300767469 0.010310252922939999 0 0.0099050559957737355 0.010202656753976561 0 0.0097020588054449186 0.01069239260372944 0 0.0099109942300767469 0.010310252922939999 0 0.0097020588054449186 0.01069239260372944 0 0.0098744619663033335 0.010560517179007084 0 0.0097020588054449186 0.01069239260372944 0 0.0098744619663033335 0.010560517179007084 0 0.0096704786903052987 0.011049994288712867 0 0.0099109942300767469 0.010310252922939999 0 0.0098744619663033335 0.010560517179007084 0 0.010032788823611265 0.01012790629932352 0 0.0098744619663033335 0.010560517179007084 0 0.010032788823611265 0.01012790629932352 0 0.0099894345885518498 0.010340997647214339 0 0.010059481460416471 0.010023667317199477 0 0.010032788823611265 0.01012790629932352 0 0.0099894345885518498 0.010340997647214339 0 0.010085007768812486 0.010216459900149725 0 0.0099894345885518498 0.010340997647214339 0 0.010061806326205186 0.010559040058798676 0 0.0098744619663033335 0.010560517179007084 0 0.0099894345885518498 0.010340997647214339 0 0.0099057535447344535 0.010760148169758737 0 0.0099894345885518498 0.010340997647214339 0 0.0099057535447344535 0.010760148169758737 0 0.010061806326205186 0.010559040058798676 0 0.0098744619663033335 0.010560517179007084 0 0.0099057535447344535 0.010760148169758737 0 0.0096704786903052987 0.011049994288712867 0 0.0099057535447344535 0.010760148169758737 0 0.0098466295310247597 0.011141290481098598 0 0.0096704786903052987 0.011049994288712867 0 0.0099057535447344535 0.010760148169758737 0 0.0100403776068572 0.011015050959288602 0 0.0098466295310247597 0.011141290481098598 0 0.0100403776068572 0.011015050959288602 0 0.010226839082368971 0.010810342164238967 0 0.01028191800021995 0.01134516445172592 0 0.0099057535447344535 0.010760148169758737 0 0.0100403776068572 0.011015050959288602 0 0.010061806326205186 0.010559040058798676 0 0.0100403776068572 0.011015050959288602 0 0.010226839082368971 0.010810342164238967 0 0.010061806326205186 0.010559040058798676 0 -0.0041965307378260194 0.018264190908619398 0 0.011799577584734036 0.0077668270730288733 0 0.010226839082368971 0.010810342164238967 0 0.01055812677486306 0.010960694315136492 0 0.01028191800021995 0.01134516445172592 0 0.010226839082368971 0.010810342164238967 0 0.01055812677486306 0.010960694315136492 0 0.0103165035217513 0.010329600000388087 0 -0.0041965307378260194 0.018264190908619398 0 -0.0050083126912307081 0.013350927452499016 0 -0.013956599961803181 0.018161869549686842 0 -0.01377795218064809 0.017586976580942611 0 -0.01443089262580614 0.016338312073150663 0 -0.01377795218064809 0.017586976580942611 0 -0.014856919518463097 0.016166619846254365 0 -0.013615649455892444 0.016215596237430668 0 -0.01499229930897362 0.016677715559678803 0 -0.0050083126912307081 0.013350927452499016 0 0.010226839082368971 0.010810342164238967 0 0.0103165035217513 0.010329600000388087 0 0.010061806326205186 0.010559040058798676 0 0.010085007768812486 0.010216459900149725 0 0.0103165035217513 0.010329600000388087 0 0.010061806326205186 0.010559040058798676 0 0.010085007768812486 0.010216459900149725 0 0.0103165035217513 0.010329600000388087 0 0.010164681981477307 0.010072838956471189 0 0.010085007768812486 0.010216459900149725 0 0.010079113027748358 0.010026711664613356 0 0.010164681981477307 0.010072838956471189 0 -0.0014717522138200064 0.01086755830912456 0 -0.0011114893419891302 0.011127376251027382 0 -0.0012351783328063645 0.011147926699495079 0 -0.0050083126912307081 0.013350927452499016 0 0.0048511244277622103 0.010992522236251735 0 -0.0050083126912307081 0.013350927452499016 0 -0.0081439760191651042 0.01291189024956318 0 -0.014856919518463097 0.016166619846254365 0 -0.01541120346450406 0.014773506511597985 0 -0.013838721076470877 0.014711823121411755 0 -0.014856919518463097 0.016166619846254365 0 -0.013838721076470877 0.014711823121411755 0 -0.013615649455892444 0.016215596237430668 0 -0.015075319528474128 0.013201745339825497 0 -0.0064299300445375259 0.010115075963723959 0 -0.01541120346450406 0.014773506511597985 0 -0.013838721076470877 0.014711823121411755 0 -0.014220499574619416 0.01318819455906969 0 -0.01541120346450406 0.014773506511597985 0 -0.014220499574619416 0.01318819455906969 0 -0.015940390787554964 0.013436093429018713 0 0.0080380916479023817 0.0089740036619288879 0 -0.0064299300445375259 0.010115075963723959 0 0.0080380916479023817 0.0089740036619288879 0 0.0048511244277622103 0.010992522236251735 0 -0.00076202871395881968 0.011448475205049824 0 -0.0011114893419891302 0.011127376251027382 0 -0.0010329966392511813 0.011488814059384055 0 -0.0081439760191651042 0.01291189024956318 0 -0.0064299300445375259 0.010115075963723959 0 -0.0011114893419891302 0.011127376251027382 0 -0.0012351783328063645 0.011147926699495079 0 -0.0010329966392511813 0.011488814059384055 0 -0.011206970042581055 0.014379794109509776 0 -0.012307625130010274 0.012890016138369639 0 -0.011356964583442222 0.012650037967241045 0 -0.011206970042581055 0.014379794109509776 0 -0.012556981005202094 0.014871697011228714 0 -0.012307625130010274 0.012890016138369639 0 -0.013838721076470877 0.014711823121411755 0 -0.012556981005202094 0.014871697011228714 0 -0.012307625130010274 0.012890016138369639 0 -0.013838721076470877 0.014711823121411755 0 -0.014220499574619416 0.01318819455906969 0 -0.012307625130010274 0.012890016138369639 0 -0.013838721076470877 0.014711823121411755 0 -0.012556981005202094 0.014871697011228714 0 -0.013615649455892444 0.016215596237430668 0 -0.012556981005202094 0.014871697011228714 0 -0.013615649455892444 0.016215596237430668 0 -0.012551737252720876 0.016433932048175347 0 -0.013302109245116418 0.01840602263698661 0 -0.017338916300931574 0.02216144128603818 0 -0.011206970042581055 0.014379794109509776 0 -0.012556981005202094 0.014871697011228714 0 -0.012551737252720876 0.016433932048175347 0 -0.016347859830204231 0.023222898910249867 0 -0.017743167016876161 0.025080076596930262 0 -0.015620552936166989 0.025262127868289668 0 -0.017743167016876161 0.025080076596930262 0 -0.016990770877771441 0.027263397992358954 0 -0.015620552936166989 0.025262127868289668 0 -0.013956599961803181 0.018161869549686842 0 -0.01377795218064809 0.017586976580942611 0 -0.012551737252720876 0.016433932048175347 0 -0.0041965307378260194 0.018264190908619398 0 -0.017338916300931574 0.02216144128603818 0 -0.01377795218064809 0.017586976580942611 0 -0.013615649455892444 0.016215596237430668 0 -0.012551737252720876 0.016433932048175347 0 -0.019212300726865913 0.026906385515779119 0 -0.017743167016876161 0.025080076596930262 0 -0.016990770877771441 0.027263397992358954 0 -0.019212300726865913 0.026906385515779119 0 -0.016990770877771441 0.027263397992358954 0 -0.018347129040185567 0.029215656245980836 0 -0.016990770877771441 0.027263397992358954 0 -0.014837514737530916 0.027477721389886883 0 -0.015620552936166989 0.025262127868289668 0 -0.014837514737530916 0.027477721389886883 0 -0.014038998165492696 0.025733632093256392 0 -0.013007885455005705 0.027189103741603417 0 -0.014837514737530916 0.027477721389886883 0 -0.013007885455005705 0.027189103741603417 0 -0.013681037355457884 0.028449293427586196 0 -0.014837514737530916 0.027477721389886883 0 -0.014038998165492696 0.025733632093256392 0 -0.015620552936166989 0.025262127868289668 0 -0.014038998165492696 0.025733632093256392 0 -0.015620552936166989 0.025262127868289668 0 -0.014374640959415871 0.024400366566833916 0 -0.014038998165492696 0.025733632093256392 0 -0.012840621428458049 0.025338223310407842 0 -0.013408198162101235 0.024370443121829431 0 -0.011616127568352848 0.028528747632504917 0 -0.013007885455005705 0.027189103741603417 0 -0.011491292038780222 0.025993328770715432 0 -0.011683399478499498 0.028070560813867884 0 -0.011550904970911473 0.026547852861124897 0 -0.011661542861991236 0.027939097170185077 0 -0.011616127568352848 0.028528747632504917 0 -0.012176920301600355 0.025978675741230459 0 -0.011661542861991236 0.027939097170185077 0 -0.011616127568352848 0.028528747632504917 0 -0.010910748592110968 0.028134341582191216 0 -0.011616127568352848 0.028528747632504917 0 -0.013007885455005705 0.027189103741603417 0 -0.012733954322975888 0.028642980181993481 0 -0.013007885455005705 0.027189103741603417 0 -0.012733954322975888 0.028642980181993481 0 -0.013681037355457884 0.028449293427586196 0 -0.013007885455005705 0.027189103741603417 0 -0.012840621428458049 0.025338223310407842 0 -0.011491292038780222 0.025993328770715432 0 -0.014038998165492696 0.025733632093256392 0 -0.013007885455005705 0.027189103741603417 0 -0.012840621428458049 0.025338223310407842 0 -0.012840621428458049 0.025338223310407842 0 -0.011491292038780222 0.025993328770715432 0 -0.012421514392175944 0.024235392656810482 0 -0.011661542861991236 0.027939097170185077 0 -0.012176920301600355 0.025978675741230459 0 -0.0096214478186789718 0.025589483986224296 0 -0.011491292038780222 0.025993328770715432 0 -0.011671988313026314 0.02353958683305523 0 -0.012421514392175944 0.024235392656810482 0 -0.012176920301600355 0.025978675741230459 0 -0.011761425081598451 0.023120690267388753 0 -0.012652567194617324 0.023150573974838912 0 -0.011550904970911473 0.026547852861124897 0 -0.015240590133449252 0.020998436108342941 0 -0.012176920301600355 0.025978675741230459 0 -0.011761425081598451 0.023120690267388753 0 -0.0096214478186789718 0.025589483986224296 0 -0.01979818963068319 0.016828758991855958 0 -0.015240590133449252 0.020998436108342941 0 -0.012421514392175944 0.024235392656810482 0 -0.012945044300792468 0.023266197866105235 0 -0.012280911867379254 0.023179567148587252 0 -0.011671988313026314 0.02353958683305523 0 -0.012421514392175944 0.024235392656810482 0 -0.012280911867379254 0.023179567148587252 0 -0.012840621428458049 0.025338223310407842 0 -0.012421514392175944 0.024235392656810482 0 -0.013408198162101235 0.024370443121829431 0 -0.012421514392175944 0.024235392656810482 0 -0.013408198162101235 0.024370443121829431 0 -0.012945044300792468 0.023266197866105235 0 -0.013408198162101235 0.024370443121829431 0 -0.012945044300792468 0.023266197866105235 0 -0.013787106936936017 0.023231064530067853 0 -0.012945044300792468 0.023266197866105235 0 -0.013315058871616142 0.022472657621389391 0 -0.013787106936936017 0.023231064530067853 0 -0.012945044300792468 0.023266197866105235 0 -0.012641187881187446 0.022463645338450137 0 -0.012280911867379254 0.023179567148587252 0 -0.012945044300792468 0.023266197866105235 0 -0.013315058871616142 0.022472657621389391 0 -0.012641187881187446 0.022463645338450137 0 -0.012850314843005422 0.021816080658665273 0 -0.012641187881187446 0.022463645338450137 0 -0.012612906318466227 0.021567154839370536 0 -0.013315058871616142 0.022472657621389391 0 -0.012850314843005422 0.021816080658665273 0 -0.013458938848516275 0.021986706875110316 0 -0.013315058871616142 0.022472657621389391 0 -0.012850314843005422 0.021816080658665273 0 -0.012641187881187446 0.022463645338450137 0 -0.012641187881187446 0.022463645338450137 0 -0.011814099084024903 0.022487462324376168 0 -0.012612906318466227 0.021567154839370536 0 -0.019692171096131018 0.014038472414110974 0 -0.018237167469099261 0.013274972095151476 0 -0.012641187881187446 0.022463645338450137 0 -0.012280911867379254 0.023179567148587252 0 -0.011814099084024903 0.022487462324376168 0 -0.011671988313026314 0.02353958683305523 0 -0.012280911867379254 0.023179567148587252 0 -0.011814099084024903 0.022487462324376168 0 -0.015240590133449252 0.020998436108342941 0 -0.019692171096131018 0.014038472414110974 0 -0.027825155393474306 0.0067462744683510628 0 -0.028310353158936229 0.0061647984488410589 0 -0.027590921851113292 0.0061532145963904212 0 -0.017026635255842699 0.017901073086563357 0 -0.018407449013173288 0.017958189673989319 0 -0.018654994018252883 0.01604168573908089 0 -0.01979818963068319 0.016828758991855958 0 -0.019692171096131018 0.014038472414110974 0 -0.028310353158936229 0.0061647984488410589 0 -0.027590921851113292 0.0061532145963904212 0 -0.027843354616473432 0.0056299757042676439 0 -0.027590921851113292 0.0061532145963904212 0 -0.027843354616473432 0.0056299757042676439 0 -0.027185169558006414 0.0055414482806322354 0 -0.015620552936166989 0.025262127868289668 0 -0.014374640959415871 0.024400366566833916 0 -0.014855229897752198 0.023268978991642764 0 -0.016347859830204231 0.023222898910249867 0 -0.015620552936166989 0.025262127868289668 0 -0.014855229897752198 0.023268978991642764 0 -0.014038998165492696 0.025733632093256392 0 -0.013408198162101235 0.024370443121829431 0 -0.014374640959415871 0.024400366566833916 0 -0.013408198162101235 0.024370443121829431 0 -0.014374640959415871 0.024400366566833916 0 -0.013787106936936017 0.023231064530067853 0 -0.014374640959415871 0.024400366566833916 0 -0.014855229897752198 0.023268978991642764 0 -0.013787106936936017 0.023231064530067853 0 -0.014855229897752198 0.023268978991642764 0 -0.013787106936936017 0.023231064530067853 0 -0.014029593697346208 0.022209999136929164 0 -0.014855229897752198 0.023268978991642764 0 -0.014029593697346208 0.022209999136929164 0 -0.01491889498503258 0.021242860057001149 0 -0.013315058871616142 0.022472657621389391 0 -0.013787106936936017 0.023231064530067853 0 -0.014029593697346208 0.022209999136929164 0 -0.013315058871616142 0.022472657621389391 0 -0.014029593697346208 0.022209999136929164 0 -0.013458938848516275 0.021986706875110316 0 -0.014029593697346208 0.022209999136929164 0 -0.013458938848516275 0.021986706875110316 0 -0.013636498968275013 0.021446664545575905 0 -0.011206970042581055 0.014379794109509776 0 -0.010437041385691204 0.012784378195207863 0 -0.011356964583442222 0.012650037967241045 0 -0.016347859830204231 0.023222898910249867 0 -0.014855229897752198 0.023268978991642764 0 -0.01491889498503258 0.021242860057001149 0 -0.013302109245116418 0.01840602263698661 0 -0.013238914583046631 0.017235010537251728 0 -0.010437041385691204 0.012784378195207863 0 -0.011036315430695297 0.011523592758547928 0 -0.011356964583442222 0.012650037967241045 0 -0.014029593697346208 0.022209999136929164 0 -0.01491889498503258 0.021242860057001149 0 -0.013636498968275013 0.021446664545575905 0 -0.013636498968275013 0.021446664545575905 0 -0.013950328280983311 0.019980053108687723 0 -0.012600884762461642 0.02156997880579424 0 -0.013238914583046631 0.017235010537251728 0 -0.015113082965563187 0.009230236409709448 0 -0.01491889498503258 0.021242860057001149 0 -0.013636498968275013 0.021446664545575905 0 -0.013950328280983311 0.019980053108687723 0 -0.010437041385691204 0.012784378195207863 0 -0.0100890888799798 0.012120251535548214 0 -0.011036315430695297 0.011523592758547928 0 -0.0100890888799798 0.012120251535548214 0 -0.011036315430695297 0.011523592758547928 0 -0.0098312203911637523 0.011671915485493733 0 -0.015113082965563187 0.009230236409709448 0 -0.015682848838309012 0.0064424556451853155 0 -0.0276193582325274 0.0050561220941984699 0 -0.028403251736309355 0.0052499370806638138 0 -0.027228229419338171 0.0041048673990188907 0 -0.0276193582325274 0.0050561220941984699 0 -0.027843354616473432 0.0056299757042676439 0 -0.027185169558006414 0.0055414482806322354 0 -0.0276193582325274 0.0050561220941984699 0 -0.027843354616473432 0.0056299757042676439 0 -0.028403251736309355 0.0052499370806638138 0 -0.028310353158936229 0.0061647984488410589 0 -0.027843354616473432 0.0056299757042676439 0 -0.028403251736309355 0.0052499370806638138 0 -0.021519135066427296 0.0014693954025871063 0 -0.021919690171174937 0.0010923001283123148 0 -0.021736872502312217 0.00068057497037327607 0 -0.02215410664783132 0.0047974564115413655 0 -0.021943705688042634 -0.00015439625799659135 0 -0.019631950703513604 0.013281859216809968 0 -0.020207653541876279 0.0088404359709091194 0 -0.022029253849657596 0.010562474837547653 0 -0.021519135066427296 0.0014693954025871063 0 -0.021816903775076658 0.0017687579940054044 0 -0.021919690171174937 0.0010923001283123148 0 -0.019692171096131018 0.014038472414110974 0 -0.02215410664783132 0.0047974564115413655 0 -0.02215410664783132 0.0047974564115413655 0 -0.018237167469099261 0.013274972095151476 0 -0.012850314843005422 0.021816080658665273 0 -0.013636498968275013 0.021446664545575905 0 -0.012600884762461642 0.02156997880579424 0 -0.012850314843005422 0.021816080658665273 0 -0.013458938848516275 0.021986706875110316 0 -0.013636498968275013 0.021446664545575905 0 -0.017975740361914183 0.014464610122528813 0 -0.018237167469099261 0.013274972095151476 0 -0.022408405422388072 0.001003025553831294 0 -0.021816903775076658 0.0017687579940054044 0 -0.021919690171174937 0.0010923001283123148 0 -0.015113082965563187 0.009230236409709448 0 -0.018237167469099261 0.013274972095151476 0 -0.022079788449767004 0.00062825115503202826 0 -0.021736872502312217 0.00068057497037327607 0 -0.021623519984834604 8.8609644477199179e-05 0 -0.021919690171174937 0.0010923001283123148 0 -0.022079788449767004 0.00062825115503202826 0 -0.021736872502312217 0.00068057497037327607 0 -0.022408405422388072 0.001003025553831294 0 -0.021919690171174937 0.0010923001283123148 0 -0.022079788449767004 0.00062825115503202826 0 -0.021736872502312217 0.00068057497037327607 0 -0.021504666794646486 0.00024200642476454565 0 -0.021351534019055124 0.00034359146637271966 0 -0.02215410664783132 0.0047974564115413655 0 -0.024806089540736997 0.0020296727356633915 0 -0.021702913317524084 0.0010132070051402434 0 -0.021736872502312217 0.00068057497037327607 0 -0.021351534019055124 0.00034359146637271966 0 -0.021736872502312217 0.00068057497037327607 0 -0.021504666794646486 0.00024200642476454565 0 -0.021623519984834604 8.8609644477199179e-05 0 -0.021504666794646486 0.00024200642476454565 0 -0.021623519984834604 8.8609644477199179e-05 0 -0.021404124476656086 -3.5092571212045988e-05 0 -0.0098312203911637523 0.011671915485493733 0 -0.0092620318293185708 0.010673601235366547 0 -0.010245999244373586 0.010609113708147117 0 -0.015682848838309012 0.0064424556451853155 0 -0.015050107423064814 0.0054045359406435607 0 -0.0095121787259051065 0.0096749932138867345 0 -0.0092620318293185708 0.010673601235366547 0 -0.009928728187413062 0.010030614966392489 0 -0.0092620318293185708 0.010673601235366547 0 -0.009928728187413062 0.010030614966392489 0 -0.010245999244373586 0.010609113708147117 0 -0.0095121787259051065 0.0096749932138867345 0 -0.0092620318293185708 0.010673601235366547 0 -0.0087382925020773796 0.0098106089829676293 0 -0.015050107423064814 0.0054045359406435607 0 -0.018321907793661114 0.003628062278000669 0 -0.021623519984834604 8.8609644477199179e-05 0 -0.021425434348881025 -0.0001373827459441612 0 -0.021404124476656086 -3.5092571212045988e-05 0 -0.011036315430695297 0.011523592758547928 0 -0.010245999244373586 0.010609113708147117 0 -0.011270113389513947 0.010302833643194157 0 -0.011036315430695297 0.011523592758547928 0 -0.0098312203911637523 0.011671915485493733 0 -0.010245999244373586 0.010609113708147117 0 -0.010253953214570441 0.0095502283255772241 0 -0.010245999244373586 0.010609113708147117 0 -0.011270113389513947 0.010302833643194157 0 -0.010253953214570441 0.0095502283255772241 0 -0.009928728187413062 0.010030614966392489 0 -0.010245999244373586 0.010609113708147117 0 -0.011062406535940596 0.010222811544740329 0 -0.011993880690998035 0.011052119591822568 0 -0.011645531283455853 0.0095504381963549042 0 -0.011678997778691086 0.010930409007523175 0 -0.012442375715533855 0.010264351285930116 0 -0.011645531283455853 0.0095504381963549042 0 -0.010867585366500244 0.010142791006110843 0 -0.011678997778691086 0.010930409007523175 0 -0.011036315430695297 0.011523592758547928 0 -0.011270113389513947 0.010302833643194157 0 -0.012293801685885824 0.011162182664531527 0 -0.011678997778691086 0.010930409007523175 0 -0.012442375715533855 0.010264351285930116 0 -0.012818923529329288 0.01178485981722127 0 -0.012442375715533855 0.010264351285930116 0 -0.013235281326156581 0.011038015149514987 0 -0.012818923529329288 0.01178485981722127 0 -0.013445341687984209 0.0099961710165101941 0 -0.012442375715533855 0.010264351285930116 0 -0.013235281326156581 0.011038015149514987 0 -0.011993880690998035 0.011052119591822568 0 -0.012776145321366813 0.011728900027363095 0 -0.012293801685885824 0.011162182664531527 0 -0.012818923529329288 0.01178485981722127 0 -0.012518652166343536 0.012161646548631236 0 -0.012818923529329288 0.01178485981722127 0 -0.012968576968013084 0.012272064286771257 0 -0.012518652166343536 0.012161646548631236 0 -0.013509935269171797 0.011951041518225578 0 -0.013235281326156581 0.011038015149514987 0 -0.012818923529329288 0.01178485981722127 0 -0.013509935269171797 0.011951041518225578 0 -0.012818923529329288 0.01178485981722127 0 -0.012968576968013084 0.012272064286771257 0 -0.0027858357079615795 0.0093761414080624373 0 -0.0064299300445375259 0.010115075963723959 0 -0.012717988235132689 0.012603504231571102 0 -0.013185018643245028 0.01262003990704976 0 -0.012968576968013084 0.012272064286771257 0 -0.013509935269171797 0.011951041518225578 0 -0.013185018643245028 0.01262003990704976 0 -0.012968576968013084 0.012272064286771257 0 0.0084892236291338914 0.0071609434718226837 0 0.0083431516394102245 0.0030678047713408848 0 0.0066313681339394042 0.0033005150840253227 0 -0.012717988235132689 0.012603504231571102 0 -0.012968576968013084 0.012272064286771257 0 -0.012518652166343536 0.012161646548631236 0 -0.012518652166343536 0.012161646548631236 0 -0.012307625130010274 0.012890016138369639 0 -0.011880467116367144 0.012024644020189724 0 -0.012717988235132689 0.012603504231571102 0 -0.012518652166343536 0.012161646548631236 0 -0.012307625130010274 0.012890016138369639 0 -0.015075319528474128 0.013201745339825497 0 -0.011783738822709713 0.012774396568118502 0 -0.012307625130010274 0.012890016138369639 0 -0.011356964583442222 0.012650037967241045 0 -0.011880467116367144 0.012024644020189724 0 -0.011036315430695297 0.011523592758547928 0 -0.012293801685885824 0.011162182664531527 0 -0.011880467116367144 0.012024644020189724 0 -0.011036315430695297 0.011523592758547928 0 -0.011356964583442222 0.012650037967241045 0 -0.011880467116367144 0.012024644020189724 0 -0.012293801685885824 0.011162182664531527 0 -0.012518652166343536 0.012161646548631236 0 -0.011880467116367144 0.012024644020189724 0 0.045903086867636993 0.01061371816104313 0 0.045705568362149999 0.010488527373830275 0 0.046126322098474601 0.010378603501898185 0 0.038603668327071863 0.011433133074836503 0 0.037935486720664463 0.011284900244955398 0 0.038189299480778524 0.012188031862184487 0 0.038603668327071863 0.011433133074836503 0 0.037935486720664463 0.011284900244955398 0 0.038510436387841462 0.010696662417921795 0 0.041420059430449428 0.011583315287761365 0 0.044680494687454018 0.0097237471655117202 0 0.049999985948365328 0.0094962181273000809 0 0.050363879571111249 0.011228079436292462 0 0.049999985414652025 0.01159580343689264 0 0.045903086867636993 0.01061371816104313 0 0.045705568362149999 0.010488527373830275 0 0.045677251090801368 0.010858996263082527 0 0.049999985948365328 0.0094962181273000809 0 0.050459462748805022 0.0094720496036563226 0 0.050363879571111249 0.011228079436292462 0 0.048093961906437659 0.0098636614098446262 0 0.046071993198530781 0.011901911508292248 0 0.041420059430449428 0.011583315287761365 0 0.046071993198530781 0.011901911508292248 0 0.037382211274016891 0.011892879211683811 0 0.038189299480778524 0.012188031862184487 0 0.037345830292697293 0.013004316810839802 0 0.037935486720664463 0.011284900244955398 0 0.037382211274016891 0.011892879211683811 0 0.038189299480778524 0.012188031862184487 0 0.050356620997334935 0.011228939733533332 0 0.049999951021541929 0.011595816376012136 0 0.050249836425181306 0.013354229378182437 0 0.046071993198530781 0.011901911508292248 0 0.043679173293325574 0.012883831129820261 0 0.046071993198530781 0.011901911508292248 0 0.049995702246875391 0.011593812947332425 0 0.038603668327071863 0.011433133074836503 0 0.038189299480778524 0.012188031862184487 0 0.039152573951781552 0.011937638272356218 0 0.039152573951781552 0.011937638272356218 0 0.039762470135415028 0.012622667551030977 0 0.038827205490680319 0.012932196064177682 0 0.038189299480778524 0.012188031862184487 0 0.039152573951781552 0.011937638272356218 0 0.038827205490680319 0.012932196064177682 0 0.039152573951781552 0.011937638272356218 0 0.0400510184806986 0.011341972381041182 0 0.039762470135415028 0.012622667551030977 0 0.039152573951781552 0.011937638272356218 0 0.0400510184806986 0.011341972381041182 0 0.039224789536413923 0.011074905051033396 0 0.040299405257342706 0.011424114441489556 0 0.038653498560663468 0.010392977688087546 0 0.0400510184806986 0.011341972381041182 0 0.039555411029156322 0.010494677111224069 0 0.040024535847811418 0.01022108541728679 0 0.0400510184806986 0.011341972381041182 0 0.040024535847811418 0.01022108541728679 0 0.040589964206849391 0.010460493312247717 0 0.038603668327071863 0.011433133074836503 0 0.039152573951781552 0.011937638272356218 0 0.039224789536413923 0.011074905051033396 0 0.038603668327071863 0.011433133074836503 0 0.039224789536413923 0.011074905051033396 0 0.038510436387841462 0.010696662417921795 0 0.038653498560663468 0.010392977688087546 0 0.044680494687454018 0.0097237471655117202 0 0.039427668489294868 0.0097314298223164404 0 0.039649961962267999 0.0092810855636282184 0 0.039775232589665303 0.0087389383784434744 0 0.039427668489294868 0.0097314298223164404 0 0.039775232589665303 0.0087389383784434744 0 0.038948840389750057 0.0097000569836343479 0 0.04338846530539122 0.0070058618657427825 0 0.044680494687454018 0.0097237471655117202 0 0.039555411029156322 0.010494677111224069 0 0.039427668489294868 0.0097314298223164404 0 0.038948840389750057 0.0097000569836343479 0 0.039555411029156322 0.010494677111224069 0 0.039427668489294868 0.0097314298223164404 0 0.040024535847811418 0.01022108541728679 0 0.039427668489294868 0.0097314298223164404 0 0.039649961962267999 0.0092810855636282184 0 0.040024535847811418 0.01022108541728679 0 0.040024535847811418 0.01022108541728679 0 0.040705895124431742 0.0097128531455135426 0 0.040589964206849391 0.010460493312247717 0 0.039649961962267999 0.0092810855636282184 0 0.040024535847811418 0.01022108541728679 0 0.040705895124431742 0.0097128531455135426 0 0.040705895124431742 0.0097128531455135426 0 0.040493890879650947 0.0080707340153254401 0 0.04278387542372792 0.0064953958369441157 0 0.039649961962267999 0.0092810855636282184 0 0.040493890879650947 0.0080707340153254401 0 0.039325565413287869 0.0081330354109993772 0 0.039649961962267999 0.0092810855636282184 0 0.040705895124431742 0.0097128531455135426 0 0.040493890879650947 0.0080707340153254401 0 0.04338846530539122 0.0070058618657427825 0 0.041114344845543577 0.0062003091569497121 0 0.040941832612881417 0.0062485667993516601 0 0.040862102705797522 0.0050860314021574033 0 0.041720177991558714 0.0054510438821368159 0 0.040493890879650947 0.0080707340153254401 0 0.039325565413287869 0.0081330354109993772 0 0.040757242029992688 0.0062897017159504612 0 0.040493890879650947 0.0080707340153254401 0 0.040757242029992688 0.0062897017159504612 0 0.04278387542372792 0.0064953958369441157 0 0.052975895758574088 0.0072767328870615433 0 0.052041235224924653 0.0068664329192916771 0 0.051513152123663607 0.0086795323973142373 0 0.041604755175258509 0.0088033759123164398 0 0.04338846530539122 0.0070058618657427825 0 0.052975895758574088 0.0072767328870615433 0 0.052041235224924653 0.0068664329192916771 0 0.05308222978636723 0.0058192463578688788 0 0.04338846530539122 0.0070058618657427825 0 0.046823016110354609 0.0054098743769665971 0 0.052041235224924653 0.0068664329192916771 0 0.051465319564124153 0.0064400447355328636 0 0.051179515929108757 0.0074471484766772365 0 0.052041235224924653 0.0068664329192916771 0 0.051179515929108757 0.0074471484766772365 0 0.051513152123663607 0.0086795323973142373 0 0.051465319564124153 0.0064400447355328636 0 0.051179515929108757 0.0074471484766772365 0 0.050783328810920923 0.0070247116955613345 0 0.051179515929108757 0.0074471484766772365 0 0.051513152123663607 0.0086795323973142373 0 0.05028921145946777 0.00752907611300274 0 0.044680494687454018 0.0097237471655117202 0 0.049197873361674915 0.0087242765839834011 0 0.048093961906437659 0.0098636614098446262 0 0.049197873361674915 0.0087242765839834011 0 0.049999985948365328 0.0094962181273000809 0 0.050459462748805022 0.0094720496036563226 0 0.050555266586321666 0.0077175548714517872 0 0.049999985948365328 0.0094962181273000809 0 0.050555266586321666 0.0077175548714517872 0 0.049999993595595094 0.0073966455763104389 0 0.045705568362149999 0.010488527373830275 0 0.046126322098474601 0.010378603501898185 0 0.045742050821986464 0.01013666471782664 0 0.050324064978352845 0.0075117478568498394 0 0.050333285072205476 0.0073594876894491753 0 0.049999669275231216 0.0073960849897245643 0 0.049999669275231216 0.0073960849897245643 0 0.049999712142170777 0.0054277049335701667 0 0.050676697372361759 0.0062790720170215362 0 0.049197873361674915 0.0087242765839834011 0 0.049999137009606343 0.0073985132367136606 0 0.049197873361674915 0.0087242765839834011 0 0.049286448924167565 0.0084061141055268417 0 0.051179515929108757 0.0074471484766772365 0 0.05028921145946777 0.00752907611300274 0 0.050783328810920923 0.0070247116955613345 0 0.05028921145946777 0.00752907611300274 0 0.050333285072205476 0.0073594876894491753 0 0.050783328810920923 0.0070247116955613345 0 0.051465319564124153 0.0064400447355328636 0 0.050783328810920923 0.0070247116955613345 0 0.050676697372361759 0.0062790720170215362 0 0.050333285072205476 0.0073594876894491753 0 0.050783328810920923 0.0070247116955613345 0 0.050676697372361759 0.0062790720170215362 0 0.050333285072205476 0.0073594876894491753 0 0.049999669275231216 0.0073960849897245643 0 0.050676697372361759 0.0062790720170215362 0 0.050676697372361759 0.0062790720170215362 0 0.051318549267496141 0.0054558138358387865 0 0.050732322313278518 0.0047765458357830809 0 0.049999712142170777 0.0054277049335701667 0 0.050676697372361759 0.0062790720170215362 0 0.050732322313278518 0.0047765458357830809 0 0.052041235224924653 0.0068664329192916771 0 0.051465319564124153 0.0064400447355328636 0 0.052097260421617837 0.0054135708438819707 0 0.051465319564124153 0.0064400447355328636 0 0.051318549267496141 0.0054558138358387865 0 0.052097260421617837 0.0054135708438819707 0 0.051465319564124153 0.0064400447355328636 0 0.050676697372361759 0.0062790720170215362 0 0.051318549267496141 0.0054558138358387865 0 0.051318549267496141 0.0054558138358387865 0 0.052097260421617837 0.0054135708438819707 0 0.051527466968676841 0.0042204200645465902 0 0.049774439663858638 0.003728007009477995 0 0.049751905354023455 0.003291867755941058 0 0.048242305469658749 0.0039650865128714081 0 0.051318549267496141 0.0054558138358387865 0 0.051527466968676841 0.0042204200645465902 0 0.050732322313278518 0.0047765458357830809 0 0.049999712142170777 0.0054277049335701667 0 0.049999854163028906 0.0034444628597607488 0 0.050732322313278518 0.0047765458357830809 0 0.05042793608883283 0.0028117136363833041 0 0.050283782856993642 0.00341027984124239 0 0.049774439663858638 0.003728007009477995 0 0.049751905354023455 0.003291867755941058 0 0.051240235512325101 0.0034953813861303062 0 0.051411437374045875 0.0037502561732183442 0 0.050283782856993642 0.00341027984124239 0 0.051527466968676841 0.0042204200645465902 0 0.049999854163028906 0.0034444628597607488 0 0.050732322313278518 0.0047765458357830809 0 0.050533834555757877 0.0018383763200546697 0 0.049999226505053958 0.0034409842600742237 0 0.050373296812820836 0.0017993475206324893 0 0.049999226505053958 0.0034409842600742237 0 0.050373296812820836 0.0017993475206324893 0 0.049999909699319105 0.0008907686016503643 0 0.050533834555757877 0.0018383763200546697 0 0.050476680859710757 0.0010918838226263081 0 0.050357380140013473 0.0012359869089541957 0 0.050533834555757877 0.0018383763200546697 0 0.050373296812820836 0.0017993475206324893 0 0.050476680859710757 0.0010918838226263081 0 0.050859133701437423 0.00018110499513748486 0 0.050001521470894296 0.0009228198538052012 0 0.050476680859710757 0.0010918838226263081 0 0.050001521470894296 0.0009228198538052012 0 0.050476680859710757 0.0010918838226263081 0 0.049938002123413615 0.0009976130048197601 0 0.050373296812820836 0.0017993475206324893 0 0.050476680859710757 0.0010918838226263081 0 0.049999909699319105 0.0008907686016503643 0 0.050859133701437423 0.00018110499513748486 0 0.050476680859710757 0.0010918838226263081 0 0.049999909699319105 0.0008907686016503643 0 0.047935448868814838 0.0024050848129697168 0 0.047691354700913499 0.0025565821264648867 0 0.047993742328950324 0.0024324610803154348 0 0.047366433233958782 0.002885770598268196 0 0.047935448868814838 0.0024050848129697168 0 0.047691354700913499 0.0025565821264648867 0 0.048728829290025533 0.0020695861431838367 0 0.04896079362913091 0.0016355465214536614 0 0.050476680859710757 0.0010918838226263081 0 0.049938002123413615 0.0009976130048197601 0 0.050357380140013473 0.0012359869089541957 0 0.048602610675499494 0.0018761285438298407 0 0.047935448868814838 0.0024050848129697168 0 0.047993742328950324 0.0024324610803154348 0 0.050533834555757877 0.0018383763200546697 0 0.050357380140013473 0.0012359869089541957 0 0.050390113815337534 0.0012792877343641464 0 0.05042793608883283 0.0028117136363833041 0 0.047739659508721777 0.0027785765004986313 0 0.04896079362913091 0.0016355465214536614 0 0.047739659508721777 0.0027785765004986313 0 0.049938002123413615 0.0009976130048197601 0 0.050357380140013473 0.0012359869089541957 0 0.050390113815337534 0.0012792877343641464 0 0.044100721349256591 0.0037295077237320144 0 0.044409598825104812 0.0038633714359408078 0 0.044678789263213024 0.0035505450468449654 0 0.047691354700913499 0.0025565821264648867 0 0.047979387007208316 0.0021950001258950668 0 0.047362964307926199 0.0023659827404244075 0 0.047739659508721777 0.0027785765004986313 0 0.045668860034209113 0.0030623663592797305 0 0.047691354700913499 0.0025565821264648867 0 0.047993742328950324 0.0024324610803154348 0 0.047979387007208316 0.0021950001258950668 0 0.044409598825104812 0.0038633714359408078 0 0.044655690355140512 0.0038844565466375231 0 0.044678789263213024 0.0035505450468449654 0 0.046734435691931468 0.0045177453437832641 0 0.042643386988623987 0.0039601555984606508 0 0.044409598825104812 0.0038633714359408078 0 0.044623316329450977 0.0041306403625436111 0 0.044655690355140512 0.0038844565466375231 0 0.044409598825104812 0.0038633714359408078 0 0.044107840222032332 0.004032500856406801 0 0.044623316329450977 0.0041306403625436111 0 0.040807695176995132 0.0039345564633679626 0 0.041477310406467259 0.0044949445015568992 0 0.042251236604842271 0.0039704693646997373 0 0.044100721349256591 0.0037295077237320144 0 0.044409598825104812 0.0038633714359408078 0 0.044107840222032332 0.004032500856406801 0 0.042002537588803984 0.0045846811068195733 0 0.041477310406467259 0.0044949445015568992 0 0.042251236604842271 0.0039704693646997373 0 0.051411437374045875 0.0037502561732183442 0 0.046734435691931468 0.0045177453437832641 0 0.049751905354023455 0.003291867755941058 0 0.048242305469658749 0.0039650865128714081 0 0.048192446405997125 0.003091201803201723 0 0.052097260421617837 0.0054135708438819707 0 0.051527466968676841 0.0042204200645465902 0 0.05302697627651444 0.0045578247504336946 0 0.047739659508721777 0.0027785765004986313 0 0.046734435691931468 0.0045177453437832641 0 0.052041235224924653 0.0068664329192916771 0 0.052097260421617837 0.0054135708438819707 0 0.05308222978636723 0.0058192463578688788 0 0.052097260421617837 0.0054135708438819707 0 0.05302697627651444 0.0045578247504336946 0 0.05308222978636723 0.0058192463578688788 0 0.040807695176995132 0.0039345564633679626 0 0.040862102705797522 0.0050860314021574033 0 0.041477310406467259 0.0044949445015568992 0 0.046734435691931468 0.0045177453437832641 0 0.046823016110354609 0.0054098743769665971 0 0.042002537588803984 0.0045846811068195733 0 0.041477310406467259 0.0044949445015568992 0 0.041720177991558714 0.0054510438821368159 0 0.042002537588803984 0.0045846811068195733 0 0.041720177991558714 0.0054510438821368159 0 0.042648133659768071 0.0047143117465064275 0 0.040862102705797522 0.0050860314021574033 0 0.041477310406467259 0.0044949445015568992 0 0.041720177991558714 0.0054510438821368159 0 0.041114344845543577 0.0062003091569497121 0 0.042495322159053314 0.0047867749302637798 0 0.042648133659768071 0.0047143117465064275 0 0.045026092429726744 0.0042878050403418596 0 0.04278387542372792 0.0064953958369441157 0 0.045026092429726744 0.0042878050403418596 0 0.044792587328262412 0.0068009222776839158 0 0.04278387542372792 0.0064953958369441157 0 0.040757242029992688 0.0062897017159504612 0 0.042648133659768071 0.0047143117465064275 0 0.04278387542372792 0.0064953958369441157 0 0.042002537588803984 0.0045846811068195733 0 0.042648133659768071 0.0047143117465064275 0 0.042251236604842271 0.0039704693646997373 0 0.045026092429726744 0.0042878050403418596 0 0.046120023888492782 0.0044417751729539691 0 0.044792587328262412 0.0068009222776839158 0 0.045026092429726744 0.0042878050403418596 0 0.046028849547211537 0.0034315788319582556 0 0.045971354981243086 0.0039172248645070575 0 0.045026092429726744 0.0042878050403418596 0 0.044934578458642245 0.003964737770295281 0 0.046028849547211537 0.0034315788319582556 0 0.045026092429726744 0.0042878050403418596 0 0.044623316329450977 0.0041306403625436111 0 0.044934578458642245 0.003964737770295281 0 0.045202606109276046 0.004301975483265357 0 0.042643386988623987 0.0039601555984606508 0 0.042648133659768071 0.0047143117465064275 0 0.045026092429726744 0.0042878050403418596 0 0.042251236604842271 0.0039704693646997373 0 0.044623316329450977 0.0041306403625436111 0 0.044934578458642245 0.003964737770295281 0 0.044655690355140512 0.0038844565466375231 0 0.044934578458642245 0.003964737770295281 0 0.044678789263213024 0.0035505450468449654 0 0.046028849547211537 0.0034315788319582556 0 0.047362964307926199 0.0023659827404244075 0 0.046028849547211537 0.0034315788319582556 0 0.046965022699340532 0.003139749320944964 0 0.044934578458642245 0.003964737770295281 0 0.044655690355140512 0.0038844565466375231 0 0.044678789263213024 0.0035505450468449654 0 0.045668860034209113 0.0030623663592797305 0 0.046219784085874044 0.0032984532187495929 0 0.046543075609369509 0.0037582862783090017 0 0.046028849547211537 0.0034315788319582556 0 0.046965022699340532 0.003139749320944964 0 0.047691354700913499 0.0025565821264648867 0 0.047362964307926199 0.0023659827404244075 0 0.046965022699340532 0.003139749320944964 0 0.047366433233958782 0.002885770598268196 0 0.047691354700913499 0.0025565821264648867 0 0.046965022699340532 0.003139749320944964 0 0.04633613864177178 0.0046545799422336755 0 0.045910376481070554 0.0042017869993224979 0 0.044327794174472371 0.0052078007550618389 0 0.046543075609369509 0.0037582862783090017 0 0.046028849547211537 0.0034315788319582556 0 0.045910376481070554 0.0042017869993224979 0 0.04633613864177178 0.0046545799422336755 0 0.046543075609369509 0.0037582862783090017 0 0.045910376481070554 0.0042017869993224979 0 0.046028849547211537 0.0034315788319582556 0 0.045910376481070554 0.0042017869993224979 0 0.045971354981243086 0.0039172248645070575 0 0.045910376481070554 0.0042017869993224979 0 0.045971354981243086 0.0039172248645070575 0 0.044964613148914104 0.0039134400561987538 0 0.045971354981243086 0.0039172248645070575 0 0.046120023888492782 0.0044417751729539691 0 0.044964613148914104 0.0039134400561987538 0 0.043511216499796064 0.0069495280001971114 0 0.04311340144832982 0.0060623945314973501 0 0.045026092429726744 0.0042878050403418596 0 0.045971354981243086 0.0039172248645070575 0 0.046120023888492782 0.0044417751729539691 0 0.043511216499796064 0.0069495280001971114 0 0.042712829319191181 0.0083890490058385597 0 0.040989645877897933 0.009414864655791862 0 0.041486776147413362 0.0097167366226579149 0 0.041172310399340148 0.0081817689047864427 0 0.04157719580451702 0.010418472834975982 0 0.041195643984984369 0.0099650215500516354 0 0.041486776147413362 0.0097167366226579149 0 0.040989645877897933 0.009414864655791862 0 0.041195643984984369 0.0099650215500516354 0 0.041486776147413362 0.0097167366226579149 0 0.04157719580451702 0.010418472834975982 0 0.041608254208503288 0.010837906369335413 0 0.041197080426508617 0.010343922940767344 0 0.04157719580451702 0.010418472834975982 0 0.041608254208503288 0.010837906369335413 0 0.042077608507371543 0.011266516338469295 0 0.04157719580451702 0.010418472834975982 0 0.041197080426508617 0.010343922940767344 0 0.041195643984984369 0.0099650215500516354 0 0.041197080426508617 0.010343922940767344 0 0.041195643984984369 0.0099650215500516354 0 0.040855622710800496 0.0099984784831366955 0 0.040989645877897933 0.009414864655791862 0 0.041195643984984369 0.0099650215500516354 0 0.040855622710800496 0.0099984784831366955 0 0.040855622710800496 0.0099984784831366955 0 0.040820325229193724 0.010149936919585375 0 0.040954431005781881 0.010255107656060374 0 0.041197080426508617 0.010343922940767344 0 0.040855622710800496 0.0099984784831366955 0 0.040954431005781881 0.010255107656060374 0 0.040792670650324298 0.0096671427881553224 0 0.042712829319191181 0.0083890490058385597 0 0.040705895124431742 0.0097128531455135426 0 0.044792587328262412 0.0068009222776839158 0 0.04278387542372792 0.0064953958369441157 0 0.040705895124431742 0.0097128531455135426 0 0.040855622710800496 0.0099984784831366955 0 0.040820325229193724 0.010149936919585375 0 0.040705895124431742 0.0097128531455135426 0 0.040820325229193724 0.010149936919585375 0 0.040589964206849391 0.010460493312247717 0 0.040820325229193724 0.010149936919585375 0 0.040589964206849391 0.010460493312247717 0 0.040915684666465287 0.010672006020597171 0 0.041197080426508617 0.010343922940767344 0 0.040954431005781881 0.010255107656060374 0 0.040915684666465287 0.010672006020597171 0 0.040820325229193724 0.010149936919585375 0 0.040954431005781881 0.010255107656060374 0 0.040915684666465287 0.010672006020597171 0 0.041197080426508617 0.010343922940767344 0 0.040915684666465287 0.010672006020597171 0 0.041158206214104064 0.011238640467049673 0 0.040915684666465287 0.010672006020597171 0 0.041158206214104064 0.011238640467049673 0 0.040711449698670472 0.011157011446895083 0 0.0400510184806986 0.011341972381041182 0 0.040589964206849391 0.010460493312247717 0 0.040711449698670472 0.011157011446895083 0 0.040589964206849391 0.010460493312247717 0 0.040915684666465287 0.010672006020597171 0 0.040711449698670472 0.011157011446895083 0 0.0400510184806986 0.011341972381041182 0 0.040730439763615553 0.012119265537704014 0 0.039762470135415028 0.012622667551030977 0 0.0400510184806986 0.011341972381041182 0 0.040711449698670472 0.011157011446895083 0 0.040730439763615553 0.012119265537704014 0 0.041158206214104064 0.011238640467049673 0 0.040711449698670472 0.011157011446895083 0 0.040730439763615553 0.012119265537704014 0 0.041158206214104064 0.011238640467049673 0 0.040730439763615553 0.012119265537704014 0 0.041541594276481297 0.012295778620842279 0 0.041158206214104064 0.011238640467049673 0 0.041541594276481297 0.012295778620842279 0 0.04159000397067808 0.011363024845018641 0 0.041541594276481297 0.012295778620842279 0 0.042447178550045928 0.012323930265619652 0 0.04159000397067808 0.011363024845018641 0 0.042447178550045928 0.012323930265619652 0 0.04159000397067808 0.011363024845018641 0 0.042077608507371543 0.011266516338469295 0 0.041608254208503288 0.010837906369335413 0 0.04159000397067808 0.011363024845018641 0 0.042077608507371543 0.011266516338469295 0 0.041608254208503288 0.010837906369335413 0 0.041197080426508617 0.010343922940767344 0 0.04159000397067808 0.011363024845018641 0 0.041197080426508617 0.010343922940767344 0 0.041158206214104064 0.011238640467049673 0 0.04159000397067808 0.011363024845018641 0 0.042207692362433172 0.011328198306898608 0 0.042077608507371543 0.011266516338469295 0 0.042479689412704358 0.011828150932181754 0 0.042207692362433172 0.011328198306898608 0 0.042077608507371543 0.011266516338469295 0 0.041900362265936124 0.010666870817976314 0 0.042447178550045928 0.012323930265619652 0 0.042077608507371543 0.011266516338469295 0 0.042479689412704358 0.011828150932181754 0 0.042207692362433172 0.011328198306898608 0 0.042479689412704358 0.011828150932181754 0 0.042237679325371175 0.011803661322932335 0 0.042207692362433172 0.011328198306898608 0 0.042237679325371175 0.011803661322932335 0 0.041985264192361663 0.011603800619014375 0 0.042237679325371175 0.011803661322932335 0 0.041985264192361663 0.011603800619014375 0 0.041824439984012723 0.011937314961910363 0 0.041985264192361663 0.011603800619014375 0 0.042046744948034218 0.011098499090768623 0 0.041151573922310412 0.011541211609951247 0 0.042207692362433172 0.011328198306898608 0 0.041985264192361663 0.011603800619014375 0 0.042046744948034218 0.011098499090768623 0 0.042207692362433172 0.011328198306898608 0 0.042046744948034218 0.011098499090768623 0 0.042070953192654838 0.010373259797988969 0 0.042046744948034218 0.011098499090768623 0 0.042315758504068428 0.01032050524208275 0 0.042070953192654838 0.010373259797988969 0 0.042046744948034218 0.011098499090768623 0 0.042315758504068428 0.01032050524208275 0 0.041499266046484982 0.011000477560278587 0 0.042315758504068428 0.01032050524208275 0 0.042070953192654838 0.010373259797988969 0 0.042356937068718507 0.0085205888233295304 0 0.042070953192654838 0.010373259797988969 0 0.041486776147413362 0.0097167366226579149 0 0.042356937068718507 0.0085205888233295304 0 0.042070953192654838 0.010373259797988969 0 0.041900362265936124 0.010666870817976314 0 0.041486776147413362 0.0097167366226579149 0 0.042207692362433172 0.011328198306898608 0 0.042070953192654838 0.010373259797988969 0 0.041900362265936124 0.010666870817976314 0 0.04157719580451702 0.010418472834975982 0 0.042077608507371543 0.011266516338469295 0 0.041900362265936124 0.010666870817976314 0 0.04157719580451702 0.010418472834975982 0 0.041900362265936124 0.010666870817976314 0 0.041486776147413362 0.0097167366226579149 0 0.041486776147413362 0.0097167366226579149 0 0.041172310399340148 0.0081817689047864427 0 0.042356937068718507 0.0085205888233295304 0 0.041172310399340148 0.0081817689047864427 0 0.042505751715221522 0.0058444368902189781 0 0.042356937068718507 0.0085205888233295304 0 0.04311340144832982 0.0060623945314973501 0 0.042638885008402773 0.0058394537230628089 0 0.044964613148914104 0.0039134400561987538 0 0.044327794174472371 0.0052078007550618389 0 0.042505751715221522 0.0058444368902189781 0 0.045910376481070554 0.0042017869993224979 0 0.044964613148914104 0.0039134400561987538 0 0.044327794174472371 0.0052078007550618389 0 0.043452100289209733 0.0061808879705164237 0 0.044327794174472371 0.0052078007550618389 0 0.042743496009909822 0.005710454972905411 0 0.044327794174472371 0.0052078007550618389 0 0.042743496009909822 0.005710454972905411 0 0.042505751715221522 0.0058444368902189781 0 0.042266083270167641 0.0058700920632714917 0 0.042612818465024627 0.0061171090658526288 0 0.042347359052875462 0.0057345229293185576 0 0.041588295090053691 0.0063656836472191338 0 0.042266083270167641 0.0058700920632714917 0 0.042347359052875462 0.0057345229293185576 0 0.042536925916490623 0.0063143859276313195 0 0.042266083270167641 0.0058700920632714917 0 0.042743496009909822 0.005710454972905411 0 0.042266083270167641 0.0058700920632714917 0 0.042743496009909822 0.005710454972905411 0 0.042612818465024627 0.0061171090658526288 0 0.042743496009909822 0.005710454972905411 0 0.042505751715221522 0.0058444368902189781 0 0.042612818465024627 0.0061171090658526288 0 0.042612818465024627 0.0061171090658526288 0 0.043467628971137991 0.0071669140752193324 0 0.042347359052875462 0.0057345229293185576 0 0.042612818465024627 0.0061171090658526288 0 0.042356937068718507 0.0085205888233295304 0 0.043467628971137991 0.0071669140752193324 0 0.042505751715221522 0.0058444368902189781 0 0.042612818465024627 0.0061171090658526288 0 0.042356937068718507 0.0085205888233295304 0 0.042356937068718507 0.0085205888233295304 0 0.043221721793321823 0.0094175719606798096 0 0.043467628971137991 0.0071669140752193324 0 0.042315758504068428 0.01032050524208275 0 0.042356937068718507 0.0085205888233295304 0 0.043221721793321823 0.0094175719606798096 0 0.040083975314963757 0.010460773936092073 0 0.040172661741281361 0.0099577909124705793 0 0.03942918779071726 0.0093675557307404973 0 0.04161349299191297 0.009828404115567034 0 0.041410961816641577 0.0082682691330893503 0 0.040083975314963757 0.010460773936092073 0 0.040172661741281361 0.0099577909124705793 0 0.04055928260885619 0.010899207265341335 0 0.040172661741281361 0.0099577909124705793 0 0.03942918779071726 0.0093675557307404973 0 0.040052199847979371 0.0086508541585089711 0 0.03942918779071726 0.0093675557307404973 0 0.040052199847979371 0.0086508541585089711 0 0.039301235722078547 0.0079392171702474899 0 0.041410961816641577 0.0082682691330893503 0 0.040838248680555321 0.0069851942854093005 0 0.040297633986352367 0.0070760282982564445 0 0.040052199847979371 0.0086508541585089711 0 0.039920780161146072 0.0075649102715041371 0 0.040052199847979371 0.0086508541585089711 0 0.039920780161146072 0.0075649102715041371 0 0.039301235722078547 0.0079392171702474899 0 0.039934366392745314 0.0071124017048460938 0 0.039920780161146072 0.0075649102715041371 0 0.039301235722078547 0.0079392171702474899 0 0.039715647133321097 0.0085976409995970754 0 0.039431367506513722 0.0083830651834893005 0 0.039804754447401912 0.0087705485132150551 0 0.039431367506513722 0.0083830651834893005 0 0.039884627869171303 0.009129159230647825 0 0.039804754447401912 0.0087705485132150551 0 0.039982337177225172 0.0078764481250288357 0 0.040004574492581511 0.0085804741265471645 0 0.039715647133321097 0.0085976409995970754 0 0.040052199847979371 0.0086508541585089711 0 0.039804754447401912 0.0087705485132150551 0 0.040052199847979371 0.0086508541585089711 0 0.039804754447401912 0.0087705485132150551 0 0.040083278782980208 0.0094521601461743741 0 0.039884627869171303 0.009129159230647825 0 0.039804754447401912 0.0087705485132150551 0 0.040083278782980208 0.0094521601461743741 0 0.039884627869171303 0.009129159230647825 0 0.040204937727145125 0.0099047228696034564 0 0.040083278782980208 0.0094521601461743741 0 0.040172661741281361 0.0099577909124705793 0 0.040052199847979371 0.0086508541585089711 0 0.040083278782980208 0.0094521601461743741 0 0.040172661741281361 0.0099577909124705793 0 0.040083278782980208 0.0094521601461743741 0 0.040332800982445717 0.010407705089976843 0 0.040172661741281361 0.0099577909124705793 0 0.040332800982445717 0.010407705089976843 0 0.04055928260885619 0.010899207265341335 0 0.040204937727145125 0.0099047228696034564 0 0.040083278782980208 0.0094521601461743741 0 0.040332800982445717 0.010407705089976843 0 0.040332800982445717 0.010407705089976843 0 0.040455232623239988 0.011056668469774222 0 0.04055928260885619 0.010899207265341335 0 0.040455232623239988 0.011056668469774222 0 0.04055928260885619 0.010899207265341335 0 0.040637168342543807 0.011331918727494228 0 0.04055928260885619 0.010899207265341335 0 0.040942444031712349 0.011160426698785066 0 0.040637168342543807 0.011331918727494228 0 0.040083975314963757 0.010460773936092073 0 0.04055928260885619 0.010899207265341335 0 0.041499266046484982 0.011000477560278587 0 0.04161349299191297 0.009828404115567034 0 0.041531098855545685 0.010766660390860024 0 0.042315758504068428 0.01032050524208275 0 0.043221721793321823 0.0094175719606798096 0 0.041499266046484982 0.011000477560278587 0 0.04055928260885619 0.010899207265341335 0 0.041499266046484982 0.011000477560278587 0 0.040942444031712349 0.011160426698785066 0 0.041499266046484982 0.011000477560278587 0 0.040942444031712349 0.011160426698785066 0 0.041151573922310412 0.011541211609951247 0 0.040942444031712349 0.011160426698785066 0 0.041151573922310412 0.011541211609951247 0 0.040637168342543807 0.011331918727494228 0 0.042046744948034218 0.011098499090768623 0 0.041499266046484982 0.011000477560278587 0 0.041151573922310412 0.011541211609951247 0 0.041985264192361663 0.011603800619014375 0 0.041151573922310412 0.011541211609951247 0 0.041824439984012723 0.011937314961910363 0 0.041151573922310412 0.011541211609951247 0 0.040714568107050077 0.011835198716944391 0 0.040971966287068867 0.012067847728507154 0 0.040493197851947847 0.011878624793416757 0 0.04052729000959187 0.011652233018512008 0 0.040550697568557774 0.012149582349751832 0 0.040714568107050077 0.011835198716944391 0 0.04052729000959187 0.011652233018512008 0 0.040550697568557774 0.012149582349751832 0 0.040455232623239988 0.011056668469774222 0 0.04052729000959187 0.011652233018512008 0 0.040637168342543807 0.011331918727494228 0 0.041151573922310412 0.011541211609951247 0 0.040714568107050077 0.011835198716944391 0 0.040637168342543807 0.011331918727494228 0 0.040714568107050077 0.011835198716944391 0 0.04052729000959187 0.011652233018512008 0 0.040637168342543807 0.011331918727494228 0 0.040667480369650733 0.012427349550399445 0 0.040468991553741888 0.012738947676783966 0 0.040535348153840203 0.012979780151606866 0 0.040667480369650733 0.012427349550399445 0 0.040468991553741888 0.012738947676783966 0 0.040550697568557774 0.012149582349751832 0 0.040452058190349791 0.012459654218596908 0 0.040468991553741888 0.012738947676783966 0 0.040550697568557774 0.012149582349751832 0 0.040714568107050077 0.011835198716944391 0 0.040667480369650733 0.012427349550399445 0 0.040550697568557774 0.012149582349751832 0 0.040714568107050077 0.011835198716944391 0 0.040667480369650733 0.012427349550399445 0 0.040971966287068867 0.012067847728507154 0 0.041151573922310412 0.011541211609951247 0 0.040971966287068867 0.012067847728507154 0 0.041824439984012723 0.011937314961910363 0 0.040971966287068867 0.012067847728507154 0 0.04204784192195108 0.011924697366409276 0 0.041824439984012723 0.011937314961910363 0 0.040971966287068867 0.012067847728507154 0 0.040631153995123348 0.013094737599028657 0 0.040466756376343303 0.01305710210023614 0 0.041032029371174984 0.0121590200747389 0 0.041257675287995232 0.012507292499958036 0 0.040667480369650733 0.012427349550399445 0 0.040971966287068867 0.012067847728507154 0 0.040631153995123348 0.013094737599028657 0 0.040667480369650733 0.012427349550399445 0 0.040631153995123348 0.013094737599028657 0 0.040535348153840203 0.012979780151606866 0 0.040631153995123348 0.013094737599028657 0 0.040593919868240812 0.013540796534069021 0 0.040509063603114626 0.013312762145002911 0 0.040631153995123348 0.013094737599028657 0 0.040509063603114626 0.013312762145002911 0 0.040535348153840203 0.012979780151606866 0 0.040631153995123348 0.013094737599028657 0 0.040593919868240812 0.013540796534069021 0 0.040466756376343303 0.01305710210023614 0 0.040509063603114626 0.013312762145002911 0 0.040403468551038005 0.013543641402388814 0 0.040498931793101253 0.013554962495996444 0 0.040593919868240812 0.013540796534069021 0 0.040509063603114626 0.013312762145002911 0 0.040498931793101253 0.013554962495996444 0 0.040509063603114626 0.013312762145002911 0 0.040328249916622233 0.013385038019970812 0 0.040403468551038005 0.013543641402388814 0 0.040509063603114626 0.013312762145002911 0 0.040535348153840203 0.012979780151606866 0 0.040328249916622233 0.013385038019970812 0 0.040468991553741888 0.012738947676783966 0 0.040535348153840203 0.012979780151606866 0 0.040328249916622233 0.013385038019970812 0 0.040096764450978796 0.013870376888326949 0 0.040328249916622233 0.013385038019970812 0 0.040253538877644546 0.013698505246828778 0 0.040328249916622233 0.013385038019970812 0 0.040253538877644546 0.013698505246828778 0 0.040403468551038005 0.013543641402388814 0 0.040253538877644546 0.013698505246828778 0 0.040403468551038005 0.013543641402388814 0 0.040392934142178316 0.01361879167157427 0 0.040253538877644546 0.013698505246828778 0 0.04016544286047824 0.013805986719923493 0 0.040392934142178316 0.01361879167157427 0 0.040096764450978796 0.013870376888326949 0 0.040253538877644546 0.013698505246828778 0 0.04016544286047824 0.013805986719923493 0 0.039974590616944722 0.013837308757118933 0 0.04016544286047824 0.013805986719923493 0 0.040242838078063545 0.013569984569646226 0 0.04016544286047824 0.013805986719923493 0 0.040242838078063545 0.013569984569646226 0 0.04037408851933845 0.013550257838746809 0 0.04016544286047824 0.013805986719923493 0 0.04037408851933845 0.013550257838746809 0 0.040392934142178316 0.01361879167157427 0 0.036510748717016032 0.014497577590103249 0 0.038346641421633458 0.013106206103618035 0 0.03721584856005386 0.01217660396153703 0 0.033393168787882788 0.014558173923881756 0 0.036510748717016032 0.014497577590103249 0 0.034631618433240127 0.012022211041717128 0 0.039109567576665873 0.014481547420368236 0 0.037842665611487122 0.013980076872807235 0 0.039944984376787819 0.013709167206392541 0 0.040691992972071558 0.013371505231743984 0 0.04020252235721173 0.013059775793368684 0 0.03920687619524172 0.014077580360627177 0 0.040843667553266565 0.013277000925597261 0 0.04020252235721173 0.013059775793368684 0 0.03920687619524172 0.014077580360627177 0 0.039784059063588159 0.012866409847032981 0 0.040242838078063545 0.013569984569646226 0 0.040507749028264407 0.013369906252732459 0 0.04037408851933845 0.013550257838746809 0 0.036510748717016032 0.014497577590103249 0 0.038346641421633458 0.013106206103618035 0 0.03920687619524172 0.014077580360627177 0 0.038346641421633458 0.013106206103618035 0 0.03920687619524172 0.014077580360627177 0 0.039784059063588159 0.012866409847032981 0 0.037842665611487122 0.013980076872807235 0 0.039944984376787819 0.013709167206392541 0 0.04037408851933845 0.013550257838746809 0 0.040603234098964831 0.013457429440771985 0 0.040392934142178316 0.01361879167157427 0 0.040507749028264407 0.013369906252732459 0 0.04037408851933845 0.013550257838746809 0 0.040603234098964831 0.013457429440771985 0 0.040507749028264407 0.013369906252732459 0 0.040603234098964831 0.013457429440771985 0 0.040843667553266565 0.013277000925597261 0 0.040603234098964831 0.013457429440771985 0 0.040620030617966013 0.01355045148720848 0 0.04087802558063388 0.013416404497784582 0 0.040603234098964831 0.013457429440771985 0 0.040620030617966013 0.01355045148720848 0 0.040392934142178316 0.01361879167157427 0 0.040620030617966013 0.01355045148720848 0 0.040392934142178316 0.01361879167157427 0 0.040498931793101253 0.013554962495996444 0 0.040403468551038005 0.013543641402388814 0 0.040392934142178316 0.01361879167157427 0 0.040498931793101253 0.013554962495996444 0 0.040593919868240812 0.013540796534069021 0 0.040620030617966013 0.01355045148720848 0 0.040498931793101253 0.013554962495996444 0 0.040593919868240812 0.013540796534069021 0 0.040620030617966013 0.01355045148720848 0 0.040930607202809853 0.013674946468551705 0 0.040930607202809853 0.013674946468551705 0 0.041539135606668373 0.013708822319504146 0 0.041358351114839847 0.013982251895612405 0 0.040930607202809853 0.013674946468551705 0 0.041247140712403832 0.013442215789657019 0 0.041539135606668373 0.013708822319504146 0 0.040930607202809853 0.013674946468551705 0 0.041247140712403832 0.013442215789657019 0 0.04087802558063388 0.013416404497784582 0 0.040620030617966013 0.01355045148720848 0 0.040930607202809853 0.013674946468551705 0 0.04087802558063388 0.013416404497784582 0 0.040603234098964831 0.013457429440771985 0 0.04087802558063388 0.013416404497784582 0 0.040843667553266565 0.013277000925597261 0 0.04087802558063388 0.013416404497784582 0 0.041278520569329173 0.013090921560265386 0 0.040843667553266565 0.013277000925597261 0 0.041247140712403832 0.013442215789657019 0 0.041278520569329173 0.013090921560265386 0 0.0417089149547136 0.013024980313245881 0 0.041247140712403832 0.013442215789657019 0 0.04087802558063388 0.013416404497784582 0 0.041278520569329173 0.013090921560265386 0 0.041278520569329173 0.013090921560265386 0 0.041222662693979208 0.012954175129555264 0 0.040843667553266565 0.013277000925597261 0 0.041278520569329173 0.013090921560265386 0 0.041484849900984215 0.012801155525382892 0 0.041636182214436969 0.012815840451809698 0 0.041278520569329173 0.013090921560265386 0 0.041222662693979208 0.012954175129555264 0 0.041484849900984215 0.012801155525382892 0 0.041222662693979208 0.012954175129555264 0 0.041484849900984215 0.012801155525382892 0 0.041422572081954108 0.012654169645374958 0 0.041222662693979208 0.012954175129555264 0 0.04115751175768468 0.012778756959364765 0 0.041422572081954108 0.012654169645374958 0 0.041222662693979208 0.012954175129555264 0 0.040843667553266565 0.013277000925597261 0 0.04115751175768468 0.012778756959364765 0 0.040843667553266565 0.013277000925597261 0 0.040757209858078215 0.012745129820564994 0 0.04115751175768468 0.012778756959364765 0 0.04020252235721173 0.013059775793368684 0 0.040843667553266565 0.013277000925597261 0 0.040757209858078215 0.012745129820564994 0 0.041704225465622906 0.012407172307725849 0 0.04193983421022493 0.012618201089249017 0 0.042964236152630911 0.01249065635687779 0 0.044745899371165812 0.01152276836188447 0 0.044257691440942847 0.01155236691823586 0 0.044831156719882685 0.012199854365596364 0 0.044745899371165812 0.01152276836188447 0 0.044257691440942847 0.01155236691823586 0 0.044492491799275738 0.011364542025547864 0 0.042323513535138753 0.011847175621552119 0 0.044102923754034538 0.012489209770212914 0 0.044257691440942847 0.01155236691823586 0 0.044358224030367294 0.011259707197943883 0 0.044492491799275738 0.011364542025547864 0 0.042323513535138753 0.011847175621552119 0 0.041844789472634536 0.012921405267887131 0 0.041484849900984215 0.012801155525382892 0 0.04176199849570067 0.012650149707465431 0 0.041422572081954108 0.012654169645374958 0 0.041484849900984215 0.012801155525382892 0 0.04176199849570067 0.012650149707465431 0 0.041636182214436969 0.012815840451809698 0 0.04176199849570067 0.012650149707465431 0 0.041636182214436969 0.012815840451809698 0 0.04193983421022493 0.012618201089249017 0 0.042323513535138753 0.011847175621552119 0 0.042217377802489367 0.012407443810782754 0 0.04193983421022493 0.012618201089249017 0 0.0417089149547136 0.013024980313245881 0 0.042242290681656448 0.012946174659998233 0 0.041636182214436969 0.012815840451809698 0 0.04193983421022493 0.012618201089249017 0 0.0417089149547136 0.013024980313245881 0 0.041278520569329173 0.013090921560265386 0 0.041636182214436969 0.012815840451809698 0 0.0417089149547136 0.013024980313245881 0 0.0417089149547136 0.013024980313245881 0 0.042242290681656448 0.012946174659998233 0 0.04202996970910898 0.013357176050959636 0 0.04193983421022493 0.012618201089249017 0 0.042242290681656448 0.012946174659998233 0 0.042964236152630911 0.01249065635687779 0 0.042242290681656448 0.012946174659998233 0 0.042950999431730336 0.013484317212968907 0 0.042964236152630911 0.01249065635687779 0 0.042242290681656448 0.012946174659998233 0 0.042950999431730336 0.013484317212968907 0 0.04202996970910898 0.013357176050959636 0 0.042950999431730336 0.013484317212968907 0 0.04202996970910898 0.013357176050959636 0 0.042545763794735236 0.013993953548218547 0 0.042950999431730336 0.013484317212968907 0 0.042545763794735236 0.013993953548218547 0 0.043306135296380603 0.013957876750142187 0 0.04202996970910898 0.013357176050959636 0 0.041539135606668373 0.013708822319504146 0 0.042545763794735236 0.013993953548218547 0 0.041247140712403832 0.013442215789657019 0 0.04202996970910898 0.013357176050959636 0 0.041539135606668373 0.013708822319504146 0 0.041247140712403832 0.013442215789657019 0 0.0417089149547136 0.013024980313245881 0 0.04202996970910898 0.013357176050959636 0 0.042469700025248393 0.013891872954339671 0 0.042038496136897779 0.013664688798249239 0 0.041539135606668373 0.013708822319504146 0 0.042545763794735236 0.013993953548218547 0 0.041358351114839847 0.013982251895612405 0 0.042545763794735236 0.013993953548218547 0 0.042637029191939062 0.013790715972725836 0 0.043065646738195761 0.014137164625943794 0 0.042545763794735236 0.013993953548218547 0 0.043065646738195761 0.014137164625943794 0 0.043306135296380603 0.013957876750142187 0 0.042545763794735236 0.013993953548218547 0 0.042637029191939062 0.013790715972725836 0 0.04268408819976921 0.013380098343786812 0 0.042637029191939062 0.013790715972725836 0 0.042496889984222644 0.013116999788667892 0 0.04268408819976921 0.013380098343786812 0 0.042637029191939062 0.013790715972725836 0 0.042496889984222644 0.013116999788667892 0 0.042282358160219122 0.013186494008611434 0 0.042496889984222644 0.013116999788667892 0 0.042513044787360059 0.012699688166869488 0 0.04268408819976921 0.013380098343786812 0 0.042513044787360059 0.012699688166869488 0 0.04268408819976921 0.013380098343786812 0 0.042548082458744418 0.012540122121519989 0 0.042038496136897779 0.013664688798249239 0 0.041630156744516554 0.013098932852573658 0 0.040930607202809853 0.013674946468551705 0 0.041358351114839847 0.013982251895612405 0 0.040731535581790539 0.013646648226350115 0 0.040593919868240812 0.013540796534069021 0 0.040930607202809853 0.013674946468551705 0 0.040731535581790539 0.013646648226350115 0 0.040593919868240812 0.013540796534069021 0 0.040731535581790539 0.013646648226350115 0 0.040466756376343303 0.01305710210023614 0 0.041630156744516554 0.013098932852573658 0 0.041257675287995232 0.012507292499958036 0 0.042513044787360059 0.012699688166869488 0 0.042548082458744418 0.012540122121519989 0 0.042383756500986108 0.012088997158014224 0 0.042548082458744418 0.012540122121519989 0 0.04204784192195108 0.011924697366409276 0 0.042383756500986108 0.012088997158014224 0 0.04204784192195108 0.011924697366409276 0 0.041824439984012723 0.011937314961910363 0 0.042383756500986108 0.012088997158014224 0 0.042237679325371175 0.011803661322932335 0 0.041824439984012723 0.011937314961910363 0 0.042383756500986108 0.012088997158014224 0 0.042479689412704358 0.011828150932181754 0 0.042237679325371175 0.011803661322932335 0 0.042383756500986108 0.012088997158014224 0 0.042479689412704358 0.011828150932181754 0 0.042383756500986108 0.012088997158014224 0 0.042277243760554251 0.012311552328471611 0 0.042447178550045928 0.012323930265619652 0 0.042479689412704358 0.011828150932181754 0 0.043529738034196144 0.013314290851527383 0 0.04257850480025141 0.012003094267944847 0 0.042859746613917733 0.012905741677502755 0 0.042496889984222644 0.013116999788667892 0 0.042513044787360059 0.012699688166869488 0 0.042277243760554251 0.012311552328471611 0 0.042859746613917733 0.012905741677502755 0 0.043064155394466092 0.014687016280812943 0 0.042496889984222644 0.013116999788667892 0 0.042277243760554251 0.012311552328471611 0 0.042282358160219122 0.013186494008611434 0 0.042513044787360059 0.012699688166869488 0 0.042383756500986108 0.012088997158014224 0 0.042277243760554251 0.012311552328471611 0 0.042121779621711833 0.01341155113635681 0 0.041271981362231994 0.013256854680557588 0 0.041537788421031806 0.014597726397996089 0 0.042862841489000034 0.014847203594112244 0 0.042121779621711833 0.01341155113635681 0 0.041537788421031806 0.014597726397996089 0 0.042862841489000034 0.014847203594112244 0 0.042939687672434272 0.013783864591102264 0 0.04386636267420161 0.016185970955218926 0 0.043529738034196144 0.013314290851527383 0 0.042939687672434272 0.013783864591102264 0 0.04386636267420161 0.016185970955218926 0 0.042862841489000034 0.014847203594112244 0 0.042939687672434272 0.013783864591102264 0 0.042121779621711833 0.01341155113635681 0 0.042447178550045928 0.012323930265619652 0 0.042939687672434272 0.013783864591102264 0 0.042121779621711833 0.01341155113635681 0 0.042447178550045928 0.012323930265619652 0 0.043529738034196144 0.013314290851527383 0 0.042939687672434272 0.013783864591102264 0 0.041541594276481297 0.012295778620842279 0 0.042447178550045928 0.012323930265619652 0 0.042121779621711833 0.01341155113635681 0 0.041541594276481297 0.012295778620842279 0 0.042121779621711833 0.01341155113635681 0 0.041271981362231994 0.013256854680557588 0 0.040730439763615553 0.012119265537704014 0 0.041541594276481297 0.012295778620842279 0 0.041271981362231994 0.013256854680557588 0 0.040730439763615553 0.012119265537704014 0 0.041271981362231994 0.013256854680557588 0 0.040430832380937566 0.013443358748684535 0 0.040730439763615553 0.012119265537704014 0 0.040430832380937566 0.013443358748684535 0 0.039762470135415028 0.012622667551030977 0 0.040430832380937566 0.013443358748684535 0 0.040345635579437704 0.014538706608264295 0 0.039430612272807711 0.013883809907258064 0 0.041271981362231994 0.013256854680557588 0 0.040430832380937566 0.013443358748684535 0 0.041537788421031806 0.014597726397996089 0 0.040430832380937566 0.013443358748684535 0 0.041537788421031806 0.014597726397996089 0 0.040345635579437704 0.014538706608264295 0 0.041537788421031806 0.014597726397996089 0 0.040931524623684636 0.015606076514205085 0 0.040345635579437704 0.014538706608264295 0 0.044640251990695656 0.017365229988397436 0 0.046369874371896574 0.017155472832551935 0 0.040931524623684636 0.015606076514205085 0 0.040345635579437704 0.014538706608264295 0 0.039747625695604034 0.015065794673232378 0 0.048096673393321937 0.019321399780495491 0 0.050226451315449061 0.017660733441268724 0 0.052958908855561572 0.019243678472138485 0 0.048096673393321937 0.019321399780495491 0 0.050226451315449061 0.017660733441268724 0 0.04645234332168946 0.016785520367715669 0 0.043665321636068864 0.016822856981294917 0 0.044322730560782619 0.016834283047152777 0 0.04645234332168946 0.016785520367715669 0 0.048096673393321937 0.019321399780495491 0 0.043665321636068864 0.016822856981294917 0 0.04645234332168946 0.016785520367715669 0 0.042862841489000034 0.014847203594112244 0 0.041537788421031806 0.014597726397996089 0 0.043665321636068864 0.016822856981294917 0 0.041537788421031806 0.014597726397996089 0 0.040931524623684636 0.015606076514205085 0 0.043665321636068864 0.016822856981294917 0 0.044640251990695656 0.017365229988397436 0 0.043928578404385528 0.016939517921084678 0 0.04386636267420161 0.016185970955218926 0 0.043665321636068864 0.016822856981294917 0 0.044322730560782619 0.016834283047152777 0 0.042862841489000034 0.014847203594112244 0 0.04386636267420161 0.016185970955218926 0 0.043665321636068864 0.016822856981294917 0 0.042637029191939062 0.013790715972725836 0 0.043052601072455607 0.014256143301890444 0 0.043065646738195761 0.014137164625943794 0 0.043064155394466092 0.014687016280812943 0 0.043797439737298403 0.015415066286818876 0 0.042637029191939062 0.013790715972725836 0 0.042282358160219122 0.013186494008611434 0 0.043052601072455607 0.014256143301890444 0 0.043052601072455607 0.014256143301890444 0 0.043065646738195761 0.014137164625943794 0 0.044133448858922501 0.014153639691126218 0 0.043065646738195761 0.014137164625943794 0 0.043306135296380603 0.013957876750142187 0 0.044133448858922501 0.014153639691126218 0 0.04645234332168946 0.016785520367715669 0 0.045395262108753297 0.014563402865365886 0 0.047167871117961127 0.015110278952058747 0 0.043052601072455607 0.014256143301890444 0 0.045395262108753297 0.014563402865365886 0 0.044133448858922501 0.014153639691126218 0 0.044322730560782619 0.016834283047152777 0 0.04645234332168946 0.016785520367715669 0 0.045395262108753297 0.014563402865365886 0 0.043797439737298403 0.015415066286818876 0 0.045184797492251155 0.014461545532206228 0 0.045395262108753297 0.014563402865365886 0 0.046682499543970746 0.013892321651282173 0 0.047167871117961127 0.015110278952058747 0 0.045395262108753297 0.014563402865365886 0 0.04533076541097842 0.013454749772149999 0 0.044133448858922501 0.014153639691126218 0 0.04533076541097842 0.013454749772149999 0 0.046426423661826373 0.012800337817567455 0 0.046682499543970746 0.013892321651282173 0 0.045395262108753297 0.014563402865365886 0 0.04533076541097842 0.013454749772149999 0 0.046682499543970746 0.013892321651282173 0 0.042950999431730336 0.013484317212968907 0 0.04533076541097842 0.013454749772149999 0 0.044133448858922501 0.014153639691126218 0 0.042950999431730336 0.013484317212968907 0 0.043306135296380603 0.013957876750142187 0 0.044133448858922501 0.014153639691126218 0 0.042950999431730336 0.013484317212968907 0 0.04533076541097842 0.013454749772149999 0 0.042964236152630911 0.01249065635687779 0 0.044831156719882685 0.012199854365596364 0 0.045494893866848546 0.012345385400776151 0 0.04533877848713274 0.011660004537390594 0 0.04533076541097842 0.013454749772149999 0 0.044831156719882685 0.012199854365596364 0 0.045494893866848546 0.012345385400776151 0 0.04524961929075319 0.013369698244390464 0 0.044102923754034538 0.012489209770212914 0 0.04533076541097842 0.013454749772149999 0 0.046426423661826373 0.012800337817567455 0 0.045494893866848546 0.012345385400776151 0 0.046426423661826373 0.012800337817567455 0 0.045494893866848546 0.012345385400776151 0 0.04647603883947634 0.01198289580379318 0 0.045494893866848546 0.012345385400776151 0 0.045853306555530993 0.011767685203646912 0 0.04647603883947634 0.01198289580379318 0 0.045494893866848546 0.012345385400776151 0 0.045853306555530993 0.011767685203646912 0 0.04533877848713274 0.011660004537390594 0 0.045853306555530993 0.011767685203646912 0 0.045978034988793576 0.011275929938554472 0 0.04533877848713274 0.011660004537390594 0 0.045853306555530993 0.011767685203646912 0 0.04647603883947634 0.01198289580379318 0 0.046565616053253732 0.011402740658792833 0 0.04647603883947634 0.01198289580379318 0 0.046565616053253732 0.011402740658792833 0 0.047264505887130076 0.011453842119612248 0 0.046565616053253732 0.011402740658792833 0 0.045978034988793576 0.011275929938554472 0 0.046979844604233857 0.010613691032401725 0 0.045853306555530993 0.011767685203646912 0 0.046565616053253732 0.011402740658792833 0 0.045978034988793576 0.011275929938554472 0 0.044745899371165812 0.01152276836188447 0 0.04533877848713274 0.011660004537390594 0 0.045469803780803723 0.010847842364929108 0 0.044745899371165812 0.01152276836188447 0 0.044831156719882685 0.012199854365596364 0 0.04533877848713274 0.011660004537390594 0 0.045978034988793576 0.011275929938554472 0 0.04533877848713274 0.011660004537390594 0 0.045469803780803723 0.010847842364929108 0 0.058175273520805301 0.022887151864562728 0 0.056514543424100117 0.022565032451729878 0 0.056534194345262766 0.02393482333358837 0 0.056534194345262766 0.02393482333358837 0 0.055763754789408954 0.024986089041807383 0 0.057296530293401114 0.024811976812319676 0 0.058175273520805301 0.022887151864562728 0 0.056534194345262766 0.02393482333358837 0 0.057296530293401114 0.024811976812319676 0 0.058175273520805301 0.022887151864562728 0 0.058681719017263982 0.025027461673379752 0 0.057296530293401114 0.024811976812319676 0 0.051341081775614229 0.015152139563689779 0 0.05597572152430464 0.026154294417680215 0 0.04855051859353101 0.011468341191273939 0 0.047264505887130076 0.011453842119612248 0 0.046979844604233857 0.010613691032401725 0 0.051341081775614229 0.015152139563689779 0 0.052365900628587557 0.023192475049384913 0 0.051208960687305308 0.017998873260861688 0 0.05565668745820334 0.023062983334736557 0 0.052582043403207608 0.022569358500101597 0 0.046565616053253732 0.011402740658792833 0 0.047264505887130076 0.011453842119612248 0 0.046979844604233857 0.010613691032401725 0 0.04647603883947634 0.01198289580379318 0 0.047264505887130076 0.011453842119612248 0 0.04745873029975696 0.012265293670331502 0 0.04855051859353101 0.011468341191273939 0 0.047264505887130076 0.011453842119612248 0 0.04745873029975696 0.012265293670331502 0 0.04855051859353101 0.011468341191273939 0 0.04745873029975696 0.012265293670331502 0 0.048439063670358037 0.013007826679538172 0 0.046426423661826373 0.012800337817567455 0 0.04647603883947634 0.01198289580379318 0 0.04745873029975696 0.012265293670331502 0 0.046426423661826373 0.012800337817567455 0 0.047516237645378878 0.013248861652779156 0 0.046682499543970746 0.013892321651282173 0 0.046426423661826373 0.012800337817567455 0 0.04745873029975696 0.012265293670331502 0 0.047516237645378878 0.013248861652779156 0 0.04745873029975696 0.012265293670331502 0 0.047516237645378878 0.013248861652779156 0 0.048439063670358037 0.013007826679538172 0 0.047516237645378878 0.013248861652779156 0 0.048439063670358037 0.013007826679538172 0 0.0483478403018585 0.014353378202423446 0 0.051341081775614229 0.015152139563689779 0 0.049252994612585393 0.011855800340279688 0 0.04855051859353101 0.011468341191273939 0 0.048439063670358037 0.013007826679538172 0 0.050108663079475264 0.013872862879922272 0 0.04892637395553591 0.009669978428935808 0 0.051607202953354428 0.012606421790770943 0 0.050108663079475264 0.013872862879922272 0 0.058175273520805301 0.022887151864562728 0 0.056514543424100117 0.022565032451729878 0 0.056879051412608489 0.020660818400757872 0 0.051341081775614229 0.015152139563689779 0 0.054441794675505729 0.016976750640192405 0 0.051607202953354428 0.012606421790770943 0 0.051475885962351094 0.015305268275614131 0 0.050108663079475264 0.013872862879922272 0 0.051475885962351094 0.015305268275614131 0 0.050108663079475264 0.013872862879922272 0 0.050041367196985917 0.015259844655723763 0 0.050108663079475264 0.013872862879922272 0 0.050041367196985917 0.015259844655723763 0 0.0483478403018585 0.014353378202423446 0 0.048439063670358037 0.013007826679538172 0 0.050108663079475264 0.013872862879922272 0 0.0483478403018585 0.014353378202423446 0 0.050041367196985917 0.015259844655723763 0 0.0483478403018585 0.014353378202423446 0 0.048973790243216429 0.016018374931455002 0 0.050041367196985917 0.015259844655723763 0 0.048973790243216429 0.016018374931455002 0 0.051462301811736597 0.016527444035721185 0 0.051475885962351094 0.015305268275614131 0 0.050041367196985917 0.015259844655723763 0 0.051462301811736597 0.016527444035721185 0 0.047516237645378878 0.013248861652779156 0 0.046682499543970746 0.013892321651282173 0 0.0483478403018585 0.014353378202423446 0 0.0483478403018585 0.014353378202423446 0 0.047167871117961127 0.015110278952058747 0 0.048973790243216429 0.016018374931455002 0 0.046682499543970746 0.013892321651282173 0 0.0483478403018585 0.014353378202423446 0 0.047167871117961127 0.015110278952058747 0 0.050226451315449061 0.017660733441268724 0 0.04645234332168946 0.016785520367715669 0 0.048973790243216429 0.016018374931455002 0 0.04645234332168946 0.016785520367715669 0 0.047167871117961127 0.015110278952058747 0 0.048973790243216429 0.016018374931455002 0 0.050226451315449061 0.017660733441268724 0 0.051462301811736597 0.016527444035721185 0 0.052875676801075043 0.017604257035803171 0 0.050226451315449061 0.017660733441268724 0 0.048973790243216429 0.016018374931455002 0 0.051462301811736597 0.016527444035721185 0 0.051462301811736597 0.016527444035721185 0 0.052875676801075043 0.017604257035803171 0 0.054303609848619136 0.017387994381806215 0 0.052875676801075043 0.017604257035803171 0 0.054633213621306298 0.017813813181681362 0 0.054303609848619136 0.017387994381806215 0 0.054633213621306298 0.017813813181681362 0 0.05392265702944532 0.01906220847328978 0 0.053662988872569387 0.019327792366383809 0 0.054633213621306298 0.017813813181681362 0 0.05392265702944532 0.01906220847328978 0 0.054303609848619136 0.017387994381806215 0 0.05392265702944532 0.01906220847328978 0 0.054303609848619136 0.017387994381806215 0 0.054419345600581287 0.020261559724802678 0 0.051475885962351094 0.015305268275614131 0 0.051462301811736597 0.016527444035721185 0 0.054303609848619136 0.017387994381806215 0 0.054303609848619136 0.017387994381806215 0 0.055237499095021993 0.020081095537599788 0 0.054419345600581287 0.020261559724802678 0 0.054441794675505729 0.016976750640192405 0 0.054191977514545991 0.017056972950111961 0 0.056879051412608489 0.020660818400757872 0 0.054303609848619136 0.017387994381806215 0 0.055237499095021993 0.020081095537599788 0 0.051607202953354428 0.012606421790770943 0 0.051475885962351094 0.015305268275614131 0 0.054303609848619136 0.017387994381806215 0 0.056879051412608489 0.020660818400757872 0 0.055412989906300829 0.021676030764497967 0 0.055237499095021993 0.020081095537599788 0 0.056514543424100117 0.022565032451729878 0 0.056879051412608489 0.020660818400757872 0 0.055412989906300829 0.021676030764497967 0 0.055412989906300829 0.021676030764497967 0 0.055237499095021993 0.020081095537599788 0 0.054419345600581287 0.020261559724802678 0 0.05392265702944532 0.01906220847328978 0 0.054419345600581287 0.020261559724802678 0 0.053001350238464341 0.021235625770633555 0 0.055412989906300829 0.021676030764497967 0 0.054419345600581287 0.020261559724802678 0 0.052377027876936391 0.023334961346110374 0 0.05439115162736799 0.020618405550249339 0 0.052950948538187104 0.02320271044226346 0 0.054419345600581287 0.020261559724802678 0 0.053580682160074604 0.023231658307355584 0 0.053001350238464341 0.021235625770633555 0 0.055412989906300829 0.021676030764497967 0 0.052377027876936391 0.023334961346110374 0 0.05515563611311932 0.023592408747224521 0 0.052377027876936391 0.023334961346110374 0 0.05515563611311932 0.023592408747224521 0 0.054169208193257344 0.024972540697702918 0 0.05515563611311932 0.023592408747224521 0 0.055763754789408954 0.024986089041807383 0 0.054169208193257344 0.024972540697702918 0 0.056534194345262766 0.02393482333358837 0 0.05515563611311932 0.023592408747224521 0 0.055763754789408954 0.024986089041807383 0 0.056514543424100117 0.022565032451729878 0 0.055412989906300829 0.021676030764497967 0 0.05515563611311932 0.023592408747224521 0 0.056514543424100117 0.022565032451729878 0 0.056534194345262766 0.02393482333358837 0 0.05515563611311932 0.023592408747224521 0 0.050000188945308777 0.025001188699583766 0 0.051604421161905938 0.023593687269308796 0 0.051695325875666012 0.025710839606699832 0 0.050000188945308777 0.025001188699583766 0 0.051604421161905938 0.023593687269308796 0 0.049999391061550262 0.02250799504888628 0 0.053580682160074604 0.023231658307355584 0 0.051604421161905938 0.023593687269308796 0 0.051695325875666012 0.025710839606699832 0 0.052950948538187104 0.02320271044226346 0 0.051391345723142572 0.025640215783221558 0 0.053580682160074604 0.023231658307355584 0 0.051604421161905938 0.023593687269308796 0 0.053001350238464341 0.021235625770633555 0 0.053001350238464341 0.021235625770633555 0 0.049999391061550262 0.02250799504888628 0 0.052013818935731232 0.020563913251279032 0 0.051604421161905938 0.023593687269308796 0 0.053001350238464341 0.021235625770633555 0 0.049999391061550262 0.02250799504888628 0 0.049999391061550262 0.02250799504888628 0 0.052013818935731232 0.020563913251279032 0 0.050004980679984434 0.02016203876307103 0 0.05392265702944532 0.01906220847328978 0 0.053001350238464341 0.021235625770633555 0 0.053662988872569387 0.019327792366383809 0 0.053001350238464341 0.021235625770633555 0 0.052013818935731232 0.020563913251279032 0 0.053662988872569387 0.019327792366383809 0 0.054633213621306298 0.017813813181681362 0 0.053662988872569387 0.019327792366383809 0 0.05462148183089887 0.018737647603298522 0 0.052013818935731232 0.020563913251279032 0 0.053662988872569387 0.019327792366383809 0 0.05462148183089887 0.018737647603298522 0 0.05462148183089887 0.018737647603298522 0 0.050004980679984434 0.02016203876307103 0 0.049966631198668489 0.01749729992451814 0 0.052013818935731232 0.020563913251279032 0 0.05462148183089887 0.018737647603298522 0 0.050004980679984434 0.02016203876307103 0 0.045117639937048898 0.01010949854836928 0 0.046664834679084888 0.0153873086455738 0 0.05462148183089887 0.018737647603298522 0 0.053435984268585958 0.0035054457576759054 0 0.049966631198668489 0.01749729992451814 0 0.05462148183089887 0.018737647603298522 0 0.053435984268585958 0.0035054457576759054 0 0.055769716288824704 0.016858081520697021 0 0.045117639937048898 0.01010949854836928 0 0.044596961759132969 0.011814820700473488 0 0.049976137113008391 0.017608769984533468 0 0.049999945447518693 0.014603259746791027 0 0.050124125690864635 0.015480776523925504 0 0.045117639937048898 0.01010949854836928 0 0.043621393077810176 0.0160184760513165 0 0.037419840904258719 0.014966350915755069 0 0.037930096534996141 0.014491539536776676 0 0.038575246518919241 0.014968672498945186 0 0.037930096534996141 0.014491539536776676 0 0.037376827563930397 0.014071996470957327 0 0.038374521031923993 0.013932606985211397 0 0.037419840904258719 0.014966350915755069 0 0.037930096534996141 0.014491539536776676 0 0.037376827563930397 0.014071996470957327 0 0.037930096534996141 0.014491539536776676 0 0.038575246518919241 0.014968672498945186 0 0.038374521031923993 0.013932606985211397 0 0.054633213621306298 0.017813813181681362 0 0.05462148183089887 0.018737647603298522 0 0.055769716288824704 0.016858081520697021 0 0.046664834679084888 0.0153873086455738 0 0.046369874371896574 0.017155472832551935 0 0.054633213621306298 0.017813813181681362 0 0.055769716288824704 0.016858081520697021 0 0.052958908855561572 0.019243678472138485 0 0.050226451315449061 0.017660733441268724 0 0.052875676801075043 0.017604257035803171 0 0.052958908855561572 0.019243678472138485 0 0.052875676801075043 0.017604257035803171 0 0.054633213621306298 0.017813813181681362 0 0.052958908855561572 0.019243678472138485 0 0.040345635579437704 0.014538706608264295 0 0.039747625695604034 0.015065794673232378 0 0.039430612272807711 0.013883809907258064 0 0.038575246518919241 0.014968672498945186 0 0.039747625695604034 0.015065794673232378 0 0.039430612272807711 0.013883809907258064 0 0.038575246518919241 0.014968672498945186 0 0.039430612272807711 0.013883809907258064 0 0.038374521031923993 0.013932606985211397 0 0.039430612272807711 0.013883809907258064 0 0.038827205490680319 0.012932196064177682 0 0.038374521031923993 0.013932606985211397 0 0.040430832380937566 0.013443358748684535 0 0.039430612272807711 0.013883809907258064 0 0.039762470135415028 0.012622667551030977 0 0.039430612272807711 0.013883809907258064 0 0.039762470135415028 0.012622667551030977 0 0.038827205490680319 0.012932196064177682 0 0.038189299480778524 0.012188031862184487 0 0.038827205490680319 0.012932196064177682 0 0.038043350694280477 0.013180528812478909 0 0.038827205490680319 0.012932196064177682 0 0.038043350694280477 0.013180528812478909 0 0.038374521031923993 0.013932606985211397 0 0.049999951021541929 0.011595816376012136 0 0.050249836425181306 0.013354229378182437 0 0.049999945447518693 0.014603259746791027 0 0.038189299480778524 0.012188031862184487 0 0.038043350694280477 0.013180528812478909 0 0.037345830292697293 0.013004316810839802 0 0.050249836425181306 0.013354229378182437 0 0.049999945447518693 0.014603259746791027 0 0.050124125690864635 0.015480776523925504 0 0.043679173293325574 0.012883831129820261 0 0.043621393077810176 0.0160184760513165 0 0.038043350694280477 0.013180528812478909 0 0.037345830292697293 0.013004316810839802 0 0.037376827563930397 0.014071996470957327 0 0.038043350694280477 0.013180528812478909 0 0.037376827563930397 0.014071996470957327 0 0.038374521031923993 0.013932606985211397 0 0.051868600238454354 0.035902427385939399 0 0.053102903865085899 0.034859394092806029 0 0.051581016080453554 0.034143645693906079 0 0.049999852263284676 0.036012724295442756 0 0.051868600238454354 0.035902427385939399 0 0.051581016080453554 0.034143645693906079 0 0.049999852263284676 0.036012724295442756 0 0.051581016080453554 0.034143645693906079 0 0.049999838855753202 0.033160484341451316 0 0.049999852263284676 0.036012724295442756 0 0.051466769850969762 0.037507139635094722 0 0.049999830607780349 0.038865046051349758 0 0.049999852263284676 0.036012724295442756 0 0.051868600238454354 0.035902427385939399 0 0.051466769850969762 0.037507139635094722 0 0.051868600238454354 0.035902427385939399 0 0.053160048088748468 0.036978643217347215 0 0.051466769850969762 0.037507139635094722 0 0.051868600238454354 0.035902427385939399 0 0.053160048088748468 0.036978643217347215 0 0.053102903865085899 0.034859394092806029 0 0.053160048088748468 0.036978643217347215 0 0.054471019939299897 0.037209526095362142 0 0.05473717823358152 0.035387035167705159 0 0.054471019939299897 0.037209526095362142 0 0.05473717823358152 0.035387035167705159 0 0.056030474200902708 0.036000057815319841 0 0.054471019939299897 0.037209526095362142 0 0.056030474200902708 0.036000057815319841 0 0.055271913355516268 0.038589895221284996 0 0.05473717823358152 0.035387035167705159 0 0.053102903865085899 0.034859394092806029 0 0.054359786177395411 0.033700876163126767 0 0.053160048088748468 0.036978643217347215 0 0.05473717823358152 0.035387035167705159 0 0.053102903865085899 0.034859394092806029 0 0.053107118693320299 0.033074109955934426 0 0.054359786177395411 0.033700876163126767 0 0.054547770545270401 0.032302353239384754 0 0.053102903865085899 0.034859394092806029 0 0.053107118693320299 0.033074109955934426 0 0.054359786177395411 0.033700876163126767 0 0.05473717823358152 0.035387035167705159 0 0.054359786177395411 0.033700876163126767 0 0.055660706919429245 0.033331148888737415 0 0.054359786177395411 0.033700876163126767 0 0.054547770545270401 0.032302353239384754 0 0.055660706919429245 0.033331148888737415 0 0.054547770545270401 0.032302353239384754 0 0.054862237064368193 0.03044665580565251 0 0.056324933037436332 0.031849638410491467 0 0.053107118693320299 0.033074109955934426 0 0.054547770545270401 0.032302353239384754 0 0.052834088175605483 0.03133348315843823 0 0.053107118693320299 0.033074109955934426 0 0.05139659259067305 0.032251052208857135 0 0.052834088175605483 0.03133348315843823 0 0.05139659259067305 0.032251052208857135 0 0.04999994309812647 0.030308079891655994 0 0.052834088175605483 0.03133348315843823 0 0.053107118693320299 0.033074109955934426 0 0.05139659259067305 0.032251052208857135 0 0.051581016080453554 0.034143645693906079 0 0.053102903865085899 0.034859394092806029 0 0.053107118693320299 0.033074109955934426 0 0.051581016080453554 0.034143645693906079 0 0.05139659259067305 0.032251052208857135 0 0.051581016080453554 0.034143645693906079 0 0.049999838855753202 0.033160484341451316 0 0.05139659259067305 0.032251052208857135 0 0.049999838855753202 0.033160484341451316 0 0.04999994309812647 0.030308079891655994 0 0.04999994309812647 0.030308079891655994 0 0.052884226371844818 0.029522745291487552 0 0.052834088175605483 0.03133348315843823 0 0.04999994309812647 0.030308079891655994 0 0.051795127898571533 0.027983263269170715 0 0.052884226371844818 0.029522745291487552 0 0.04999994309812647 0.030308079891655994 0 0.049999267721946905 0.02745596365319336 0 0.051795127898571533 0.027983263269170715 0 0.0500003193934003 0.027455274553364419 0 0.051391345723142572 0.025640215783221558 0 0.049999267721946905 0.02745596365319336 0 0.051795127898571533 0.027983263269170715 0 0.051062338786720708 0.025661643804284907 0 0.051795127898571533 0.027983263269170715 0 0.051062338786720708 0.025661643804284907 0 0.052921231784490361 0.02630801645070301 0 0.052377027876936391 0.023334961346110374 0 0.051062338786720708 0.025661643804284907 0 0.052921231784490361 0.02630801645070301 0 0.050000188945308777 0.025001188699583766 0 0.049999948715186281 0.027452456951656781 0 0.051695325875666012 0.025710839606699832 0 0.054930740103547523 0.026504901121838377 0 0.055763754789408954 0.024986089041807383 0 0.056437614524246456 0.026198712593511163 0 0.054930740103547523 0.026504901121838377 0 0.055763754789408954 0.024986089041807383 0 0.054169208193257344 0.024972540697702918 0 0.054930740103547523 0.026504901121838377 0 0.052921231784490361 0.02630801645070301 0 0.054169208193257344 0.024972540697702918 0 0.052377027876936391 0.023334961346110374 0 0.052921231784490361 0.02630801645070301 0 0.054169208193257344 0.024972540697702918 0 0.051795127898571533 0.027983263269170715 0 0.052921231784490361 0.02630801645070301 0 0.054171588701567103 0.028581376430304315 0 0.054930740103547523 0.026504901121838377 0 0.052921231784490361 0.02630801645070301 0 0.054171588701567103 0.028581376430304315 0 0.054930740103547523 0.026504901121838377 0 0.055914818962909368 0.028244357315229899 0 0.056437614524246456 0.026198712593511163 0 0.054930740103547523 0.026504901121838377 0 0.054171588701567103 0.028581376430304315 0 0.055914818962909368 0.028244357315229899 0 0.054171588701567103 0.028581376430304315 0 0.054862237064368193 0.03044665580565251 0 0.055914818962909368 0.028244357315229899 0 0.052884226371844818 0.029522745291487552 0 0.054171588701567103 0.028581376430304315 0 0.054862237064368193 0.03044665580565251 0 0.051795127898571533 0.027983263269170715 0 0.052884226371844818 0.029522745291487552 0 0.054171588701567103 0.028581376430304315 0 0.052884226371844818 0.029522745291487552 0 0.052834088175605483 0.03133348315843823 0 0.054862237064368193 0.03044665580565251 0 0.054547770545270401 0.032302353239384754 0 0.052834088175605483 0.03133348315843823 0 0.054862237064368193 0.03044665580565251 0 0.054862237064368193 0.03044665580565251 0 0.056904731183499403 0.029882766547156391 0 0.056324933037436332 0.031849638410491467 0 0.057274544390846421 0.030976027407369742 0 0.056904731183499403 0.029882766547156391 0 0.056324933037436332 0.031849638410491467 0 0.057274544390846421 0.030976027407369742 0 0.056904731183499403 0.029882766547156391 0 0.058519818079286738 0.030604946497362982 0 0.057274544390846421 0.030976027407369742 0 0.058519818079286738 0.030604946497362982 0 0.0573606545604399 0.031905815782275894 0 0.057366277805934125 0.030375885650395781 0 0.057593461407362906 0.031675169266726637 0 0.056904731183499403 0.029882766547156391 0 0.058417339791944634 0.027912421569095073 0 0.058519818079286738 0.030604946497362982 0 0.056904731183499403 0.029882766547156391 0 0.057083815016732618 0.028328396607347282 0 0.058417339791944634 0.027912421569095073 0 0.054862237064368193 0.03044665580565251 0 0.056904731183499403 0.029882766547156391 0 0.055914818962909368 0.028244357315229899 0 0.056904731183499403 0.029882766547156391 0 0.055914818962909368 0.028244357315229899 0 0.057083815016732618 0.028328396607347282 0 0.055914818962909368 0.028244357315229899 0 0.05708852695903098 0.027256366588761887 0 0.056437614524246456 0.026198712593511163 0 0.05708852695903098 0.027256366588761887 0 0.056437614524246456 0.026198712593511163 0 0.057472897157789617 0.026258545980776055 0 0.055914818962909368 0.028244357315229899 0 0.05708852695903098 0.027256366588761887 0 0.057083815016732618 0.028328396607347282 0 0.05708852695903098 0.027256366588761887 0 0.057083815016732618 0.028328396607347282 0 0.058417339791944634 0.027912421569095073 0 0.05708852695903098 0.027256366588761887 0 0.058417339791944634 0.027912421569095073 0 0.057472897157789617 0.026258545980776055 0 0.058417339791944634 0.027912421569095073 0 0.058095602778804149 0.02508498798249888 0 0.057472897157789617 0.026258545980776055 0 0.056020755733530908 0.032130007358563778 0 0.05606212389738445 0.031377487277104862 0 0.055507507471048226 0.030804721496897509 0 0.057366277805934125 0.030375885650395781 0 0.05597572152430464 0.026154294417680215 0 0.05606212389738445 0.031377487277104862 0 0.056061635648486485 0.030896567853286854 0 0.055507507471048226 0.030804721496897509 0 0.052365900628587557 0.023192475049384913 0 0.05597572152430464 0.026154294417680215 0 0.05597572152430464 0.026154294417680215 0 0.057601297311556506 0.025573160646889814 0 0.058095602778804149 0.02508498798249888 0 0.057296530293401114 0.024811976812319676 0 0.057472897157789617 0.026258545980776055 0 0.055763754789408954 0.024986089041807383 0 0.057296530293401114 0.024811976812319676 0 0.056437614524246456 0.026198712593511163 0 0.057296530293401114 0.024811976812319676 0 0.056437614524246456 0.026198712593511163 0 0.057472897157789617 0.026258545980776055 0 0.05086970443763552 0.020798374362026407 0 0.052006821296068088 0.02170096789197681 0 0.056993835306275886 0.031261782894816334 0 0.057324672514266289 0.032008395354261705 0 0.057666019422662029 0.031489511482460139 0 0.045978034988793576 0.011275929938554472 0 0.046979844604233857 0.010613691032401725 0 0.045469803780803723 0.010847842364929108 0 0.052365900628587557 0.023192475049384913 0 0.05086970443763552 0.020798374362026407 0 0.056008847432573915 0.030961036079153223 0 0.056993835306275886 0.031261782894816334 0 0.05661300227419875 0.031659311006120149 0 0.05606212389738445 0.031377487277104862 0 0.056061635648486485 0.030896567853286854 0 0.05661300227419875 0.031659311006120149 0 0.052365900628587557 0.023192475049384913 0 0.058379843044062386 0.033643216188632197 0 0.056020755733530908 0.032130007358563778 0 0.05661300227419875 0.031659311006120149 0 0.056766561329944502 0.032457182384279915 0 0.05661300227419875 0.031659311006120149 0 0.057324672514266289 0.032008395354261705 0 0.056766561329944502 0.032457182384279915 0 0.056020755733530908 0.032130007358563778 0 0.05606212389738445 0.031377487277104862 0 0.05661300227419875 0.031659311006120149 0 0.056993835306275886 0.031261782894816334 0 0.05661300227419875 0.031659311006120149 0 0.057324672514266289 0.032008395354261705 0 0.057324672514266289 0.032008395354261705 0 0.056766561329944502 0.032457182384279915 0 0.057117193605602794 0.033142688608618756 0 0.057324672514266289 0.032008395354261705 0 0.057117193605602794 0.033142688608618756 0 0.057815900090532064 0.032326089045343384 0 0.056020755733530908 0.032130007358563778 0 0.056766561329944502 0.032457182384279915 0 0.056791778793524275 0.033128397617119748 0 0.056766561329944502 0.032457182384279915 0 0.056791778793524275 0.033128397617119748 0 0.057117193605602794 0.033142688608618756 0 0.056791778793524275 0.033128397617119748 0 0.057222652198834843 0.033057766317344917 0 0.057117193605602794 0.033142688608618756 0 0.057222652198834843 0.033057766317344917 0 0.057117193605602794 0.033142688608618756 0 0.056894315809489872 0.032951606023624243 0 0.057117193605602794 0.033142688608618756 0 0.056894315809489872 0.032951606023624243 0 0.056239308027696409 0.033235955281734925 0 0.056894315809489872 0.032951606023624243 0 0.057279775027736894 0.032792449261948665 0 0.056942504760116842 0.032436054180149734 0 0.057222652198834843 0.033057766317344917 0 0.056894315809489872 0.032951606023624243 0 0.057279775027736894 0.032792449261948665 0 0.056942504760116842 0.032436054180149734 0 0.05749197954744182 0.032619417365598445 0 0.057305423842964394 0.031633465519679542 0 0.057279775027736894 0.032792449261948665 0 0.056942504760116842 0.032436054180149734 0 0.05749197954744182 0.032619417365598445 0 0.057931409927504764 0.033028661680112183 0 0.058180243464952229 0.033066414611247853 0 0.05749197954744182 0.032619417365598445 0 0.057980457125326651 0.032956184536206572 0 0.057305423842964394 0.031633465519679542 0 0.05749197954744182 0.032619417365598445 0 0.057980457125326651 0.032956184536206572 0 0.057835467533866598 0.03278573306775117 0 0.056791778793524275 0.033128397617119748 0 0.057222652198834843 0.033057766317344917 0 0.057835467533866598 0.03278573306775117 0 0.057593461407362906 0.031675169266726637 0 0.057814458914230406 0.032651544349825319 0 0.057980457125326651 0.032956184536206572 0 0.057835467533866598 0.03278573306775117 0 0.057739614203148 0.032349533360232607 0 0.058519818079286738 0.030604946497362982 0 0.057835467533866598 0.03278573306775117 0 0.057739614203148 0.032349533360232607 0 0.057279775027736894 0.032792449261948665 0 0.05749197954744182 0.032619417365598445 0 0.057835467533866598 0.03278573306775117 0 0.057222652198834843 0.033057766317344917 0 0.057279775027736894 0.032792449261948665 0 0.057835467533866598 0.03278573306775117 0 0.058519818079286738 0.030604946497362982 0 0.0573606545604399 0.031905815782275894 0 0.057739614203148 0.032349533360232607 0 0.057274544390846421 0.030976027407369742 0 0.0573606545604399 0.031905815782275894 0 0.056324933037436332 0.031849638410491467 0 0.0573606545604399 0.031905815782275894 0 0.056324933037436332 0.031849638410491467 0 0.05704707173178962 0.033102586739486996 0 0.0573606545604399 0.031905815782275894 0 0.057739614203148 0.032349533360232607 0 0.05704707173178962 0.033102586739486996 0 0.054547770545270401 0.032302353239384754 0 0.056324933037436332 0.031849638410491467 0 0.055660706919429245 0.033331148888737415 0 0.056324933037436332 0.031849638410491467 0 0.055660706919429245 0.033331148888737415 0 0.05704707173178962 0.033102586739486996 0 0.055660706919429245 0.033331148888737415 0 0.05704707173178962 0.033102586739486996 0 0.056273838844389953 0.034544222784304093 0 0.05704707173178962 0.033102586739486996 0 0.057599997507158121 0.03501573724704965 0 0.056273838844389953 0.034544222784304093 0 0.057980457125326651 0.032956184536206572 0 0.05704707173178962 0.033102586739486996 0 0.057599997507158121 0.03501573724704965 0 0.057980457125326651 0.032956184536206572 0 0.057739614203148 0.032349533360232607 0 0.05704707173178962 0.033102586739486996 0 0.057599997507158121 0.03501573724704965 0 0.056273838844389953 0.034544222784304093 0 0.056030474200902708 0.036000057815319841 0 0.05473717823358152 0.035387035167705159 0 0.056273838844389953 0.034544222784304093 0 0.056030474200902708 0.036000057815319841 0 0.05473717823358152 0.035387035167705159 0 0.055660706919429245 0.033331148888737415 0 0.056273838844389953 0.034544222784304093 0 0.057599997507158121 0.03501573724704965 0 0.057995493211871578 0.03652052923058368 0 0.056963292031856794 0.037176310944465073 0 0.057599997507158121 0.03501573724704965 0 0.056030474200902708 0.036000057815319841 0 0.056963292031856794 0.037176310944465073 0 0.057599997507158121 0.03501573724704965 0 0.057995493211871578 0.03652052923058368 0 0.058393705251415302 0.036048068971264391 0 0.057995493211871578 0.03652052923058368 0 0.058393705251415302 0.036048068971264391 0 0.058157343332523363 0.036848700993269534 0 0.058180243464952229 0.033066414611247853 0 0.056188498826057642 0.035498078937755827 0 0.058393705251415302 0.036048068971264391 0 0.059251265107245203 0.036399719638577778 0 0.058157343332523363 0.036848700993269534 0 0.058393705251415302 0.036048068971264391 0 0.058835677034149179 0.035055893676985792 0 0.059251265107245203 0.036399719638577778 0 0.057305423842964394 0.031633465519679542 0 0.056407928929790643 0.031692052770670685 0 0.056621975170482217 0.030787850136798241 0 0.056942504760116842 0.032436054180149734 0 0.057305423842964394 0.031633465519679542 0 0.056407928929790643 0.031692052770670685 0 0.057980457125326651 0.032956184536206572 0 0.057599997507158121 0.03501573724704965 0 0.058835677034149179 0.035055893676985792 0 0.057599997507158121 0.03501573724704965 0 0.058393705251415302 0.036048068971264391 0 0.058835677034149179 0.035055893676985792 0 0.056407928929790643 0.031692052770670685 0 0.055665453054772947 0.031290788150355908 0 0.055464692543554045 0.032155715775454348 0 0.056188498826057642 0.035498078937755827 0 0.053281364413351379 0.034453024068815875 0 0.056407928929790643 0.031692052770670685 0 0.056621975170482217 0.030787850136798241 0 0.055665453054772947 0.031290788150355908 0 0.051175130328880422 0.038041546973670883 0 0.049221976015906888 0.037387284360006982 0 0.051286404039511568 0.036191187322536664 0 0.053802807026906554 0.036590618257201737 0 0.051175130328880422 0.038041546973670883 0 0.051286404039511568 0.036191187322536664 0 0.049221976015906888 0.037387284360006982 0 0.049596150700525019 0.035356989802060972 0 0.051286404039511568 0.036191187322536664 0 0.049221976015906888 0.037387284360006982 0 0.047871542704841258 0.036096895437411257 0 0.049596150700525019 0.035356989802060972 0 0.046486267990316445 0.036857544935177372 0 0.04752581199761978 0.038001225109262855 0 0.047871542704841258 0.036096895437411257 0 0.049221976015906888 0.037387284360006982 0 0.04752581199761978 0.038001225109262855 0 0.047871542704841258 0.036096895437411257 0 0.046486267990316445 0.036857544935177372 0 0.04752581199761978 0.038001225109262855 0 0.046187973543569169 0.038034892761761911 0 0.04752581199761978 0.038001225109262855 0 0.046613655523940929 0.039321419268082872 0 0.046187973543569169 0.038034892761761911 0 0.04752581199761978 0.038001225109262855 0 0.046613655523940929 0.039321419268082872 0 0.048442157300568459 0.0393840275739357 0 0.049221976015906888 0.037387284360006982 0 0.04752581199761978 0.038001225109262855 0 0.048442157300568459 0.0393840275739357 0 0.053281364413351379 0.034453024068815875 0 0.051848777409092078 0.035804449587610705 0 0.051175130328880422 0.038041546973670883 0 0.049221976015906888 0.037387284360006982 0 0.048442157300568459 0.0393840275739357 0 0.055665453054772947 0.031290788150355908 0 0.054687280100294215 0.031776942544427887 0 0.055464692543554045 0.032155715775454348 0 0.054687280100294215 0.031776942544427887 0 0.054558464996357046 0.032436014090208756 0 0.055464692543554045 0.032155715775454348 0 0.051848777409092078 0.035804449587610705 0 0.047846186205116666 0.034040041107881398 0 0.054687280100294215 0.031776942544427887 0 0.054558464996357046 0.032436014090208756 0 0.053717055152141709 0.032284967973714176 0 0.046613655523940929 0.039321419268082872 0 0.048442157300568459 0.0393840275739357 0 0.045947855599559578 0.040508571404791339 0 0.054558464996357046 0.032436014090208756 0 0.054276071763973983 0.033023297981010176 0 0.053717055152141709 0.032284967973714176 0 0.049631341557807046 0.031547569781603557 0 0.047846186205116666 0.034040041107881398 0 0.054558464996357046 0.032436014090208756 0 0.055257348065453314 0.033036887043666432 0 0.055464692543554045 0.032155715775454348 0 0.054558464996357046 0.032436014090208756 0 0.054276071763973983 0.033023297981010176 0 0.055257348065453314 0.033036887043666432 0 0.055257348065453314 0.033036887043666432 0 0.056206475096578584 0.032617532397262762 0 0.056239308027696409 0.033235955281734925 0 0.055257348065453314 0.033036887043666432 0 0.055464692543554045 0.032155715775454348 0 0.056206475096578584 0.032617532397262762 0 0.056407928929790643 0.031692052770670685 0 0.055464692543554045 0.032155715775454348 0 0.056206475096578584 0.032617532397262762 0 0.056942504760116842 0.032436054180149734 0 0.056407928929790643 0.031692052770670685 0 0.056206475096578584 0.032617532397262762 0 0.056894315809489872 0.032951606023624243 0 0.056206475096578584 0.032617532397262762 0 0.056239308027696409 0.033235955281734925 0 0.056894315809489872 0.032951606023624243 0 0.056942504760116842 0.032436054180149734 0 0.056206475096578584 0.032617532397262762 0 0.057117193605602794 0.033142688608618756 0 0.056239308027696409 0.033235955281734925 0 0.056176794009597242 0.033973280634964451 0 0.055257348065453314 0.033036887043666432 0 0.056239308027696409 0.033235955281734925 0 0.055510454442362599 0.03368397150600716 0 0.055510454442362599 0.03368397150600716 0 0.056176794009597242 0.033973280634964451 0 0.055143816932052614 0.034447226890459877 0 0.056239308027696409 0.033235955281734925 0 0.055510454442362599 0.03368397150600716 0 0.056176794009597242 0.033973280634964451 0 0.056632031814398902 0.033104533433057193 0 0.058223624485289421 0.03368667257039859 0 0.057324672514266289 0.032008395354261705 0 0.057868258757114731 0.031840355881560818 0 0.057666019422662029 0.031489511482460139 0 0.057324672514266289 0.032008395354261705 0 0.057815900090532064 0.032326089045343384 0 0.057868258757114731 0.031840355881560818 0 0.058223624485289421 0.03368667257039859 0 0.049455636347315673 0.02720080308729577 0 0.057868258757114731 0.031840355881560818 0 0.058125063299904023 0.031579805171803747 0 0.058234251950485573 0.031802382456276118 0 0.057868258757114731 0.031840355881560818 0 0.058125063299904023 0.031579805171803747 0 0.057666019422662029 0.031489511482460139 0 0.057815900090532064 0.032326089045343384 0 0.057868258757114731 0.031840355881560818 0 0.058234251950485573 0.031802382456276118 0 0.047559649973450642 0.016621090832255069 0 0.052006821296068088 0.02170096789197681 0 0.044083030491131422 0.011075117132358373 0 0.044358224030367294 0.011259707197943883 0 0.044617967600802527 0.011035592689796671 0 0.042818908784201658 0.013618469051484568 0 0.042140368399193558 0.012507005774493018 0 0.042194252457211014 0.012984602362229057 0 0.044257691440942847 0.01155236691823586 0 0.044083030491131422 0.011075117132358373 0 0.044358224030367294 0.011259707197943883 0 0.042323513535138753 0.011847175621552119 0 0.047559649973450642 0.016621090832255069 0 0.042818908784201658 0.013618469051484568 0 0.042194252457211014 0.012984602362229057 0 0.042037707125077553 0.013153450294620344 0 0.044745899371165812 0.01152276836188447 0 0.045469803780803723 0.010847842364929108 0 0.044617967600802527 0.011035592689796671 0 0.044745899371165812 0.01152276836188447 0 0.044492491799275738 0.011364542025547864 0 0.044617967600802527 0.011035592689796671 0 0.044358224030367294 0.011259707197943883 0 0.044492491799275738 0.011364542025547864 0 0.044617967600802527 0.011035592689796671 0 0.040817804440018444 0.012231204692831609 0 0.041188907301271012 0.012506149534792971 0 0.040757209858078215 0.012745129820564994 0 0.040817804440018444 0.012231204692831609 0 0.040757209858078215 0.012745129820564994 0 0.040092466086807797 0.012555593691019953 0 0.041811125872943222 0.015080270074930244 0 0.040366983424699708 0.012651494503241918 0 0.041188907301271012 0.012506149534792971 0 0.040757209858078215 0.012745129820564994 0 0.04115751175768468 0.012778756959364765 0 0.041188907301271012 0.012506149534792971 0 0.04115751175768468 0.012778756959364765 0 0.041422572081954108 0.012654169645374958 0 0.041231353106111195 0.012545707477721867 0 0.041844789472634536 0.012921405267887131 0 0.042194252457211014 0.012984602362229057 0 0.042037707125077553 0.013153450294620344 0 0.041812256455869175 0.012631002741680093 0 0.042140368399193558 0.012507005774493018 0 0.041812256455869175 0.012631002741680093 0 0.041613268574116895 0.012585589154052283 0 0.042140368399193558 0.012507005774493018 0 0.042194252457211014 0.012984602362229057 0 0.041812256455869175 0.012631002741680093 0 0.041188907301271012 0.012506149534792971 0 0.042037707125077553 0.013153450294620344 0 0.041812256455869175 0.012631002741680093 0 0.041811125872943222 0.015080270074930244 0 0.041254092810801633 0.012637094692582767 0 0.041357432470967868 0.012652327620617793 0 0.041812256455869175 0.012631002741680093 0 0.041613268574116895 0.012585589154052283 0 0.040817804440018444 0.012231204692831609 0 0.041188907301271012 0.012506149534792971 0 0.041812256455869175 0.012631002741680093 0 0.041357432470967868 0.012652327620617793 0 0.041613268574116895 0.012585589154052283 0 0.04202043721902874 0.012379943949090647 0 0.041811125872943222 0.015080270074930244 0 0.049455636347315673 0.02720080308729577 0 0.042264386724052423 0.012788211149786744 0 0.041613268574116895 0.012585589154052283 0 0.04202043721902874 0.012379943949090647 0 0.047559649973450642 0.016621090832255069 0 0.039986402083400333 0.012603921582021147 0 0.047559649973450642 0.016621090832255069 0 0.049455636347315673 0.02720080308729577 0 0.044439250483776123 0.024386269514648316 0 0.045005888382482775 0.026371572495530272 0 0.046679507978211882 0.024951724427978508 0 0.044439250483776123 0.024386269514648316 0 0.042329246475536091 0.025519020491667641 0 0.045005888382482775 0.026371572495530272 0 0.045005888382482775 0.026371572495530272 0 0.043537702098532173 0.028011064038946366 0 0.045390619752308979 0.028683570648453578 0 0.042329246475536091 0.025519020491667641 0 0.045005888382482775 0.026371572495530272 0 0.043537702098532173 0.028011064038946366 0 0.055510454442362599 0.03368397150600716 0 0.055143816932052614 0.034447226890459877 0 0.054747683275864441 0.033710284962089998 0 0.049455636347315673 0.02720080308729577 0 0.049194561020565242 0.031350065155609612 0 0.054276071763973983 0.033023297981010176 0 0.055257348065453314 0.033036887043666432 0 0.054747683275864441 0.033710284962089998 0 0.055257348065453314 0.033036887043666432 0 0.055510454442362599 0.03368397150600716 0 0.054747683275864441 0.033710284962089998 0 0.049631341557807046 0.031547569781603557 0 0.049194561020565242 0.031350065155609612 0 0.044761972623685226 0.030538937988292006 0 0.043537702098532173 0.028011064038946366 0 0.045390619752308979 0.028683570648453578 0 0.044761972623685226 0.030538937988292006 0 0.045390619752308979 0.028683570648453578 0 0.046697634162342606 0.030104037955216229 0 0.041506139278297098 0.028684617957532209 0 0.041634890130022729 0.028318498428666794 0 0.045390619752308979 0.028683570648453578 0 0.046697634162342606 0.030104037955216229 0 0.046695603033751296 0.027522381048304619 0 0.036433052087775267 0.028793256740640011 0 0.037181873445202726 0.027881542391452997 0 0.036480150007130216 0.026691485114792621 0 0.038414184160538475 0.028151556377552348 0 0.037608056748826522 0.028735959828383121 0 0.038873323817957231 0.029259618582025554 0 0.036433052087775267 0.028793256740640011 0 0.037762417144589791 0.028837558030084202 0 0.037181873445202726 0.027881542391452997 0 0.037762417144589791 0.028837558030084202 0 0.037181873445202726 0.027881542391452997 0 0.038052329795068694 0.027255152954145989 0 0.038414184160538475 0.028151556377552348 0 0.037608056748826522 0.028735959828383121 0 0.038052329795068694 0.027255152954145989 0 0.038020041315957563 0.028117639632318215 0 0.037961179819203585 0.027693070378992036 0 0.038052329795068694 0.027255152954145989 0 0.036480150007130216 0.026691485114792621 0 0.038347533060809937 0.025204824565745229 0 0.037181873445202726 0.027881542391452997 0 0.038052329795068694 0.027255152954145989 0 0.036480150007130216 0.026691485114792621 0 0.045005888382482775 0.026371572495530272 0 0.045390619752308979 0.028683570648453578 0 0.046695603033751296 0.027522381048304619 0 0.041634890130022729 0.028318498428666794 0 0.040618738965190103 0.019217585622630495 0 0.045005888382482775 0.026371572495530272 0 0.046695603033751296 0.027522381048304619 0 0.046679507978211882 0.024951724427978508 0 0.041811125872943222 0.015080270074930244 0 0.040618738965190103 0.019217585622630495 0 0.036480150007130216 0.026691485114792621 0 0.036509465173319745 0.024696241374708338 0 0.038347533060809937 0.025204824565745229 0 0.039751632716546123 0.011250182231634898 0 0.037843758270872191 0.010788619345539945 0 0.038677189932088539 0.012045816027851377 0 0.040618738965190103 0.019217585622630495 0 0.037880847967604256 0.017990117108236038 0 0.037843758270872191 0.010788619345539945 0 0.038677189932088539 0.012045816027851377 0 0.03721584856005386 0.01217660396153703 0 0.038346641421633458 0.013106206103618035 0 0.038677189932088539 0.012045816027851377 0 0.03721584856005386 0.01217660396153703 0 0.038346641421633458 0.013106206103618035 0 0.038677189932088539 0.012045816027851377 0 0.039784059063588159 0.012866409847032981 0 0.040618738965190103 0.019217585622630495 0 0.039784472231754853 0.010107895849929291 0 0.040711521648354204 0.012279777479766845 0 0.039904706725625842 0.012044170494485366 0 0.040092466086807797 0.012555593691019953 0 0.039904706725625842 0.012044170494485366 0 0.039784059063588159 0.012866409847032981 0 0.040092466086807797 0.012555593691019953 0 0.039751632716546123 0.011250182231634898 0 0.038677189932088539 0.012045816027851377 0 0.039784059063588159 0.012866409847032981 0 0.04020252235721173 0.013059775793368684 0 0.040757209858078215 0.012745129820564994 0 0.040092466086807797 0.012555593691019953 0 0.04020252235721173 0.013059775793368684 0 0.039784059063588159 0.012866409847032981 0 0.040092466086807797 0.012555593691019953 0 0.036510748717016032 0.014497577590103249 0 0.034631618433240127 0.012022211041717128 0 0.03721584856005386 0.01217660396153703 0 0.037880847967604256 0.017990117108236038 0 0.036942578542567633 0.016265797263573148 0 0.036233225284214889 0.0097791573109474849 0 0.036942578542567633 0.016265797263573148 0 0.037843758270872191 0.010788619345539945 0 0.03721584856005386 0.01217660396153703 0 0.036108754945364571 0.010414251022601616 0 0.034631618433240127 0.012022211041717128 0 0.03721584856005386 0.01217660396153703 0 0.035426786196771004 0.009748108515770508 0 0.034631618433240127 0.012022211041717128 0 0.035426786196771004 0.009748108515770508 0 0.033347712875783676 0.0092975911913100919 0 0.036942578542567633 0.016265797263573148 0 0.031218922063545221 0.02500208301280776 0 0.03203785204405208 0.018440462697374333 0 0.031315228455905612 0.017418205586512945 0 0.030860711998843399 0.018153838360879339 0 0.040133813248864066 0.025689941118438118 0 0.041033105288267244 0.027143392792942294 0 0.039425252885169834 0.027121842397252741 0 0.036942578542567633 0.016265797263573148 0 0.025138377517707894 0.013399502248047739 0 0.038052329795068694 0.027255152954145989 0 0.038347533060809937 0.025204824565745229 0 0.039425252885169834 0.027121842397252741 0 0.038347533060809937 0.025204824565745229 0 0.040133813248864066 0.025689941118438118 0 0.039425252885169834 0.027121842397252741 0 0.034009483239712909 0.034241166347133679 0 0.041329933533045336 0.034519601245845626 0 0.039284570286531893 0.028205287489228108 0 0.040415940430700813 0.028289924114732325 0 0.038873323817957231 0.029259618582025554 0 0.038414184160538475 0.028151556377552348 0 0.038052329795068694 0.027255152954145989 0 0.039425252885169834 0.027121842397252741 0 0.038414184160538475 0.028151556377552348 0 0.039425252885169834 0.027121842397252741 0 0.039284570286531893 0.028205287489228108 0 0.039425252885169834 0.027121842397252741 0 0.039284570286531893 0.028205287489228108 0 0.040415940430700813 0.028289924114732325 0 0.038414184160538475 0.028151556377552348 0 0.039284570286531893 0.028205287489228108 0 0.038873323817957231 0.029259618582025554 0 0.02339466610954161 0.034327621568350453 0 0.02325313287087738 0.034053183272286104 0 0.023212335156963144 0.034420913667579683 0 0.041033105288267244 0.027143392792942294 0 0.039425252885169834 0.027121842397252741 0 0.040415940430700813 0.028289924114732325 0 0.031145787871218741 0.030208808070642915 0 0.030558713856197961 0.03129017141340823 0 0.031477613902102311 0.030732134298386737 0 0.034009483239712909 0.034241166347133679 0 0.025303479512600775 0.030846843403787891 0 0.031218922063545221 0.02500208301280776 0 0.034009483239712909 0.034241166347133679 0 0.031218922063545221 0.02500208301280776 0 0.025303479512600775 0.030846843403787891 0 0.02339466610954161 0.034327621568350453 0 0.02325313287087738 0.034053183272286104 0 0.023561664146613009 0.034069203902592299 0 0.02325313287087738 0.034053183272286104 0 0.023469460092215927 0.033921722684152833 0 0.023007885561284587 0.03389295506402 0 0.02325313287087738 0.034053183272286104 0 0.023561664146613009 0.034069203902592299 0 0.023469460092215927 0.033921722684152833 0 0.032120552393426385 0.037612813061096616 0 0.033580450467477409 0.035536343210593249 0 0.041660045006461303 0.039498925651604795 0 0.042440002660938718 0.03973982742520614 0 0.042796657819679701 0.039000814659317352 0 0.034009483239712909 0.034241166347133679 0 0.032120552393426385 0.037612813061096616 0 0.041660045006461303 0.039498925651604795 0 0.041917622725673252 0.040575768424815965 0 0.042440002660938718 0.03973982742520614 0 0.040444340142251324 0.041254302183028273 0 0.041660045006461303 0.039498925651604795 0 0.041917622725673252 0.040575768424815965 0 0.041329933533045336 0.034519601245845626 0 0.040687051047247159 0.036001970624238121 0 0.037608056748826522 0.028735959828383121 0 0.038873323817957231 0.029259618582025554 0 0.037215683825895414 0.030287831500864126 0 0.041917622725673252 0.040575768424815965 0 0.043379748295269749 0.039867842472615905 0 0.042440002660938718 0.03973982742520614 0 0.038020041315957563 0.028117639632318215 0 0.040687051047247159 0.036001970624238121 0 0.037762417144589791 0.028837558030084202 0 0.037385810151055687 0.030555077122393325 0 0.037011079369376441 0.029820844019950631 0 0.036433052087775267 0.028793256740640011 0 0.037762417144589791 0.028837558030084202 0 0.037011079369376441 0.029820844019950631 0 0.041506139278297098 0.028684617957532209 0 0.04273893261566681 0.034782286300541414 0 0.046697634162342606 0.030104037955216229 0 0.046001697704153299 0.031512952124791917 0 0.046684133711320921 0.032721819910627968 0 0.044761972623685226 0.030538937988292006 0 0.046697634162342606 0.030104037955216229 0 0.046001697704153299 0.031512952124791917 0 0.036433052087775267 0.028793256740640011 0 0.037011079369376441 0.029820844019950631 0 0.036443785366751427 0.031111407656106739 0 0.044761972623685226 0.030538937988292006 0 0.046001697704153299 0.031512952124791917 0 0.046018687921835159 0.033103094980071475 0 0.037385810151055687 0.030555077122393325 0 0.037011079369376441 0.029820844019950631 0 0.036443785366751427 0.031111407656106739 0 0.040687051047247159 0.036001970624238121 0 0.045033361682053942 0.039122304128989475 0 0.044520873243680384 0.041236173054390438 0 0.045377271836678591 0.04031888506564342 0 0.045187945676992476 0.038666041120024482 0 0.046001697704153299 0.031512952124791917 0 0.046018687921835159 0.033103094980071475 0 0.046684133711320921 0.032721819910627968 0 0.045947855599559578 0.040508571404791339 0 0.045370761071670734 0.040794780512143268 0 0.045377271836678591 0.04031888506564342 0 0.047846186205116666 0.034040041107881398 0 0.04273893261566681 0.034782286300541414 0 0.040687051047247159 0.036001970624238121 0 0.04273893261566681 0.034782286300541414 0 0.044520873243680384 0.041236173054390438 0 0.045365255717750984 0.04075846028422532 0 0.045377271836678591 0.04031888506564342 0 0.04273893261566681 0.034782286300541414 0 0.043218698828876967 0.037892728764988087 0 0.046613655523940929 0.039321419268082872 0 0.045947855599559578 0.040508571404791339 0 0.045770986998680797 0.03942241346558302 0 0.045947855599559578 0.040508571404791339 0 0.045377271836678591 0.04031888506564342 0 0.045770986998680797 0.03942241346558302 0 0.041660045006461303 0.039498925651604795 0 0.042796657819679701 0.039000814659317352 0 0.042924529844235067 0.037640811526442983 0 0.043379748295269749 0.039867842472615905 0 0.043337937792192062 0.038593273548978409 0 0.042796657819679701 0.039000814659317352 0 0.043379748295269749 0.039867842472615905 0 0.043337937792192062 0.038593273548978409 0 0.044226535841693844 0.037835476194181733 0 0.043379748295269749 0.039867842472615905 0 0.042440002660938718 0.03973982742520614 0 0.042796657819679701 0.039000814659317352 0 0.043337937792192062 0.038593273548978409 0 0.042796657819679701 0.039000814659317352 0 0.042924529844235067 0.037640811526442983 0 0.043337937792192062 0.038593273548978409 0 0.042924529844235067 0.037640811526442983 0 0.044226535841693844 0.037835476194181733 0 0.045377271836678591 0.04031888506564342 0 0.045770986998680797 0.03942241346558302 0 0.045187945676992476 0.038666041120024482 0 0.046613655523940929 0.039321419268082872 0 0.045770986998680797 0.03942241346558302 0 0.046187973543569169 0.038034892761761911 0 0.045770986998680797 0.03942241346558302 0 0.045187945676992476 0.038666041120024482 0 0.046187973543569169 0.038034892761761911 0 0.045033361682053942 0.039122304128989475 0 0.045373721298746353 0.035293892536651793 0 0.045187945676992476 0.038666041120024482 0 0.046187973543569169 0.038034892761761911 0 0.045432448895737415 0.035584817565852939 0 0.046486267990316445 0.036857544935177372 0 0.046187973543569169 0.038034892761761911 0 0.045432448895737415 0.035584817565852939 0 0.044226535841693844 0.037835476194181733 0 0.045432448895737415 0.035584817565852939 0 0.044587929656122842 0.035602580324958576 0 0.042924529844235067 0.037640811526442983 0 0.044226535841693844 0.037835476194181733 0 0.044587929656122842 0.035602580324958576 0 0.033580450467477409 0.035536343210593249 0 0.033638039143276663 0.034976335070258616 0 0.023783567528573014 0.03393832081057483 0 0.02358202738690169 0.033742203812508691 0 0.024063241279362501 0.03374710079656322 0 0.023783567528573014 0.03393832081057483 0 0.023469460092215927 0.033921722684152833 0 0.02358202738690169 0.033742203812508691 0 0.02358202738690169 0.033742203812508691 0 0.023210914796280815 0.033819705674343635 0 0.023243029189521685 0.033703346879498733 0 0.023469460092215927 0.033921722684152833 0 0.02358202738690169 0.033742203812508691 0 0.023210914796280815 0.033819705674343635 0 0.023469460092215927 0.033921722684152833 0 0.023007885561284587 0.03389295506402 0 0.023210914796280815 0.033819705674343635 0 0.023561664146613009 0.034069203902592299 0 0.023783567528573014 0.03393832081057483 0 0.023469460092215927 0.033921722684152833 0 0.02358202738690169 0.033742203812508691 0 0.023864013358286706 0.033603959335822435 0 0.023441936517290349 0.033497416111656936 0 0.02358202738690169 0.033742203812508691 0 0.023441936517290349 0.033497416111656936 0 0.023243029189521685 0.033703346879498733 0 0.02358202738690169 0.033742203812508691 0 0.024063241279362501 0.03374710079656322 0 0.023864013358286706 0.033603959335822435 0 0.044587929656122842 0.035602580324958576 0 0.046009662555583038 0.033111089366923592 0 0.046075003940931211 0.034874666209980677 0 0.045432448895737415 0.035584817565852939 0 0.044587929656122842 0.035602580324958576 0 0.046075003940931211 0.034874666209980677 0 0.033638039143276663 0.034976335070258616 0 0.039225767412463149 0.032829819540804828 0 0.024063241279362501 0.03374710079656322 0 0.023864013358286706 0.033603959335822435 0 0.024305794894828828 0.033558080495920163 0 0.023864013358286706 0.033603959335822435 0 0.02391730422932694 0.033425008079058689 0 0.024305794894828828 0.033558080495920163 0 0.02391730422932694 0.033425008079058689 0 0.024322478567927575 0.033440712573854531 0 0.024305794894828828 0.033558080495920163 0 0.028591040324019937 0.057340924292067996 0 0.029627676230720365 0.05505194015984452 0 0.031410291339104494 0.056460891655704046 0 0.025838257240100738 0.045121661666243061 0 0.030180807343380814 0.047006640599788242 0 0.028591040324019937 0.057340924292067996 0 0.026486635268720748 0.055862580526904695 0 0.029627676230720365 0.05505194015984452 0 0.025838257240100738 0.045121661666243061 0 0.024598515510117869 0.04584556752706237 0 0.028591040324019937 0.057340924292067996 0 0.026486635268720748 0.055862580526904695 0 0.025846368513767887 0.058062871596119989 0 0.023864013358286706 0.033603959335822435 0 0.02391730422932694 0.033425008079058689 0 0.023441936517290349 0.033497416111656936 0 0.026486635268720748 0.055862580526904695 0 0.025846368513767887 0.058062871596119989 0 0.024113770599470907 0.057192344201893182 0 0.026486635268720748 0.055862580526904695 0 0.024223556929234412 0.055593064194998952 0 0.024113770599470907 0.057192344201893182 0 0.026486635268720748 0.055862580526904695 0 0.024944432429716709 0.054154755644147075 0 0.024223556929234412 0.055593064194998952 0 0.024944432429716709 0.054154755644147075 0 0.025697480707817685 0.052382383055090929 0 0.028283386470134494 0.053312077027891293 0 0.026486635268720748 0.055862580526904695 0 0.024944432429716709 0.054154755644147075 0 0.028283386470134494 0.053312077027891293 0 0.025697480707817685 0.052382383055090929 0 0.02582040421068791 0.049999842087710855 0 0.023779276949031605 0.051990431836195096 0 0.025697480707817685 0.052382383055090929 0 0.027488006986027838 0.051518070933369201 0 0.028283386470134494 0.053312077027891293 0 0.027488006986027838 0.051518070933369201 0 0.02582040421068791 0.049999842087710855 0 0.028570817970523941 0.049999865562678922 0 0.025697480707817685 0.052382383055090929 0 0.027488006986027838 0.051518070933369201 0 0.02582040421068791 0.049999842087710855 0 0.0304520880181232 0.051366171173370424 0 0.028570817970523941 0.049999865562678922 0 0.031321277647303823 0.049999951453172736 0 0.027488006986027838 0.051518070933369201 0 0.028570817970523941 0.049999865562678922 0 0.029068254345690138 0.051823407908515771 0 0.0304520880181232 0.051366171173370424 0 0.028570817970523941 0.049999865562678922 0 0.029068254345690138 0.051823407908515771 0 0.027488006986027838 0.051518070933369201 0 0.029068254345690138 0.051823407908515771 0 0.028283386470134494 0.053312077027891293 0 0.029068254345690138 0.051823407908515771 0 0.030922654568881634 0.052821562039856253 0 0.028283386470134494 0.053312077027891293 0 0.0304520880181232 0.051366171173370424 0 0.029068254345690138 0.051823407908515771 0 0.030922654568881634 0.052821562039856253 0 0.0304520880181232 0.051366171173370424 0 0.030922654568881634 0.052821562039856253 0 0.031963788317816995 0.051504731018778144 0 0.031078843265010883 0.052204689611633187 0 0.029987491169014471 0.053573236512325907 0 0.028283386470134494 0.053312077027891293 0 0.031078843265010883 0.052204689611633187 0 0.029987491169014471 0.053573236512325907 0 0.031732072957669236 0.053644654441886257 0 0.030983783768900604 0.052527538204233969 0 0.028456909562149916 0.053264951065454737 0 0.029987491169014471 0.053573236512325907 0 0.028283386470134494 0.053312077027891293 0 0.029627676230720365 0.05505194015984452 0 0.026486635268720748 0.055862580526904695 0 0.028283386470134494 0.053312077027891293 0 0.029627676230720365 0.05505194015984452 0 0.029627676230720365 0.05505194015984452 0 0.031732072957669236 0.053644654441886257 0 0.031410291339104494 0.056460891655704046 0 0.029987491169014471 0.053573236512325907 0 0.029627676230720365 0.05505194015984452 0 0.031732072957669236 0.053644654441886257 0 0.033157328750421246 0.054810877570307399 0 0.031732072957669236 0.053644654441886257 0 0.031857745261393622 0.056750951235280331 0 0.032115220541655776 0.057948824854681523 0 0.030180807343380814 0.047006640599788242 0 0.035109739496543814 0.054532725948970802 0 0.037318586444655751 0.048898933425392838 0 0.033157328750421246 0.054810877570307399 0 0.034887156716894956 0.054338925931834696 0 0.03377437861203781 0.056080206202872233 0 0.034887156716894956 0.054338925931834696 0 0.033569438246348886 0.053139826372399529 0 0.036027489382927408 0.052526237626145229 0 0.033157328750421246 0.054810877570307399 0 0.034887156716894956 0.054338925931834696 0 0.033569438246348886 0.053139826372399529 0 0.033157328750421246 0.054810877570307399 0 0.033569438246348886 0.053139826372399529 0 0.031732072957669236 0.053644654441886257 0 0.031078843265010883 0.052204689611633187 0 0.033569438246348886 0.053139826372399529 0 0.031732072957669236 0.053644654441886257 0 0.030983783768900604 0.052527538204233969 0 0.033947016086455999 0.051773404596087105 0 0.031078843265010883 0.052204689611633187 0 0.033569438246348886 0.053139826372399529 0 0.034272034868122851 0.051429202601131666 0 0.030922654568881634 0.052821562039856253 0 0.031963788317816995 0.051504731018778144 0 0.033606420190420344 0.052112941633619167 0 0.033569438246348886 0.053139826372399529 0 0.034272034868122851 0.051429202601131666 0 0.036027489382927408 0.052526237626145229 0 0.031963788317816995 0.051504731018778144 0 0.033606420190420344 0.052112941633619167 0 0.034071956972100144 0.049999851868386527 0 0.031963788317816995 0.051504731018778144 0 0.034071956972100144 0.049999851868386527 0 0.031321277647303823 0.049999951453172736 0 0.0304520880181232 0.051366171173370424 0 0.031963788317816995 0.051504731018778144 0 0.031321277647303823 0.049999951453172736 0 0.036382932214266889 0.051203419151373754 0 0.036822600540053263 0.049999969037552619 0 0.037381515648959883 0.051441915895453091 0 0.036822600540053263 0.049999969037552619 0 0.037381515648959883 0.051441915895453091 0 0.03819755718475408 0.050731847559917241 0 0.033606420190420344 0.052112941633619167 0 0.034071956972100144 0.049999851868386527 0 0.036382932214266889 0.051203419151373754 0 0.034071956972100144 0.049999851868386527 0 0.036382932214266889 0.051203419151373754 0 0.036822600540053263 0.049999969037552619 0 0.034272034868122851 0.051429202601131666 0 0.036382932214266889 0.051203419151373754 0 0.036027489382927408 0.052526237626145229 0 0.033947016086455999 0.051773404596087105 0 0.036227762303973975 0.051217055399408469 0 0.036382932214266889 0.051203419151373754 0 0.037381515648959883 0.051441915895453091 0 0.03706386047418072 0.052462999005243996 0 0.036382932214266889 0.051203419151373754 0 0.03706386047418072 0.052462999005243996 0 0.036027489382927408 0.052526237626145229 0 0.03706386047418072 0.052462999005243996 0 0.03665224283724873 0.052787940412980211 0 0.037309417404884568 0.052869856113476367 0 0.03706386047418072 0.052462999005243996 0 0.03665224283724873 0.052787940412980211 0 0.036027489382927408 0.052526237626145229 0 0.035109739496543814 0.054532725948970802 0 0.036252837270199297 0.052260316661563763 0 0.036419158772748567 0.052854953712749279 0 0.03665224283724873 0.052787940412980211 0 0.036027489382927408 0.052526237626145229 0 0.040452614633393565 0.046172755121958564 0 0.037318586444655751 0.048898933425392838 0 0.036419158772748567 0.052854953712749279 0 0.03665224283724873 0.052787940412980211 0 0.036609312115229421 0.052932450978915212 0 0.036419158772748567 0.052854953712749279 0 0.036609312115229421 0.052932450978915212 0 0.036592665582042522 0.05273702972058323 0 0.043211210953806152 0.040948008847555624 0 0.043253839326428158 0.041002675261720044 0 0.043258066741727691 0.041079670279238943 0 0.040452614633393565 0.046172755121958564 0 0.04048257084394561 0.049723665816276144 0 0.03665224283724873 0.052787940412980211 0 0.036609312115229421 0.052932450978915212 0 0.037309417404884568 0.052869856113476367 0 0.046361403379143844 0.039597403438718468 0 0.045401205363821764 0.041715966394851436 0 0.043172426758230208 0.041020846527980506 0 0.046361403379143844 0.039597403438718468 0 0.045401205363821764 0.041715966394851436 0 0.048216579804135948 0.041624244048520422 0 0.044701886628951686 0.039865803716308663 0 0.043288783725089479 0.04106237407132679 0 0.043211210953806152 0.040948008847555624 0 0.043253839326428158 0.041002675261720044 0 0.043172426758230208 0.041020846527980506 0 0.045401205363821764 0.041715966394851436 0 0.046134728482894911 0.043767571167525943 0 0.048216579804135948 0.041624244048520422 0 0.045401205363821764 0.041715966394851436 0 0.043334922158475238 0.042494258526905172 0 0.046134728482894911 0.043767571167525943 0 0.045401205363821764 0.041715966394851436 0 0.043334922158475238 0.042494258526905172 0 0.043172426758230208 0.041020846527980506 0 0.043211210953806152 0.040948008847555624 0 0.043172426758230208 0.041020846527980506 0 0.042479096851032891 0.040778071892986156 0 0.043172426758230208 0.041020846527980506 0 0.042479096851032891 0.040778071892986156 0 0.041828827159393935 0.041507000785985446 0 0.037318586444655751 0.048898933425392838 0 0.042924155968388333 0.038078308032628162 0 0.037318586444655751 0.048898933425392838 0 0.030180807343380814 0.047006640599788242 0 0.033157328750421246 0.054810877570307399 0 0.03377437861203781 0.056080206202872233 0 0.031857745261393622 0.056750951235280331 0 0.033893782646419346 0.045867506002416382 0 0.039932622621921182 0.043610034436439189 0 0.037951909675862823 0.041616210436585151 0 0.033893782646419346 0.045867506002416382 0 0.037951909675862823 0.041616210436585151 0 0.036680232889430363 0.041013306225066319 0 0.030180807343380814 0.047006640599788242 0 0.039225767412463149 0.032829819540804828 0 0.042924155968388333 0.038078308032628162 0 0.039225767412463149 0.032829819540804828 0 0.037951909675862823 0.041616210436585151 0 0.036661421911409579 0.04099810047383759 0 0.040041937752372289 0.03512098049584951 0 0.039932622621921182 0.043610034436439189 0 0.037951909675862823 0.041616210436585151 0 0.040041937752372289 0.03512098049584951 0 0.047773321158946391 0.030527274679422251 0 0.048196701036936102 0.032272290593912165 0 0.046545032754836832 0.032696531515383438 0 0.041070848845531874 0.038128593445747122 0 0.042924155968388333 0.038078308032628162 0 0.046936478701908577 0.036823030836618843 0 0.042924155968388333 0.038078308032628162 0 0.050753192758891501 0.031713185325630951 0 0.047773321158946391 0.030527274679422251 0 0.048196701036936102 0.032272290593912165 0 0.043334922158475238 0.042494258526905172 0 0.043172426758230208 0.041020846527980506 0 0.041828827159393935 0.041507000785985446 0 0.050753192758891501 0.031713185325630951 0 0.048196701036936102 0.032272290593912165 0 0.049097959222473127 0.033484064102874592 0 0.050753192758891501 0.031713185325630951 0 0.049097959222473127 0.033484064102874592 0 0.050475496312485539 0.033859593407976354 0 0.048196701036936102 0.032272290593912165 0 0.049097959222473127 0.033484064102874592 0 0.047971691165472223 0.034217361128111579 0 0.049097959222473127 0.033484064102874592 0 0.049596150700525019 0.035356989802060972 0 0.050475496312485539 0.033859593407976354 0 0.046545032754836832 0.032696531515383438 0 0.047971691165472223 0.034217361128111579 0 0.046580951233815129 0.034823898184780995 0 0.039225767412463149 0.032829819540804828 0 0.046313324300172008 0.034910422166449372 0 0.048196701036936102 0.032272290593912165 0 0.046545032754836832 0.032696531515383438 0 0.047971691165472223 0.034217361128111579 0 0.046486267990316445 0.036857544935177372 0 0.046580951233815129 0.034823898184780995 0 0.047871542704841258 0.036096895437411257 0 0.046486267990316445 0.036857544935177372 0 0.045432448895737415 0.035584817565852939 0 0.046075003940931211 0.034874666209980677 0 0.046427017924690679 0.036657455580367211 0 0.046313324300172008 0.034910422166449372 0 0.047971691165472223 0.034217361128111579 0 0.046580951233815129 0.034823898184780995 0 0.047871542704841258 0.036096895437411257 0 0.049097959222473127 0.033484064102874592 0 0.047971691165472223 0.034217361128111579 0 0.049596150700525019 0.035356989802060972 0 0.047971691165472223 0.034217361128111579 0 0.047871542704841258 0.036096895437411257 0 0.049596150700525019 0.035356989802060972 0 0.049596150700525019 0.035356989802060972 0 0.051201887434993064 0.034826564235841767 0 0.051286404039511568 0.036191187322536664 0 0.049596150700525019 0.035356989802060972 0 0.051201887434993064 0.034826564235841767 0 0.050475496312485539 0.033859593407976354 0 0.051201887434993064 0.034826564235841767 0 0.052582384291496656 0.034977422921256524 0 0.051673490522098714 0.033442894221576557 0 0.051201887434993064 0.034826564235841767 0 0.051286404039511568 0.036191187322536664 0 0.052582384291496656 0.034977422921256524 0 0.053802807026906554 0.036590618257201737 0 0.051286404039511568 0.036191187322536664 0 0.052582384291496656 0.034977422921256524 0 0.056188498826057642 0.035498078937755827 0 0.053304597252528306 0.03559475674015522 0 0.055808715895321874 0.038390221098141344 0 0.053924609649867304 0.036159368573047038 0 0.056349333296073514 0.036076623300556387 0 0.053924609649867304 0.036159368573047038 0 0.055136697202638536 0.035015537214444947 0 0.056349333296073514 0.036076623300556387 0 0.053924609649867304 0.036159368573047038 0 0.054869346823984172 0.034073764618476013 0 0.051673490522098714 0.033442894221576557 0 0.054869346823984172 0.034073764618476013 0 0.055270099792670099 0.033569852729383003 0 0.051673490522098714 0.033442894221576557 0 0.053924609649867304 0.036159368573047038 0 0.055136697202638536 0.035015537214444947 0 0.054869346823984172 0.034073764618476013 0 0.055136697202638536 0.035015537214444947 0 0.055381201225812339 0.033778626677032415 0 0.056349333296073514 0.036076623300556387 0 0.055136697202638536 0.035015537214444947 0 0.054869346823984172 0.034073764618476013 0 0.055381201225812339 0.033778626677032415 0 0.053942977498961826 0.037607203928384354 0 0.053026338034627772 0.03885869996494485 0 0.046936478701908577 0.036823030836618843 0 0.053026338034627772 0.03885869996494485 0 0.050753192758891501 0.031713185325630951 0 0.055270099792670099 0.033569852729383003 0 0.051673490522098714 0.033442894221576557 0 0.050753192758891501 0.031713185325630951 0 0.051673490522098714 0.033442894221576557 0 0.050475496312485539 0.033859593407976354 0 0.051201887434993064 0.034826564235841767 0 0.051673490522098714 0.033442894221576557 0 0.050475496312485539 0.033859593407976354 0 0.053304597252528306 0.03559475674015522 0 0.05182243755921969 0.033639472251713813 0 0.058349213982366845 0.040037856464362039 0 0.059105680465526347 0.039922857183468698 0 0.058715511140839186 0.03883174565626387 0 0.058349213982366845 0.040037856464362039 0 0.058715511140839186 0.03883174565626387 0 0.057543905821247313 0.039177541326940277 0 0.058349213982366845 0.040037856464362039 0 0.057543905821247313 0.039177541326940277 0 0.057643311116711934 0.040123736116818472 0 0.059978483549778742 0.039871711673063255 0 0.059105680465526347 0.039922857183468698 0 0.058715511140839186 0.03883174565626387 0 0.055381201225812339 0.033778626677032415 0 0.056349333296073514 0.036076623300556387 0 0.058608505305205449 0.036446471952969461 0 0.059978483549778742 0.039871711673063255 0 0.059105680465526347 0.039922857183468698 0 0.059006280093247918 0.041041916264477979 0 0.053026338034627772 0.03885869996494485 0 0.059394450462993423 0.037461357019941605 0 0.056349333296073514 0.036076623300556387 0 0.058157343332523363 0.036848700993269534 0 0.058608505305205449 0.036446471952969461 0 0.056188498826057642 0.035498078937755827 0 0.058094972171946813 0.036811848757387036 0 0.055808715895321874 0.038390221098141344 0 0.056349333296073514 0.036076623300556387 0 0.058157343332523363 0.036848700993269534 0 0.057995493211871578 0.03652052923058368 0 0.058157343332523363 0.036848700993269534 0 0.058608505305205449 0.036446471952969461 0 0.057995493211871578 0.03652052923058368 0 0.058608505305205449 0.036446471952969461 0 0.056963292031856794 0.037176310944465073 0 0.056963292031856794 0.037176310944465073 0 0.056462526870586734 0.038955304039742442 0 0.057543905821247313 0.039177541326940277 0 0.059394450462993423 0.037461357019941605 0 0.056661022175484757 0.037102994773688502 0 0.058715511140839186 0.03883174565626387 0 0.056963292031856794 0.037176310944465073 0 0.057543905821247313 0.039177541326940277 0 0.056963292031856794 0.037176310944465073 0 0.056462526870586734 0.038955304039742442 0 0.055271913355516268 0.038589895221284996 0 0.056030474200902708 0.036000057815319841 0 0.056963292031856794 0.037176310944465073 0 0.055271913355516268 0.038589895221284996 0 0.056462526870586734 0.038955304039742442 0 0.055702402172531633 0.039877191498735767 0 0.055271913355516268 0.038589895221284996 0 0.056462526870586734 0.038955304039742442 0 0.055702402172531633 0.039877191498735767 0 0.056679979190753189 0.040041055898661748 0 0.055702402172531633 0.039877191498735767 0 0.056679979190753189 0.040041055898661748 0 0.055823243054542331 0.040546222183590365 0 0.056462526870586734 0.038955304039742442 0 0.057543905821247313 0.039177541326940277 0 0.056679979190753189 0.040041055898661748 0 0.057543905821247313 0.039177541326940277 0 0.056679979190753189 0.040041055898661748 0 0.057643311116711934 0.040123736116818472 0 0.057643311116711934 0.040123736116818472 0 0.05713920282436432 0.040752844781233789 0 0.057934464177324077 0.040989467126898479 0 0.056679979190753189 0.040041055898661748 0 0.057643311116711934 0.040123736116818472 0 0.05713920282436432 0.040752844781233789 0 0.056679979190753189 0.040041055898661748 0 0.05713920282436432 0.040752844781233789 0 0.056230445274041682 0.040834892529751358 0 0.056235193326350318 0.040865512877281393 0 0.057690716487801628 0.042519696507702355 0 0.05713920282436432 0.040752844781233789 0 0.056230445274041682 0.040834892529751358 0 0.057119366580953908 0.041549236774395773 0 0.05713920282436432 0.040752844781233789 0 0.057119366580953908 0.041549236774395773 0 0.057934464177324077 0.040989467126898479 0 0.055375017743263963 0.040631990314051764 0 0.055723389046465156 0.041128297987273313 0 0.055071428287943355 0.041083962511672095 0 0.055702402172531633 0.039877191498735767 0 0.055375017743263963 0.040631990314051764 0 0.055823243054542331 0.040546222183590365 0 0.055375017743263963 0.040631990314051764 0 0.055823243054542331 0.040546222183590365 0 0.055723389046465156 0.041128297987273313 0 0.056679979190753189 0.040041055898661748 0 0.055823243054542331 0.040546222183590365 0 0.056230445274041682 0.040834892529751358 0 0.055823243054542331 0.040546222183590365 0 0.056230445274041682 0.040834892529751358 0 0.055723389046465156 0.041128297987273313 0 0.056230445274041682 0.040834892529751358 0 0.056355302995709636 0.042327334475970674 0 0.057670013096129166 0.04273768758447298 0 0.056230445274041682 0.040834892529751358 0 0.056355302995709636 0.042327334475970674 0 0.055723389046465156 0.041128297987273313 0 0.056355302995709636 0.042327334475970674 0 0.055723389046465156 0.041128297987273313 0 0.055840616912940136 0.043555272826714245 0 0.055723389046465156 0.041128297987273313 0 0.055840616912940136 0.043555272826714245 0 0.05411692484944329 0.045238931703263929 0 0.055649485038732162 0.041366631588807774 0 0.054868403592602998 0.044484964071645476 0 0.056355302995709636 0.042327334475970674 0 0.055840616912940136 0.043555272826714245 0 0.057670013096129166 0.04273768758447298 0 0.055840616912940136 0.043555272826714245 0 0.056770721564028868 0.044813435272194897 0 0.05411692484944329 0.045238931703263929 0 0.057670013096129166 0.04273768758447298 0 0.056770721564028868 0.044813435272194897 0 0.059425728988083397 0.044681274796871978 0 0.057119366580953908 0.041549236774395773 0 0.057874102308627551 0.042338998406480192 0 0.057934464177324077 0.040989467126898479 0 0.055840616912940136 0.043555272826714245 0 0.057670013096129166 0.04273768758447298 0 0.056770721564028868 0.044813435272194897 0 0.057690716487801628 0.042519696507702355 0 0.05489972532069138 0.042677464998284301 0 0.057874102308627551 0.042338998406480192 0 0.057934464177324077 0.040989467126898479 0 0.059006280093247918 0.041041916264477979 0 0.050262477385331718 0.039455908812393678 0 0.048216579804135948 0.041624244048520422 0 0.04819050648465921 0.039865495781867703 0 0.05489972532069138 0.042677464998284301 0 0.053423822261302364 0.041564250205990062 0 0.050262477385331718 0.039455908812393678 0 0.04819050648465921 0.039865495781867703 0 0.049458212700122746 0.038595273594584693 0 0.058349213982366845 0.040037856464362039 0 0.059105680465526347 0.039922857183468698 0 0.059006280093247918 0.041041916264477979 0 0.058349213982366845 0.040037856464362039 0 0.057934464177324077 0.040989467126898479 0 0.059006280093247918 0.041041916264477979 0 0.058349213982366845 0.040037856464362039 0 0.057643311116711934 0.040123736116818472 0 0.057934464177324077 0.040989467126898479 0 0.053026338034627772 0.03885869996494485 0 0.053423822261302364 0.041564250205990062 0 0.046361403379143844 0.039597403438718468 0 0.04819050648465921 0.039865495781867703 0 0.049458212700122746 0.038595273594584693 0 0.046361403379143844 0.039597403438718468 0 0.048216579804135948 0.041624244048520422 0 0.04819050648465921 0.039865495781867703 0 0.043253839326428158 0.041002675261720044 0 0.043281202049091444 0.041083704498304841 0 0.043258066741727691 0.041079670279238943 0 0.044701886628951686 0.039865803716308663 0 0.04738117227719963 0.0435802610892961 0 0.051934868117273027 0.045020270446970413 0 0.051916481844092893 0.045013001622569299 0 0.051951758167840173 0.045038969198079225 0 0.045438810935528026 0.052200672077402747 0 0.047389541655072302 0.047400936057989222 0 0.042565707115501804 0.049159560431563505 0 0.05489972532069138 0.042677464998284301 0 0.04738117227719963 0.0435802610892961 0 0.04738117227719963 0.0435802610892961 0 0.04048257084394561 0.049723665816276144 0 0.043877609157259863 0.050630844860048561 0 0.04048257084394561 0.049723665816276144 0 0.040740111832162786 0.053654614405652098 0 0.039393030892062794 0.05312886073708166 0 0.038765364777137039 0.054380499686908564 0 0.040740111832162786 0.053654614405652098 0 0.039393030892062794 0.05312886073708166 0 0.040828334107557124 0.051880836195228257 0 0.03706386047418072 0.052462999005243996 0 0.039393030892062794 0.05312886073708166 0 0.038765364777137039 0.054380499686908564 0 0.036917561231359163 0.053379971578993622 0 0.04048257084394561 0.049723665816276144 0 0.03706386047418072 0.052462999005243996 0 0.039393030892062794 0.05312886073708166 0 0.039218235380542928 0.0518702120477657 0 0.037381515648959883 0.051441915895453091 0 0.03706386047418072 0.052462999005243996 0 0.039218235380542928 0.0518702120477657 0 0.039393030892062794 0.05312886073708166 0 0.039218235380542928 0.0518702120477657 0 0.040828334107557124 0.051880836195228257 0 0.039218235380542928 0.0518702120477657 0 0.039667620550368474 0.050961225631137877 0 0.040828334107557124 0.051880836195228257 0 0.039667620550368474 0.050961225631137877 0 0.040559872284968233 0.050370400917841493 0 0.040828334107557124 0.051880836195228257 0 0.039667620550368474 0.050961225631137877 0 0.040559872284968233 0.050370400917841493 0 0.039572870590304607 0.049999700364932689 0 0.039667620550368474 0.050961225631137877 0 0.039572870590304607 0.049999700364932689 0 0.03819755718475408 0.050731847559917241 0 0.037381515648959883 0.051441915895453091 0 0.039218235380542928 0.0518702120477657 0 0.03819755718475408 0.050731847559917241 0 0.036822600540053263 0.049999969037552619 0 0.039572870590304607 0.049999700364932689 0 0.03819755718475408 0.050731847559917241 0 0.039218235380542928 0.0518702120477657 0 0.039667620550368474 0.050961225631137877 0 0.03819755718475408 0.050731847559917241 0 0.045368678442377311 0.04933291179184203 0 0.049809547966397451 0.049156841461303967 0 0.042326457580989255 0.05083260860061653 0 0.042323360254225367 0.04999998272617643 0 0.044702454984477766 0.049999986690901485 0 0.052710366642437272 0.047679353631413408 0 0.052886007554114205 0.047963910240515009 0 0.053233174715571527 0.04769426372588826 0 0.045368678442377311 0.04933291179184203 0 0.042326032369609558 0.050000480526736391 0 0.040559872284968233 0.050370400917841493 0 0.039572870590304607 0.049999700364932689 0 0.042323292486349383 0.04999997206592393 0 0.040559872284968233 0.050370400917841493 0 0.042314748828007565 0.050810573405515362 0 0.042323292486349383 0.04999997206592393 0 0.039866481395955652 0.050258653543863781 0 0.045368678442377311 0.04933291179184203 0 0.040559872284968233 0.050370400917841493 0 0.042424429210110824 0.050632991469185124 0 0.040828334107557124 0.051880836195228257 0 0.042424429210110824 0.050632991469185124 0 0.040828334107557124 0.051880836195228257 0 0.04258519108909211 0.052976099641887348 0 0.040740111832162786 0.053654614405652098 0 0.040828334107557124 0.051880836195228257 0 0.04258519108909211 0.052976099641887348 0 0.052886007554114205 0.047963910240515009 0 0.052920868813672257 0.048045686388008747 0 0.052808226623921026 0.048034872568525906 0 0.052710366642437272 0.047679353631413408 0 0.052886007554114205 0.047963910240515009 0 0.052808226623921026 0.048034872568525906 0 0.052886007554114205 0.047963910240515009 0 0.05301379128480397 0.048129639691687882 0 0.053233174715571527 0.04769426372588826 0 0.045368678442377311 0.04933291179184203 0 0.048373936934874469 0.050185293805814157 0 0.052886007554114205 0.047963910240515009 0 0.05301379128480397 0.048129639691687882 0 0.052920868813672257 0.048045686388008747 0 0.05301379128480397 0.048129639691687882 0 0.053222058382687433 0.048208251368189299 0 0.053075165653083699 0.048486418583212933 0 0.05301379128480397 0.048129639691687882 0 0.053222058382687433 0.048208251368189299 0 0.053031953595645984 0.048091328832933676 0 0.052302506658717281 0.048749688064341025 0 0.053732050609156118 0.047768754624925767 0 0.051735423625687046 0.049758036200725865 0 0.053107202682881945 0.04807102458725189 0 0.052921408454964451 0.048026052997331037 0 0.053231111231001896 0.048031479398857199 0 0.053222058382687433 0.048208251368189299 0 0.053107202682881945 0.04807102458725189 0 0.053231111231001896 0.048031479398857199 0 0.053222058382687433 0.048208251368189299 0 0.053107202682881945 0.04807102458725189 0 0.053031953595645984 0.048091328832933676 0 0.053107202682881945 0.04807102458725189 0 0.053031953595645984 0.048091328832933676 0 0.052926208543091303 0.048028743462451937 0 0.05301379128480397 0.048129639691687882 0 0.053031953595645984 0.048091328832933676 0 0.052920868813672257 0.048045686388008747 0 0.048373936934874469 0.050185293805814157 0 0.050331232229762227 0.047720473335694708 0 0.052808226623921026 0.048034872568525906 0 0.05275068446297234 0.047993528281627985 0 0.052363325553795172 0.047979265604910434 0 0.052920868813672257 0.048045686388008747 0 0.052832157123871827 0.048017170693784257 0 0.052926208543091303 0.048028743462451937 0 0.053031953595645984 0.048091328832933676 0 0.052920868813672257 0.048045686388008747 0 0.052926208543091303 0.048028743462451937 0 0.052920868813672257 0.048045686388008747 0 0.052808226623921026 0.048034872568525906 0 0.052832157123871827 0.048017170693784257 0 0.052808226623921026 0.048034872568525906 0 0.052832157123871827 0.048017170693784257 0 0.05275068446297234 0.047993528281627985 0 0.052832157123871827 0.048017170693784257 0 0.05275068446297234 0.047993528281627985 0 0.052926208543091303 0.048028743462451937 0 0.05275068446297234 0.047993528281627985 0 0.052926208543091303 0.048028743462451937 0 0.052921408454964451 0.048026052997331037 0 0.05275068446297234 0.047993528281627985 0 0.052921408454964451 0.048026052997331037 0 0.052742255972973086 0.048022924437777517 0 0.053107202682881945 0.04807102458725189 0 0.052926208543091303 0.048028743462451937 0 0.052921408454964451 0.048026052997331037 0 0.052921408454964451 0.048026052997331037 0 0.052927480424774201 0.048137782555808702 0 0.053231111231001896 0.048031479398857199 0 0.052927480424774201 0.048137782555808702 0 0.052302506658717281 0.048749688064341025 0 0.053732050609156118 0.047768754624925767 0 0.052921408454964451 0.048026052997331037 0 0.052927480424774201 0.048137782555808702 0 0.052742255972973086 0.048022924437777517 0 0.052927480424774201 0.048137782555808702 0 0.052363325553795172 0.047979265604910434 0 0.052742255972973086 0.048022924437777517 0 0.052927480424774201 0.048137782555808702 0 0.052363325553795172 0.047979265604910434 0 0.052302506658717281 0.048749688064341025 0 0.05275068446297234 0.047993528281627985 0 0.052363325553795172 0.047979265604910434 0 0.052742255972973086 0.048022924437777517 0 0.052927480424774201 0.048137782555808702 0 0.053732050609156118 0.047768754624925767 0 0.053231111231001896 0.048031479398857199 0 0.053222058382687433 0.048208251368189299 0 0.053732050609156118 0.047768754624925767 0 0.053231111231001896 0.048031479398857199 0 0.053222058382687433 0.048208251368189299 0 0.053732050609156118 0.047768754624925767 0 0.053075165653083699 0.048486418583212933 0 0.043877609157259863 0.050630844860048561 0 0.048373936934874469 0.050185293805814157 0 0.047389541655072302 0.047400936057989222 0 0.052363325553795172 0.047979265604910434 0 0.052302506658717281 0.048749688064341025 0 0.047389541655072302 0.047400936057989222 0 0.052273720354018983 0.045727766116906064 0 0.052363325553795172 0.047979265604910434 0 0.047389541655072302 0.047400936057989222 0 0.052302506658717281 0.048749688064341025 0 0.050728760695118107 0.050458290974937113 0 0.045438810935528026 0.052200672077402747 0 0.047389541655072302 0.047400936057989222 0 0.050728760695118107 0.050458290974937113 0 0.056770721564028868 0.044813435272194897 0 0.059425728988083397 0.044681274796871978 0 0.057308034125893331 0.046973551489325013 0 0.04738117227719963 0.0435802610892961 0 0.052912763530835925 0.047713979509577377 0 0.051916444442095575 0.048990582364506055 0 0.052912763530835925 0.047713979509577377 0 0.056770721564028868 0.044813435272194897 0 0.057308034125893331 0.046973551489325013 0 0.055470554746760846 0.04619493144807315 0 0.05489972532069138 0.042677464998284301 0 0.052912763530835925 0.047713979509577377 0 0.053732050609156118 0.047768754624925767 0 0.057308034125893331 0.046973551489325013 0 0.055470554746760846 0.04619493144807315 0 0.053732050609156118 0.047768754624925767 0 0.055470554746760846 0.04619493144807315 0 0.05411692484944329 0.045238931703263929 0 0.053732050609156118 0.047768754624925767 0 0.05411692484944329 0.045238931703263929 0 0.053075165653083699 0.048486418583212933 0 0.054275147621071766 0.047930052171303049 0 0.052912763530835925 0.047713979509577377 0 0.056770721564028868 0.044813435272194897 0 0.055470554746760846 0.04619493144807315 0 0.05411692484944329 0.045238931703263929 0 0.054868403592602998 0.044484964071645476 0 0.054716583920789125 0.046860797341544733 0 0.055728707589700659 0.043553247315355807 0 0.054611614072228594 0.044643938932269707 0 0.055367675327968623 0.046003333504135602 0 0.055728707589700659 0.043553247315355807 0 0.054272017518100187 0.043513503752471351 0 0.054611614072228594 0.044643938932269707 0 0.053369153700016762 0.044611727199105992 0 0.051830956327351504 0.043356032553910781 0 0.05327756848443891 0.043126603617771993 0 0.054272017518100187 0.043513503752471351 0 0.054611614072228594 0.044643938932269707 0 0.053369153700016762 0.044611727199105992 0 0.054272017518100187 0.043513503752471351 0 0.053369153700016762 0.044611727199105992 0 0.05327756848443891 0.043126603617771993 0 0.054611614072228594 0.044643938932269707 0 0.053369153700016762 0.044611727199105992 0 0.054224148785054743 0.04562335809881464 0 0.053369153700016762 0.044611727199105992 0 0.053271743101536755 0.046077570174521423 0 0.051822850926586117 0.045667016698438111 0 0.053369153700016762 0.044611727199105992 0 0.053271743101536755 0.046077570174521423 0 0.054224148785054743 0.04562335809881464 0 0.053271743101536755 0.046077570174521423 0 0.054224148785054743 0.04562335809881464 0 0.054279654204260792 0.046758804792823253 0 0.054611614072228594 0.044643938932269707 0 0.054224148785054743 0.04562335809881464 0 0.055367675327968623 0.046003333504135602 0 0.054224148785054743 0.04562335809881464 0 0.055367675327968623 0.046003333504135602 0 0.054279654204260792 0.046758804792823253 0 0.055367675327968623 0.046003333504135602 0 0.054279654204260792 0.046758804792823253 0 0.054885091851098515 0.0482571238823995 0 0.05301379128480397 0.048129639691687882 0 0.053075165653083699 0.048486418583212933 0 0.053233174715571527 0.04769426372588826 0 0.054716583920789125 0.046860797341544733 0 0.049809547966397451 0.049156841461303967 0 0.049809547966397451 0.049156841461303967 0 0.050037043983087101 0.049071316087512203 0 0.053271743101536755 0.046077570174521423 0 0.054279654204260792 0.046758804792823253 0 0.052409767186859295 0.047710921933920854 0 0.054279654204260792 0.046758804792823253 0 0.054885091851098515 0.0482571238823995 0 0.052409767186859295 0.047710921933920854 0 0.044705864043896794 0.049999876526430932 0 0.044712875808409429 0.050950441141993721 0 0.047950610993059056 0.050550951590044198 0 0.042326457580989255 0.05083260860061653 0 0.044702454984477766 0.049999986690901485 0 0.044499800548206028 0.051313380663994664 0 0.045435840174510578 0.051004294695697477 0 0.049809547966397451 0.049156841461303967 0 0.044705864043896794 0.049999876526430932 0 0.049999466741197506 0.049995900819068434 0 0.047950610993059056 0.050550951590044198 0 0.049999466741197506 0.049995900819068434 0 0.047950610993059056 0.050550951590044198 0 0.049997734974060029 0.047430497420106417 0 0.052409767186859295 0.047710921933920854 0 0.049999862090248662 0.047421525787453518 0 0.051822850926586117 0.045667016698438111 0 0.050037043983087101 0.049071316087512203 0 0.049999302660967561 0.04742265395443708 0 0.049999862090248662 0.047421525787453518 0 0.051822850926586117 0.045667016698438111 0 0.049999829257467071 0.044569806207540606 0 0.053271743101536755 0.046077570174521423 0 0.052409767186859295 0.047710921933920854 0 0.051822850926586117 0.045667016698438111 0 0.053369153700016762 0.044611727199105992 0 0.051822850926586117 0.045667016698438111 0 0.051830956327351504 0.043356032553910781 0 0.051822850926586117 0.045667016698438111 0 0.049999829257467071 0.044569806207540606 0 0.051830956327351504 0.043356032553910781 0 0.049999829257467071 0.044569806207540606 0 0.049999823242440615 0.041717317965493189 0 0.051830956327351504 0.043356032553910781 0 0.049999823242440615 0.041717317965493189 0 0.051635228205428367 0.040877570953614155 0 0.051830956327351504 0.043356032553910781 0 0.051635228205428367 0.040877570953614155 0 0.052988165696239084 0.04189772278095457 0 0.053332428406169995 0.040437508254467819 0 0.051635228205428367 0.040877570953614155 0 0.051830956327351504 0.043356032553910781 0 0.052988165696239084 0.04189772278095457 0 0.051830956327351504 0.043356032553910781 0 0.05327756848443891 0.043126603617771993 0 0.052988165696239084 0.04189772278095457 0 0.05327756848443891 0.043126603617771993 0 0.054593080059638678 0.042104334917121046 0 0.052988165696239084 0.04189772278095457 0 0.054272017518100187 0.043513503752471351 0 0.05327756848443891 0.043126603617771993 0 0.054593080059638678 0.042104334917121046 0 0.055723389046465156 0.041128297987273313 0 0.055728707589700659 0.043553247315355807 0 0.054593080059638678 0.042104334917121046 0 0.055728707589700659 0.043553247315355807 0 0.054272017518100187 0.043513503752471351 0 0.054593080059638678 0.042104334917121046 0 0.054593080059638678 0.042104334917121046 0 0.054582482527522763 0.040425583143760657 0 0.055071428287943355 0.041083962511672095 0 0.054593080059638678 0.042104334917121046 0 0.054582482527522763 0.040425583143760657 0 0.053332428406169995 0.040437508254467819 0 0.055723389046465156 0.041128297987273313 0 0.054593080059638678 0.042104334917121046 0 0.055071428287943355 0.041083962511672095 0 0.055375017743263963 0.040631990314051764 0 0.054582482527522763 0.040425583143760657 0 0.055071428287943355 0.041083962511672095 0 0.054593080059638678 0.042104334917121046 0 0.052988165696239084 0.04189772278095457 0 0.053332428406169995 0.040437508254467819 0 0.054582482527522763 0.040425583143760657 0 0.053332428406169995 0.040437508254467819 0 0.053878491191781591 0.038791283397928762 0 0.053332428406169995 0.040437508254467819 0 0.053878491191781591 0.038791283397928762 0 0.052440054152023206 0.039105225793141365 0 0.054582482527522763 0.040425583143760657 0 0.055271913355516268 0.038589895221284996 0 0.053878491191781591 0.038791283397928762 0 0.055702402172531633 0.039877191498735767 0 0.054582482527522763 0.040425583143760657 0 0.055271913355516268 0.038589895221284996 0 0.055702402172531633 0.039877191498735767 0 0.055375017743263963 0.040631990314051764 0 0.054582482527522763 0.040425583143760657 0 0.054471019939299897 0.037209526095362142 0 0.055271913355516268 0.038589895221284996 0 0.053878491191781591 0.038791283397928762 0 0.053160048088748468 0.036978643217347215 0 0.054471019939299897 0.037209526095362142 0 0.053878491191781591 0.038791283397928762 0 0.053160048088748468 0.036978643217347215 0 0.053878491191781591 0.038791283397928762 0 0.052440054152023206 0.039105225793141365 0 0.053160048088748468 0.036978643217347215 0 0.051466769850969762 0.037507139635094722 0 0.052440054152023206 0.039105225793141365 0 0.051466769850969762 0.037507139635094722 0 0.049999830607780349 0.038865046051349758 0 0.052440054152023206 0.039105225793141365 0 0.049999823242440615 0.041717317965493189 0 0.051635228205428367 0.040877570953614155 0 0.049999830607780349 0.038865046051349758 0 0.051635228205428367 0.040877570953614155 0 0.053332428406169995 0.040437508254467819 0 0.052440054152023206 0.039105225793141365 0 0.051635228205428367 0.040877570953614155 0 0.049999830607780349 0.038865046051349758 0 0.052440054152023206 0.039105225793141365 0 0.010358216301631456 0.016003371489419563 0 0.0098202257571301035 0.015160457520080609 0 0.0094837990605989211 0.016373748375440603 0 0.010358216301631456 0.016003371489419563 0 0.010455650902525574 0.014760436693054364 0 0.0098202257571301035 0.015160457520080609 0 0.013372215785431237 0.032686572155748599 0 0.0020722704450118917 0.032814142709813428 0 0.010358216301631456 0.016003371489419563 0 0.010455650902525574 0.014760436693054364 0 0.011262913961419076 0.015724495493834749 0 0.012294169423693355 0.050160112693921836 0 0.012601074264117169 0.050822979934250577 0 0.013121235637368375 0.049674501988677476 0 0.010455650902525574 0.014760436693054364 0 0.011262913961419076 0.015724495493834749 0 0.011198547711108318 0.014430465203026229 0 0.0098202257571301035 0.015160457520080609 0 0.0095881476544291723 0.014364558715751607 0 0.010084869827746815 0.013921371168791014 0 0.010455650902525574 0.014760436693054364 0 0.0098202257571301035 0.015160457520080609 0 0.010084869827746815 0.013921371168791014 0 0.0095881476544291723 0.014364558715751607 0 0.0092188603108711523 0.015579124027040018 0 0.009055622646713047 0.014741160502939964 0 0.0098202257571301035 0.015160457520080609 0 0.0095881476544291723 0.014364558715751607 0 0.0092188603108711523 0.015579124027040018 0 0.0095881476544291723 0.014364558715751607 0 0.0093434725821328682 0.01359015816153364 0 0.009055622646713047 0.014741160502939964 0 0.0092188603108711523 0.015579124027040018 0 0.0086256628342198018 0.01575035512722776 0 0.009055622646713047 0.014741160502939964 0 0.0092188603108711523 0.015579124027040018 0 0.008625267768940412 0.016861620070341376 0 0.0086256628342198018 0.01575035512722776 0 0.0098202257571301035 0.015160457520080609 0 0.0092188603108711523 0.015579124027040018 0 0.0094837990605989211 0.016373748375440603 0 0.011463407213697721 0.050652716761989264 0 0.010588079271693791 0.051091200242938048 0 0.011134258562569546 0.051799298846197113 0 0.0092188603108711523 0.015579124027040018 0 0.0094837990605989211 0.016373748375440603 0 0.008625267768940412 0.016861620070341376 0 0.010108047818431387 0.033697306617672049 0 0.009273368594367665 0.033269763655602663 0 0.010588079271693791 0.051091200242938048 0 0.010535671549543272 0.052079297434236234 0 0.011134258562569546 0.051799298846197113 0 0.011463407213697721 0.050652716761989264 0 0.011134258562569546 0.051799298846197113 0 0.011820698935493512 0.051438223284151673 0 0.011134258562569546 0.051799298846197113 0 0.011820698935493512 0.051438223284151673 0 0.011456469254173318 0.052459519345172338 0 0.013372215785431237 0.032686572155748599 0 0.010108047818431387 0.033697306617672049 0 0.012294169423693355 0.050160112693921836 0 0.011463407213697721 0.050652716761989264 0 0.011820698935493512 0.051438223284151673 0 0.012294169423693355 0.050160112693921836 0 0.011820698935493512 0.051438223284151673 0 0.012601074264117169 0.050822979934250577 0 0.011820698935493512 0.051438223284151673 0 0.012601074264117169 0.050822979934250577 0 0.012487815381227183 0.051926468505161742 0 0.011820698935493512 0.051438223284151673 0 0.012487815381227183 0.051926468505161742 0 0.011456469254173318 0.052459519345172338 0 0.012601074264117169 0.050822979934250577 0 0.012487815381227183 0.051926468505161742 0 0.013275638814296871 0.050937955331412266 0 -0.0004239014193538834 0.046973393149754003 0 2.1215943311450371e-05 0.046221221508274686 0 -0.014124336409804763 0.039116225702047203 0 -0.011684209509898597 0.039987032966212185 0 -0.013105071631708981 0.041244239252200637 0 0.012487815381227183 0.051926468505161742 0 0.013275638814296871 0.050937955331412266 0 0.013454756371658886 0.052190526683092917 0 -0.014124336409804763 0.039116225702047203 0 -0.011684209509898597 0.039987032966212185 0 -0.013623060212909948 0.037637310639084577 0 0.012601074264117169 0.050822979934250577 0 0.013275638814296871 0.050937955331412266 0 0.013121235637368375 0.049674501988677476 0 -0.011160956570819558 0.038889573190478255 0 -0.012824604617273945 0.039039113108974545 0 -0.01098497324244334 0.040168022695686374 0 -0.011684209509898597 0.039987032966212185 0 -0.01219776838346041 0.037083837998935172 0 -0.013623060212909948 0.037637310639084577 0 -0.012237491117671685 0.039508542458221614 0 -0.012826986830581116 0.036683045618149009 0 -0.012824604617273945 0.039039113108974545 0 -0.012166726258105831 0.036825767155381287 0 -0.013430478464110333 0.036268728640229189 0 -0.012824604617273945 0.039039113108974545 0 -0.011347798879110726 0.037682727274707298 0 -0.012166726258105831 0.036825767155381287 0 -0.011160956570819558 0.038889573190478255 0 -0.012824604617273945 0.039039113108974545 0 -0.011347798879110726 0.037682727274707298 0 -0.012166726258105831 0.036825767155381287 0 -0.012399318491629832 0.03507903320136882 0 -0.010890223274659641 0.03626612237483999 0 -0.011347798879110726 0.037682727274707298 0 -0.012166726258105831 0.036825767155381287 0 -0.010890223274659641 0.03626612237483999 0 -0.012166726258105831 0.036825767155381287 0 -0.013430478464110333 0.036268728640229189 0 -0.012399318491629832 0.03507903320136882 0 -0.012826986830581116 0.036683045618149009 0 -0.013551622573291526 0.033859386027121588 0 -0.012399318491629832 0.03507903320136882 0 -0.01396027633335967 0.033783214700305431 0 -0.012003414118759919 0.033578988680509084 0 -0.013430478464110333 0.036268728640229189 0 -0.012399318491629832 0.03507903320136882 0 -0.01396027633335967 0.033783214700305431 0 -0.012399318491629832 0.03507903320136882 0 -0.012003414118759919 0.033578988680509084 0 -0.010808061276604414 0.034870475799935428 0 -0.012399318491629832 0.03507903320136882 0 -0.010890223274659641 0.03626612237483999 0 -0.010808061276604414 0.034870475799935428 0 -0.014528738335604757 0.036218785113751997 0 -0.015289165048098895 0.036548145962337436 0 -0.013623060212909948 0.037637310639084577 0 -0.0004239014193538834 0.046973393149754003 0 0.0020722704450118917 0.032814142709813428 0 -0.01359639575684427 0.037350042795447035 0 0.0020722704450118917 0.032814142709813428 0 -0.014124336409804763 0.039116225702047203 0 -0.015289165048098895 0.036548145962337436 0 -0.013623060212909948 0.037637310639084577 0 -0.01219776838346041 0.037083837998935172 0 -0.014528738335604757 0.036218785113751997 0 -0.013623060212909948 0.037637310639084577 0 -0.014528738335604757 0.036218785113751997 0 -0.014965952430282967 0.034572697417858837 0 -0.013124631082522408 0.033942928120276522 0 -0.01219776838346041 0.037083837998935172 0 -0.014528738335604757 0.036218785113751997 0 -0.013124631082522408 0.033942928120276522 0 -0.015333575329359915 0.036492845415081333 0 -0.014965952430282967 0.034572697417858837 0 -0.01647613647271471 0.033871508711448783 0 0.0020722704450118917 0.032814142709813428 0 -0.0034364572367625158 0.022630878722325949 0 -0.014528738335604757 0.036218785113751997 0 -0.015333575329359915 0.036492845415081333 0 -0.014965952430282967 0.034572697417858837 0 -0.014965952430282967 0.034572697417858837 0 -0.015468918807937375 0.032390053866044877 0 -0.01647613647271471 0.033871508711448783 0 -0.014965952430282967 0.034572697417858837 0 -0.013124631082522408 0.033942928120276522 0 -0.015468918807937375 0.032390053866044877 0 -0.01396027633335967 0.033783214700305431 0 -0.012937895924696246 0.032320658610790691 0 -0.014355283312279395 0.031177419859510121 0 -0.013124631082522408 0.033942928120276522 0 -0.015468918807937375 0.032390053866044877 0 -0.014355283312279395 0.031177419859510121 0 -0.013551622573291526 0.033859386027121588 0 -0.014301897227627253 0.031340668282876384 0 -0.012003414118759919 0.033578988680509084 0 -0.011390669809074154 0.031906815382228941 0 -0.010484872974489152 0.033372505268718024 0 -0.01396027633335967 0.033783214700305431 0 -0.012003414118759919 0.033578988680509084 0 -0.012937895924696246 0.032320658610790691 0 -0.012937895924696246 0.032320658610790691 0 -0.012640593846943571 0.030925181965807343 0 -0.014355283312279395 0.031177419859510121 0 -0.012003414118759919 0.033578988680509084 0 -0.012937895924696246 0.032320658610790691 0 -0.011390669809074154 0.031906815382228941 0 -0.012937895924696246 0.032320658610790691 0 -0.011390669809074154 0.031906815382228941 0 -0.012640593846943571 0.030925181965807343 0 -0.011454345408109697 0.030190442707175427 0 -0.012640593846943571 0.030925181965807343 0 -0.012219491374073563 0.029418870232953993 0 -0.011390669809074154 0.031906815382228941 0 -0.011454345408109697 0.030190442707175427 0 -0.012640593846943571 0.030925181965807343 0 -0.011390669809074154 0.031906815382228941 0 -0.011454345408109697 0.030190442707175427 0 -0.010678696206831095 0.030931190229050248 0 -0.012640593846943571 0.030925181965807343 0 -0.013311928884545332 0.029603564072077346 0 -0.014355283312279395 0.031177419859510121 0 -0.012640593846943571 0.030925181965807343 0 -0.013311928884545332 0.029603564072077346 0 -0.012219491374073563 0.029418870232953993 0 -0.013311928884545332 0.029603564072077346 0 -0.012733954322975888 0.028642980181993481 0 -0.013681037355457884 0.028449293427586196 0 -0.013311928884545332 0.029603564072077346 0 -0.012733954322975888 0.028642980181993481 0 -0.012219491374073563 0.029418870232953993 0 -0.011454345408109697 0.030190442707175427 0 -0.012219491374073563 0.029418870232953993 0 -0.011557848732199274 0.029343526124946586 0 -0.011616127568352848 0.028528747632504917 0 -0.012733954322975888 0.028642980181993481 0 -0.012219491374073563 0.029418870232953993 0 -0.011616127568352848 0.028528747632504917 0 -0.012219491374073563 0.029418870232953993 0 -0.011557848732199274 0.029343526124946586 0 -0.011616127568352848 0.028528747632504917 0 -0.010946682045540043 0.029260523751636205 0 -0.010910748592110968 0.028134341582191216 0 -0.011616127568352848 0.028528747632504917 0 -0.011557848732199274 0.029343526124946586 0 -0.010946682045540043 0.029260523751636205 0 -0.011454345408109697 0.030190442707175427 0 -0.011557848732199274 0.029343526124946586 0 -0.010946682045540043 0.029260523751636205 0 -0.016191254609124739 0.029638084806600837 0 -0.014355283312279395 0.031177419859510121 0 -0.014520425738758235 0.029259214263629457 0 -0.015468918807937375 0.032390053866044877 0 -0.016191254609124739 0.029638084806600837 0 -0.014355283312279395 0.031177419859510121 0 -0.013311928884545332 0.029603564072077346 0 -0.014355283312279395 0.031177419859510121 0 -0.014520425738758235 0.029259214263629457 0 -0.014837514737530916 0.027477721389886883 0 -0.014520425738758235 0.029259214263629457 0 -0.013681037355457884 0.028449293427586196 0 -0.013311928884545332 0.029603564072077346 0 -0.014520425738758235 0.029259214263629457 0 -0.013681037355457884 0.028449293427586196 0 -0.014837514737530916 0.027477721389886883 0 -0.016191254609124739 0.029638084806600837 0 -0.014520425738758235 0.029259214263629457 0 -0.016990770877771441 0.027263397992358954 0 -0.014837514737530916 0.027477721389886883 0 -0.016191254609124739 0.029638084806600837 0 -0.016990770877771441 0.027263397992358954 0 -0.016191254609124739 0.029638084806600837 0 -0.018347129040185567 0.029215656245980836 0 -0.0041965307378260194 0.018264190908619398 0 -0.0038180999124932235 0.020646624139336472 0 -0.0038180999124932235 0.020646624139336472 0 -0.0030512448828542943 0.022599335983685024 0 0.010769900202230944 0.011914946370874459 0 0.011037645364644664 0.013108319407689206 0 0.010191976861310235 0.01266181365748844 0 -0.016191254609124739 0.029638084806600837 0 -0.018347129040185567 0.029215656245980836 0 -0.017427931100482946 0.031495708142013135 0 -0.015468918807937375 0.032390053866044877 0 -0.017427931100482946 0.031495708142013135 0 -0.01647613647271471 0.033871508711448783 0 0.010455650902525574 0.014760436693054364 0 0.011037645364644664 0.013108319407689206 0 0.010084869827746815 0.013921371168791014 0 -0.015468918807937375 0.032390053866044877 0 -0.016191254609124739 0.029638084806600837 0 -0.017427931100482946 0.031495708142013135 0 0.010455650902525574 0.014760436693054364 0 0.011037645364644664 0.013108319407689206 0 0.011198547711108318 0.014430465203026229 0 0.011037645364644664 0.013108319407689206 0 0.010084869827746815 0.013921371168791014 0 0.010191976861310235 0.01266181365748844 0 -0.0030512448828542943 0.022599335983685024 0 -0.0034364572367625158 0.022630878722325949 0 0.0095881476544291723 0.014364558715751607 0 0.0098264743118700367 0.013258447760296183 0 0.0093434725821328682 0.01359015816153364 0 0.0095881476544291723 0.014364558715751607 0 0.010084869827746815 0.013921371168791014 0 0.0098264743118700367 0.013258447760296183 0 0.010084869827746815 0.013921371168791014 0 0.0098264743118700367 0.013258447760296183 0 0.010191976861310235 0.01266181365748844 0 0.0098264743118700367 0.013258447760296183 0 0.0095946853736114859 0.01268480055838065 0 0.0093434725821328682 0.01359015816153364 0 0.0098264743118700367 0.013258447760296183 0 0.0095946853736114859 0.01268480055838065 0 0.010191976861310235 0.01266181365748844 0 0.0095946853736114859 0.01268480055838065 0 0.0098911990172592772 0.011984588095485686 0 0.010191976861310235 0.01266181365748844 0 0.0095946853736114859 0.01268480055838065 0 0.0098911990172592772 0.011984588095485686 0 0.0095449411462389423 0.011981014006037479 0 0.010769900202230944 0.011914946370874459 0 0.010191976861310235 0.01266181365748844 0 0.010298317558301212 0.011893661703777338 0 0.0098911990172592772 0.011984588095485686 0 0.010191976861310235 0.01266181365748844 0 0.010298317558301212 0.011893661703777338 0 0.010437019395987795 0.011127853472959035 0 0.010769900202230944 0.011914946370874459 0 0.01028191800021995 0.01134516445172592 0 0.010769900202230944 0.011914946370874459 0 0.010298317558301212 0.011893661703777338 0 0.01028191800021995 0.01134516445172592 0 0.010298317558301212 0.011893661703777338 0 0.01028191800021995 0.01134516445172592 0 0.0099954556359561318 0.01145601409602108 0 0.0098911990172592772 0.011984588095485686 0 0.0099954556359561318 0.01145601409602108 0 0.0096824684294603211 0.011515001145139396 0 0.0098911990172592772 0.011984588095485686 0 0.010298317558301212 0.011893661703777338 0 0.0099954556359561318 0.01145601409602108 0 0.0100403776068572 0.011015050959288602 0 0.01028191800021995 0.01134516445172592 0 0.0099954556359561318 0.01145601409602108 0 0.0100403776068572 0.011015050959288602 0 0.0099954556359561318 0.01145601409602108 0 0.0098466295310247597 0.011141290481098598 0 0.0099954556359561318 0.01145601409602108 0 0.0098466295310247597 0.011141290481098598 0 0.0096824684294603211 0.011515001145139396 0 0.0096824684294603211 0.011515001145139396 0 0.0093661101944605193 0.011651334054374188 0 0.0096704786903052987 0.011049994288712867 0 0.0098466295310247597 0.011141290481098598 0 0.0096824684294603211 0.011515001145139396 0 0.0096704786903052987 0.011049994288712867 0 0.0098911990172592772 0.011984588095485686 0 0.0096824684294603211 0.011515001145139396 0 0.0095449411462389423 0.011981014006037479 0 0.0095946853736114859 0.01268480055838065 0 0.0095449411462389423 0.011981014006037479 0 0.0092773373253303374 0.012234886755651927 0 0.0096824684294603211 0.011515001145139396 0 0.0095449411462389423 0.011981014006037479 0 0.0093661101944605193 0.011651334054374188 0 0.0095449411462389423 0.011981014006037479 0 0.0092773373253303374 0.012234886755651927 0 0.0093661101944605193 0.011651334054374188 0 0.0093661101944605193 0.011651334054374188 0 0.0094577244692150703 0.011219367981220037 0 0.0090368078907361003 0.011738022861986618 0 0.0092773373253303374 0.012234886755651927 0 0.0093661101944605193 0.011651334054374188 0 0.0089741990074182765 0.012187556342423187 0 0.0093661101944605193 0.011651334054374188 0 0.0090368078907361003 0.011738022861986618 0 0.0089741990074182765 0.012187556342423187 0 0.0093661101944605193 0.011651334054374188 0 0.0096704786903052987 0.011049994288712867 0 0.0094577244692150703 0.011219367981220037 0 0.0097020588054449186 0.01069239260372944 0 0.0096704786903052987 0.011049994288712867 0 0.0094577244692150703 0.011219367981220037 0 0.0097020588054449186 0.01069239260372944 0 0.0094577244692150703 0.011219367981220037 0 0.0093166639314960966 0.011361577529091555 0 0.0097020588054449186 0.01069239260372944 0 0.0094606645964326243 0.011023685176058095 0 0.0093166639314960966 0.011361577529091555 0 0.0094606645964326243 0.011023685176058095 0 0.0092525479068153796 0.011600339031929139 0 0.0093166639314960966 0.011361577529091555 0 0.0094606645964326243 0.011023685176058095 0 0.0092525479068153796 0.011600339031929139 0 0.0093612640263040642 0.011038002606461868 0 0.0092525479068153796 0.011600339031929139 0 0.0093166639314960966 0.011361577529091555 0 0.0090368078907361003 0.011738022861986618 0 0.0094577244692150703 0.011219367981220037 0 0.0093166639314960966 0.011361577529091555 0 0.0090368078907361003 0.011738022861986618 0 0.0092525479068153796 0.011600339031929139 0 0.0090368078907361003 0.011738022861986618 0 0.0086312137858284062 0.012123690955569999 0 0.0086312137858284062 0.012123690955569999 0 0.0077202047474831115 0.013316437408886484 0 0.0086492023408997337 0.012806604498758182 0 0.0090368078907361003 0.011738022861986618 0 0.0086312137858284062 0.012123690955569999 0 0.0089741990074182765 0.012187556342423187 0 0.0086312137858284062 0.012123690955569999 0 0.0091054731961299155 0.011748574273396487 0 0.0089740438589020269 0.011513753801804827 0 0.0092525479068153796 0.011600339031929139 0 0.0086312137858284062 0.012123690955569999 0 0.0091054731961299155 0.011748574273396487 0 0.0092525479068153796 0.011600339031929139 0 0.0091054731961299155 0.011748574273396487 0 0.0093327488010837914 0.011671236229509826 0 0.0091054731961299155 0.011748574273396487 0 0.0089740438589020269 0.011513753801804827 0 0.0093327488010837914 0.011671236229509826 0 0.012602132813373267 0.019814791423056005 0 0.016548293214599181 0.022919395023212295 0 0.022315689509397742 0.033641196421023548 0 0.022575961203628859 0.033704418837214693 0 0.022553275221941307 0.033604451130852031 0 0.0077202047474831115 0.013316437408886484 0 0.0081376176103390256 0.013644285429045401 0 0.0086492023408997337 0.012806604498758182 0 0.007128430610728053 0.013511638774405647 0 0.0081376176103390256 0.013644285429045401 0 0.007544385155593962 0.014814321676827827 0 0.0095798926980341075 0.010965389458122303 0 0.012602132813373267 0.019814791423056005 0 0.012602132813373267 0.019814791423056005 0 0.006376560920658649 0.014283216424750111 0 0.0081376176103390256 0.013644285429045401 0 0.0087921554868138629 0.013788675567604438 0 0.0086492023408997337 0.012806604498758182 0 0.0087921554868138629 0.013788675567604438 0 0.0090951839626297517 0.012832614430337867 0 0.0086492023408997337 0.012806604498758182 0 0.0087921554868138629 0.013788675567604438 0 0.0093434725821328682 0.01359015816153364 0 0.009055622646713047 0.014741160502939964 0 0.0087921554868138629 0.013788675567604438 0 0.0093434725821328682 0.01359015816153364 0 0.0090951839626297517 0.012832614430337867 0 0.0095946853736114859 0.01268480055838065 0 0.0092773373253303374 0.012234886755651927 0 0.0090951839626297517 0.012832614430337867 0 0.0095946853736114859 0.01268480055838065 0 0.0093434725821328682 0.01359015816153364 0 0.0090951839626297517 0.012832614430337867 0 0.0092773373253303374 0.012234886755651927 0 0.0090951839626297517 0.012832614430337867 0 0.0089741990074182765 0.012187556342423187 0 0.0086312137858284062 0.012123690955569999 0 0.0089741990074182765 0.012187556342423187 0 0.0086492023408997337 0.012806604498758182 0 0.0090951839626297517 0.012832614430337867 0 0.0089741990074182765 0.012187556342423187 0 0.0086492023408997337 0.012806604498758182 0 0.011478636477735874 0.010816191118117812 0 0.011058423263964553 0.010164008400308351 0 0.012523353342272968 0.009526556762697258 0 0.021079478467795901 0.010995419709969399 0 0.025138377517707894 0.013399502248047739 0 0.034631618433240127 0.012022211041717128 0 0.031827614337061834 0.011840416673692868 0 0.033347712875783676 0.0092975911913100919 0 0.033393168787882788 0.014558173923881756 0 0.034631618433240127 0.012022211041717128 0 0.031827614337061834 0.011840416673692868 0 0.01062253490406488 0.011617813135253416 0 0.011478636477735874 0.010816191118117812 0 0.010206937387663586 0.010951774417016946 0 0.023755573790849905 0.012115003211469581 0 0.021079478467795901 0.010995419709969399 0 0.011478636477735874 0.010816191118117812 0 0.011058423263964553 0.010164008400308351 0 0.010206937387663586 0.010951774417016946 0 0.010160046369802925 0.010063260398241864 0 0.010206937387663586 0.010951774417016946 0 0.0093612640263040642 0.011038002606461868 0 0.011058423263964553 0.010164008400308351 0 0.010160046369802925 0.010063260398241864 0 0.010206937387663586 0.010951774417016946 0 0.0097657288601196296 0.011276150579907225 0 0.010206937387663586 0.010951774417016946 0 0.0095674844125889502 0.011024611676107854 0 0.0097275454134438128 0.010435605520677215 0 0.0094606645964326243 0.011023685176058095 0 0.0095674844125889502 0.011024611676107854 0 0.010206937387663586 0.010951774417016946 0 0.0095674844125889502 0.011024611676107854 0 0.0093612640263040642 0.011038002606461868 0 0.0094606645964326243 0.011023685176058095 0 0.0095674844125889502 0.011024611676107854 0 0.0093612640263040642 0.011038002606461868 0 0.0092525479068153796 0.011600339031929139 0 0.0093612640263040642 0.011038002606461868 0 0.0092966406219948429 0.011517085996358345 0 0.0094457357209894142 0.010546073047905223 0 0.0094704096938339442 0.01097031917366259 0 0.0091572543377985358 0.011480853680322881 0 0.0093612640263040642 0.011038002606461868 0 0.0092966406219948429 0.011517085996358345 0 0.0092525479068153796 0.011600339031929139 0 0.0092966406219948429 0.011517085996358345 0 0.0093327488010837914 0.011671236229509826 0 0.016548293214599181 0.022919395023212295 0 0.016060555381475251 0.022877145254454199 0 0.0092966406219948429 0.011517085996358345 0 0.0093327488010837914 0.011671236229509826 0 0.0092297358725210304 0.011626844268189279 0 0.022575961203628859 0.033704418837214693 0 0.022668906164773087 0.033718925130640696 0 0.022683604176449507 0.033704622451789325 0 0.022575961203628859 0.033704418837214693 0 0.022668906164773087 0.033718925130640696 0 0.022553275221941307 0.033604451130852031 0 0.022668906164773087 0.033718925130640696 0 0.022683604176449507 0.033704622451789325 0 0.022756160420890303 0.033784976337290037 0 0.022683604176449507 0.033704622451789325 0 0.02270787761452854 0.033635236899389659 0 0.022756160420890303 0.033784976337290037 0 0.0091572543377985358 0.011480853680322881 0 0.0092297358725210304 0.011626844268189279 0 0.0091780439057055248 0.011627111772999816 0 0.016060555381475251 0.022877145254454199 0 0.015459508218233034 0.018563380485447974 0 0.0091572543377985358 0.011480853680322881 0 0.0092966406219948429 0.011517085996358345 0 0.0092297358725210304 0.011626844268189279 0 0.011058423263964553 0.010164008400308351 0 0.011189708869344311 0.0092948115944731288 0 0.012523353342272968 0.009526556762697258 0 0.0094457357209894142 0.010546073047905223 0 0.015459508218233034 0.018563380485447974 0 0.011058423263964553 0.010164008400308351 0 0.010160046369802925 0.010063260398241864 0 0.011189708869344311 0.0092948115944731288 0 0.02270787761452854 0.033635236899389659 0 0.022756160420890303 0.033784976337290037 0 0.022738997400770272 0.033768119825798311 0 0.022738997400770272 0.033768119825798311 0 0.022594320128880897 0.03369871444545447 0 0.022862526391502557 0.033975669022211087 0 0.02270787761452854 0.033635236899389659 0 0.022738997400770272 0.033768119825798311 0 0.022594320128880897 0.03369871444545447 0 0.015459508218233034 0.018563380485447974 0 0.025138377517707894 0.013399502248047739 0 0.024409779502492745 0.020929409818712781 0 0.023794641373637626 0.020007259712348464 0 0.023360654333742795 0.022668531514348774 0 0.015459508218233034 0.018563380485447974 0 0.025303479512600775 0.030846843403787891 0 0.020304609845742075 0.021886365587067105 0 0.023794641373637626 0.020007259712348464 0 0.023360654333742795 0.022668531514348774 0 0.031218922063545221 0.02500208301280776 0 0.025138377517707894 0.013399502248047739 0 0.02325313287087738 0.034053183272286104 0 0.023007885561284587 0.03389295506402 0 0.022862526391502557 0.033975669022211087 0 0.02325313287087738 0.034053183272286104 0 0.023212335156963144 0.034420913667579683 0 0.022862526391502557 0.033975669022211087 0 0.025303479512600775 0.030846843403787891 0 0.022411698054811812 0.034967118979581928 0 0.022756160420890303 0.033784976337290037 0 0.022738997400770272 0.033768119825798311 0 0.022862526391502557 0.033975669022211087 0 0.022756160420890303 0.033784976337290037 0 0.022862526391502557 0.033975669022211087 0 0.022791872962278168 0.033881542003053232 0 0.023007885561284587 0.03389295506402 0 0.022862526391502557 0.033975669022211087 0 0.022791872962278168 0.033881542003053232 0 0.023007885561284587 0.03389295506402 0 0.022791872962278168 0.033881542003053232 0 0.022813050315872278 0.033834911033210638 0 0.022791872962278168 0.033881542003053232 0 0.022709412673921611 0.033813076292395279 0 0.022813050315872278 0.033834911033210638 0 0.022791872962278168 0.033881542003053232 0 0.022717686422439796 0.033788902475660638 0 0.022709412673921611 0.033813076292395279 0 0.022668906164773087 0.033718925130640696 0 0.022756160420890303 0.033784976337290037 0 0.022717686422439796 0.033788902475660638 0 0.022756160420890303 0.033784976337290037 0 0.022791872962278168 0.033881542003053232 0 0.022717686422439796 0.033788902475660638 0 0.022668906164773087 0.033718925130640696 0 0.022638288649552907 0.033724366843911675 0 0.022553275221941307 0.033604451130852031 0 0.022668906164773087 0.033718925130640696 0 0.022717686422439796 0.033788902475660638 0 0.022638288649552907 0.033724366843911675 0 0.022638288649552907 0.033724366843911675 0 0.022709412673921611 0.033813076292395279 0 0.022658568885959005 0.033791743257057201 0 0.022717686422439796 0.033788902475660638 0 0.022638288649552907 0.033724366843911675 0 0.022709412673921611 0.033813076292395279 0 0.01727759282792448 0.033041742637984602 0 0.017770481469980105 0.034462496126492971 0 0.022709412673921611 0.033813076292395279 0 0.022688324372016049 0.033807484121918883 0 0.022658568885959005 0.033791743257057201 0 0.022688324372016049 0.033807484121918883 0 0.022928930436384949 0.033784545844692447 0 0.022742769613118975 0.033749923170260918 0 0.022688324372016049 0.033807484121918883 0 0.022813050315872278 0.033834911033210638 0 0.022928930436384949 0.033784545844692447 0 0.022709412673921611 0.033813076292395279 0 0.022688324372016049 0.033807484121918883 0 0.022813050315872278 0.033834911033210638 0 0.023007885561284587 0.03389295506402 0 0.022813050315872278 0.033834911033210638 0 0.022928930436384949 0.033784545844692447 0 0.022928930436384949 0.033784545844692447 0 0.023210914796280815 0.033819705674343635 0 0.023243029189521685 0.033703346879498733 0 0.023007885561284587 0.03389295506402 0 0.022928930436384949 0.033784545844692447 0 0.023210914796280815 0.033819705674343635 0 0.0082263679276513273 0.015118470812899257 0 0.007544385155593962 0.014814321676827827 0 0.0073076391853328457 0.016138085231507324 0 0.0082263679276513273 0.015118470812899257 0 0.0073076391853328457 0.016138085231507324 0 0.0080143320125496183 0.016349590683016151 0 0.0086256628342198018 0.01575035512722776 0 0.0082263679276513273 0.015118470812899257 0 0.0080143320125496183 0.016349590683016151 0 0.0086256628342198018 0.01575035512722776 0 0.009055622646713047 0.014741160502939964 0 0.0082263679276513273 0.015118470812899257 0 0.0087921554868138629 0.013788675567604438 0 0.009055622646713047 0.014741160502939964 0 0.0082263679276513273 0.015118470812899257 0 0.0081376176103390256 0.013644285429045401 0 0.0087921554868138629 0.013788675567604438 0 0.0082263679276513273 0.015118470812899257 0 0.0081376176103390256 0.013644285429045401 0 0.0082263679276513273 0.015118470812899257 0 0.007544385155593962 0.014814321676827827 0 0.007128430610728053 0.013511638774405647 0 0.007544385155593962 0.014814321676827827 0 0.0065871670264242219 0.014817668407765144 0 0.022315689509397742 0.033641196421023548 0 0.022553275221941307 0.033604451130852031 0 0.022433841156222652 0.033435715543601863 0 0.012602132813373267 0.019814791423056005 0 0.01590955551723915 0.026900848795056064 0 0.022088033224055437 0.034350121030113985 0 0.01590955551723915 0.026900848795056064 0 0.022638288649552907 0.033724366843911675 0 0.022553275221941307 0.033604451130852031 0 0.022609477103322152 0.033660922099266757 0 0.01590955551723915 0.026900848795056064 0 0.017770481469980105 0.034462496126492971 0 0.014355062242820736 0.029405478251096191 0 0.012895847488382293 0.032872214464887139 0 0.016614688608707018 0.032874780691890697 0 0.022638288649552907 0.033724366843911675 0 0.022609477103322152 0.033660922099266757 0 0.022658568885959005 0.033791743257057201 0 0.007544385155593962 0.014814321676827827 0 0.0065871670264242219 0.014817668407765144 0 0.0073076391853328457 0.016138085231507324 0 0.01590955551723915 0.026900848795056064 0 0.010501531222019534 0.020811012197635974 0 0.016614688608707018 0.032874780691890697 0 0.014065938264176911 0.035422801978507147 0 0.015918644213252207 0.037458731649806946 0 0.012895847488382293 0.032872214464887139 0 0.016614688608707018 0.032874780691890697 0 0.014065938264176911 0.035422801978507147 0 0.011518961978374981 0.036304865353291388 0 0.012895847488382293 0.032872214464887139 0 0.014065938264176911 0.035422801978507147 0 0.011518961978374981 0.036304865353291388 0 0.014065938264176911 0.035422801978507147 0 0.01302864799973895 0.038572481881093759 0 0.014065938264176911 0.035422801978507147 0 0.015918644213252207 0.037458731649806946 0 0.01302864799973895 0.038572481881093759 0 0.016745729348155151 0.048485250884366088 0 0.011953875364936471 0.041460782660467016 0 0.016614688608707018 0.032874780691890697 0 0.015918644213252207 0.037458731649806946 0 0.018837192778112778 0.036341790360731589 0 0.016250619121463201 0.05910581463722922 0 0.014030837501131056 0.059801883581823055 0 0.014675576280697416 0.057732066335615312 0 0.0073076391853328457 0.016138085231507324 0 0.007694788294610946 0.017412367585738733 0 0.0080143320125496183 0.016349590683016151 0 0.010501531222019534 0.020811012197635974 0 0.011953875364936471 0.041460782660467016 0 0.008625267768940412 0.016861620070341376 0 0.007694788294610946 0.017412367585738733 0 0.0080143320125496183 0.016349590683016151 0 0.008625267768940412 0.016861620070341376 0 0.0086256628342198018 0.01575035512722776 0 0.0080143320125496183 0.016349590683016151 0 0.009273368594367665 0.033269763655602663 0 0.011953875364936471 0.041460782660467016 0 0.010588079271693791 0.051091200242938048 0 0.010535671549543272 0.052079297434236234 0 0.0095793751945815863 0.051433596271355402 0 0.010535671549543272 0.052079297434236234 0 0.0095793751945815863 0.051433596271355402 0 0.0098335511833687519 0.052795030696340998 0 0.011953875364936471 0.041460782660467016 0 0.011870107308706926 0.057827879468866271 0 0.012359925297927196 0.057380041273817406 0 0.012241489683212573 0.054168389614663637 0 0.014344766223840028 0.054887630686329694 0 0.012359925297927196 0.057380041273817406 0 0.012241489683212573 0.054168389614663637 0 0.010679703995503135 0.054402505962685192 0 0.011870107308706926 0.057827879468866271 0 0.010246353221349586 0.053415727502218867 0 0.012359925297927196 0.057380041273817406 0 0.014675576280697416 0.057732066335615312 0 0.014344766223840028 0.054887630686329694 0 0.014030837501131056 0.059801883581823055 0 0.012359925297927196 0.057380041273817406 0 0.014675576280697416 0.057732066335615312 0 0.016250619121463201 0.05910581463722922 0 0.014675576280697416 0.057732066335615312 0 0.016610334265954561 0.056986930537028385 0 0.016745729348155151 0.048485250884366088 0 0.014844767918062064 0.048793991331404649 0 0.018477799582962098 0.058401920445512269 0 0.016610334265954561 0.056986930537028385 0 0.018815544255272341 0.056899382456124747 0 0.016250619121463201 0.05910581463722922 0 0.018477799582962098 0.058401920445512269 0 0.016610334265954561 0.056986930537028385 0 0.016610334265954561 0.056986930537028385 0 0.017084231268912724 0.054223725758807143 0 0.018815544255272341 0.056899382456124747 0 0.014675576280697416 0.057732066335615312 0 0.016610334265954561 0.056986930537028385 0 0.014344766223840028 0.054887630686329694 0 0.017084231268912724 0.054223725758807143 0 0.01542414456997252 0.052176586676606622 0 0.014344766223840028 0.054887630686329694 0 0.016610334265954561 0.056986930537028385 0 0.017084231268912724 0.054223725758807143 0 0.014344766223840028 0.054887630686329694 0 0.017556496491241493 0.05530734521696952 0 0.01870857904052553 0.056778131725164632 0 0.018062173205164206 0.056366017460284017 0 0.018815544255272341 0.056899382456124747 0 0.01951823056974342 0.05651099393714841 0 0.018062173205164206 0.056366017460284017 0 0.01969167213900885 0.05569362870161991 0 0.018254414486085408 0.055044501941165655 0 0.017556496491241493 0.05530734521696952 0 0.016095484088744106 0.053720482752882263 0 0.018062173205164206 0.056366017460284017 0 0.016748945112059644 0.055238852891923068 0 0.018254414486085408 0.055044501941165655 0 0.01542414456997252 0.052176586676606622 0 0.012830642695885032 0.052432687205007586 0 0.014344766223840028 0.054887630686329694 0 0.012830642695885032 0.052432687205007586 0 0.012241489683212573 0.054168389614663637 0 0.011226242547472636 0.05343656144959328 0 0.012830642695885032 0.052432687205007586 0 0.012241489683212573 0.054168389614663637 0 0.014344766223840028 0.054887630686329694 0 0.023441936517290349 0.033497416111656936 0 0.023243029189521685 0.033703346879498733 0 0.023026401769296857 0.03362184781688618 0 0.024598515510117869 0.04584556752706237 0 0.023893372832111532 0.04591867229440693 0 0.022928930436384949 0.033784545844692447 0 0.023243029189521685 0.033703346879498733 0 0.023026401769296857 0.03362184781688618 0 0.022928930436384949 0.033784545844692447 0 0.023026401769296857 0.03362184781688618 0 0.022742769613118975 0.033749923170260918 0 0.023893372832111532 0.04591867229440693 0 0.019174652208376955 0.047026349236676861 0 0.019984458078078502 0.057713085745534895 0 0.01951823056974342 0.05651099393714841 0 0.020590953825079299 0.056769399233274426 0 0.023427911665913008 0.058580356106810977 0 0.021475858996918919 0.059049821650984421 0 0.022079145014952322 0.057782868418941334 0 0.019174652208376955 0.047026349236676861 0 0.020995644192903937 0.059340051737525074 0 0.01727759282792448 0.033041742637984602 0 0.019174652208376955 0.047026349236676861 0 0.011518961978374981 0.036304865353291388 0 0.01302864799973895 0.038572481881093759 0 0.010186206623992781 0.039710378539600716 0 0.014844767918062064 0.048793991331404649 0 0.019174652208376955 0.047026349236676861 0 0.018477799582962098 0.058401920445512269 0 0.019984458078078502 0.057713085745534895 0 0.018815544255272341 0.056899382456124747 0 0.019984458078078502 0.057713085745534895 0 0.018815544255272341 0.056899382456124747 0 0.01951823056974342 0.05651099393714841 0 0.018062173205164206 0.056366017460284017 0 0.01951823056974342 0.05651099393714841 0 0.01969167213900885 0.05569362870161991 0 0.01969167213900885 0.05569362870161991 0 0.020590953825079299 0.056769399233274426 0 0.021626476620922857 0.055762118606714317 0 0.01969167213900885 0.05569362870161991 0 0.021626476620922857 0.055762118606714317 0 0.020960868539973379 0.054473099715533831 0 0.01951823056974342 0.05651099393714841 0 0.01969167213900885 0.05569362870161991 0 0.020590953825079299 0.056769399233274426 0 0.022079145014952322 0.057782868418941334 0 0.022646711876489766 0.056217506491893963 0 0.024113770599470907 0.057192344201893182 0 0.023427911665913008 0.058580356106810977 0 0.022079145014952322 0.057782868418941334 0 0.024113770599470907 0.057192344201893182 0 0.020995644192903937 0.059340051737525074 0 0.022312654077050225 0.055480501798886278 0 0.022646711876489766 0.056217506491893963 0 0.024223556929234412 0.055593064194998952 0 0.024113770599470907 0.057192344201893182 0 0.025846368513767887 0.058062871596119989 0 0.023427911665913008 0.058580356106810977 0 0.024113770599470907 0.057192344201893182 0 0.024944432429716709 0.054154755644147075 0 0.023074677552291593 0.054338333413655557 0 0.023779276949031605 0.051990431836195096 0 0.024944432429716709 0.054154755644147075 0 0.025697480707817685 0.052382383055090929 0 0.023779276949031605 0.051990431836195096 0 0.024944432429716709 0.054154755644147075 0 0.024223556929234412 0.055593064194998952 0 0.023074677552291593 0.054338333413655557 0 0.022312654077050225 0.055480501798886278 0 0.022938282694175978 0.054557550413842963 0 0.022646711876489766 0.056217506491893963 0 0.024223556929234412 0.055593064194998952 0 0.023074677552291593 0.054338333413655557 0 0.021626476620922857 0.055762118606714317 0 0.023074677552291593 0.054338333413655557 0 0.020960868539973379 0.054473099715533831 0 0.023074677552291593 0.054338333413655557 0 0.020960868539973379 0.054473099715533831 0 0.021383207029698679 0.052353647060740985 0 0.023074677552291593 0.054338333413655557 0 0.021383207029698679 0.052353647060740985 0 0.023779276949031605 0.051990431836195096 0 0.020960868539973379 0.054473099715533831 0 0.019208498775420017 0.053813219909787595 0 0.021383207029698679 0.052353647060740985 0 0.01969167213900885 0.05569362870161991 0 0.020960868539973379 0.054473099715533831 0 0.019208498775420017 0.053813219909787595 0 0.01969167213900885 0.05569362870161991 0 0.019208498775420017 0.053813219909787595 0 0.018254414486085408 0.055044501941165655 0 0.019208498775420017 0.053813219909787595 0 0.019173230406972046 0.051755773675432888 0 0.021383207029698679 0.052353647060740985 0 0.019173230406972046 0.051755773675432888 0 0.020319529535460734 0.04999986171401137 0 0.017569026580811265 0.049999895064116576 0 0.020319529535460734 0.04999986171401137 0 0.021383207029698679 0.052353647060740985 0 0.023069872781851512 0.049999802164214041 0 0.019173230406972046 0.051755773675432888 0 0.020319529535460734 0.04999986171401137 0 0.021383207029698679 0.052353647060740985 0 0.021383207029698679 0.052353647060740985 0 0.023069872781851512 0.049999802164214041 0 0.023779276949031605 0.051990431836195096 0 0.02582040421068791 0.049999842087710855 0 0.023069872781851512 0.049999802164214041 0 0.023779276949031605 0.051990431836195096 0 0.014606618892021942 0.051890037783303818 0 0.013115934633681273 0.051410051778239152 0 0.013115934633681273 0.051410051778239152 0 0.011676577395960657 0.051428948191588407 0 0.013949837421836387 0.050362852930547972 0 0.012658484184047915 0.048600599246540928 0 0.011705087079224817 0.05028557277177291 0 0.012830642695885032 0.052432687205007586 0 0.013949837421836387 0.050362852930547972 0 0.011705087079224817 0.05028557277177291 0 0.012830642695885032 0.052432687205007586 0 0.011705087079224817 0.05028557277177291 0 0.010748039434856554 0.05209718879594933 0 0.016095484088744106 0.053720482752882263 0 0.014606618892021942 0.051890037783303818 0 0.01542414456997252 0.052176586676606622 0 0.012830642695885032 0.052432687205007586 0 0.013949837421836387 0.050362852930547972 0 0.016748945112059644 0.055238852891923068 0 0.0173948373492183 0.05408756753872504 0 0.018254414486085408 0.055044501941165655 0 0.016748945112059644 0.055238852891923068 0 0.015306406900222797 0.053772649803323434 0 0.0173948373492183 0.05408756753872504 0 0.019208498775420017 0.053813219909787595 0 0.0173948373492183 0.05408756753872504 0 0.018254414486085408 0.055044501941165655 0 0.019208498775420017 0.053813219909787595 0 0.0173948373492183 0.05408756753872504 0 0.01737042647350303 0.052478015060294265 0 0.015306406900222797 0.053772649803323434 0 0.0173948373492183 0.05408756753872504 0 0.01737042647350303 0.052478015060294265 0 0.01737042647350303 0.052478015060294265 0 0.017569026580811265 0.049999895064116576 0 0.015605463676336641 0.051700582302707354 0 0.015306406900222797 0.053772649803323434 0 0.01737042647350303 0.052478015060294265 0 0.015605463676336641 0.051700582302707354 0 0.019173230406972046 0.051755773675432888 0 0.01737042647350303 0.052478015060294265 0 0.017569026580811265 0.049999895064116576 0 0.019208498775420017 0.053813219909787595 0 0.019173230406972046 0.051755773675432888 0 0.01737042647350303 0.052478015060294265 0 0.017569026580811265 0.049999895064116576 0 0.014819628496225862 0.049999846611797918 0 0.015605463676336641 0.051700582302707354 0 0.014819628496225862 0.049999846611797918 0 0.015605463676336641 0.051700582302707354 0 0.013988955368581238 0.052171740979538382 0 0.014818538602018516 0.050001404080477339 0 0.013115934633681273 0.051410051778239152 0 0.015306406900222797 0.053772649803323434 0 0.015605463676336641 0.051700582302707354 0 0.013988955368581238 0.052171740979538382 0 0.012392015356291426 0.051837501995956908 0 0.011466580245608218 0.051817640516670913 0 0.011594705655916542 0.052918624505318458 0 0.012392015356291426 0.051837501995956908 0 0.011966487199511591 0.051003482914794861 0 0.011466580245608218 0.051817640516670913 0 0.013115934633681273 0.051410051778239152 0 0.012328851290182912 0.051133107237471227 0 0.014818559780381976 0.049999995380265526 0 0.013426322080688518 0.052480833316403463 0 0.013253762626707787 0.04999999308098118 0 0.013426322080688518 0.052480833316403463 0 0.01256391665875768 0.051241737657300293 0 0.013253762626707787 0.04999999308098118 0 0.01256391665875768 0.051241737657300293 0 0.013253762626707787 0.04999999308098118 0 0.011688934644678866 0.049999996434050981 0 0.012328851290182912 0.051133107237471227 0 0.011689004050662912 0.050000295304336778 0 0.011966487199511591 0.051003482914794861 0 0.010873722014958091 0.051114472535535645 0 0.011687802504951748 0.050000063930719443 0 0.010873722014958091 0.051114472535535645 0 0.009579312581453581 0.04999978148548298 0 0.0094798954228825765 0.051160515808359522 0 0.010873722014958091 0.051114472535535645 0 0.011687802504951748 0.050000063930719443 0 0.009579312581453581 0.04999978148548298 0 0.010873722014958091 0.051114472535535645 0 0.01047936278829409 0.052119626140443957 0 0.0094798954228825765 0.051160515808359522 0 0.011966487199511591 0.051003482914794861 0 0.010873722014958091 0.051114472535535645 0 0.011466580245608218 0.051817640516670913 0 0.010873722014958091 0.051114472535535645 0 0.01047936278829409 0.052119626140443957 0 0.011466580245608218 0.051817640516670913 0 0.0074693396615756131 0.050000277317954034 0 0.0084702484906047874 0.052185408936754066 0 0.0074698259445635613 0.050000043378025445 0 0.0094798954228825765 0.051160515808359522 0 0.0087128783182853237 0.052211586408719486 0 0.009579312581453581 0.04999978148548298 0 0.0074698259445635613 0.050000043378025445 0 0.0094798954228825765 0.051160515808359522 0 0.01047936278829409 0.052119626140443957 0 0.0094798954228825765 0.051160515808359522 0 0.0087128783182853237 0.052211586408719486 0 0.0074688160573707927 0.04999977058657102 0 0.0082360003358265821 0.05219902424273324 0 0.0058830968963661853 0.051434900112316481 0 0.0082360003358265821 0.05219902424273324 0 0.0061482362383590405 0.052753601562167497 0 0.0058830968963661853 0.051434900112316481 0 0.0082360003358265821 0.05219902424273324 0 0.009291066016922216 0.054325193588542535 0 0.0073171566880218912 0.053839020042221034 0 0.0082360003358265821 0.05219902424273324 0 0.0073171566880218912 0.053839020042221034 0 0.0061482362383590405 0.052753601562167497 0 0.0084702484906047874 0.052185408936754066 0 0.0094768707949927176 0.053940079886042866 0 0.0087128783182853237 0.052211586408719486 0 0.0096051319405807325 0.053592011458981015 0 0.010267565172537069 0.053110124455250297 0 0.009291066016922216 0.054325193588542535 0 0.0073171566880218912 0.053839020042221034 0 0.0082700436665876283 0.054721254754559898 0 0.0073171566880218912 0.053839020042221034 0 0.0082700436665876283 0.054721254754559898 0 0.0065976441445325055 0.05485966636104584 0 0.01047936278829409 0.052119626140443957 0 0.011594705655916542 0.052918624505318458 0 0.010267565172537069 0.053110124455250297 0 0.01047936278829409 0.052119626140443957 0 0.011466580245608218 0.051817640516670913 0 0.011594705655916542 0.052918624505318458 0 0.01047936278829409 0.052119626140443957 0 0.0087128783182853237 0.052211586408719486 0 0.010267565172537069 0.053110124455250297 0 0.0096051319405807325 0.053592011458981015 0 0.010267565172537069 0.053110124455250297 0 0.010255872080181288 0.053812428052746809 0 0.010267565172537069 0.053110124455250297 0 0.010844821369412552 0.053709338733986783 0 0.010255872080181288 0.053812428052746809 0 0.011676577395960657 0.051428948191588407 0 0.01083258294259782 0.052917833181481001 0 0.011594705655916542 0.052918624505318458 0 0.010267565172537069 0.053110124455250297 0 0.010844821369412552 0.053709338733986783 0 0.01083258294259782 0.052917833181481001 0 0.010409112033467553 0.053801627876288435 0 0.010748039434856554 0.05209718879594933 0 0.011226242547472636 0.05343656144959328 0 0.010363904073581513 0.053965750731880459 0 0.012830642695885032 0.052432687205007586 0 0.010748039434856554 0.05209718879594933 0 0.011226242547472636 0.05343656144959328 0 0.011226242547472636 0.05343656144959328 0 0.010679703995503135 0.054402505962685192 0 0.010363904073581513 0.053965750731880459 0 0.012241489683212573 0.054168389614663637 0 0.011226242547472636 0.05343656144959328 0 0.010679703995503135 0.054402505962685192 0 0.010679703995503135 0.054402505962685192 0 0.010363904073581513 0.053965750731880459 0 0.010608457562316339 0.053951515701346493 0 0.010363904073581513 0.053965750731880459 0 0.010343072153461013 0.054312911598919357 0 0.010608457562316339 0.053951515701346493 0 0.010844821369412552 0.053709338733986783 0 0.010363904073581513 0.053965750731880459 0 0.010255872080181288 0.053812428052746809 0 0.010363904073581513 0.053965750731880459 0 0.010255872080181288 0.053812428052746809 0 0.010343072153461013 0.054312911598919357 0 0.0096051319405807325 0.053592011458981015 0 0.010255872080181288 0.053812428052746809 0 0.010343072153461013 0.054312911598919357 0 0.009291066016922216 0.054325193588542535 0 0.009938150519228665 0.054883566940540619 0 0.010343072153461013 0.054312911598919357 0 0.0094768707949927176 0.053940079886042866 0 0.010217828515198006 0.054348335148149796 0 0.009291066016922216 0.054325193588542535 0 0.0082700436665876283 0.054721254754559898 0 0.009938150519228665 0.054883566940540619 0 0.0082700436665876283 0.054721254754559898 0 0.009938150519228665 0.054883566940540619 0 0.0073518065434243045 0.055987974166291414 0 0.011788267611642129 0.054572815643945081 0 0.009938150519228665 0.054883566940540619 0 0.012645948737746986 0.054901640778795988 0 0.0096612690630730382 0.055056094121147342 0 0.01042258586956565 0.054734232475555603 0 0.011485456144417774 0.054958278856271907 0 0.01042258586956565 0.054734232475555603 0 0.011788267611642129 0.054572815643945081 0 0.010976750781426821 0.054181536853088318 0 0.009938150519228665 0.054883566940540619 0 0.010976750781426821 0.054181536853088318 0 0.009938150519228665 0.054883566940540619 0 0.010540817873196419 0.05414168598093301 0 0.010976750781426821 0.054181536853088318 0 0.010540817873196419 0.05414168598093301 0 0.011244754919666358 0.053732728509931604 0 0.010976750781426821 0.054181536853088318 0 0.011676168404325773 0.053933969623831984 0 0.011244754919666358 0.053732728509931604 0 0.011676168404325773 0.053933969623831984 0 0.012021632805010696 0.053418418067147116 0 0.012244016377872929 0.053911028566289279 0 0.011788267611642129 0.054572815643945081 0 0.011676168404325773 0.053933969623831984 0 0.012244016377872929 0.053911028566289279 0 0.011788267611642129 0.054572815643945081 0 0.010976750781426821 0.054181536853088318 0 0.011676168404325773 0.053933969623831984 0 0.009938150519228665 0.054883566940540619 0 0.010540817873196419 0.05414168598093301 0 0.010343072153461013 0.054312911598919357 0 0.010540817873196419 0.05414168598093301 0 0.010343072153461013 0.054312911598919357 0 0.010871791917556285 0.053599244179035312 0 0.010343072153461013 0.054312911598919357 0 0.010871791917556285 0.053599244179035312 0 0.010608457562316339 0.053951515701346493 0 0.010871791917556285 0.053599244179035312 0 0.011605736149855538 0.053022276479453519 0 0.011456469254173318 0.052459519345172338 0 0.010540817873196419 0.05414168598093301 0 0.010871791917556285 0.053599244179035312 0 0.011244754919666358 0.053732728509931604 0 0.012021632805010696 0.053418418067147116 0 0.011605736149855538 0.053022276479453519 0 0.012581553092027745 0.052800211465548523 0 0.011676168404325773 0.053933969623831984 0 0.012021632805010696 0.053418418067147116 0 0.011244754919666358 0.053732728509931604 0 0.012021632805010696 0.053418418067147116 0 0.011244754919666358 0.053732728509931604 0 0.011605736149855538 0.053022276479453519 0 0.010871791917556285 0.053599244179035312 0 0.011244754919666358 0.053732728509931604 0 0.011605736149855538 0.053022276479453519 0 0.012487815381227183 0.051926468505161742 0 0.011605736149855538 0.053022276479453519 0 0.012581553092027745 0.052800211465548523 0 0.012487815381227183 0.051926468505161742 0 0.011605736149855538 0.053022276479453519 0 0.011456469254173318 0.052459519345172338 0 0.010871791917556285 0.053599244179035312 0 0.011456469254173318 0.052459519345172338 0 0.010907246339739945 0.052970760497003423 0 0.010535671549543272 0.052079297434236234 0 0.011134258562569546 0.051799298846197113 0 0.010907246339739945 0.052970760497003423 0 0.011134258562569546 0.051799298846197113 0 0.011456469254173318 0.052459519345172338 0 0.010907246339739945 0.052970760497003423 0 0.010535671549543272 0.052079297434236234 0 0.0098335511833687519 0.052795030696340998 0 0.010557600844714205 0.053223022481358448 0 0.010535671549543272 0.052079297434236234 0 0.010907246339739945 0.052970760497003423 0 0.010557600844714205 0.053223022481358448 0 0.0098335511833687519 0.052795030696340998 0 0.010679703995503135 0.054402505962685192 0 0.010557600844714205 0.053223022481358448 0 0.010679703995503135 0.054402505962685192 0 0.010557600844714205 0.053223022481358448 0 0.010608457562316339 0.053951515701346493 0 0.010871791917556285 0.053599244179035312 0 0.010907246339739945 0.052970760497003423 0 0.010608457562316339 0.053951515701346493 0 0.010907246339739945 0.052970760497003423 0 0.010557600844714205 0.053223022481358448 0 0.010608457562316339 0.053951515701346493 0 0.00094657875423179031 0.048539331439687292 0 2.1215943311450371e-05 0.046221221508274686 0 -0.01247173098614047 0.042884670181767268 0 -0.011563145757641502 0.042054115271056576 0 -0.013105071631708981 0.041244239252200637 0 -0.01247173098614047 0.042884670181767268 0 -0.011563145757641502 0.042054115271056576 0 -0.010843954947327662 0.043432752335278366 0 -0.012237491117671685 0.039508542458221614 0 -0.011606299189830371 0.041893774175638929 0 -0.011563145757641502 0.042054115271056576 0 -0.010294563772525399 0.041350741341898263 0 -0.01098497324244334 0.040168022695686374 0 -0.012824604617273945 0.039039113108974545 0 -0.011563145757641502 0.042054115271056576 0 -0.01098497324244334 0.040168022695686374 0 -0.011684209509898597 0.039987032966212185 0 -0.011563145757641502 0.042054115271056576 0 -0.013105071631708981 0.041244239252200637 0 0.013454756371658886 0.052190526683092917 0 0.012581553092027745 0.052800211465548523 0 0.013093144586512527 0.053061738167982375 0 0.012487815381227183 0.051926468505161742 0 0.013454756371658886 0.052190526683092917 0 0.012581553092027745 0.052800211465548523 0 0.012021632805010696 0.053418418067147116 0 0.012581553092027745 0.052800211465548523 0 0.012653262220769009 0.053330161353334939 0 0.012581553092027745 0.052800211465548523 0 0.012653262220769009 0.053330161353334939 0 0.013093144586512527 0.053061738167982375 0 0.012021632805010696 0.053418418067147116 0 0.012653262220769009 0.053330161353334939 0 0.012244016377872929 0.053911028566289279 0 0.013610121864209762 0.053373106199735482 0 0.013093144586512527 0.053061738167982375 0 0.012920477937984983 0.053791085223361818 0 0.013610121864209762 0.053373106199735482 0 0.013454756371658886 0.052190526683092917 0 0.013093144586512527 0.053061738167982375 0 0.012653262220769009 0.053330161353334939 0 0.013093144586512527 0.053061738167982375 0 0.012920477937984983 0.053791085223361818 0 0.013610121864209762 0.053373106199735482 0 0.012920477937984983 0.053791085223361818 0 0.01316363882254329 0.054191369798889312 0 0.012920477937984983 0.053791085223361818 0 0.012160094760544986 0.054525378861311209 0 0.01316363882254329 0.054191369798889312 0 0.012920477937984983 0.053791085223361818 0 0.012244016377872929 0.053911028566289279 0 0.012160094760544986 0.054525378861311209 0 0.012653262220769009 0.053330161353334939 0 0.012920477937984983 0.053791085223361818 0 0.012244016377872929 0.053911028566289279 0 0.011788267611642129 0.054572815643945081 0 0.012244016377872929 0.053911028566289279 0 0.012160094760544986 0.054525378861311209 0 0.0073518065434243045 0.055987974166291414 0 0.0065976441445325055 0.05485966636104584 0 0.00503004742986437 0.055655978197387185 0 0.01042258586956565 0.054734232475555603 0 0.006139229364239677 0.053914282231848083 0 0.01042258586956565 0.054734232475555603 0 0.012006066590720354 0.054611780862333287 0 0.0082700436665876283 0.054721254754559898 0 0.0073518065434243045 0.055987974166291414 0 0.0065976441445325055 0.05485966636104584 0 0.011993014025409985 0.05437880743346752 0 0.0066477626555392234 0.053827286207023081 0 0.0076842274789992379 0.052322849961789604 0 0.006139229364239677 0.053914282231848083 0 0.0035251522847411401 0.05286687807409185 0 0.0066477626555392234 0.053827286207023081 0 0.0076842274789992379 0.052322849961789604 0 0.0033009206318664356 0.050250815123733535 0 0.012006066590720354 0.054611780862333287 0 -0.0012301165044673156 0.048032491400061515 0 0.0066477626555392234 0.053827286207023081 0 0.0011992785795299841 0.053266020776745006 0 0.0033009206318664356 0.050250815123733535 0 0.013610121864209762 0.053373106199735482 0 0.01316363882254329 0.054191369798889312 0 0.013703486018312639 0.054099988148759104 0 0.00094657875423179031 0.048539331439687292 0 -0.0012301165044673156 0.048032491400061515 0 -0.01247173098614047 0.042884670181767268 0 -0.010843954947327662 0.043432752335278366 0 -0.011640326035413319 0.044572465919433951 0 -0.010843954947327662 0.043432752335278366 0 -0.011640326035413319 0.044572465919433951 0 -0.010194971057964491 0.044609257250082593 0 -0.0072160244313467879 0.045243397642921117 0 -0.0076050276829552777 0.044523032826698783 0 -0.0079962242294598779 0.045101057235412717 0 -0.0012301165044673156 0.048032491400061515 0 -0.0022566766896115705 0.050370152191191404 0 -0.0012301165044673156 0.048032491400061515 0 -0.010782784218554959 0.044521253927895688 0 -0.0022566766896115705 0.050370152191191404 0 0.0035251522847411401 0.05286687807409185 0 0.0011992785795299841 0.053266020776745006 0 -0.0010754663056816494 0.048215228863561409 0 0.0033009206318664356 0.050250815123733535 0 0.00091599793216421181 0.054405920236877528 0 0.0028851785049257938 0.055117844348454993 0 0.0029091398326089929 0.053724477050449006 0 0.0028851785049257938 0.055117844348454993 0 0.0029091398326089929 0.053724477050449006 0 0.0050053527843852922 0.054037024397963138 0 0.0029091398326089929 0.053724477050449006 0 0.0018226987804075652 0.052746745865771306 0 0.0039763019339247299 0.052400046814835996 0 0.00091599793216421181 0.054405920236877528 0 0.0018226987804075652 0.052746745865771306 0 -0.0004155029085491928 0.052216925361622271 0 0.00091599793216421181 0.054405920236877528 0 0.0029091398326089929 0.053724477050449006 0 0.0018226987804075652 0.052746745865771306 0 0.0073171566880218912 0.053839020042221034 0 0.0065976441445325055 0.05485966636104584 0 0.0050053527843852922 0.054037024397963138 0 0.00503004742986437 0.055655978197387185 0 0.0028851785049257938 0.055117844348454993 0 0.0050053527843852922 0.054037024397963138 0 0.0065976441445325055 0.05485966636104584 0 0.00503004742986437 0.055655978197387185 0 0.0050053527843852922 0.054037024397963138 0 0.0029091398326089929 0.053724477050449006 0 0.0050053527843852922 0.054037024397963138 0 0.0039763019339247299 0.052400046814835996 0 0.0050053527843852922 0.054037024397963138 0 0.0061482362383590405 0.052753601562167497 0 0.0039763019339247299 0.052400046814835996 0 0.0073171566880218912 0.053839020042221034 0 0.0050053527843852922 0.054037024397963138 0 0.0061482362383590405 0.052753601562167497 0 0.0061482362383590405 0.052753601562167497 0 0.0058830968963661853 0.051434900112316481 0 0.0039763019339247299 0.052400046814835996 0 0.0058830968963661853 0.051434900112316481 0 0.0039763019339247299 0.052400046814835996 0 0.0039730075400352177 0.051013709411303634 0 0.0039730075400352177 0.051013709411303634 0 0.0051183007609069443 0.049999734185604661 0 0.0027667336480537742 0.049999770093524042 0 0.0058830968963661853 0.051434900112316481 0 0.0039730075400352177 0.051013709411303634 0 0.0051183007609069443 0.049999734185604661 0 0.0074688160573707927 0.04999977058657102 0 0.0058830968963661853 0.051434900112316481 0 0.0051183007609069443 0.049999734185604661 0 0.0018226987804075652 0.052746745865771306 0 0.0019279340672520844 0.051253200384411522 0 -0.0004155029085491928 0.052216925361622271 0 0.0039763019339247299 0.052400046814835996 0 0.0039730075400352177 0.051013709411303634 0 0.0019279340672520844 0.051253200384411522 0 0.0018226987804075652 0.052746745865771306 0 0.0039763019339247299 0.052400046814835996 0 0.0019279340672520844 0.051253200384411522 0 0.0039730075400352177 0.051013709411303634 0 0.0019279340672520844 0.051253200384411522 0 0.0027667336480537742 0.049999770093524042 0 0.0019279340672520844 0.051253200384411522 0 0.0027667336480537742 0.049999770093524042 0 0.00041545598787922738 0.049999752172715149 0 0.0019279340672520844 0.051253200384411522 0 0.00041545598787922738 0.049999752172715149 0 -0.0004155029085491928 0.052216925361622271 0 -0.00031249834980331286 0.05314011776039046 0 -0.0019367867333638595 0.049998697872272485 0 0.00041545598787922738 0.049999752172715149 0 -0.0004155029085491928 0.052216925361622271 0 -0.0019358012473581622 0.04999999077580107 0 -0.0011786497041294435 0.05235362885033739 0 -0.0029027924151100747 0.051740542558498956 0 -0.0024147326949460549 0.053463952354038537 0 -0.0011786497041294435 0.05235362885033739 0 -0.0029027924151100747 0.051740542558498956 0 -0.001936748894529649 0.050000012728857506 0 -0.0029027924151100747 0.051740542558498956 0 -0.001936748894529649 0.050000012728857506 0 -0.0045986074151266017 0.049999915212555382 0 -0.0029027924151100747 0.051740542558498956 0 -0.0045986074151266017 0.049999915212555382 0 -0.0048837593635433487 0.052529118839968095 0 -0.0045986074151266017 0.049999915212555382 0 -0.0059090767834269068 0.050980975138620023 0 -0.0048837593635433487 0.052529118839968095 0 -0.0045986074151266017 0.049999915212555382 0 -0.0059090767834269068 0.050980975138620023 0 -0.0072611489488417598 0.049999913870797837 0 -0.0059090767834269068 0.050980975138620023 0 -0.0048837593635433487 0.052529118839968095 0 -0.0075134042209101084 0.051411513132914595 0 -0.0069038207288837986 0.048234772162559676 0 -0.0078900540433963218 0.049423520985734146 0 -0.0029027924151100747 0.051740542558498956 0 -0.0048837593635433487 0.052529118839968095 0 -0.0024147326949460549 0.053463952354038537 0 -0.0088688857645981521 0.044355891345325561 0 -0.0087913400979314233 0.044449959510971963 0 -0.0084502359978956137 0.044290197128727962 0 -0.0069038207288837986 0.048234772162559676 0 -0.0058008100261489814 0.048720681750629893 0 -0.0088688857645981521 0.044355891345325561 0 -0.0089327251867250181 0.044446209991257174 0 -0.0087913400979314233 0.044449959510971963 0 -0.0088688857645981521 0.044355891345325561 0 -0.0089327251867250181 0.044446209991257174 0 -0.0089317198556522273 0.044433986608549317 0 -0.0089327251867250181 0.044446209991257174 0 -0.0089816699343798247 0.044439408286894945 0 -0.0089751103979694036 0.044478234429878659 0 -0.0089327251867250181 0.044446209991257174 0 -0.0087913400979314233 0.044449959510971963 0 -0.0089751103979694036 0.044478234429878659 0 -0.0087913400979314233 0.044449959510971963 0 -0.0082775850656985114 0.044635379797450928 0 -0.0084502359978956137 0.044290197128727962 0 -0.0087913400979314233 0.044449959510971963 0 -0.0082775850656985114 0.044635379797450928 0 -0.008583772207406002 0.044836504400618558 0 -0.0076050276829552777 0.044523032826698783 0 -0.0082775850656985114 0.044635379797450928 0 -0.0079962242294598779 0.045101057235412717 0 -0.0076050276829552777 0.044523032826698783 0 -0.0082775850656985114 0.044635379797450928 0 -0.0084502359978956137 0.044290197128727962 0 -0.00035338020298706182 0.054330923276971248 0 -0.0011786497041294435 0.05235362885033739 0 -0.0024147326949460549 0.053463952354038537 0 -0.0022566766896115705 0.050370152191191404 0 -0.0058008100261489814 0.048720681750629893 0 -0.0022566766896115705 0.050370152191191404 0 -0.00031249834980331286 0.05314011776039046 0 -0.012061151860989449 0.05177804412656118 0 -0.010434374001788232 0.051969396038722915 0 -0.011119919871769534 0.05288588597996418 0 -0.012061151860989449 0.05177804412656118 0 -0.011061857080110206 0.051019227772573054 0 -0.010434374001788232 0.051969396038722915 0 -0.012061151860989449 0.05177804412656118 0 -0.011119919871769534 0.05288588597996418 0 -0.012581210052991433 0.052917342878316433 0 -0.011061857080110206 0.051019227772573054 0 -0.010159019029785017 0.049999835792832431 0 -0.013056158956937717 0.049999793739047671 0 -0.012061151860989449 0.05177804412656118 0 -0.011061857080110206 0.051019227772573054 0 -0.013056158956937717 0.049999793739047671 0 -0.011061857080110206 0.051019227772573054 0 -0.010159019029785017 0.049999835792832431 0 -0.0096559094041100708 0.051307664999593709 0 -0.0096559094041100708 0.051307664999593709 0 -0.010434374001788232 0.051969396038722915 0 -0.009091787568539008 0.052175845272569424 0 -0.011061857080110206 0.051019227772573054 0 -0.0096559094041100708 0.051307664999593709 0 -0.010434374001788232 0.051969396038722915 0 -0.010434374001788232 0.051969396038722915 0 -0.0099133243395926485 0.052871474440527588 0 -0.011119919871769534 0.05288588597996418 0 -0.010434374001788232 0.051969396038722915 0 -0.009091787568539008 0.052175845272569424 0 -0.0099133243395926485 0.052871474440527588 0 -0.0078900540433963218 0.049423520985734146 0 -0.0087990616489558131 0.048819452039222153 0 -0.009091787568539008 0.052175845272569424 0 -0.007975895670409067 0.051288445475297303 0 -0.0086336709513072738 0.053239439421896101 0 -0.009091787568539008 0.052175845272569424 0 -0.0088236446786906543 0.05148480446866386 0 -0.007975895670409067 0.051288445475297303 0 -0.0096559094041100708 0.051307664999593709 0 -0.009091787568539008 0.052175845272569424 0 -0.0088236446786906543 0.05148480446866386 0 -0.0096559094041100708 0.051307664999593709 0 -0.0088236446786906543 0.05148480446866386 0 -0.0084661972965143703 0.051040676601373423 0 -0.010159019029785017 0.049999835792832431 0 -0.0096559094041100708 0.051307664999593709 0 -0.0084661972965143703 0.051040676601373423 0 -0.010159019029785017 0.049999835792832431 0 -0.0084661972965143703 0.051040676601373423 0 -0.0072617298873275419 0.049999853357481652 0 -0.0088236446786906543 0.05148480446866386 0 -0.0084661972965143703 0.051040676601373423 0 -0.007975895670409067 0.051288445475297303 0 -0.0078788387580423017 0.050293308147833428 0 -0.0078900540433963218 0.049423520985734146 0 -0.0059090767834269068 0.050980975138620023 0 -0.0075134042209101084 0.051411513132914595 0 -0.0072611489488417598 0.049999913870797837 0 -0.0084661972965143703 0.051040676601373423 0 -0.0076966901124666991 0.051405660889931475 0 -0.0072617298873275419 0.049999853357481652 0 -0.0078900540433963218 0.049423520985734146 0 -0.0072617517001257728 0.050001657684884453 0 -0.0089298368446514929 0.04446842623020586 0 -0.0089317198556522273 0.044433986608549317 0 -0.0089533850693213207 0.044463246763780377 0 -0.0088688857645981521 0.044355891345325561 0 -0.0089298368446514929 0.04446842623020586 0 -0.0089317198556522273 0.044433986608549317 0 -0.0089317198556522273 0.044433986608549317 0 -0.008953282354683267 0.044456346594947002 0 -0.0089533850693213207 0.044463246763780377 0 -0.0089327251867250181 0.044446209991257174 0 -0.0089317198556522273 0.044433986608549317 0 -0.008953282354683267 0.044456346594947002 0 -0.0089621204278436256 0.044462132739097292 0 -0.008953282354683267 0.044456346594947002 0 -0.0089533850693213207 0.044463246763780377 0 -0.0089327251867250181 0.044446209991257174 0 -0.0089816699343798247 0.044439408286894945 0 -0.008953282354683267 0.044456346594947002 0 -0.0089816699343798247 0.044439408286894945 0 -0.0089621204278436256 0.044462132739097292 0 -0.0089693297350345886 0.044478711462005036 0 -0.0089816699343798247 0.044439408286894945 0 -0.0089621204278436256 0.044462132739097292 0 -0.008953282354683267 0.044456346594947002 0 -0.0087990616489558131 0.048819452039222153 0 -0.0094536545045683495 0.048154560482301337 0 -0.0094296828567807106 0.053693097631728338 0 -0.0086336709513072738 0.053239439421896101 0 -0.009106691893098668 0.05475669957396756 0 -0.0089621204278436256 0.044462132739097292 0 -0.0089533850693213207 0.044463246763780377 0 -0.0089693297350345886 0.044478711462005036 0 -0.0094296828567807106 0.053693097631728338 0 -0.0092634952106560378 0.053004352160879321 0 -0.0099133243395926485 0.052871474440527588 0 -0.0094296828567807106 0.053693097631728338 0 -0.0086336709513072738 0.053239439421896101 0 -0.0092634952106560378 0.053004352160879321 0 -0.009091787568539008 0.052175845272569424 0 -0.0086336709513072738 0.053239439421896101 0 -0.0092634952106560378 0.053004352160879321 0 -0.009091787568539008 0.052175845272569424 0 -0.0092634952106560378 0.053004352160879321 0 -0.0099133243395926485 0.052871474440527588 0 -0.0099133243395926485 0.052871474440527588 0 -0.010726891530790641 0.053596770215463253 0 -0.011119919871769534 0.05288588597996418 0 -0.0094296828567807106 0.053693097631728338 0 -0.0099133243395926485 0.052871474440527588 0 -0.010726891530790641 0.053596770215463253 0 -0.0094296828567807106 0.053693097631728338 0 -0.011096171422001032 0.054296097678407748 0 -0.011200393389097682 0.055617244672489213 0 -0.0094296828567807106 0.053693097631728338 0 -0.010726891530790641 0.053596770215463253 0 -0.011096171422001032 0.054296097678407748 0 -0.0094296828567807106 0.053693097631728338 0 -0.010489725990705313 0.054921303189338258 0 -0.009106691893098668 0.05475669957396756 0 -0.0095132379643761214 0.054649581027476128 0 -0.011454581394945283 0.052656364838075807 0 -0.011096171422001032 0.054296097678407748 0 -0.012328192958458337 0.054762849732245079 0 -0.011778021524933008 0.053806329284756885 0 -0.010726891530790641 0.053596770215463253 0 -0.011096171422001032 0.054296097678407748 0 -0.011778021524933008 0.053806329284756885 0 -0.011096171422001032 0.054296097678407748 0 -0.012328192958458337 0.054762849732245079 0 -0.011200393389097682 0.055617244672489213 0 -0.012328192958458337 0.054762849732245079 0 -0.011778021524933008 0.053806329284756885 0 -0.013075438177292885 0.053895561084890069 0 -0.011778021524933008 0.053806329284756885 0 -0.012581210052991433 0.052917342878316433 0 -0.013075438177292885 0.053895561084890069 0 -0.010726891530790641 0.053596770215463253 0 -0.011778021524933008 0.053806329284756885 0 -0.011119919871769534 0.05288588597996418 0 -0.011778021524933008 0.053806329284756885 0 -0.011119919871769534 0.05288588597996418 0 -0.012581210052991433 0.052917342878316433 0 -0.0098605891434201901 0.045291690075091921 0 -0.0098911150649615403 0.044802481663444638 0 -0.010025461006387182 0.045467553405026319 0 -0.0098605891434201901 0.045291690075091921 0 -0.0099531646655408122 0.045528533387468616 0 -0.010025461006387182 0.045467553405026319 0 -0.011454581394945283 0.052656364838075807 0 -0.011902881480488226 0.047777839331751872 0 -0.011454581394945283 0.052656364838075807 0 -0.014449377338325632 0.055531506596146966 0 -0.015068345549513938 0.054083648073815334 0 -0.016412996495956251 0.055529118152511048 0 -0.013653133825243722 0.050992472926071689 0 -0.012328192958458337 0.054762849732245079 0 -0.011200393389097682 0.055617244672489213 0 -0.013208485074046549 0.055716284966409575 0 -0.015068345549513938 0.054083648073815334 0 -0.016412996495956251 0.055529118152511048 0 -0.014527691499072088 0.05471308930824946 0 -0.0098911150649615403 0.044802481663444638 0 -0.0096702321877054753 0.045060107187670576 0 -0.0091395314181075063 0.044562978102389877 0 -0.0098605891434201901 0.045291690075091921 0 -0.0098911150649615403 0.044802481663444638 0 -0.0096702321877054753 0.045060107187670576 0 -0.0098911150649615403 0.044802481663444638 0 -0.0091395314181075063 0.044562978102389877 0 -0.008995019653318951 0.044429830230999237 0 -0.011454581394945283 0.052656364838075807 0 -0.0094536545045683495 0.048154560482301337 0 -0.0098605891434201901 0.045291690075091921 0 -0.0097339783492742978 0.045503410154799515 0 -0.0099531646655408122 0.045528533387468616 0 -0.0096702321877054753 0.045060107187670576 0 -0.0097339783492742978 0.045503410154799515 0 -0.0091395314181075063 0.044562978102389877 0 -0.0098605891434201901 0.045291690075091921 0 -0.0096702321877054753 0.045060107187670576 0 -0.0097339783492742978 0.045503410154799515 0 -0.0088867287683858966 0.044101137759247559 0 -0.0090418900605896656 0.044236818417668834 0 -0.0091395314181075063 0.044562978102389877 0 -0.0093252929417009158 0.044769612029404736 0 -0.0091509296585634749 0.044552056981406588 0 -0.0090418900605896656 0.044236818417668834 0 -0.0091395314181075063 0.044562978102389877 0 -0.0090051373959078862 0.04441582441637134 0 -0.0091395314181075063 0.044562978102389877 0 -0.0090051373959078862 0.04441582441637134 0 -0.008995019653318951 0.044429830230999237 0 -0.0089816699343798247 0.044439408286894945 0 -0.0090051373959078862 0.04441582441637134 0 -0.008995019653318951 0.044429830230999237 0 -0.0090418900605896656 0.044236818417668834 0 -0.0090051373959078862 0.04441582441637134 0 -0.00900060582005229 0.044356978504842437 0 -0.0089816699343798247 0.044439408286894945 0 -0.0090051373959078862 0.04441582441637134 0 -0.00900060582005229 0.044356978504842437 0 -0.0086519800563232222 0.044672227117805642 0 -0.0094536545045683495 0.048154560482301337 0 -0.0090418900605896656 0.044236818417668834 0 -0.00900060582005229 0.044356978504842437 0 -0.0090701419258709167 0.04409471173918058 0 -0.0090418900605896656 0.044236818417668834 0 -0.0091150990406740594 0.043882617797595558 0 -0.0090701419258709167 0.04409471173918058 0 -0.0090418900605896656 0.044236818417668834 0 -0.0091150990406740594 0.043882617797595558 0 -0.009096873530582009 0.043825472171989191 0 -0.0091150990406740594 0.043882617797595558 0 -0.0091426323705993875 0.043735064578114193 0 -0.0091185823735862887 0.043712256863432906 0 -0.0091150990406740594 0.043882617797595558 0 -0.009096873530582009 0.043825472171989191 0 -0.0091185823735862887 0.043712256863432906 0 -0.0091464302270611378 0.043609568606018854 0 -0.0091839437465770328 0.043445402455164997 0 -0.0091185823735862887 0.043712256863432906 0 -0.009243876249520366 0.043462553814589751 0 -0.010381074762319493 0.043148109874310593 0 -0.0091464302270611378 0.043609568606018854 0 -0.009096873530582009 0.043825472171989191 0 -0.0091185823735862887 0.043712256863432906 0 -0.0091464302270611378 0.043609568606018854 0 -0.009096873530582009 0.043825472171989191 0 -0.0088983043972899883 0.043635825479486183 0 -0.0088867287683858966 0.044101137759247559 0 -0.0090418900605896656 0.044236818417668834 0 -0.009096873530582009 0.043825472171989191 0 -0.0093252929417009158 0.044769612029404736 0 -0.0096706562415516447 0.044383232753422944 0 -0.0088867287683858966 0.044101137759247559 0 -0.009096873530582009 0.043825472171989191 0 -0.0088983043972899883 0.043635825479486183 0 -0.0097339783492742978 0.045503410154799515 0 -0.010051302242071562 0.045454967874398802 0 -0.0099531646655408122 0.045528533387468616 0 -0.0097339783492742978 0.045503410154799515 0 -0.010440193313870725 0.045314365338539594 0 -0.010051302242071562 0.045454967874398802 0 -0.0091464302270611378 0.043609568606018854 0 -0.0091839437465770328 0.043445402455164997 0 -0.0088983043972899883 0.043635825479486183 0 -0.0091839437465770328 0.043445402455164997 0 -0.0088983043972899883 0.043635825479486183 0 -0.0093514800272821112 0.042107834990167341 0 -0.010440193313870725 0.045314365338539594 0 -0.010117206520916033 0.045290248274533616 0 -0.010112254931485102 0.044957687447458122 0 -0.010440193313870725 0.045314365338539594 0 -0.010112254931485102 0.044957687447458122 0 -0.010238870562622552 0.04432200533422654 0 -0.010440193313870725 0.045314365338539594 0 -0.010117206520916033 0.045290248274533616 0 -0.010051302242071562 0.045454967874398802 0 -0.010117206520916033 0.045290248274533616 0 -0.0099428064543611878 0.045078484610010211 0 -0.0098759848083083794 0.045400307837591206 0 -0.010117206520916033 0.045290248274533616 0 -0.0098759848083083794 0.045400307837591206 0 -0.010051302242071562 0.045454967874398802 0 -0.010117206520916033 0.045290248274533616 0 -0.0099428064543611878 0.045078484610010211 0 -0.010112254931485102 0.044957687447458122 0 -0.0099428064543611878 0.045078484610010211 0 -0.010112254931485102 0.044957687447458122 0 -0.0098318376706269545 0.044635717294278475 0 -0.0099428064543611878 0.045078484610010211 0 -0.0096956800340861748 0.044929122499926324 0 -0.0098759848083083794 0.045400307837591206 0 -0.0099428064543611878 0.045078484610010211 0 -0.0096956800340861748 0.044929122499926324 0 -0.0098318376706269545 0.044635717294278475 0 -0.0098759848083083794 0.045400307837591206 0 -0.0099531646655408122 0.045528533387468616 0 -0.0098315421544494085 0.045595737143515343 0 -0.0098759848083083794 0.045400307837591206 0 -0.010051302242071562 0.045454967874398802 0 -0.0099531646655408122 0.045528533387468616 0 -0.0099531646655408122 0.045528533387468616 0 -0.0098315421544494085 0.045595737143515343 0 -0.010025461006387182 0.045467553405026319 0 -0.0092649395813217648 0.043674983557191661 0 -0.0092579795040877363 0.044453238004159179 0 -0.0091173575526577229 0.04402325130677099 0 -0.010843954947327662 0.043432752335278366 0 -0.0092649395813217648 0.043674983557191661 0 -0.010194971057964491 0.044609257250082593 0 -0.0082775850656985114 0.044635379797450928 0 -0.0079962242294598779 0.045101057235412717 0 -0.008583772207406002 0.044836504400618558 0 -0.010782784218554959 0.044521253927895688 0 -0.0085708415831846508 0.044695903274196119 0 -0.0092649395813217648 0.043674983557191661 0 -0.010194971057964491 0.044609257250082593 0 -0.0092579795040877363 0.044453238004159179 0 -0.0092579795040877363 0.044453238004159179 0 -0.0089751103979694036 0.044478234429878659 0 -0.0091173575526577229 0.04402325130677099 0 -0.0087913400979314233 0.044449959510971963 0 -0.008583772207406002 0.044836504400618558 0 -0.0089751103979694036 0.044478234429878659 0 -0.0085708415831846508 0.044695903274196119 0 -0.0090837568466929659 0.044505330745228305 0 -0.0089816699343798247 0.044439408286894945 0 -0.00900060582005229 0.044356978504842437 0 -0.0089751103979694036 0.044478234429878659 0 -0.00900060582005229 0.044356978504842437 0 -0.0089751103979694036 0.044478234429878659 0 -0.0090701419258709167 0.04409471173918058 0 -0.0089751103979694036 0.044478234429878659 0 -0.0090701419258709167 0.04409471173918058 0 -0.0091173575526577229 0.04402325130677099 0 -0.0092649395813217648 0.043674983557191661 0 -0.0091173575526577229 0.04402325130677099 0 -0.0091592608570970624 0.043848980321886791 0 -0.0093790433000846517 0.043705662293376732 0 -0.0075695626349922464 0.042684334020897226 0 -0.0090701419258709167 0.04409471173918058 0 -0.0091173575526577229 0.04402325130677099 0 -0.0091592608570970624 0.043848980321886791 0 -0.0091150990406740594 0.043882617797595558 0 -0.0090701419258709167 0.04409471173918058 0 -0.0091592608570970624 0.043848980321886791 0 -0.0075695626349922464 0.042684334020897226 0 -0.0095609988506104148 0.041340520469651844 0 -0.00689116558307194 0.041620344032448117 0 -0.0074678149970876856 0.040307768078347468 0 -0.0049170467618979436 0.039702378044326629 0 -0.0091150990406740594 0.043882617797595558 0 -0.0091592608570970624 0.043848980321886791 0 -0.0091426323705993875 0.043735064578114193 0 -0.00689116558307194 0.041620344032448117 0 -0.0074678149970876856 0.040307768078347468 0 -0.0091078476819571423 0.041542482620735136 0 -0.0074678149970876856 0.040307768078347468 0 -0.0087971170211481233 0.040372876540858665 0 -0.0091078476819571423 0.041542482620735136 0 -0.0087971170211481233 0.040372876540858665 0 -0.0091078476819571423 0.041542482620735136 0 -0.0097624799123618919 0.040155814299132189 0 -0.0092649395813217648 0.043674983557191661 0 -0.0091078476819571423 0.041542482620735136 0 -0.010047519033321985 0.042639655668443015 0 -0.0092649395813217648 0.043674983557191661 0 -0.00689116558307194 0.041620344032448117 0 -0.0091078476819571423 0.041542482620735136 0 -0.011563145757641502 0.042054115271056576 0 -0.010843954947327662 0.043432752335278366 0 -0.010047519033321985 0.042639655668443015 0 -0.011563145757641502 0.042054115271056576 0 -0.010047519033321985 0.042639655668443015 0 -0.010294563772525399 0.041350741341898263 0 -0.010843954947327662 0.043432752335278366 0 -0.0092649395813217648 0.043674983557191661 0 -0.010047519033321985 0.042639655668443015 0 -0.0091078476819571423 0.041542482620735136 0 -0.010047519033321985 0.042639655668443015 0 -0.010294563772525399 0.041350741341898263 0 -0.0091078476819571423 0.041542482620735136 0 -0.010294563772525399 0.041350741341898263 0 -0.0097624799123618919 0.040155814299132189 0 -0.010294563772525399 0.041350741341898263 0 -0.01098497324244334 0.040168022695686374 0 -0.0097624799123618919 0.040155814299132189 0 -0.01098497324244334 0.040168022695686374 0 -0.0097624799123618919 0.040155814299132189 0 -0.010265324588650884 0.039096728865571292 0 -0.010265324588650884 0.039096728865571292 0 -0.010556583451224233 0.038174824079512545 0 -0.0099575174846771534 0.038453983260762027 0 -0.010265324588650884 0.039096728865571292 0 -0.009486656620604746 0.039018819440664244 0 -0.0099575174846771534 0.038453983260762027 0 -0.0097624799123618919 0.040155814299132189 0 -0.010265324588650884 0.039096728865571292 0 -0.009486656620604746 0.039018819440664244 0 -0.009486656620604746 0.039018819440664244 0 -0.0095308239731133962 0.038519275990380117 0 -0.0099575174846771534 0.038453983260762027 0 -0.011160956570819558 0.038889573190478255 0 -0.01098497324244334 0.040168022695686374 0 -0.010265324588650884 0.039096728865571292 0 -0.011160956570819558 0.038889573190478255 0 -0.010265324588650884 0.039096728865571292 0 -0.010556583451224233 0.038174824079512545 0 -0.0087971170211481233 0.040372876540858665 0 -0.008262900586974006 0.039707674866889815 0 -0.0090231556162677744 0.039631318078938944 0 -0.0074678149970876856 0.040307768078347468 0 -0.0087971170211481233 0.040372876540858665 0 -0.008262900586974006 0.039707674866889815 0 -0.0087971170211481233 0.040372876540858665 0 -0.0097624799123618919 0.040155814299132189 0 -0.0090231556162677744 0.039631318078938944 0 -0.0097624799123618919 0.040155814299132189 0 -0.0090231556162677744 0.039631318078938944 0 -0.009486656620604746 0.039018819440664244 0 -0.009486656620604746 0.039018819440664244 0 -0.0091862724068230515 0.03870213187330554 0 -0.0095308239731133962 0.038519275990380117 0 -0.009486656620604746 0.039018819440664244 0 -0.0091862724068230515 0.03870213187330554 0 -0.0088101941113930722 0.038882649048067909 0 -0.0091862724068230515 0.03870213187330554 0 -0.0088101941113930722 0.038882649048067909 0 -0.0091191598444190208 0.038500954484321517 0 -0.0090231556162677744 0.039631318078938944 0 -0.009486656620604746 0.039018819440664244 0 -0.0088101941113930722 0.038882649048067909 0 -0.008262900586974006 0.039707674866889815 0 -0.0090231556162677744 0.039631318078938944 0 -0.0088101941113930722 0.038882649048067909 0 -0.0095268949325919474 0.037667350664598254 0 -0.0097847153506123597 0.036770495543688095 0 -0.0085321326744004344 0.036171982019532138 0 -0.010738026935399885 0.038541489911256471 0 -0.011002645355869532 0.037659743885117579 0 -0.0088101941113930722 0.038882649048067909 0 -0.0091678204621522853 0.03816732470839098 0 -0.0070269251745193528 0.039016224370288052 0 -0.0088101941113930722 0.038882649048067909 0 -0.0091678204621522853 0.03816732470839098 0 -0.0091191598444190208 0.038500954484321517 0 -0.0091678204621522853 0.03816732470839098 0 -0.0091191598444190208 0.038500954484321517 0 -0.0093135440408258063 0.038244798815723541 0 -0.0090863448412393088 0.038077588796584821 0 -0.0093135440408258063 0.038244798815723541 0 -0.009583955848177941 0.03820794362988051 0 -0.0091862724068230515 0.03870213187330554 0 -0.0093135440408258063 0.038244798815723541 0 -0.0095308239731133962 0.038519275990380117 0 -0.0091862724068230515 0.03870213187330554 0 -0.0091191598444190208 0.038500954484321517 0 -0.0093135440408258063 0.038244798815723541 0 -0.0093135440408258063 0.038244798815723541 0 -0.0095308239731133962 0.038519275990380117 0 -0.009583955848177941 0.03820794362988051 0 -0.0090863448412393088 0.038077588796584821 0 -0.009583955848177941 0.03820794362988051 0 -0.009975683188067911 0.037683493344412893 0 -0.010738026935399885 0.038541489911256471 0 -0.010067494201321924 0.038324928095463957 0 -0.010738026935399885 0.038541489911256471 0 -0.010539204710369546 0.03842529664574712 0 -0.0095268949325919474 0.037667350664598254 0 -0.009975683188067911 0.037683493344412893 0 -0.0097847153506123597 0.036770495543688095 0 -0.011160956570819558 0.038889573190478255 0 -0.011347798879110726 0.037682727274707298 0 -0.010556583451224233 0.038174824079512545 0 -0.011347798879110726 0.037682727274707298 0 -0.010556583451224233 0.038174824079512545 0 -0.010502804445729635 0.037289873762812634 0 -0.010556583451224233 0.038174824079512545 0 -0.0099575174846771534 0.038453983260762027 0 -0.009975683188067911 0.037683493344412893 0 -0.010556583451224233 0.038174824079512545 0 -0.009975683188067911 0.037683493344412893 0 -0.010502804445729635 0.037289873762812634 0 -0.0095308239731133962 0.038519275990380117 0 -0.009583955848177941 0.03820794362988051 0 -0.0099575174846771534 0.038453983260762027 0 -0.009583955848177941 0.03820794362988051 0 -0.0099575174846771534 0.038453983260762027 0 -0.009975683188067911 0.037683493344412893 0 -0.009975683188067911 0.037683493344412893 0 -0.010502804445729635 0.037289873762812634 0 -0.0097847153506123597 0.036770495543688095 0 -0.011347798879110726 0.037682727274707298 0 -0.010502804445729635 0.037289873762812634 0 -0.010890223274659641 0.03626612237483999 0 -0.010890223274659641 0.03626612237483999 0 -0.0096222975429891555 0.035646682949568784 0 -0.010808061276604414 0.034870475799935428 0 -0.010890223274659641 0.03626612237483999 0 -0.0097847153506123597 0.036770495543688095 0 -0.0096222975429891555 0.035646682949568784 0 -0.010502804445729635 0.037289873762812634 0 -0.010890223274659641 0.03626612237483999 0 -0.0097847153506123597 0.036770495543688095 0 -0.0096222975429891555 0.035646682949568784 0 -0.0087504375537356387 0.034959217139759177 0 -0.0085321326744004344 0.036171982019532138 0 -0.0097847153506123597 0.036770495543688095 0 -0.0096222975429891555 0.035646682949568784 0 -0.0085321326744004344 0.036171982019532138 0 -0.0096222975429891555 0.035646682949568784 0 -0.0096254442636233596 0.03451811909813856 0 -0.0087504375537356387 0.034959217139759177 0 -0.0096222975429891555 0.035646682949568784 0 -0.0096254442636233596 0.03451811909813856 0 -0.010808061276604414 0.034870475799935428 0 -0.0082199821486323259 0.035025463709703809 0 -0.0087504375537356387 0.034959217139759177 0 -0.0083298584844727509 0.034691547710486409 0 -0.0082199821486323259 0.035025463709703809 0 -0.0088567802181146512 0.034783144005085156 0 -0.0083298584844727509 0.034691547710486409 0 -0.0082199821486323259 0.035025463709703809 0 -0.0087504375537356387 0.034959217139759177 0 -0.0085321326744004344 0.036171982019532138 0 -0.010239075125085258 0.036607964221870272 0 -0.011002645355869532 0.037659743885117579 0 -0.012243290329118297 0.038174907954513553 0 -0.013064362810623573 0.038966798841247569 0 -0.011987305050468409 0.039362167010302103 0 -0.013865808359439709 0.039633525927821281 0 -0.013064362810623573 0.038966798841247569 0 -0.012795782988383563 0.040010532521002257 0 -0.013064362810623573 0.038966798841247569 0 -0.011987305050468409 0.039362167010302103 0 -0.012795782988383563 0.040010532521002257 0 -0.010738026935399885 0.038541489911256471 0 -0.009839904304258424 0.039425653301939756 0 -0.008262900586974006 0.039707674866889815 0 -0.0088101941113930722 0.038882649048067909 0 -0.0070269251745193528 0.039016224370288052 0 -0.0074678149970876856 0.040307768078347468 0 -0.008262900586974006 0.039707674866889815 0 -0.0070269251745193528 0.039016224370288052 0 -0.011987305050468409 0.039362167010302103 0 -0.012795782988383563 0.040010532521002257 0 -0.011622516208266072 0.040443077577621778 0 -0.0074678149970876856 0.040307768078347468 0 -0.0070269251745193528 0.039016224370288052 0 -0.0049170467618979436 0.039702378044326629 0 -0.009839904304258424 0.039425653301939756 0 -0.0095609988506104148 0.041340520469651844 0 -0.013244993721867073 0.04214524687357802 0 -0.011383123582923798 0.042741815496553336 0 -0.01168787388215748 0.040684786659504542 0 -0.0095609988506104148 0.041340520469651844 0 -0.010381074762319493 0.043148109874310593 0 -0.0095609988506104148 0.041340520469651844 0 -0.011570783127279759 0.040496402134798541 0 -0.0091839437465770328 0.043445402455164997 0 -0.011383123582923798 0.042741815496553336 0 -0.010269322467658238 0.042127922748698428 0 -0.011383123582923798 0.042741815496553336 0 -0.010269322467658238 0.042127922748698428 0 -0.01168787388215748 0.040684786659504542 0 -0.010269322467658238 0.042127922748698428 0 -0.01168787388215748 0.040684786659504542 0 -0.0099304065976175086 0.040986034923570697 0 -0.010919417239896695 0.039859148330014901 0 -0.010147387871375098 0.039313189530005462 0 -0.010983966227754148 0.038548366142323924 0 -0.01168787388215748 0.040684786659504542 0 -0.010147387871375098 0.039313189530005462 0 -0.0099304065976175086 0.040986034923570697 0 -0.011570783127279759 0.040496402134798541 0 -0.010183456057799189 0.039313474869893249 0 -0.011987305050468409 0.039362167010302103 0 -0.010919417239896695 0.039859148330014901 0 -0.010983966227754148 0.038548366142323924 0 -0.011987305050468409 0.039362167010302103 0 -0.011622516208266072 0.040443077577621778 0 -0.010919417239896695 0.039859148330014901 0 -0.0097402990842184126 0.043788312116127423 0 -0.009381166723719964 0.044492852649418636 0 -0.0098318376706269545 0.044635717294278475 0 -0.0097402990842184126 0.043788312116127423 0 -0.009381166723719964 0.044492852649418636 0 -0.0081228217005259208 0.04325373879827258 0 -0.0096956800340861748 0.044929122499926324 0 -0.009381166723719964 0.044492852649418636 0 -0.0098318376706269545 0.044635717294278475 0 -0.0097402990842184126 0.043788312116127423 0 -0.0098318376706269545 0.044635717294278475 0 -0.010238870562622552 0.04432200533422654 0 -0.010112254931485102 0.044957687447458122 0 -0.0098318376706269545 0.044635717294278475 0 -0.010238870562622552 0.04432200533422654 0 -0.0097402990842184126 0.043788312116127423 0 -0.010238870562622552 0.04432200533422654 0 -0.010767284112590576 0.042827654613854425 0 -0.0096706562415516447 0.044383232753422944 0 -0.00960353672614799 0.041573560685174475 0 -0.010440193313870725 0.045314365338539594 0 -0.010238870562622552 0.04432200533422654 0 -0.010767284112590576 0.042827654613854425 0 -0.0088983043972899883 0.043635825479486183 0 -0.0093514800272821112 0.042107834990167341 0 -0.0085455959460853364 0.040326421999188101 0 -0.0091839437465770328 0.043445402455164997 0 -0.010269322467658238 0.042127922748698428 0 -0.0093514800272821112 0.042107834990167341 0 -0.010269322467658238 0.042127922748698428 0 -0.0093514800272821112 0.042107834990167341 0 -0.0099304065976175086 0.040986034923570697 0 -0.0093514800272821112 0.042107834990167341 0 -0.0099304065976175086 0.040986034923570697 0 -0.0085455959460853364 0.040326421999188101 0 -0.010147387871375098 0.039313189530005462 0 -0.0085455959460853364 0.040326421999188101 0 -0.0093145966217293708 0.038978713244358448 0 -0.010147387871375098 0.039313189530005462 0 -0.0099304065976175086 0.040986034923570697 0 -0.0085455959460853364 0.040326421999188101 0 -0.0097402990842184126 0.043788312116127423 0 -0.010767284112590576 0.042827654613854425 0 -0.0094810297504705297 0.04266424839520102 0 -0.010767284112590576 0.042827654613854425 0 -0.0091519886222519303 0.040462885589912588 0 -0.0092555696173368344 0.040749940798203141 0 -0.010767284112590576 0.042827654613854425 0 -0.0094810297504705297 0.04266424839520102 0 -0.0092555696173368344 0.040749940798203141 0 -0.0088485214484425208 0.040937666430176413 0 -0.010758160786905837 0.043568643396053583 0 -0.0094810297504705297 0.04266424839520102 0 -0.0092555696173368344 0.040749940798203141 0 -0.0081228217005259208 0.04325373879827258 0 -0.0092555696173368344 0.040749940798203141 0 -0.0083410176431557743 0.041633690723780585 0 -0.0086062221653310685 0.040901453890995768 0 -0.0097402990842184126 0.043788312116127423 0 -0.0094810297504705297 0.04266424839520102 0 -0.0081228217005259208 0.04325373879827258 0 -0.010767284112590576 0.042827654613854425 0 -0.0091519886222519303 0.040462885589912588 0 -0.0089711320529058964 0.038294969264000465 0 -0.00960353672614799 0.041573560685174475 0 -0.0090328468811456484 0.03856189479409481 0 -0.0091519886222519303 0.040462885589912588 0 -0.0089711320529058964 0.038294969264000465 0 -0.0075744281281854278 0.039113947128397622 0 -0.0091519886222519303 0.040462885589912588 0 -0.0092555696173368344 0.040749940798203141 0 -0.0086062221653310685 0.040901453890995768 0 -0.010147387871375098 0.039313189530005462 0 -0.0093145966217293708 0.038978713244358448 0 -0.00968061481203333 0.038166117427138553 0 -0.0085455959460853364 0.040326421999188101 0 -0.0093145966217293708 0.038978713244358448 0 -0.0089711320529058964 0.038294969264000465 0 -0.0093145966217293708 0.038978713244358448 0 -0.00968061481203333 0.038166117427138553 0 -0.0089711320529058964 0.038294969264000465 0 -0.00968061481203333 0.038166117427138553 0 -0.0089711320529058964 0.038294969264000465 0 -0.0090296942627010133 0.037457704156842929 0 -0.00968061481203333 0.038166117427138553 0 -0.0094936294504974258 0.037022083182776777 0 -0.010235257207984134 0.037320600839826988 0 -0.00968061481203333 0.038166117427138553 0 -0.0094936294504974258 0.037022083182776777 0 -0.0090296942627010133 0.037457704156842929 0 -0.0089711320529058964 0.038294969264000465 0 -0.0090296942627010133 0.037457704156842929 0 -0.00806696166990588 0.037901285534105759 0 -0.0090296942627010133 0.037457704156842929 0 -0.008284710432041948 0.037080763455936396 0 -0.00806696166990588 0.037901285534105759 0 -0.0089711320529058964 0.038294969264000465 0 -0.00806696166990588 0.037901285534105759 0 -0.0075744281281854278 0.039113947128397622 0 -0.012243290329118297 0.038174907954513553 0 -0.011987305050468409 0.039362167010302103 0 -0.010983966227754148 0.038548366142323924 0 -0.010147387871375098 0.039313189530005462 0 -0.00968061481203333 0.038166117427138553 0 -0.010983966227754148 0.038548366142323924 0 -0.00968061481203333 0.038166117427138553 0 -0.010983966227754148 0.038548366142323924 0 -0.010235257207984134 0.037320600839826988 0 -0.010983966227754148 0.038548366142323924 0 -0.010235257207984134 0.037320600839826988 0 -0.011315177718047686 0.037162102199118002 0 -0.012243290329118297 0.038174907954513553 0 -0.010983966227754148 0.038548366142323924 0 -0.011315177718047686 0.037162102199118002 0 -0.010239075125085258 0.036607964221870272 0 -0.010056382888803624 0.036016619968043499 0 -0.0088567802181146512 0.034783144005085156 0 -0.0088588018678032246 0.035202949278538988 0 -0.0083298584844727509 0.034691547710486409 0 -0.010235257207984134 0.037320600839826988 0 -0.011315177718047686 0.037162102199118002 0 -0.0097922667294353255 0.035805456983199431 0 -0.010056382888803624 0.036016619968043499 0 -0.0097970640660725375 0.035785205554178148 0 -0.0088567802181146512 0.034783144005085156 0 -0.0088588018678032246 0.035202949278538988 0 -0.0097922667294353255 0.035805456983199431 0 -0.0093128127193176456 0.035786319463557953 0 -0.009571832556611596 0.035709724645720496 0 -0.009535794917445271 0.035606535275933944 0 -0.0061295860986441634 0.033668524838435625 0 -0.011882460121454276 0.032549789221171931 0 -0.0097922667294353255 0.035805456983199431 0 -0.0093128127193176456 0.035786319463557953 0 -0.009571832556611596 0.035709724645720496 0 -0.0088588018678032246 0.035202949278538988 0 -0.0097922667294353255 0.035805456983199431 0 -0.0093128127193176456 0.035786319463557953 0 -0.0050456104616722923 0.031773473226806154 0 -0.0060917041216231073 0.031506547712364469 0 -0.0068361444040706985 0.032646159871833363 0 -0.0088588018678032246 0.035202949278538988 0 -0.0093128127193176456 0.035786319463557953 0 -0.0084008533836739292 0.034993791443999382 0 -0.0061295860986441634 0.033668524838435625 0 -0.0079571130926983646 0.033859281606976099 0 -0.010391197283525007 0.037409372686352658 0 -0.016977308570436698 0.035713175182846633 0 -0.008284710432041948 0.037080763455936396 0 -0.0084556214934227662 0.03627172422637024 0 -0.0091542592583409091 0.036356780674690378 0 -0.0090296942627010133 0.037457704156842929 0 -0.008284710432041948 0.037080763455936396 0 -0.0091542592583409091 0.036356780674690378 0 -0.0084556214934227662 0.03627172422637024 0 -0.0091542592583409091 0.036356780674690378 0 -0.0091165632617864183 0.035694817001377936 0 -0.0094936294504974258 0.037022083182776777 0 -0.010235257207984134 0.037320600839826988 0 -0.0097922667294353255 0.035805456983199431 0 -0.0094936294504974258 0.037022083182776777 0 -0.0097922667294353255 0.035805456983199431 0 -0.0091542592583409091 0.036356780674690378 0 -0.0097922667294353255 0.035805456983199431 0 -0.0091542592583409091 0.036356780674690378 0 -0.009571832556611596 0.035709724645720496 0 -0.0094936294504974258 0.037022083182776777 0 -0.0090296942627010133 0.037457704156842929 0 -0.0091542592583409091 0.036356780674690378 0 -0.009571832556611596 0.035709724645720496 0 -0.0091165632617864183 0.035694817001377936 0 -0.009535794917445271 0.035606535275933944 0 -0.012845645592554703 0.035615082612204862 0 -0.011882460121454276 0.032549789221171931 0 -0.0091542592583409091 0.036356780674690378 0 -0.009571832556611596 0.035709724645720496 0 -0.0091165632617864183 0.035694817001377936 0 -0.016977308570436698 0.035713175182846633 0 -0.02440453147746123 0.034312540064407503 0 -0.017278696585991706 0.034564017429979867 0 -0.017215855071289188 0.034632946017468011 0 -0.017288229545592417 0.034743339847270426 0 -0.031670269338210717 0.036822822125469487 0 -0.031775326058983186 0.035930181945333095 0 -0.03155589629272737 0.036138857666242835 0 -0.016977308570436698 0.035713175182846633 0 -0.012845645592554703 0.035615082612204862 0 -0.02440453147746123 0.034312540064407503 0 -0.011882460121454276 0.032549789221171931 0 -0.017215855071289188 0.034632946017468011 0 -0.017288229545592417 0.034743339847270426 0 -0.017129288583876977 0.034704040079431488 0 -0.031674637449195207 0.035758440546848215 0 -0.031514916526957835 0.035682203440479045 0 -0.031536100248895457 0.035889154011465453 0 -0.031674637449195207 0.035758440546848215 0 -0.03177327186108761 0.0359301102281393 0 -0.031715550247837933 0.035909391806219756 0 -0.031775326058983186 0.035930181945333095 0 -0.031715550247837933 0.035909391806219756 0 -0.03163756039752106 0.035974497565100821 0 -0.02440453147746123 0.034312540064407503 0 -0.025752861918858949 0.034714160965415415 0 -0.031674637449195207 0.035758440546848215 0 -0.031715550247837933 0.035909391806219756 0 -0.031536100248895457 0.035889154011465453 0 -0.031715550247837933 0.035909391806219756 0 -0.03163756039752106 0.035974497565100821 0 -0.031536100248895457 0.035889154011465453 0 -0.031775326058983186 0.035930181945333095 0 -0.03163756039752106 0.035974497565100821 0 -0.03155589629272737 0.036138857666242835 0 -0.03163756039752106 0.035974497565100821 0 -0.03155589629272737 0.036138857666242835 0 -0.031536100248895457 0.035889154011465453 0 -0.018939048121021401 0.031125869391573073 0 -0.019440533050824178 0.031296849027038366 0 -0.019359755784435662 0.030811914832745868 0 -0.019440533050824178 0.031296849027038366 0 -0.019359755784435662 0.030811914832745868 0 -0.019820080263173237 0.030820008901163855 0 -0.011882460121454276 0.032549789221171931 0 -0.012126720730364506 0.030500348669786799 0 -0.019581748248586984 0.030331619649370589 0 -0.019359755784435662 0.030811914832745868 0 -0.019023227789728536 0.030468254354030354 0 -0.019581748248586984 0.030331619649370589 0 -0.019359755784435662 0.030811914832745868 0 -0.019820080263173237 0.030820008901163855 0 -0.018939048121021401 0.031125869391573073 0 -0.019359755784435662 0.030811914832745868 0 -0.019023227789728536 0.030468254354030354 0 -0.031674637449195207 0.035758440546848215 0 -0.03177327186108761 0.0359301102281393 0 -0.031839608390198386 0.035374159923699973 0 -0.02440453147746123 0.034312540064407503 0 -0.025373227728162293 0.03294945418381142 0 -0.031839608390198386 0.035374159923699973 0 -0.031514916526957835 0.035682203440479045 0 -0.031397130818723466 0.035382193421507724 0 -0.031674637449195207 0.035758440546848215 0 -0.031839608390198386 0.035374159923699973 0 -0.031514916526957835 0.035682203440479045 0 -0.0050456104616722923 0.031773473226806154 0 -0.0060917041216231073 0.031506547712364469 0 -0.0055066676303416658 0.030536374811537717 0 -0.0050456104616722923 0.031773473226806154 0 -0.0055066676303416658 0.030536374811537717 0 -0.0047863451636553202 0.030818609260952066 0 -0.0060917041216231073 0.031506547712364469 0 -0.0055066676303416658 0.030536374811537717 0 -0.00704770718532516 0.030978555003600389 0 -0.0050456104616722923 0.031773473226806154 0 -0.0036780920783596599 0.031147892865432465 0 -0.0047863451636553202 0.030818609260952066 0 -0.0036780920783596599 0.031147892865432465 0 -0.0047863451636553202 0.030818609260952066 0 -0.0043209009964330592 0.030332674848307813 0 -0.0047863451636553202 0.030818609260952066 0 -0.0043209009964330592 0.030332674848307813 0 -0.0049897263600048357 0.02951387265364739 0 -0.019581748248586984 0.030331619649370589 0 -0.019820080263173237 0.030820008901163855 0 -0.020193981231903139 0.03032893837921221 0 -0.012126720730364506 0.030500348669786799 0 -0.011436005074620505 0.028662327978828329 0 -0.0042903918855350621 0.029653003183275118 0 -0.011436005074620505 0.028662327978828329 0 -0.0055066676303416658 0.030536374811537717 0 -0.0041221941409592278 0.028184884146422375 0 -0.006739064938345622 0.028550535150699323 0 -0.0055066676303416658 0.030536374811537717 0 -0.0047863451636553202 0.030818609260952066 0 -0.0049897263600048357 0.02951387265364739 0 -0.0071999814591707009 0.030831524678126613 0 -0.0086947016121782517 0.029198491407697567 0 -0.0055066676303416658 0.030536374811537717 0 -0.006739064938345622 0.028550535150699323 0 -0.00704770718532516 0.030978555003600389 0 -0.006739064938345622 0.028550535150699323 0 -0.00704770718532516 0.030978555003600389 0 -0.0093965072419256723 0.028950867348845926 0 -0.00704770718532516 0.030978555003600389 0 -0.0085347632984793358 0.031076384517428775 0 -0.0068361444040706985 0.032646159871833363 0 -0.00704770718532516 0.030978555003600389 0 -0.0085347632984793358 0.031076384517428775 0 -0.0079633323195408903 0.029513233031932477 0 -0.0085347632984793358 0.031076384517428775 0 -0.0079633323195408903 0.029513233031932477 0 -0.0091375118099133925 0.029442846370849249 0 -0.0079633323195408903 0.029513233031932477 0 -0.0091375118099133925 0.029442846370849249 0 -0.0090947546875336308 0.027956727894915868 0 -0.0091375118099133925 0.029442846370849249 0 -0.0099898896082893304 0.030136149599636314 0 -0.010117862572055653 0.028520593957087066 0 -0.010946682045540043 0.029260523751636205 0 -0.0099898896082893304 0.030136149599636314 0 -0.010117862572055653 0.028520593957087066 0 -0.011454345408109697 0.030190442707175427 0 -0.010946682045540043 0.029260523751636205 0 -0.010678696206831095 0.030931190229050248 0 -0.0099898896082893304 0.030136149599636314 0 -0.010678696206831095 0.030931190229050248 0 -0.0099916734165655403 0.031823355625863227 0 -0.010946682045540043 0.029260523751636205 0 -0.0099898896082893304 0.030136149599636314 0 -0.010678696206831095 0.030931190229050248 0 -0.0085347632984793358 0.031076384517428775 0 -0.0091375118099133925 0.029442846370849249 0 -0.0099898896082893304 0.030136149599636314 0 -0.0085347632984793358 0.031076384517428775 0 -0.0099898896082893304 0.030136149599636314 0 -0.0099916734165655403 0.031823355625863227 0 -0.0085347632984793358 0.031076384517428775 0 -0.0099916734165655403 0.031823355625863227 0 -0.0087315307038233012 0.033705547222463501 0 -0.0099916734165655403 0.031823355625863227 0 -0.010484872974489152 0.033372505268718024 0 -0.0087315307038233012 0.033705547222463501 0 -0.011390669809074154 0.031906815382228941 0 -0.0099916734165655403 0.031823355625863227 0 -0.010484872974489152 0.033372505268718024 0 -0.011390669809074154 0.031906815382228941 0 -0.010678696206831095 0.030931190229050248 0 -0.0099916734165655403 0.031823355625863227 0 -0.012003414118759919 0.033578988680509084 0 -0.010808061276604414 0.034870475799935428 0 -0.010484872974489152 0.033372505268718024 0 -0.0096254442636233596 0.03451811909813856 0 -0.010808061276604414 0.034870475799935428 0 -0.010484872974489152 0.033372505268718024 0 -0.0096254442636233596 0.03451811909813856 0 -0.010484872974489152 0.033372505268718024 0 -0.0087315307038233012 0.033705547222463501 0 -0.0096254442636233596 0.03451811909813856 0 -0.0087504375537356387 0.034959217139759177 0 -0.0087315307038233012 0.033705547222463501 0 -0.0087504375537356387 0.034959217139759177 0 -0.0087315307038233012 0.033705547222463501 0 -0.0083298584844727509 0.034691547710486409 0 -0.0087315307038233012 0.033705547222463501 0 -0.0083298584844727509 0.034691547710486409 0 -0.0084008533836739292 0.034993791443999382 0 -0.0088588018678032246 0.035202949278538988 0 -0.0083298584844727509 0.034691547710486409 0 -0.0084008533836739292 0.034993791443999382 0 -0.0060917041216231073 0.031506547712364469 0 -0.00704770718532516 0.030978555003600389 0 -0.0068361444040706985 0.032646159871833363 0 -0.0086301071095477473 0.033782319932057735 0 -0.0079571130926983646 0.033859281606976099 0 -0.0085347632984793358 0.031076384517428775 0 -0.0087315307038233012 0.033705547222463501 0 -0.0068361444040706985 0.032646159871833363 0 -0.025808524222982951 0.036005021258238373 0 -0.028752533919735375 0.036810586569678831 0 -0.027780044655280046 0.03486221574167931 0 -0.028752533919735375 0.036810586569678831 0 -0.027780044655280046 0.03486221574167931 0 -0.029256236687322017 0.034928183901874341 0 -0.025808524222982951 0.036005021258238373 0 -0.028752533919735375 0.036810586569678831 0 -0.028667442152105479 0.039784020672198453 0 -0.028752533919735375 0.036810586569678831 0 -0.028667442152105479 0.039784020672198453 0 -0.029788407170799395 0.038297815603531897 0 -0.027801018535819098 0.038140703658291412 0 -0.028602483539197882 0.039666336713632969 0 -0.029700189840278109 0.040416731281736125 0 -0.028667442152105479 0.039784020672198453 0 -0.029323439608815862 0.040845758661846435 0 -0.029323439608815862 0.040845758661846435 0 -0.028906190918647802 0.040759065095215159 0 -0.028888205478216723 0.041172891996395303 0 -0.029700189840278109 0.040416731281736125 0 -0.029323439608815862 0.040845758661846435 0 -0.028906190918647802 0.040759065095215159 0 -0.028906190918647802 0.040759065095215159 0 -0.028888205478216723 0.041172891996395303 0 -0.02844149331400685 0.040570720714604207 0 -0.028052126608753537 0.040306150155990157 0 -0.025734032299626338 0.039634874373645684 0 -0.028906190918647802 0.040759065095215159 0 -0.028249266626073192 0.040354610332105877 0 -0.02844149331400685 0.040570720714604207 0 -0.028249266626073192 0.040354610332105877 0 -0.02844149331400685 0.040570720714604207 0 -0.02837755046927826 0.040281077215954079 0 -0.029700189840278109 0.040416731281736125 0 -0.028249266626073192 0.040354610332105877 0 -0.029206296903215263 0.037559450163742326 0 -0.029700189840278109 0.040416731281736125 0 -0.028906190918647802 0.040759065095215159 0 -0.028249266626073192 0.040354610332105877 0 -0.027801018535819098 0.038140703658291412 0 -0.02688595463691484 0.0354818650393127 0 -0.028249266626073192 0.040354610332105877 0 -0.029206296903215263 0.037559450163742326 0 -0.024975800809004047 0.035891126774505254 0 -0.028249266626073192 0.040354610332105877 0 -0.024975800809004047 0.035891126774505254 0 -0.023361412425107825 0.038797633808702291 0 -0.02688595463691484 0.0354818650393127 0 -0.024842014579353418 0.031976983430736475 0 -0.029206296903215263 0.037559450163742326 0 -0.024975800809004047 0.035891126774505254 0 -0.026291147379712308 0.032887956087333706 0 -0.024975800809004047 0.035891126774505254 0 -0.023037771093562396 0.033682866130362796 0 -0.026291147379712308 0.032887956087333706 0 -0.024726057545552505 0.033418890541398516 0 -0.026529417796654749 0.031128009751622984 0 -0.023471101238031623 0.031038214194242152 0 -0.024726057545552505 0.033418890541398516 0 -0.026494208647102307 0.03363656152475384 0 -0.026529417796654749 0.031128009751622984 0 -0.026494208647102307 0.03363656152475384 0 -0.027350717277085483 0.031896560663500363 0 -0.026529417796654749 0.031128009751622984 0 -0.025808524222982951 0.036005021258238373 0 -0.026494208647102307 0.03363656152475384 0 -0.027780044655280046 0.03486221574167931 0 -0.025808524222982951 0.036005021258238373 0 -0.024726057545552505 0.033418890541398516 0 -0.026494208647102307 0.03363656152475384 0 -0.027780044655280046 0.03486221574167931 0 -0.028129031386130241 0.03330482945650623 0 -0.029256236687322017 0.034928183901874341 0 -0.026494208647102307 0.03363656152475384 0 -0.027780044655280046 0.03486221574167931 0 -0.028129031386130241 0.03330482945650623 0 -0.026494208647102307 0.03363656152475384 0 -0.028129031386130241 0.03330482945650623 0 -0.027350717277085483 0.031896560663500363 0 -0.028129031386130241 0.03330482945650623 0 -0.027350717277085483 0.031896560663500363 0 -0.028226244533225437 0.031637643747200732 0 -0.028226244533225437 0.031637643747200732 0 -0.029525383507699534 0.033029857136697142 0 -0.02888557128478951 0.030690941501630931 0 -0.028129031386130241 0.03330482945650623 0 -0.028226244533225437 0.031637643747200732 0 -0.029525383507699534 0.033029857136697142 0 -0.029525383507699534 0.033029857136697142 0 -0.030027545484735553 0.031404709772391445 0 -0.02888557128478951 0.030690941501630931 0 -0.030784803740283175 0.034662363434871023 0 -0.030409172652466013 0.035956989446583189 0 -0.029525383507699534 0.033029857136697142 0 -0.030822469766695258 0.033154438658384328 0 -0.030514760933571434 0.036072269978485186 0 -0.029525383507699534 0.033029857136697142 0 -0.029256236687322017 0.034928183901874341 0 -0.030514760933571434 0.036072269978485186 0 -0.028129031386130241 0.03330482945650623 0 -0.029525383507699534 0.033029857136697142 0 -0.029256236687322017 0.034928183901874341 0 -0.031585127756424879 0.033336942438653726 0 -0.030784803740283175 0.034662363434871023 0 -0.031514916526957835 0.035682203440479045 0 -0.031397130818723466 0.035382193421507724 0 -0.031351669950432405 0.035927146730271309 0 -0.029525383507699534 0.033029857136697142 0 -0.030027545484735553 0.031404709772391445 0 -0.030822469766695258 0.033154438658384328 0 -0.030963623214280398 0.031293060325498986 0 -0.030027545484735553 0.031404709772391445 0 -0.030822469766695258 0.033154438658384328 0 -0.031005416186896 0.035909359817373372 0 -0.031351669950432405 0.035927146730271309 0 -0.031144716229759055 0.036375457354425711 0 -0.031397130818723466 0.035382193421507724 0 -0.031005416186896 0.035909359817373372 0 -0.031351669950432405 0.035927146730271309 0 -0.031351669950432405 0.035927146730271309 0 -0.03155589629272737 0.036138857666242835 0 -0.031536100248895457 0.035889154011465453 0 -0.031351669950432405 0.035927146730271309 0 -0.03155589629272737 0.036138857666242835 0 -0.031420788678517005 0.036368995315723261 0 -0.031514916526957835 0.035682203440479045 0 -0.031351669950432405 0.035927146730271309 0 -0.031536100248895457 0.035889154011465453 0 -0.031670269338210717 0.036822822125469487 0 -0.03155589629272737 0.036138857666242835 0 -0.031420788678517005 0.036368995315723261 0 -0.031351669950432405 0.035927146730271309 0 -0.031420788678517005 0.036368995315723261 0 -0.031144716229759055 0.036375457354425711 0 -0.031670269338210717 0.036822822125469487 0 -0.031420788678517005 0.036368995315723261 0 -0.03138990207125663 0.036738837460396377 0 -0.031420788678517005 0.036368995315723261 0 -0.031144716229759055 0.036375457354425711 0 -0.03138990207125663 0.036738837460396377 0 -0.031144716229759055 0.036375457354425711 0 -0.030937553917751642 0.036875060225985301 0 -0.030514760933571434 0.036072269978485186 0 -0.031005416186896 0.035909359817373372 0 -0.031144716229759055 0.036375457354425711 0 -0.030514760933571434 0.036072269978485186 0 -0.031144716229759055 0.036375457354425711 0 -0.030937553917751642 0.036875060225985301 0 -0.031131964305408304 0.036777749824642172 0 -0.031144716229759055 0.036375457354425711 0 -0.031131964305408304 0.036777749824642172 0 -0.03138990207125663 0.036738837460396377 0 -0.030937553917751642 0.036875060225985301 0 -0.031086174109502075 0.037108612157489937 0 -0.030840920866074525 0.037305903662827676 0 -0.031086174109502075 0.037108612157489937 0 -0.031131964305408304 0.036777749824642172 0 -0.031302953178721567 0.036983463068787879 0 -0.030937553917751642 0.036875060225985301 0 -0.031086174109502075 0.037108612157489937 0 -0.031131964305408304 0.036777749824642172 0 -0.008284710432041948 0.037080763455936396 0 -0.0085010320555843656 0.035870427392574969 0 -0.0071476236392483969 0.037396443066274869 0 -0.031670269338210717 0.036822822125469487 0 -0.031302953178721567 0.036983463068787879 0 -0.031316514145944316 0.037291741172101954 0 -0.016977308570436698 0.035713175182846633 0 -0.019089510350378945 0.037327326118836074 0 -0.031131964305408304 0.036777749824642172 0 -0.031302953178721567 0.036983463068787879 0 -0.03138990207125663 0.036738837460396377 0 -0.031086174109502075 0.037108612157489937 0 -0.031302953178721567 0.036983463068787879 0 -0.031316514145944316 0.037291741172101954 0 -0.031670269338210717 0.036822822125469487 0 -0.031302953178721567 0.036983463068787879 0 -0.03138990207125663 0.036738837460396377 0 -0.028752533919735375 0.036810586569678831 0 -0.029256236687322017 0.034928183901874341 0 -0.029855487761292803 0.036688801746867908 0 -0.029256236687322017 0.034928183901874341 0 -0.029855487761292803 0.036688801746867908 0 -0.030514760933571434 0.036072269978485186 0 -0.030937553917751642 0.036875060225985301 0 -0.030514760933571434 0.036072269978485186 0 -0.030723577300969959 0.037311631578512916 0 -0.029855487761292803 0.036688801746867908 0 -0.030514760933571434 0.036072269978485186 0 -0.030723577300969959 0.037311631578512916 0 -0.03063187334577909 0.037209885660165663 0 -0.031931321598217571 0.038805546616141572 0 -0.030937553917751642 0.036875060225985301 0 -0.030723577300969959 0.037311631578512916 0 -0.030840920866074525 0.037305903662827676 0 -0.030723577300969959 0.037311631578512916 0 -0.0307385491141586 0.039395334279517635 0 -0.031959776563130995 0.039462185422752385 0 -0.030723577300969959 0.037311631578512916 0 -0.029788407170799395 0.038297815603531897 0 -0.0307385491141586 0.039395334279517635 0 -0.028667442152105479 0.039784020672198453 0 -0.029788407170799395 0.038297815603531897 0 -0.029983870438596714 0.039904518863645218 0 -0.029855487761292803 0.036688801746867908 0 -0.030723577300969959 0.037311631578512916 0 -0.029788407170799395 0.038297815603531897 0 -0.028752533919735375 0.036810586569678831 0 -0.029855487761292803 0.036688801746867908 0 -0.029788407170799395 0.038297815603531897 0 -0.029983870438596714 0.039904518863645218 0 -0.030564413073535367 0.040727515179656497 0 -0.029630015860339951 0.040952799483857882 0 -0.029983870438596714 0.039904518863645218 0 -0.0307385491141586 0.039395334279517635 0 -0.030564413073535367 0.040727515179656497 0 -0.029788407170799395 0.038297815603531897 0 -0.029983870438596714 0.039904518863645218 0 -0.0307385491141586 0.039395334279517635 0 -0.0307385491141586 0.039395334279517635 0 -0.031959776563130995 0.039462185422752385 0 -0.031593688106351915 0.040520309688786393 0 -0.0307385491141586 0.039395334279517635 0 -0.031593688106351915 0.040520309688786393 0 -0.030564413073535367 0.040727515179656497 0 -0.031593688106351915 0.040520309688786393 0 -0.030564413073535367 0.040727515179656497 0 -0.031939513736047406 0.041588564752265425 0 -0.030564413073535367 0.040727515179656497 0 -0.031939513736047406 0.041588564752265425 0 -0.030064683495643226 0.041548072640164302 0 -0.026178172964684186 0.04223725920773215 0 -0.030872000975130615 0.041614345885729834 0 -0.030564413073535367 0.040727515179656497 0 -0.030064683495643226 0.041548072640164302 0 -0.029630015860339951 0.040952799483857882 0 -0.0071476236392483969 0.037396443066274869 0 -0.0070165936885813679 0.038564410679956494 0 -0.0056867370717379627 0.039161130345298154 0 -0.019089510350378945 0.037327326118836074 0 -0.023590787391265824 0.040317679314522743 0 -0.00806696166990588 0.037901285534105759 0 -0.0071476236392483969 0.037396443066274869 0 -0.0070165936885813679 0.038564410679956494 0 -0.00806696166990588 0.037901285534105759 0 -0.0070165936885813679 0.038564410679956494 0 -0.0075744281281854278 0.039113947128397622 0 -0.008284710432041948 0.037080763455936396 0 -0.00806696166990588 0.037901285534105759 0 -0.0071476236392483969 0.037396443066274869 0 -0.031959776563130995 0.039462185422752385 0 -0.031593688106351915 0.040520309688786393 0 -0.032611444558740453 0.04083062854967319 0 -0.031316514145944316 0.037291741172101954 0 -0.031054918816664997 0.037345658774644949 0 -0.030990191197932587 0.037667743821276876 0 -0.031931321598217571 0.038805546616141572 0 -0.023590787391265824 0.040317679314522743 0 -0.030840920866074525 0.037305903662827676 0 -0.031054918816664997 0.037345658774644949 0 -0.030990191197932587 0.037667743821276876 0 -0.031086174109502075 0.037108612157489937 0 -0.031316514145944316 0.037291741172101954 0 -0.031054918816664997 0.037345658774644949 0 -0.031086174109502075 0.037108612157489937 0 -0.030840920866074525 0.037305903662827676 0 -0.031054918816664997 0.037345658774644949 0 -0.031593688106351915 0.040520309688786393 0 -0.031939513736047406 0.041588564752265425 0 -0.032611444558740453 0.04083062854967319 0 -0.026178172964684186 0.04223725920773215 0 -0.023590787391265824 0.040317679314522743 0 -0.026178172964684186 0.04223725920773215 0 -0.012863128333096425 0.041168873907752569 0 -0.023590787391265824 0.040317679314522743 0 -0.012863128333096425 0.041168873907752569 0 -0.0056867370717379627 0.039161130345298154 0 -0.0066161010759404094 0.039252005800919587 0 -0.006269157829000835 0.040222870731175094 0 -0.02350963778823981 0.040452622099364274 0 -0.020852482538295389 0.043701301898254268 0 -0.018849292699350581 0.040703325436478421 0 -0.0091519886222519303 0.040462885589912588 0 -0.0077489248553033827 0.040737963055456898 0 -0.0086062221653310685 0.040901453890995768 0 -0.0091519886222519303 0.040462885589912588 0 -0.006269157829000835 0.040222870731175094 0 -0.0075744281281854278 0.039113947128397622 0 -0.0066906718198661121 0.040388929695392942 0 -0.012863128333096425 0.041168873907752569 0 -0.0070165936885813679 0.038564410679956494 0 -0.0056867370717379627 0.039161130345298154 0 -0.0066161010759404094 0.039252005800919587 0 -0.0070165936885813679 0.038564410679956494 0 -0.0066161010759404094 0.039252005800919587 0 -0.0075744281281854278 0.039113947128397622 0 -0.0066161010759404094 0.039252005800919587 0 -0.006269157829000835 0.040222870731175094 0 -0.0075744281281854278 0.039113947128397622 0 -0.018064741958411054 0.045016131300762 0 -0.017751726983729864 0.044591778429614128 0 -0.01827195731914787 0.044621123062165695 0 -0.0077489248553033827 0.040737963055456898 0 -0.0083410176431557743 0.041633690723780585 0 -0.0086062221653310685 0.040901453890995768 0 -0.012863128333096425 0.041168873907752569 0 -0.010758160786905837 0.043568643396053583 0 -0.018510048186198527 0.044993437757787566 0 -0.018064741958411054 0.045016131300762 0 -0.01827195731914787 0.044621123062165695 0 -0.017751726983729864 0.044591778429614128 0 -0.01827195731914787 0.044621123062165695 0 -0.018225560173982941 0.044174726332504168 0 -0.01827195731914787 0.044621123062165695 0 -0.018225560173982941 0.044174726332504168 0 -0.018941333217959922 0.044509983492435463 0 -0.0094401901044765413 0.044371551868780168 0 -0.0093263874962195605 0.044701145464295121 0 -0.0096088519870979189 0.044925194548707477 0 -0.009381166723719964 0.044492852649418636 0 -0.0094401901044765413 0.044371551868780168 0 -0.0096088519870979189 0.044925194548707477 0 -0.010758160786905837 0.043568643396053583 0 -0.014066005791502635 0.044434551408311512 0 -0.0096956800340861748 0.044929122499926324 0 -0.009381166723719964 0.044492852649418636 0 -0.0096088519870979189 0.044925194548707477 0 -0.0094954820007569201 0.043921694752575381 0 -0.010758160786905837 0.043568643396053583 0 -0.029537942592952001 0.041859576450350905 0 -0.029486279687025687 0.0420508170609264 0 -0.029387516001782462 0.041920315180143344 0 -0.029537942592952001 0.041859576450350905 0 -0.029619547624506096 0.042043150521619575 0 -0.029486279687025687 0.0420508170609264 0 -0.018510048186198527 0.044993437757787566 0 -0.01827195731914787 0.044621123062165695 0 -0.018941333217959922 0.044509983492435463 0 -0.029671044714329756 0.04189437101930224 0 -0.029537942592952001 0.041859576450350905 0 -0.029619547624506096 0.042043150521619575 0 -0.026178172964684186 0.04223725920773215 0 -0.023890505659043503 0.043686206574874299 0 -0.029619547624506096 0.042043150521619575 0 -0.029486279687025687 0.0420508170609264 0 -0.029487254899949401 0.042419147701341656 0 -0.023890505659043503 0.043686206574874299 0 -0.024452429430415985 0.042662965697479793 0 -0.029486279687025687 0.0420508170609264 0 -0.029323147538014415 0.042139262326981335 0 -0.029487254899949401 0.042419147701341656 0 -0.029323147538014415 0.042139262326981335 0 -0.029102829466217409 0.042128566254285821 0 -0.029120731563916973 0.04244140780311103 0 -0.029323147538014415 0.042139262326981335 0 -0.029102829466217409 0.042128566254285821 0 -0.029235735900808652 0.041933666286686322 0 -0.029486279687025687 0.0420508170609264 0 -0.029323147538014415 0.042139262326981335 0 -0.029387516001782462 0.041920315180143344 0 -0.029781041339355691 0.042583374378525669 0 -0.029860163770809783 0.043465646698543227 0 -0.029102829466217409 0.042128566254285821 0 -0.028991254314071107 0.0418193043033366 0 -0.028807102825955243 0.042276483054756356 0 -0.029102829466217409 0.042128566254285821 0 -0.028807102825955243 0.042276483054756356 0 -0.029120731563916973 0.04244140780311103 0 -0.029102829466217409 0.042128566254285821 0 -0.028991254314071107 0.0418193043033366 0 -0.029235735900808652 0.041933666286686322 0 -0.028991254314071107 0.0418193043033366 0 -0.029261467012549277 0.041635375609833471 0 -0.029235735900808652 0.041933666286686322 0 -0.030743964739014983 0.043149400593778656 0 -0.030073415702895026 0.042320267208083281 0 -0.030074386350575029 0.042959008731866248 0 -0.029537942592952001 0.041859576450350905 0 -0.029261467012549277 0.041635375609833471 0 -0.029387516001782462 0.041920315180143344 0 -0.030872000975130615 0.041614345885729834 0 -0.028822117625197544 0.041684736202833757 0 -0.029261467012549277 0.041635375609833471 0 -0.029387516001782462 0.041920315180143344 0 -0.029235735900808652 0.041933666286686322 0 -0.029323147538014415 0.042139262326981335 0 -0.029387516001782462 0.041920315180143344 0 -0.029235735900808652 0.041933666286686322 0 -0.030064683495643226 0.041548072640164302 0 -0.029261467012549277 0.041635375609833471 0 -0.029630015860339951 0.040952799483857882 0 -0.029261467012549277 0.041635375609833471 0 -0.029630015860339951 0.040952799483857882 0 -0.029488481298887433 0.041281229409528906 0 -0.028991254314071107 0.0418193043033366 0 -0.029261467012549277 0.041635375609833471 0 -0.029488481298887433 0.041281229409528906 0 -0.030743964739014983 0.043149400593778656 0 -0.030073415702895026 0.042320267208083281 0 -0.029488481298887433 0.041281229409528906 0 -0.029781041339355691 0.042583374378525669 0 -0.029608811116221215 0.041551901464438566 0 -0.030073415702895026 0.042320267208083281 0 -0.029488481298887433 0.041281229409528906 0 -0.029794344549143453 0.042000453955159459 0 -0.029488481298887433 0.041281229409528906 0 -0.02938670594479198 0.041076992053881864 0 -0.029794344549143453 0.042000453955159459 0 -0.028667442152105479 0.039784020672198453 0 -0.029323439608815862 0.040845758661846435 0 -0.02938670594479198 0.041076992053881864 0 -0.028667442152105479 0.039784020672198453 0 -0.029488481298887433 0.041281229409528906 0 -0.02938670594479198 0.041076992053881864 0 -0.028667442152105479 0.039784020672198453 0 -0.029630015860339951 0.040952799483857882 0 -0.029488481298887433 0.041281229409528906 0 -0.028667442152105479 0.039784020672198453 0 -0.029983870438596714 0.039904518863645218 0 -0.029630015860339951 0.040952799483857882 0 -0.028888205478216723 0.041172891996395303 0 -0.029165900651249944 0.042116254822707741 0 -0.02858317885158803 0.041668554457110658 0 -0.028888205478216723 0.041172891996395303 0 -0.029408604751347229 0.041584575220677357 0 -0.029165900651249944 0.042116254822707741 0 -0.029323439608815862 0.040845758661846435 0 -0.028888205478216723 0.041172891996395303 0 -0.029408604751347229 0.041584575220677357 0 -0.029323439608815862 0.040845758661846435 0 -0.02938670594479198 0.041076992053881864 0 -0.029408604751347229 0.041584575220677357 0 -0.029408604751347229 0.041584575220677357 0 -0.029794344549143453 0.042000453955159459 0 -0.029631913597404618 0.042539816190423241 0 -0.02938670594479198 0.041076992053881864 0 -0.029408604751347229 0.041584575220677357 0 -0.029794344549143453 0.042000453955159459 0 -0.029794344549143453 0.042000453955159459 0 -0.029631913597404618 0.042539816190423241 0 -0.030074386350575029 0.042959008731866248 0 -0.030073415702895026 0.042320267208083281 0 -0.029794344549143453 0.042000453955159459 0 -0.030074386350575029 0.042959008731866248 0 -0.029631913597404618 0.042539816190423241 0 -0.029165900651249944 0.042116254822707741 0 -0.029353533100617446 0.043002292538623026 0 -0.029408604751347229 0.041584575220677357 0 -0.029631913597404618 0.042539816190423241 0 -0.029165900651249944 0.042116254822707741 0 -0.029165900651249944 0.042116254822707741 0 -0.029353533100617446 0.043002292538623026 0 -0.028854056773944089 0.04275162357465339 0 -0.029353533100617446 0.043002292538623026 0 -0.029805006600890856 0.043640400668344168 0 -0.029280600079147828 0.044075352683820401 0 -0.029805006600890856 0.043640400668344168 0 -0.029942011895079799 0.044982092563839247 0 -0.029280600079147828 0.044075352683820401 0 -0.029631913597404618 0.042539816190423241 0 -0.029353533100617446 0.043002292538623026 0 -0.029805006600890856 0.043640400668344168 0 -0.029631913597404618 0.042539816190423241 0 -0.029805006600890856 0.043640400668344168 0 -0.030074386350575029 0.042959008731866248 0 -0.029805006600890856 0.043640400668344168 0 -0.030074386350575029 0.042959008731866248 0 -0.030335812267125183 0.044232816531532576 0 -0.030743964739014983 0.043149400593778656 0 -0.030074386350575029 0.042959008731866248 0 -0.030335812267125183 0.044232816531532576 0 -0.030743964739014983 0.043149400593778656 0 -0.030335812267125183 0.044232816531532576 0 -0.03103350744451466 0.045051773262689471 0 -0.030335812267125183 0.044232816531532576 0 -0.03103350744451466 0.045051773262689471 0 -0.030527092590954891 0.045603942125699813 0 -0.029805006600890856 0.043640400668344168 0 -0.030335812267125183 0.044232816531532576 0 -0.029942011895079799 0.044982092563839247 0 -0.030335812267125183 0.044232816531532576 0 -0.029942011895079799 0.044982092563839247 0 -0.030527092590954891 0.045603942125699813 0 -0.029942011895079799 0.044982092563839247 0 -0.030301149488769556 0.046498865553916871 0 -0.029491894931411081 0.04570124746722002 0 -0.029942011895079799 0.044982092563839247 0 -0.030301149488769556 0.046498865553916871 0 -0.030527092590954891 0.045603942125699813 0 -0.030301149488769556 0.046498865553916871 0 -0.03081888818924082 0.046351887889957644 0 -0.030527092590954891 0.045603942125699813 0 -0.030638364924152735 0.046561978050757624 0 -0.030855216908456953 0.045996587720147614 0 -0.030301149488769556 0.046498865553916871 0 -0.031438334458203647 0.048495758187423327 0 -0.031991471013557808 0.047044215891033137 0 -0.030301149488769556 0.046498865553916871 0 -0.030285881594948189 0.048483663133542174 0 -0.031438334458203647 0.048495758187423327 0 -0.030826053851484944 0.049304034387085735 0 -0.030912932343106866 0.049062444594773977 0 -0.031083877901405127 0.049271709774668611 0 -0.030966067256446652 0.049107985503706882 0 -0.030855216908456953 0.045996587720147614 0 -0.029860163770809783 0.043465646698543227 0 -0.030855216908456953 0.045996587720147614 0 -0.03103350744451466 0.045051773262689471 0 -0.03081888818924082 0.046351887889957644 0 -0.030527092590954891 0.045603942125699813 0 -0.028648742485072914 0.042709400478534845 0 -0.029120731563916973 0.04244140780311103 0 -0.02919516435063407 0.042875033971897368 0 -0.028807102825955243 0.042276483054756356 0 -0.028648742485072914 0.042709400478534845 0 -0.029120731563916973 0.04244140780311103 0 -0.029120731563916973 0.04244140780311103 0 -0.02919516435063407 0.042875033971897368 0 -0.029487254899949401 0.042419147701341656 0 -0.026233084445693222 0.046811586244267692 0 -0.024452429430415985 0.042662965697479793 0 -0.029323147538014415 0.042139262326981335 0 -0.029120731563916973 0.04244140780311103 0 -0.029487254899949401 0.042419147701341656 0 -0.026233084445693222 0.046811586244267692 0 -0.015348495326616952 0.050148638488361347 0 -0.030855216908456953 0.045996587720147614 0 -0.026233084445693222 0.046811586244267692 0 -0.030912932343106866 0.049062444594773977 0 -0.031305775374330665 0.049201700273057918 0 -0.031083877901405127 0.049271709774668611 0 -0.022755732323644837 0.051867313614431816 0 -0.023344729661815333 0.051177037744741485 0 -0.022507732313837001 0.05093858061656252 0 -0.026233084445693222 0.046811586244267692 0 -0.027136520624736055 0.051041723816975804 0 -0.031305775374330665 0.049201700273057918 0 -0.031083877901405127 0.049271709774668611 0 -0.031120657284635315 0.049576283135552429 0 -0.022755732323644837 0.051867313614431816 0 -0.022507732313837001 0.05093858061656252 0 -0.021803520624138577 0.051600470140163647 0 -0.020876265925249247 0.053803710561753572 0 -0.021535855089232069 0.052041013106197617 0 -0.023344729661815333 0.051177037744741485 0 -0.022507732313837001 0.05093858061656252 0 -0.023157754477021359 0.050325132780638659 0 -0.027136520624736055 0.051041723816975804 0 -0.027458060408096892 0.050094240078112147 0 -0.023344729661815333 0.051177037744741485 0 -0.023898004162163138 0.050527111608627405 0 -0.023157754477021359 0.050325132780638659 0 -0.031120657284635315 0.049576283135552429 0 -0.030746581351583119 0.049560576868835915 0 -0.030739162161500824 0.050218350012111029 0 -0.030746581351583119 0.049560576868835915 0 -0.029977962298149221 0.049570848409342595 0 -0.030122093334233716 0.050181102906544685 0 -0.030746581351583119 0.049560576868835915 0 -0.030739162161500824 0.050218350012111029 0 -0.030122093334233716 0.050181102906544685 0 -0.030285881594948189 0.048483663133542174 0 -0.030746581351583119 0.049560576868835915 0 -0.029977962298149221 0.049570848409342595 0 -0.030285881594948189 0.048483663133542174 0 -0.031438334458203647 0.048495758187423327 0 -0.030746581351583119 0.049560576868835915 0 -0.030966067256446652 0.049107985503706882 0 -0.030859786128072223 0.049380555989192006 0 -0.030826053851484944 0.049304034387085735 0 -0.031083877901405127 0.049271709774668611 0 -0.031120657284635315 0.049576283135552429 0 -0.030826053851484944 0.049304034387085735 0 -0.031120657284635315 0.049576283135552429 0 -0.030746581351583119 0.049560576868835915 0 -0.0096609408592508422 0.046190931135770268 0 -0.011902881480488226 0.047777839331751872 0 -0.0098315421544494085 0.045595737143515343 0 -0.0097264399581499794 0.045514233468834361 0 -0.0095414821705795769 0.045992321267688506 0 -0.0098315421544494085 0.045595737143515343 0 -0.0095414821705795769 0.045992321267688506 0 -0.010025461006387182 0.045467553405026319 0 -0.0098759848083083794 0.045400307837591206 0 -0.0098315421544494085 0.045595737143515343 0 -0.0097264399581499794 0.045514233468834361 0 -0.0098759848083083794 0.045400307837591206 0 -0.0097264399581499794 0.045514233468834361 0 -0.0096088519870979189 0.044925194548707477 0 -0.0096956800340861748 0.044929122499926324 0 -0.0098759848083083794 0.045400307837591206 0 -0.0096088519870979189 0.044925194548707477 0 -0.0097264399581499794 0.045514233468834361 0 -0.0096088519870979189 0.044925194548707477 0 -0.0095414821705795769 0.045992321267688506 0 -0.0093263874962195605 0.044701145464295121 0 -0.0095414821705795769 0.045992321267688506 0 -0.007214048781292913 0.046386945211348014 0 -0.014066005791502635 0.044434551408311512 0 -0.012622904497504851 0.044848045011252745 0 -0.0093263874962195605 0.044701145464295121 0 -0.0096088519870979189 0.044925194548707477 0 -0.0095414821705795769 0.045992321267688506 0 -0.0095414821705795769 0.045992321267688506 0 -0.0086180624931303587 0.048748571107603736 0 -0.013653133825243722 0.050992472926071689 0 -0.0095414821705795769 0.045992321267688506 0 -0.0086180624931303587 0.048748571107603736 0 -0.007214048781292913 0.046386945211348014 0 -0.0086180624931303587 0.048748571107603736 0 -0.007214048781292913 0.046386945211348014 0 -0.0043515705075448333 0.049609642340659885 0 -0.012622904497504851 0.044848045011252745 0 -0.015348495326616952 0.050148638488361347 0 -0.018225560173982941 0.044174726332504168 0 -0.018941333217959922 0.044509983492435463 0 -0.018660462676128611 0.043785626330930617 0 -0.018941333217959922 0.044509983492435463 0 -0.018660462676128611 0.043785626330930617 0 -0.019378487444547225 0.044061270676482293 0 -0.018660462676128611 0.043785626330930617 0 -0.019378487444547225 0.044061270676482293 0 -0.019098916283622223 0.043373661846501529 0 -0.019853057366668671 0.04358665161353556 0 -0.019378487444547225 0.044061270676482293 0 -0.019098916283622223 0.043373661846501529 0 -0.020876265925249247 0.053803710561753572 0 -0.015348495326616952 0.050148638488361347 0 -0.018381451383370623 0.055625022222299134 0 -0.016737770505582554 0.056929124166318248 0 -0.01613668796573365 0.055655478916440182 0 -0.018381451383370623 0.055625022222299134 0 -0.01613668796573365 0.055655478916440182 0 -0.016691175697756005 0.054628398342413113 0 -0.018381451383370623 0.055625022222299134 0 -0.016691175697756005 0.054628398342413113 0 -0.018186083197475559 0.054335090767039754 0 -0.01613668796573365 0.055655478916440182 0 -0.015345764599078854 0.0546968119083883 0 -0.016691175697756005 0.054628398342413113 0 -0.01613668796573365 0.055655478916440182 0 -0.014956752450628847 0.05548717873557283 0 -0.015345764599078854 0.0546968119083883 0 -0.015348495326616952 0.050148638488361347 0 -0.011217347779188447 0.054109302408116976 0 -0.016737770505582554 0.056929124166318248 0 -0.01613668796573365 0.055655478916440182 0 -0.014605639192085422 0.055811986504874227 0 -0.0086180624931303587 0.048748571107603736 0 -0.0043515705075448333 0.049609642340659885 0 -0.0096425860982264633 0.051708243649228137 0 -0.0086180624931303587 0.048748571107603736 0 -0.0096425860982264633 0.051708243649228137 0 -0.013653133825243722 0.050992472926071689 0 -0.014549429553986521 0.055369332092284555 0 -0.014449377338325632 0.055531506596146966 0 -0.014956752450628847 0.05548717873557283 0 -0.014242429248336363 0.054965572172064429 0 -0.013208485074046549 0.055716284966409575 0 -0.014605639192085422 0.055811986504874227 0 -0.014956752450628847 0.05548717873557283 0 -0.014527691499072088 0.05471308930824946 0 -0.01613668796573365 0.055655478916440182 0 -0.014605639192085422 0.055811986504874227 0 -0.014956752450628847 0.05548717873557283 0 -0.014956752450628847 0.05548717873557283 0 -0.014242429248336363 0.054965572172064429 0 -0.015345764599078854 0.0546968119083883 0 -0.015068345549513938 0.054083648073815334 0 -0.014605639192085422 0.055811986504874227 0 -0.014527691499072088 0.05471308930824946 0 -0.014242429248336363 0.054965572172064429 0 -0.013208485074046549 0.055716284966409575 0 -0.013367287771057283 0.054758814684277221 0 -0.012328192958458337 0.054762849732245079 0 -0.013208485074046549 0.055716284966409575 0 -0.013367287771057283 0.054758814684277221 0 -0.015068345549513938 0.054083648073815334 0 -0.0096425860982264633 0.051708243649228137 0 -0.013653133825243722 0.050992472926071689 0 -0.015440901241930963 0.054106758996820534 0 -0.011217347779188447 0.054109302408116976 0 -0.014040457436605735 0.053010646959700335 0 -0.013075438177292885 0.053895561084890069 0 -0.014293169782368357 0.05410960592840075 0 -0.012581210052991433 0.052917342878316433 0 -0.014040457436605735 0.053010646959700335 0 -0.013075438177292885 0.053895561084890069 0 -0.012328192958458337 0.054762849732245079 0 -0.013075438177292885 0.053895561084890069 0 -0.013367287771057283 0.054758814684277221 0 -0.014242429248336363 0.054965572172064429 0 -0.013367287771057283 0.054758814684277221 0 -0.014293169782368357 0.05410960592840075 0 -0.013075438177292885 0.053895561084890069 0 -0.013367287771057283 0.054758814684277221 0 -0.014293169782368357 0.05410960592840075 0 -0.014293169782368357 0.05410960592840075 0 -0.015345764599078854 0.0546968119083883 0 -0.015898451967711245 0.053155342711294219 0 -0.014242429248336363 0.054965572172064429 0 -0.014293169782368357 0.05410960592840075 0 -0.015345764599078854 0.0546968119083883 0 -0.014040457436605735 0.053010646959700335 0 -0.015898451967711245 0.053155342711294219 0 -0.014407520112364181 0.051737552214267388 0 -0.014040457436605735 0.053010646959700335 0 -0.014293169782368357 0.05410960592840075 0 -0.015898451967711245 0.053155342711294219 0 -0.015345764599078854 0.0546968119083883 0 -0.015898451967711245 0.053155342711294219 0 -0.016691175697756005 0.054628398342413113 0 -0.016691175697756005 0.054628398342413113 0 -0.018186083197475559 0.054335090767039754 0 -0.018268429673673887 0.053010633118075523 0 -0.015898451967711245 0.053155342711294219 0 -0.016691175697756005 0.054628398342413113 0 -0.018268429673673887 0.053010633118075523 0 -0.015898451967711245 0.053155342711294219 0 -0.017334953931624032 0.051586346972510147 0 -0.018268429673673887 0.053010633118075523 0 -0.017334953931624032 0.051586346972510147 0 -0.015953958951773553 0.04999973756896714 0 -0.0188492510144001 0.049999988565044493 0 -0.017334953931624032 0.051586346972510147 0 -0.015953958951773553 0.04999973756896714 0 -0.014407520112364181 0.051737552214267388 0 -0.015898451967711245 0.053155342711294219 0 -0.017334953931624032 0.051586346972510147 0 -0.014407520112364181 0.051737552214267388 0 -0.015953958951773553 0.04999973756896714 0 -0.014407520112364181 0.051737552214267388 0 -0.013056158956937717 0.049999793739047671 0 -0.012061151860989449 0.05177804412656118 0 -0.014407520112364181 0.051737552214267388 0 -0.013056158956937717 0.049999793739047671 0 -0.012061151860989449 0.05177804412656118 0 -0.012581210052991433 0.052917342878316433 0 -0.014407520112364181 0.051737552214267388 0 -0.012581210052991433 0.052917342878316433 0 -0.014040457436605735 0.053010646959700335 0 -0.014407520112364181 0.051737552214267388 0 -0.022859736050458782 0.052144904601820953 0 -0.021535855089232069 0.052041013106197617 0 -0.023760329595931509 0.049725067327058767 0 -0.02376486500872755 0.050173101055552581 0 -0.023157754477021359 0.050325132780638659 0 -0.023760329595931509 0.049725067327058767 0 -0.024239678604370637 0.050119968213979106 0 -0.02376486500872755 0.050173101055552581 0 -0.022943894153695479 0.053448982621928341 0 -0.023600666024929134 0.053263289600611226 0 -0.023313630909386061 0.052928616435766393 0 -0.023600666024929134 0.053263289600611226 0 -0.024056192899943485 0.053691183561807847 0 -0.024603220208008703 0.052853971936466758 0 -0.022943894153695479 0.053448982621928341 0 -0.023600666024929134 0.053263289600611226 0 -0.024056192899943485 0.053691183561807847 0 -0.024056192899943485 0.053691183561807847 0 -0.024944323752317709 0.053935964036488815 0 -0.024603220208008703 0.052853971936466758 0 -0.024056192899943485 0.053691183561807847 0 -0.024944323752317709 0.053935964036488815 0 -0.024372080222609081 0.054632569090059847 0 -0.027130951699330452 0.052096677806421077 0 -0.026128481940108819 0.051065962068443424 0 -0.022859736050458782 0.052144904601820953 0 -0.026128481940108819 0.051065962068443424 0 -0.022943894153695479 0.053448982621928341 0 -0.024056192899943485 0.053691183561807847 0 -0.024372080222609081 0.054632569090059847 0 -0.030209910935202297 0.050609518852286088 0 -0.030739162161500824 0.050218350012111029 0 -0.030122093334233716 0.050181102906544685 0 -0.024239678604370637 0.050119968213979106 0 -0.023898004162163138 0.050527111608627405 0 -0.02376486500872755 0.050173101055552581 0 -0.029888546632118672 0.050766859532586812 0 -0.030209910935202297 0.050609518852286088 0 -0.030122093334233716 0.050181102906544685 0 -0.026128481940108819 0.051065962068443424 0 -0.027458060408096892 0.050094240078112147 0 -0.023898004162163138 0.050527111608627405 0 -0.02376486500872755 0.050173101055552581 0 -0.023157754477021359 0.050325132780638659 0 -0.018381451383370623 0.055625022222299134 0 -0.020002730872057919 0.054194448289169798 0 -0.018186083197475559 0.054335090767039754 0 -0.020002730872057919 0.054194448289169798 0 -0.018186083197475559 0.054335090767039754 0 -0.019776161553995943 0.052792001275638996 0 -0.018186083197475559 0.054335090767039754 0 -0.018268429673673887 0.053010633118075523 0 -0.019776161553995943 0.052792001275638996 0 -0.021442719134426191 0.052707865999070354 0 -0.020002730872057919 0.054194448289169798 0 -0.019776161553995943 0.052792001275638996 0 -0.017334953931624032 0.051586346972510147 0 -0.018268429673673887 0.053010633118075523 0 -0.019972654879398009 0.051368190727205998 0 -0.021442719134426191 0.052707865999070354 0 -0.019776161553995943 0.052792001275638996 0 -0.019972654879398009 0.051368190727205998 0 -0.017334953931624032 0.051586346972510147 0 -0.019972654879398009 0.051368190727205998 0 -0.0188492510144001 0.049999988565044493 0 -0.018268429673673887 0.053010633118075523 0 -0.019776161553995943 0.052792001275638996 0 -0.019972654879398009 0.051368190727205998 0 -0.020359483604032825 0.051656720345765635 0 -0.018851408921407211 0.050000192225635842 0 -0.020894513768097346 0.05173910895982986 0 -0.01885117353356015 0.050000003878476827 0 -0.021191287365018591 0.049999980181944771 0 -0.020894513768097346 0.05173910895982986 0 -0.021191287365018591 0.049999980181944771 0 -0.022428657233110653 0.05121682528891864 0 -0.021191287365018591 0.049999980181944771 0 -0.022428657233110653 0.05121682528891864 0 -0.023531384011402135 0.049999985204348486 0 -0.022428657233110653 0.05121682528891864 0 -0.023451848230020167 0.05158458188604529 0 -0.023531384011402135 0.049999985204348486 0 -0.022859736050458782 0.052144904601820953 0 -0.020359483604032825 0.051656720345765635 0 -0.022943894153695479 0.053448982621928341 0 -0.020894513768097346 0.05173910895982986 0 -0.02284287695118541 0.052452806903364194 0 -0.020894513768097346 0.05173910895982986 0 -0.022428657233110653 0.05121682528891864 0 -0.02284287695118541 0.052452806903364194 0 -0.022428657233110653 0.05121682528891864 0 -0.02284287695118541 0.052452806903364194 0 -0.023451848230020167 0.05158458188604529 0 -0.02284287695118541 0.052452806903364194 0 -0.023792054571041815 0.052629025153898744 0 -0.023451848230020167 0.05158458188604529 0 -0.022943894153695479 0.053448982621928341 0 -0.02284287695118541 0.052452806903364194 0 -0.023313630909386061 0.052928616435766393 0 -0.02284287695118541 0.052452806903364194 0 -0.023313630909386061 0.052928616435766393 0 -0.023792054571041815 0.052629025153898744 0 -0.024603220208008703 0.052853971936466758 0 -0.023792054571041815 0.052629025153898744 0 -0.024663663627974335 0.05161766594753682 0 -0.023600666024929134 0.053263289600611226 0 -0.024603220208008703 0.052853971936466758 0 -0.023792054571041815 0.052629025153898744 0 -0.023600666024929134 0.053263289600611226 0 -0.023313630909386061 0.052928616435766393 0 -0.023792054571041815 0.052629025153898744 0 -0.023792054571041815 0.052629025153898744 0 -0.023451848230020167 0.05158458188604529 0 -0.024663663627974335 0.05161766594753682 0 -0.023451848230020167 0.05158458188604529 0 -0.024663663627974335 0.05161766594753682 0 -0.023531384011402135 0.049999985204348486 0 -0.024663663627974335 0.05161766594753682 0 -0.023531384011402135 0.049999985204348486 0 -0.025871465259929838 0.049999980737932888 0 -0.024663663627974335 0.05161766594753682 0 -0.025871465259929838 0.049999980737932888 0 -0.026567618374356367 0.051982053169015462 0 -0.02793650553253766 0.051310760734927095 0 -0.028211731801081292 0.050000159738915931 0 -0.025871465259929838 0.049999980737932888 0 -0.026567618374356367 0.051982053169015462 0 -0.028211545744770392 0.049999995412726192 0 -0.029203645259291405 0.050722606531933737 0 -0.029800692416106646 0.050816807271733558 0 -0.028216551843425631 0.049999948987418781 0 -0.029203645259291405 0.050722606531933737 0 -0.02960538844672269 0.05076531940342021 0 -0.029800692416106646 0.050816807271733558 0 -0.024603220208008703 0.052853971936466758 0 -0.024663663627974335 0.05161766594753682 0 -0.026567618374356367 0.051982053169015462 0 -0.024944323752317709 0.053935964036488815 0 -0.024603220208008703 0.052853971936466758 0 -0.026567618374356367 0.051982053169015462 0 -0.027130951699330452 0.052096677806421077 0 -0.02793650553253766 0.051310760734927095 0 -0.029888546632118672 0.050766859532586812 0 -0.029203645259291405 0.050722606531933737 0 -0.02960538844672269 0.05076531940342021 0 -0.029888546632118672 0.050766859532586812 0 -0.02960538844672269 0.05076531940342021 0 -0.029797622098490462 0.050533723005202411 0 -0.02960538844672269 0.05076531940342021 0 -0.029797622098490462 0.050533723005202411 0 -0.029663163664913544 0.050277299160651184 0 -0.02960538844672269 0.05076531940342021 0 -0.029663163664913544 0.050277299160651184 0 -0.02967756421108016 0.050518572896171697 0 -0.029888546632118672 0.050766859532586812 0 -0.029797622098490462 0.050533723005202411 0 -0.030122093334233716 0.050181102906544685 0 -0.029797622098490462 0.050533723005202411 0 -0.030122093334233716 0.050181102906544685 0 -0.029663163664913544 0.050277299160651184 0 -0.030366244688233422 0.050939909898449334 0 -0.02967756421108016 0.050518572896171697 0 -0.030392908552510367 0.050643346462942301 0 -0.02960538844672269 0.05076531940342021 0 -0.030366244688233422 0.050939909898449334 0 -0.02967756421108016 0.050518572896171697 0 -0.02960538844672269 0.05076531940342021 0 -0.030366244688233422 0.050939909898449334 0 -0.029800692416106646 0.050816807271733558 0 -0.030366244688233422 0.050939909898449334 0 -0.029800692416106646 0.050816807271733558 0 -0.031828093761561108 0.051035968944550064 0 -0.029800692416106646 0.050816807271733558 0 -0.031423515092372657 0.049999156102568797 0 -0.031828093761561108 0.051035968944550064 0 -0.029800692416106646 0.050816807271733558 0 -0.028216551843425631 0.049999948987418781 0 -0.031423515092372657 0.049999156102568797 0 -0.031423515092372657 0.049999156102568797 0 -0.033601858979349489 0.050926414455911249 0 -0.031828093761561108 0.051035968944550064 0 -0.031423515092372657 0.049999156102568797 0 -0.033601858979349489 0.050926414455911249 0 -0.035812287218072808 0.049998532768382328 0 -0.033601858979349489 0.050926414455911249 0 -0.031828093761561108 0.051035968944550064 0 -0.033592007077782308 0.051890122061194213 0 -0.035812287218072808 0.049998532768382328 0 -0.036234226684429889 0.05176205414384194 0 -0.03954052356622214 0.051538160651098855 0 -0.033601858979349489 0.050926414455911249 0 -0.035812287218072808 0.049998532768382328 0 -0.036234226684429889 0.05176205414384194 0 -0.033601858979349489 0.050926414455911249 0 -0.036234226684429889 0.05176205414384194 0 -0.033592007077782308 0.051890122061194213 0 -0.033624003127559567 0.051968475427121436 0 -0.034337578970670406 0.052654878127121593 0 -0.036234226684429889 0.05176205414384194 0 -0.033592007077782308 0.051890122061194213 0 -0.036196922196988883 0.054351974811043806 0 -0.032465915401833786 0.051134151623829241 0 -0.032304494368362878 0.051099940446477282 0 -0.032333836020251784 0.051027591517378762 0 -0.033592007077782308 0.051890122061194213 0 -0.032465915401833786 0.051134151623829241 0 -0.032304494368362878 0.051099940446477282 0 -0.032465915401833786 0.051134151623829241 0 -0.032451150623003189 0.050968539905296595 0 -0.032627429348586222 0.050974282682923436 0 -0.032465915401833786 0.051134151623829241 0 -0.032451150623003189 0.050968539905296595 0 -0.032333836020251784 0.051027591517378762 0 -0.030366244688233422 0.050939909898449334 0 -0.031828093761561108 0.051035968944550064 0 -0.031603204568330191 0.051133802712851777 0 -0.031828093761561108 0.051035968944550064 0 -0.033592007077782308 0.051890122061194213 0 -0.031603204568330191 0.051133802712851777 0 -0.033592007077782308 0.051890122061194213 0 -0.032304494368362878 0.051099940446477282 0 -0.031603204568330191 0.051133802712851777 0 -0.032304494368362878 0.051099940446477282 0 -0.031603204568330191 0.051133802712851777 0 -0.031400009410714004 0.050916721318902916 0 -0.031603204568330191 0.051133802712851777 0 -0.031400009410714004 0.050916721318902916 0 -0.030392908552510367 0.050643346462942301 0 -0.030366244688233422 0.050939909898449334 0 -0.031603204568330191 0.051133802712851777 0 -0.030392908552510367 0.050643346462942301 0 -0.031400009410714004 0.050916721318902916 0 -0.031534250631386769 0.050949343101106652 0 -0.030392908552510367 0.050643346462942301 0 -0.032304494368362878 0.051099940446477282 0 -0.031400009410714004 0.050916721318902916 0 -0.031534250631386769 0.050949343101106652 0 -0.031534250631386769 0.050949343101106652 0 -0.030689530005799184 0.050817515125792703 0 -0.03144261616373082 0.051107078943132364 0 -0.031534250631386769 0.050949343101106652 0 -0.031858923283804651 0.051130131426739646 0 -0.03144261616373082 0.051107078943132364 0 -0.031534250631386769 0.050949343101106652 0 -0.030689530005799184 0.050817515125792703 0 -0.030392908552510367 0.050643346462942301 0 -0.032451150623003189 0.050968539905296595 0 -0.032370154987664698 0.051027027317814458 0 -0.032712762013941701 0.050937344927184949 0 -0.032451150623003189 0.050968539905296595 0 -0.032146233082992359 0.050976847644060928 0 -0.032333836020251784 0.051027591517378762 0 -0.032451150623003189 0.050968539905296595 0 -0.032146233082992359 0.050976847644060928 0 -0.032370154987664698 0.051027027317814458 0 -0.032304494368362878 0.051099940446477282 0 -0.031534250631386769 0.050949343101106652 0 -0.032146233082992359 0.050976847644060928 0 -0.032304494368362878 0.051099940446477282 0 -0.032146233082992359 0.050976847644060928 0 -0.032333836020251784 0.051027591517378762 0 -0.032146233082992359 0.050976847644060928 0 -0.031858923283804651 0.051130131426739646 0 -0.032166591370519471 0.051129894587729763 0 -0.031534250631386769 0.050949343101106652 0 -0.032146233082992359 0.050976847644060928 0 -0.031858923283804651 0.051130131426739646 0 -0.032146233082992359 0.050976847644060928 0 -0.032370154987664698 0.051027027317814458 0 -0.032166591370519471 0.051129894587729763 0 -0.032370154987664698 0.051027027317814458 0 -0.032166591370519471 0.051129894587729763 0 -0.032410605566431147 0.051228843227358073 0 -0.032370154987664698 0.051027027317814458 0 -0.032410605566431147 0.051228843227358073 0 -0.032712762013941701 0.050937344927184949 0 -0.0394865123686799 0.046611464250319201 0 -0.044444420445626652 0.04420657972012465 0 -0.032990484974868332 0.050912929333888239 0 -0.032947084354626698 0.050979133249403154 0 -0.033250313555043744 0.051141171193912656 0 -0.032410605566431147 0.051228843227358073 0 -0.032180106501706475 0.051429456499817533 0 -0.032071091256928884 0.051287694758396528 0 -0.032122434903987494 0.05216003717175486 0 -0.0394865123686799 0.046611464250319201 0 -0.032166591370519471 0.051129894587729763 0 -0.032410605566431147 0.051228843227358073 0 -0.032071091256928884 0.051287694758396528 0 -0.032180106501706475 0.051429456499817533 0 -0.032071091256928884 0.051287694758396528 0 -0.032022115990887036 0.051478696923849314 0 -0.032071091256928884 0.051287694758396528 0 -0.03172386777929858 0.05134570147177487 0 -0.032022115990887036 0.051478696923849314 0 -0.031858923283804651 0.051130131426739646 0 -0.032166591370519471 0.051129894587729763 0 -0.032071091256928884 0.051287694758396528 0 -0.031858923283804651 0.051130131426739646 0 -0.032071091256928884 0.051287694758396528 0 -0.03172386777929858 0.05134570147177487 0 -0.031858923283804651 0.051130131426739646 0 -0.03172386777929858 0.05134570147177487 0 -0.03144261616373082 0.051107078943132364 0 -0.03224231115249715 0.051399810459870271 0 -0.032022115990887036 0.051478696923849314 0 -0.031710706601558877 0.051887440289528512 0 -0.0394865123686799 0.046611464250319201 0 -0.042843701738134683 0.044976303837240272 0 -0.031601468148740881 0.051632332116850241 0 -0.032022115990887036 0.051478696923849314 0 -0.031710706601558877 0.051887440289528512 0 -0.03172386777929858 0.05134570147177487 0 -0.031601468148740881 0.051632332116850241 0 -0.032022115990887036 0.051478696923849314 0 -0.054035633032368087 0.038106652798068144 0 -0.05487899000346342 0.038545677027580577 0 -0.053073414941630724 0.039040515886148319 0 -0.0394865123686799 0.046611464250319201 0 -0.033135979865362403 0.05036535393708811 0 -0.030689530005799184 0.050817515125792703 0 -0.03122076407288615 0.051470271671459303 0 -0.030301528312004739 0.051820261456697769 0 -0.030689530005799184 0.050817515125792703 0 -0.03144261616373082 0.051107078943132364 0 -0.03122076407288615 0.051470271671459303 0 -0.03172386777929858 0.05134570147177487 0 -0.03144261616373082 0.051107078943132364 0 -0.03122076407288615 0.051470271671459303 0 -0.031601468148740881 0.051632332116850241 0 -0.03122076407288615 0.051470271671459303 0 -0.031208533666556359 0.05191045519720601 0 -0.03172386777929858 0.05134570147177487 0 -0.031601468148740881 0.051632332116850241 0 -0.03122076407288615 0.051470271671459303 0 -0.03122076407288615 0.051470271671459303 0 -0.030301528312004739 0.051820261456697769 0 -0.031208533666556359 0.05191045519720601 0 -0.028525108000818023 0.04913513967314815 0 -0.028831432600981404 0.049993288318947511 0 -0.030689530005799184 0.050817515125792703 0 -0.030301528312004739 0.051820261456697769 0 -0.028943965527954588 0.050079083817958565 0 -0.026533213020386973 0.046770250229985551 0 -0.028962342492602149 0.048122365505510571 0 -0.028943965527954588 0.050079083817958565 0 -0.028962342492602149 0.048122365505510571 0 -0.029409259360162622 0.049703081927387802 0 -0.028943965527954588 0.050079083817958565 0 -0.026533213020386973 0.046770250229985551 0 -0.028962342492602149 0.048122365505510571 0 -0.027993671729705037 0.045831285860501156 0 -0.028994234801663698 0.046506325673789657 0 -0.028962342492602149 0.048122365505510571 0 -0.027993671729705037 0.045831285860501156 0 -0.028994234801663698 0.046506325673789657 0 -0.029569171178821903 0.04734909266486529 0 -0.028962342492602149 0.048122365505510571 0 -0.028994234801663698 0.046506325673789657 0 -0.029569171178821903 0.04734909266486529 0 -0.029491894931411081 0.04570124746722002 0 -0.030301149488769556 0.046498865553916871 0 -0.029569171178821903 0.04734909266486529 0 -0.029491894931411081 0.04570124746722002 0 -0.030301149488769556 0.046498865553916871 0 -0.030285881594948189 0.048483663133542174 0 -0.029569171178821903 0.04734909266486529 0 -0.030285881594948189 0.048483663133542174 0 -0.029569171178821903 0.04734909266486529 0 -0.029676981898414809 0.048749376777917235 0 -0.029676981898414809 0.048749376777917235 0 -0.028962342492602149 0.048122365505510571 0 -0.029409259360162622 0.049703081927387802 0 -0.029569171178821903 0.04734909266486529 0 -0.029676981898414809 0.048749376777917235 0 -0.028962342492602149 0.048122365505510571 0 -0.029676981898414809 0.048749376777917235 0 -0.029409259360162622 0.049703081927387802 0 -0.029977962298149221 0.049570848409342595 0 -0.030285881594948189 0.048483663133542174 0 -0.029676981898414809 0.048749376777917235 0 -0.029977962298149221 0.049570848409342595 0 -0.029977962298149221 0.049570848409342595 0 -0.030122093334233716 0.050181102906544685 0 -0.029663163664913544 0.050277299160651184 0 -0.029409259360162622 0.049703081927387802 0 -0.029977962298149221 0.049570848409342595 0 -0.029663163664913544 0.050277299160651184 0 -0.029409259360162622 0.049703081927387802 0 -0.029663163664913544 0.050277299160651184 0 -0.02967756421108016 0.050518572896171697 0 -0.02967756421108016 0.050518572896171697 0 -0.030392908552510367 0.050643346462942301 0 -0.028943965527954588 0.050079083817958565 0 -0.030689530005799184 0.050817515125792703 0 -0.030392908552510367 0.050643346462942301 0 -0.028943965527954588 0.050079083817958565 0 -0.029409259360162622 0.049703081927387802 0 -0.02967756421108016 0.050518572896171697 0 -0.028943965527954588 0.050079083817958565 0 -0.049999936656341788 0.049993280135157914 0 -0.047035676417298659 0.050345540397464493 0 -0.041811979283405729 0.04999927413075634 0 -0.048230276995912487 0.049847292932914303 0 -0.049996589366310941 0.046621249507229914 0 -0.047035676417298659 0.050345540397464493 0 -0.049999908209436755 0.044088270432597013 0 -0.051570221851846385 0.044457647524476694 0 -0.051783239857011561 0.04334251009419237 0 -0.050000825398471935 0.04408788444783817 0 -0.050026785642049071 0.048448293484874644 0 -0.050026785642049071 0.048448293484874644 0 -0.049721140018762613 0.049195405572550879 0 -0.051570221851846385 0.044457647524476694 0 -0.052208584506856351 0.043732691025706372 0 -0.051783239857011561 0.04334251009419237 0 -0.050026785642049071 0.048448293484874644 0 -0.050000200356570018 0.046606766722646534 0 -0.049999987633950964 0.044089653071259262 0 -0.052116397021066657 0.04545297479264529 0 -0.049999974889305659 0.046606662268781532 0 -0.049996589366310941 0.046621249507229914 0 -0.049999936656341788 0.049993280135157914 0 -0.047035676417298659 0.050345540397464493 0 -0.04608947781148106 0.051348936592570747 0 -0.047035676417298659 0.050345540397464493 0 -0.043391799299848766 0.051076968089647387 0 -0.047035676417298659 0.050345540397464493 0 -0.043391799299848766 0.051076968089647387 0 -0.041811979283405729 0.04999927413075634 0 -0.04608947781148106 0.051348936592570747 0 -0.04403400203918649 0.053552452971695162 0 -0.043391799299848766 0.051076968089647387 0 -0.04608947781148106 0.051348936592570747 0 -0.046864435569098167 0.054755572417158428 0 -0.04403400203918649 0.053552452971695162 0 -0.049412631750060713 0.053337106781158883 0 -0.04608947781148106 0.051348936592570747 0 -0.046864435569098167 0.054755572417158428 0 -0.050026785642049071 0.048448293484874644 0 -0.045904195462373863 0.052095022693634287 0 -0.048230276995912487 0.049847292932914303 0 -0.04608947781148106 0.051348936592570747 0 -0.047035676417298659 0.050345540397464493 0 -0.046864435569098167 0.054755572417158428 0 -0.04403400203918649 0.053552452971695162 0 -0.044465588172042096 0.056007963241987986 0 -0.049721140018762613 0.049195405572550879 0 -0.047561139321088138 0.050368404188542867 0 -0.042239146183573106 0.055282387694073468 0 -0.041449627915321322 0.053333103190039317 0 -0.04403400203918649 0.053552452971695162 0 -0.042239146183573106 0.055282387694073468 0 -0.04403400203918649 0.053552452971695162 0 -0.044465588172042096 0.056007963241987986 0 -0.042239146183573106 0.055282387694073468 0 -0.041449627915321322 0.053333103190039317 0 -0.040415628047798323 0.055045178179100464 0 -0.042239146183573106 0.055282387694073468 0 -0.040415628047798323 0.055045178179100464 0 -0.040896362655247716 0.05630685151547897 0 -0.041449627915321322 0.053333103190039317 0 -0.04403400203918649 0.053552452971695162 0 -0.043391799299848766 0.051076968089647387 0 -0.043391799299848766 0.051076968089647387 0 -0.041811979283405729 0.04999927413075634 0 -0.03954052356622214 0.051538160651098855 0 -0.041449627915321322 0.053333103190039317 0 -0.043391799299848766 0.051076968089647387 0 -0.03954052356622214 0.051538160651098855 0 -0.035812287218072808 0.049998532768382328 0 -0.041811979283405729 0.04999927413075634 0 -0.03954052356622214 0.051538160651098855 0 -0.036234226684429889 0.05176205414384194 0 -0.03954052356622214 0.051538160651098855 0 -0.038914088121105722 0.053777901298997115 0 -0.036234226684429889 0.05176205414384194 0 -0.036196922196988883 0.054351974811043806 0 -0.038914088121105722 0.053777901298997115 0 -0.041449627915321322 0.053333103190039317 0 -0.03954052356622214 0.051538160651098855 0 -0.038914088121105722 0.053777901298997115 0 -0.041449627915321322 0.053333103190039317 0 -0.038914088121105722 0.053777901298997115 0 -0.040415628047798323 0.055045178179100464 0 -0.038914088121105722 0.053777901298997115 0 -0.040415628047798323 0.055045178179100464 0 -0.039311808613349701 0.055216983747351948 0 -0.040415628047798323 0.055045178179100464 0 -0.039311808613349701 0.055216983747351948 0 -0.039746487061866211 0.05603155523788645 0 -0.034337578970670406 0.052654878127121593 0 -0.035276681990142611 0.053904826107357889 0 -0.038914088121105722 0.053777901298997115 0 -0.039311808613349701 0.055216983747351948 0 -0.038168789355020646 0.056016943378399665 0 -0.036196922196988883 0.054351974811043806 0 -0.038914088121105722 0.053777901298997115 0 -0.038168789355020646 0.056016943378399665 0 -0.032451150623003189 0.050968539905296595 0 -0.032627429348586222 0.050974282682923436 0 -0.032712762013941701 0.050937344927184949 0 -0.032627429348586222 0.050974282682923436 0 -0.032635069578945228 0.050933798159472438 0 -0.032712762013941701 0.050937344927184949 0 -0.039311808613349701 0.055216983747351948 0 -0.038168789355020646 0.056016943378399665 0 -0.039746487061866211 0.05603155523788645 0 -0.035276681990142611 0.053904826107357889 0 -0.03861455351746651 0.050579436338773216 0 -0.038168789355020646 0.056016943378399665 0 -0.039746487061866211 0.05603155523788645 0 -0.040033498034743667 0.057666864475819535 0 -0.040415628047798323 0.055045178179100464 0 -0.039746487061866211 0.05603155523788645 0 -0.040896362655247716 0.05630685151547897 0 -0.039746487061866211 0.05603155523788645 0 -0.040033498034743667 0.057666864475819535 0 -0.040896362655247716 0.05630685151547897 0 -0.048352606016415701 0.045469702582253642 0 -0.044444420445626652 0.04420657972012465 0 -0.034463393808288521 0.050213630194392574 0 -0.03476771564459194 0.050462296293289195 0 -0.033250313555043744 0.051141171193912656 0 -0.03861455351746651 0.050579436338773216 0 -0.048352606016415701 0.045469702582253642 0 -0.032635069578945228 0.050933798159472438 0 -0.032712762013941701 0.050937344927184949 0 -0.032845638843214661 0.05086717927341159 0 -0.03861455351746651 0.050579436338773216 0 -0.030863463603459353 0.051070008101516622 0 -0.034463393808288521 0.050213630194392574 0 -0.032845638843214661 0.05086717927341159 0 -0.033250313555043744 0.051141171193912656 0 -0.032990484974868332 0.050912929333888239 0 -0.032712762013941701 0.050937344927184949 0 -0.032845638843214661 0.05086717927341159 0 -0.032122434903987494 0.05216003717175486 0 -0.032936241650887182 0.050589270468389021 0 -0.032990484974868332 0.050912929333888239 0 -0.032845638843214661 0.05086717927341159 0 -0.033250313555043744 0.051141171193912656 0 -0.055078803743931093 0.038103170455989023 0 -0.05487899000346342 0.038545677027580577 0 -0.055706847749338928 0.038443350409606877 0 -0.054035633032368087 0.038106652798068144 0 -0.055078803743931093 0.038103170455989023 0 -0.05487899000346342 0.038545677027580577 0 -0.05487899000346342 0.038545677027580577 0 -0.055706847749338928 0.038443350409606877 0 -0.055936994416246527 0.038157186126178584 0 -0.055586809321099107 0.038399211107067517 0 -0.055078803743931093 0.038103170455989023 0 -0.055706847749338928 0.038443350409606877 0 -0.055586809321099107 0.038399211107067517 0 -0.055706847749338928 0.038443350409606877 0 -0.055461354646278653 0.038959080122074774 0 -0.055706847749338928 0.038443350409606877 0 -0.055236304918574328 0.038003743386689152 0 -0.055461354646278653 0.038959080122074774 0 -0.055706847749338928 0.038443350409606877 0 -0.055236304918574328 0.038003743386689152 0 -0.055936994416246527 0.038157186126178584 0 -0.055236304918574328 0.038003743386689152 0 -0.055461354646278653 0.038959080122074774 0 -0.054023252178096351 0.039174719806557602 0 -0.055461354646278653 0.038959080122074774 0 -0.054487434701558382 0.040492726412649713 0 -0.054023252178096351 0.039174719806557602 0 -0.055666745545831793 0.041291136770369719 0 -0.053835151413346008 0.042052077881684073 0 -0.054487434701558382 0.040492726412649713 0 -0.055461354646278653 0.038959080122074774 0 -0.055666745545831793 0.041291136770369719 0 -0.054487434701558382 0.040492726412649713 0 -0.03861455351746651 0.050579436338773216 0 -0.050244371864868055 0.047160711875228516 0 -0.057013710988093026 0.040506841774837078 0 -0.055461354646278653 0.038959080122074774 0 -0.055666745545831793 0.041291136770369719 0 -0.043431320855716542 0.048643475017238848 0 -0.044746709109679546 0.049893654024723601 0 -0.049954261257432103 0.04707968944487919 0 -0.048352606016415701 0.045469702582253642 0 -0.05715666375816103 0.038136879044166037 0 -0.048352606016415701 0.045469702582253642 0 -0.050244371864868055 0.047160711875228516 0 -0.042239146183573106 0.055282387694073468 0 -0.042275437551010091 0.057145342810981339 0 -0.040896362655247716 0.05630685151547897 0 -0.040033498034743667 0.057666864475819535 0 -0.042275437551010091 0.057145342810981339 0 -0.040896362655247716 0.05630685151547897 0 -0.051767329530527179 0.043991969813949733 0 -0.052142573123086781 0.043668764701834846 0 -0.052267426858729038 0.043675692444061658 0 -0.042239146183573106 0.055282387694073468 0 -0.042275437551010091 0.057145342810981339 0 -0.044465588172042096 0.056007963241987986 0 -0.050244371864868055 0.047160711875228516 0 -0.047561139321088138 0.050368404188542867 0 -0.050244371864868055 0.047160711875228516 0 -0.05390030365459357 0.042169155793842575 0 -0.052208584506856351 0.043732691025706372 0 -0.052142573123086781 0.043668764701834846 0 -0.052267426858729038 0.043675692444061658 0 -0.053835151413346008 0.042052077881684073 0 -0.052688016750857845 0.041721559192954186 0 -0.053632080495961153 0.040857656828188794 0 -0.053835151413346008 0.042052077881684073 0 -0.052688016750857845 0.041721559192954186 0 -0.051783239857011561 0.04334251009419237 0 -0.05390030365459357 0.042169155793842575 0 -0.051374758674489977 0.043543401840096536 0 -0.052208584506856351 0.043732691025706372 0 -0.052267426858729038 0.043675692444061658 0 -0.051783239857011561 0.04334251009419237 0 -0.052688016750857845 0.041721559192954186 0 -0.052803774469603521 0.040604158550718021 0 -0.053632080495961153 0.040857656828188794 0 -0.054487434701558382 0.040492726412649713 0 -0.053632080495961153 0.040857656828188794 0 -0.054023252178096351 0.039174719806557602 0 -0.052803774469603521 0.040604158550718021 0 -0.053632080495961153 0.040857656828188794 0 -0.054023252178096351 0.039174719806557602 0 -0.053835151413346008 0.042052077881684073 0 -0.054487434701558382 0.040492726412649713 0 -0.053632080495961153 0.040857656828188794 0 -0.055236304918574328 0.038003743386689152 0 -0.054023252178096351 0.039174719806557602 0 -0.053743659859278717 0.037529420723599223 0 -0.054023252178096351 0.039174719806557602 0 -0.052156218916495016 0.038727922074854405 0 -0.053743659859278717 0.037529420723599223 0 -0.052156218916495016 0.038727922074854405 0 -0.052428375894201552 0.036603513686607754 0 -0.053743659859278717 0.037529420723599223 0 -0.053958326283995654 0.039182017919225522 0 -0.052165909128523064 0.038937418357870832 0 -0.052803774469603521 0.040604158550718021 0 -0.054023252178096351 0.039174719806557602 0 -0.052160850565995086 0.039158264004677208 0 -0.052156218916495016 0.038727922074854405 0 -0.051133109398659712 0.037260850122625956 0 -0.052428375894201552 0.036603513686607754 0 -0.052156218916495016 0.038727922074854405 0 -0.04999990606270209 0.038601502572411857 0 -0.051133109398659712 0.037260850122625956 0 -0.052165909128523064 0.038937418357870832 0 -0.050000273631367761 0.038602264092773286 0 -0.052160850565995086 0.039158264004677208 0 -0.049999785056145385 0.038602824481517257 0 -0.049999725710368217 0.041345718912235242 0 -0.052803774469603521 0.040604158550718021 0 -0.052160850565995086 0.039158264004677208 0 -0.051580721948783631 0.041651591030025227 0 -0.052160850565995086 0.039158264004677208 0 -0.049999725710368217 0.041345718912235242 0 -0.051580721948783631 0.041651591030025227 0 -0.052688016750857845 0.041721559192954186 0 -0.052803774469603521 0.040604158550718021 0 -0.051580721948783631 0.041651591030025227 0 -0.052688016750857845 0.041721559192954186 0 -0.051580721948783631 0.041651591030025227 0 -0.051783239857011561 0.04334251009419237 0 -0.049999908209436755 0.044088270432597013 0 -0.049999725710368217 0.041345718912235242 0 -0.051580721948783631 0.041651591030025227 0 -0.049999908209436755 0.044088270432597013 0 -0.051580721948783631 0.041651591030025227 0 -0.051783239857011561 0.04334251009419237 0 -0.049999786598885917 0.031268089227564515 0 -0.051609262670341348 0.032885892096850139 0 -0.049999808592165691 0.033713050002552661 0 -0.049999786598885917 0.031268089227564515 0 -0.051609262670341348 0.032885892096850139 0 -0.051652906667365016 0.030371597510091813 0 -0.051609262670341348 0.032885892096850139 0 -0.053520639064396289 0.031827805239120974 0 -0.051652906667365016 0.030371597510091813 0 -0.051609262670341348 0.032885892096850139 0 -0.051226597416509187 0.035118698557279796 0 -0.053385061261665825 0.034773490871776128 0 -0.051609262670341348 0.032885892096850139 0 -0.049999808592165691 0.033713050002552661 0 -0.051226597416509187 0.035118698557279796 0 -0.049999808592165691 0.033713050002552661 0 -0.051226597416509187 0.035118698557279796 0 -0.049999836358034788 0.036157776694467882 0 -0.051226597416509187 0.035118698557279796 0 -0.051133109398659712 0.037260850122625956 0 -0.049999836358034788 0.036157776694467882 0 -0.04999990606270209 0.038601502572411857 0 -0.051133109398659712 0.037260850122625956 0 -0.049999836358034788 0.036157776694467882 0 -0.051226597416509187 0.035118698557279796 0 -0.051133109398659712 0.037260850122625956 0 -0.052428375894201552 0.036603513686607754 0 -0.051226597416509187 0.035118698557279796 0 -0.052428375894201552 0.036603513686607754 0 -0.053385061261665825 0.034773490871776128 0 -0.052428375894201552 0.036603513686607754 0 -0.053628047369181732 0.036178581041476095 0 -0.053385061261665825 0.034773490871776128 0 -0.052428375894201552 0.036603513686607754 0 -0.053743659859278717 0.037529420723599223 0 -0.053628047369181732 0.036178581041476095 0 -0.053743659859278717 0.037529420723599223 0 -0.053628047369181732 0.036178581041476095 0 -0.054534097659007554 0.036556114892687584 0 -0.053628047369181732 0.036178581041476095 0 -0.053385061261665825 0.034773490871776128 0 -0.054480741769969684 0.035158062119526226 0 -0.053628047369181732 0.036178581041476095 0 -0.054480741769969684 0.035158062119526226 0 -0.054534097659007554 0.036556114892687584 0 -0.053385061261665825 0.034773490871776128 0 -0.054233819765470252 0.033505992941913525 0 -0.054480741769969684 0.035158062119526226 0 -0.053402141236135618 0.034607209935121647 0 -0.053224837870602934 0.032656326592174503 0 -0.051609262670341348 0.032885892096850139 0 -0.053385061261665825 0.034773490871776128 0 -0.053520639064396289 0.031827805239120974 0 -0.053385061261665825 0.034773490871776128 0 -0.052986158818592442 0.033532278141619902 0 -0.054233819765470252 0.033505992941913525 0 -0.054233819765470252 0.033505992941913525 0 -0.055549299550115186 0.034356626785413978 0 -0.054480741769969684 0.035158062119526226 0 -0.054233819765470252 0.033505992941913525 0 -0.055549299550115186 0.034356626785413978 0 -0.055606362888965991 0.032800009091961076 0 -0.055549299550115186 0.034356626785413978 0 -0.055582501067092754 0.036289810422019675 0 -0.056754818046830427 0.035188373501647933 0 -0.055549299550115186 0.034356626785413978 0 -0.054480741769969684 0.035158062119526226 0 -0.055582501067092754 0.036289810422019675 0 -0.054480741769969684 0.035158062119526226 0 -0.054534097659007554 0.036556114892687584 0 -0.055582501067092754 0.036289810422019675 0 -0.055236304918574328 0.038003743386689152 0 -0.053743659859278717 0.037529420723599223 0 -0.054534097659007554 0.036556114892687584 0 -0.055236304918574328 0.038003743386689152 0 -0.054534097659007554 0.036556114892687584 0 -0.055582501067092754 0.036289810422019675 0 -0.055236304918574328 0.038003743386689152 0 -0.055582501067092754 0.036289810422019675 0 -0.055936994416246527 0.038157186126178584 0 -0.055582501067092754 0.036289810422019675 0 -0.057372815962301676 0.036431077115347564 0 -0.056754818046830427 0.035188373501647933 0 -0.055582501067092754 0.036289810422019675 0 -0.055936994416246527 0.038157186126178584 0 -0.057372815962301676 0.036431077115347564 0 -0.055942765066249948 0.038208995441412867 0 -0.056287834142453072 0.038042627231853927 0 -0.05487899000346342 0.038545677027580577 0 -0.055936994416246527 0.038157186126178584 0 -0.055182425099960179 0.039712723257957966 0 -0.05487899000346342 0.038545677027580577 0 -0.055182425099960179 0.039712723257957966 0 -0.053917905513604293 0.039724391091934499 0 -0.056287834142453072 0.038042627231853927 0 -0.056071809688151591 0.038199210948009862 0 -0.057372815962301676 0.036431077115347564 0 -0.056754818046830427 0.035188373501647933 0 -0.058473638364592483 0.035103497531482099 0 -0.056754818046830427 0.035188373501647933 0 -0.056861948225551878 0.033819061597685163 0 -0.058473638364592483 0.035103497531482099 0 -0.055549299550115186 0.034356626785413978 0 -0.056754818046830427 0.035188373501647933 0 -0.056861948225551878 0.033819061597685163 0 -0.055549299550115186 0.034356626785413978 0 -0.056861948225551878 0.033819061597685163 0 -0.055606362888965991 0.032800009091961076 0 -0.056861948225551878 0.033819061597685163 0 -0.058473638364592483 0.035103497531482099 0 -0.058245411624833647 0.033753112650213496 0 -0.056861948225551878 0.033819061597685163 0 -0.056782660819879358 0.031885514079521657 0 -0.058245411624833647 0.033753112650213496 0 -0.056861948225551878 0.033819061597685163 0 -0.056782660819879358 0.031885514079521657 0 -0.055606362888965991 0.032800009091961076 0 -0.056782660819879358 0.031885514079521657 0 -0.055683562748955695 0.0316761753923833 0 -0.055606362888965991 0.032800009091961076 0 -0.056782660819879358 0.031885514079521657 0 -0.056281357138520068 0.030966724339357685 0 -0.055683562748955695 0.0316761753923833 0 -0.056662325358759459 0.031790692459024043 0 -0.055631491742832127 0.030225727575710921 0 -0.056782660819879358 0.031885514079521657 0 -0.056885659599054533 0.028982574095850047 0 -0.054970841257575523 0.029638953815656351 0 -0.056782660819879358 0.031885514079521657 0 -0.056885659599054533 0.028982574095850047 0 -0.05844581661491341 0.03052693900081143 0 -0.056885659599054533 0.028982574095850047 0 -0.055236890844966906 0.027957057985304842 0 -0.055726706918531758 0.026312226789151839 0 -0.056885659599054533 0.028982574095850047 0 -0.058074340534535987 0.027408451043043333 0 -0.055726706918531758 0.026312226789151839 0 -0.055236890844966906 0.027957057985304842 0 -0.053243083055712757 0.026858347193367473 0 -0.055726706918531758 0.026312226789151839 0 -0.056885659599054533 0.028982574095850047 0 -0.055236890844966906 0.027957057985304842 0 -0.054970841257575523 0.029638953815656351 0 -0.055236890844966906 0.027957057985304842 0 -0.054970841257575523 0.029638953815656351 0 -0.053243083055712757 0.026858347193367473 0 -0.055631491742832127 0.030225727575710921 0 -0.054450305545241662 0.028664832323864624 0 -0.056281357138520068 0.030966724339357685 0 -0.055215910313744808 0.031026622402062217 0 -0.055252369068265764 0.030354795093373885 0 -0.055215910313744808 0.031026622402062217 0 -0.054628660519795556 0.031821447842136655 0 -0.055683562748955695 0.0316761753923833 0 -0.056281357138520068 0.030966724339357685 0 -0.055215910313744808 0.031026622402062217 0 -0.055683562748955695 0.0316761753923833 0 -0.055716016404193547 0.029808535497095029 0 -0.055252369068265764 0.030354795093373885 0 -0.054778657429482069 0.02970773005790471 0 -0.056281357138520068 0.030966724339357685 0 -0.055716016404193547 0.029808535497095029 0 -0.055252369068265764 0.030354795093373885 0 -0.054446957065256846 0.030559826907367405 0 -0.053742170266735202 0.029637989124006964 0 -0.054778657429482069 0.02970773005790471 0 -0.055252369068265764 0.030354795093373885 0 -0.054446957065256846 0.030559826907367405 0 -0.054778657429482069 0.02970773005790471 0 -0.054446957065256846 0.030559826907367405 0 -0.054628660519795556 0.031821447842136655 0 -0.05356099725036783 0.031177938546635808 0 -0.055215910313744808 0.031026622402062217 0 -0.054446957065256846 0.030559826907367405 0 -0.054628660519795556 0.031821447842136655 0 -0.055215910313744808 0.031026622402062217 0 -0.055252369068265764 0.030354795093373885 0 -0.054446957065256846 0.030559826907367405 0 -0.054628660519795556 0.031821447842136655 0 -0.055683562748955695 0.0316761753923833 0 -0.055606362888965991 0.032800009091961076 0 -0.054233819765470252 0.033505992941913525 0 -0.054628660519795556 0.031821447842136655 0 -0.055606362888965991 0.032800009091961076 0 -0.052986158818592442 0.033532278141619902 0 -0.054233819765470252 0.033505992941913525 0 -0.053664045107387426 0.03243866662248604 0 -0.054233819765470252 0.033505992941913525 0 -0.054628660519795556 0.031821447842136655 0 -0.053664045107387426 0.03243866662248604 0 -0.052986158818592442 0.033532278141619902 0 -0.052635826467654252 0.032092264475001388 0 -0.053664045107387426 0.03243866662248604 0 -0.053224837870602934 0.032656326592174503 0 -0.05297044317755234 0.030787502430078037 0 -0.052635826467654252 0.032092264475001388 0 -0.053664045107387426 0.03243866662248604 0 -0.05356099725036783 0.031177938546635808 0 -0.054628660519795556 0.031821447842136655 0 -0.053664045107387426 0.03243866662248604 0 -0.05356099725036783 0.031177938546635808 0 -0.054446957065256846 0.030559826907367405 0 -0.05356099725036783 0.031177938546635808 0 -0.053742170266735202 0.029637989124006964 0 -0.05356099725036783 0.031177938546635808 0 -0.052387979604460427 0.03062570613488055 0 -0.053742170266735202 0.029637989124006964 0 -0.052427686796058449 0.028152205487110709 0 -0.054316402167345665 0.027515675940580644 0 -0.052454020143692028 0.026618586601765103 0 -0.052403299343758696 0.02630458440235816 0 -0.054657685736129911 0.024858798579745659 0 -0.052403299343758696 0.02630458440235816 0 -0.053080187917388159 0.024470748774615442 0 -0.054657685736129911 0.024858798579745659 0 -0.052635826467654252 0.032092264475001388 0 -0.05356099725036783 0.031177938546635808 0 -0.052387979604460427 0.03062570613488055 0 -0.05297044317755234 0.030787502430078037 0 -0.052427686796058449 0.028152205487110709 0 -0.053240068432028061 0.029238078928115314 0 -0.052868286587050679 0.026852998480818249 0 -0.051395060182496843 0.027893350758216782 0 -0.052427686796058449 0.028152205487110709 0 -0.051426363482059326 0.027651686249568208 0 -0.052450199218889132 0.02660149444451692 0 -0.051457210687479354 0.026290820313857446 0 -0.051221647425106251 0.027647913222559179 0 -0.052450199218889132 0.02660149444451692 0 -0.052403299343758696 0.02630458440235816 0 -0.051457210687479354 0.026290820313857446 0 -0.052427686796058449 0.028152205487110709 0 -0.052364801109954423 0.02758451685908889 0 -0.052403299343758696 0.02630458440235816 0 -0.051457210687479354 0.026290820313857446 0 -0.053080187917388159 0.024470748774615442 0 -0.051560974491667182 0.026177966560505628 0 -0.053181729887454433 0.024334096377993542 0 -0.051682560170957993 0.026054725642464329 0 -0.049999532338079203 0.025227473754357368 0 -0.05125587067024482 0.023942922154031293 0 -0.051682560170957993 0.026054725642464329 0 -0.049999532338079203 0.025227473754357368 0 -0.05000013525380121 0.027938388589138607 0 -0.051560974491667182 0.026177966560505628 0 -0.050000273898861199 0.027938269416034327 0 -0.051457210687479354 0.026290820313857446 0 -0.051221647425106251 0.027647913222559179 0 -0.049999651360159082 0.027938917138710058 0 -0.051426363482059326 0.027651686249568208 0 -0.050000133414324188 0.02882299854685522 0 -0.051221647425106251 0.027647913222559179 0 -0.049999651360159082 0.027938917138710058 0 -0.050000208647044471 0.028822779799297864 0 -0.051395060182496843 0.027893350758216782 0 -0.049999901150100966 0.028823655979493216 0 -0.051652906667365016 0.030371597510091813 0 -0.053240068432028061 0.029238078928115314 0 -0.051395060182496843 0.027893350758216782 0 -0.051652906667365016 0.030371597510091813 0 -0.053520639064396289 0.031827805239120974 0 -0.053240068432028061 0.029238078928115314 0 -0.051652906667365016 0.030371597510091813 0 -0.049999786598885917 0.031268089227564515 0 -0.049999901150100966 0.028823655979493216 0 -0.051652906667365016 0.030371597510091813 0 -0.027166823420070717 0.042879060542825205 0 -0.027867972962400567 0.043079374315213026 0 -0.02766929705933479 0.04413642941535089 0 -0.027166823420070717 0.042879060542825205 0 -0.02653334724303567 0.043420042670677221 0 -0.02766929705933479 0.04413642941535089 0 -0.027166823420070717 0.042879060542825205 0 -0.027867972962400567 0.043079374315213026 0 -0.027565670826905 0.042387201317558805 0 -0.027166823420070717 0.042879060542825205 0 -0.02653334724303567 0.043420042670677221 0 -0.02641310378012128 0.04247483419171727 0 -0.027166823420070717 0.042879060542825205 0 -0.02641310378012128 0.04247483419171727 0 -0.027049574234930669 0.041976682698185899 0 -0.02641310378012128 0.04247483419171727 0 -0.026509032499192873 0.041756549822792012 0 -0.027049574234930669 0.041976682698185899 0 -0.026509032499192873 0.041756549822792012 0 -0.027049574234930669 0.041976682698185899 0 -0.027090346990027412 0.041334993925027416 0 -0.027049574234930669 0.041976682698185899 0 -0.027662153909856449 0.041701499117841323 0 -0.027090346990027412 0.041334993925027416 0 -0.027166823420070717 0.042879060542825205 0 -0.027049574234930669 0.041976682698185899 0 -0.027565670826905 0.042387201317558805 0 -0.027049574234930669 0.041976682698185899 0 -0.027565670826905 0.042387201317558805 0 -0.027662153909856449 0.041701499117841323 0 -0.027662153909856449 0.041701499117841323 0 -0.028200082767152836 0.042307097881663439 0 -0.028098969023266751 0.041307243139652901 0 -0.028200082767152836 0.042307097881663439 0 -0.02858317885158803 0.041668554457110658 0 -0.028098969023266751 0.041307243139652901 0 -0.027565670826905 0.042387201317558805 0 -0.027662153909856449 0.041701499117841323 0 -0.028200082767152836 0.042307097881663439 0 -0.028200082767152836 0.042307097881663439 0 -0.02858317885158803 0.041668554457110658 0 -0.028854056773944089 0.04275162357465339 0 -0.029165900651249944 0.042116254822707741 0 -0.02858317885158803 0.041668554457110658 0 -0.028854056773944089 0.04275162357465339 0 -0.028200082767152836 0.042307097881663439 0 -0.028854056773944089 0.04275162357465339 0 -0.028476207572072781 0.043567401818631599 0 -0.027867972962400567 0.043079374315213026 0 -0.028200082767152836 0.042307097881663439 0 -0.028476207572072781 0.043567401818631599 0 -0.027867972962400567 0.043079374315213026 0 -0.027565670826905 0.042387201317558805 0 -0.028200082767152836 0.042307097881663439 0 -0.028476207572072781 0.043567401818631599 0 -0.028689651060614045 0.044924298783649147 0 -0.02766929705933479 0.04413642941535089 0 -0.027867972962400567 0.043079374315213026 0 -0.028476207572072781 0.043567401818631599 0 -0.02766929705933479 0.04413642941535089 0 -0.029353533100617446 0.043002292538623026 0 -0.028854056773944089 0.04275162357465339 0 -0.029280600079147828 0.044075352683820401 0 -0.028476207572072781 0.043567401818631599 0 -0.029280600079147828 0.044075352683820401 0 -0.028689651060614045 0.044924298783649147 0 -0.028854056773944089 0.04275162357465339 0 -0.028476207572072781 0.043567401818631599 0 -0.029280600079147828 0.044075352683820401 0 -0.029280600079147828 0.044075352683820401 0 -0.029491894931411081 0.04570124746722002 0 -0.028689651060614045 0.044924298783649147 0 -0.029942011895079799 0.044982092563839247 0 -0.029280600079147828 0.044075352683820401 0 -0.029491894931411081 0.04570124746722002 0 -0.028994234801663698 0.046506325673789657 0 -0.029491894931411081 0.04570124746722002 0 -0.028689651060614045 0.044924298783649147 0 -0.028994234801663698 0.046506325673789657 0 -0.028689651060614045 0.044924298783649147 0 -0.027993671729705037 0.045831285860501156 0 -0.027993671729705037 0.045831285860501156 0 -0.02766929705933479 0.04413642941535089 0 -0.026889683431181005 0.044833836452610278 0 -0.028689651060614045 0.044924298783649147 0 -0.027993671729705037 0.045831285860501156 0 -0.02766929705933479 0.04413642941535089 0 -0.02653334724303567 0.043420042670677221 0 -0.026889683431181005 0.044833836452610278 0 -0.02574636781385771 0.044223462900131696 0 -0.02653334724303567 0.043420042670677221 0 -0.02766929705933479 0.04413642941535089 0 -0.026889683431181005 0.044833836452610278 0 -0.026533213020386973 0.046770250229985551 0 -0.027993671729705037 0.045831285860501156 0 -0.026889683431181005 0.044833836452610278 0 -0.026533213020386973 0.046770250229985551 0 -0.026889683431181005 0.044833836452610278 0 -0.02574636781385771 0.044223462900131696 0 -0.028525108000818023 0.04913513967314815 0 -0.027760964651489313 0.048633147476149684 0 -0.030301528312004739 0.051820261456697769 0 -0.031208533666556359 0.05191045519720601 0 -0.0309769142380013 0.052091693063548383 0 -0.031601468148740881 0.051632332116850241 0 -0.031208533666556359 0.05191045519720601 0 -0.031710706601558877 0.051887440289528512 0 -0.031208533666556359 0.05191045519720601 0 -0.031271669472897667 0.05209266840951992 0 -0.031710706601558877 0.051887440289528512 0 -0.031208533666556359 0.05191045519720601 0 -0.031271669472897667 0.05209266840951992 0 -0.0309769142380013 0.052091693063548383 0 -0.05487899000346342 0.038545677027580577 0 -0.053073414941630724 0.039040515886148319 0 -0.053917905513604293 0.039724391091934499 0 -0.052069752426219786 0.040333973240548063 0 -0.053073414941630724 0.039040515886148319 0 -0.053917905513604293 0.039724391091934499 0 -0.052069752426219786 0.040333973240548063 0 -0.053917905513604293 0.039724391091934499 0 -0.054129637971717381 0.041028524173266044 0 -0.042603197691733666 0.046396120706818464 0 -0.042843701738134683 0.044976303837240272 0 -0.055182425099960179 0.039712723257957966 0 -0.053917905513604293 0.039724391091934499 0 -0.054129637971717381 0.041028524173266044 0 -0.052069752426219786 0.040333973240548063 0 -0.054129637971717381 0.041028524173266044 0 -0.052922024793586722 0.042260146236391682 0 -0.056071809688151591 0.038199210948009862 0 -0.057715450707590835 0.037622175528074085 0 -0.058473638364592483 0.035103497531482099 0 -0.059816569108214507 0.033758121969349561 0 -0.058245411624833647 0.033753112650213496 0 -0.031271669472897667 0.05209266840951992 0 -0.0309769142380013 0.052091693063548383 0 -0.031174610876876865 0.052002562539888379 0 -0.027760964651489313 0.048633147476149684 0 -0.032885428930386457 0.044506168505075522 0 -0.02653334724303567 0.043420042670677221 0 -0.02641310378012128 0.04247483419171727 0 -0.025549823150905544 0.042313091676065812 0 -0.02653334724303567 0.043420042670677221 0 -0.02574636781385771 0.044223462900131696 0 -0.025549823150905544 0.042313091676065812 0 -0.042603197691733666 0.046396120706818464 0 -0.032885428930386457 0.044506168505075522 0 -0.052069752426219786 0.040333973240548063 0 -0.052922024793586722 0.042260146236391682 0 -0.051147419440012026 0.041713830037841709 0 -0.052922024793586722 0.042260146236391682 0 -0.051147419440012026 0.041713830037841709 0 -0.051726747371905572 0.043434296760970985 0 -0.02641310378012128 0.04247483419171727 0 -0.025944915804233918 0.041814540485181566 0 -0.025549823150905544 0.042313091676065812 0 -0.025944915804233918 0.041814540485181566 0 -0.02580231464261401 0.042106165785034802 0 -0.02569023481757244 0.040960711203663375 0 -0.028893839860536723 0.043736286607894699 0 -0.032885428930386457 0.044506168505075522 0 -0.02641310378012128 0.04247483419171727 0 -0.026509032499192873 0.041756549822792012 0 -0.025944915804233918 0.041814540485181566 0 -0.026509032499192873 0.041756549822792012 0 -0.025944915804233918 0.041814540485181566 0 -0.026195230448921504 0.041314397574208649 0 -0.025330014746983334 0.041507129480311572 0 -0.034878743084482501 0.03495716105510991 0 -0.026195230448921504 0.041314397574208649 0 -0.02569023481757244 0.040960711203663375 0 -0.025905046499661195 0.040721620184555232 0 -0.025944915804233918 0.041814540485181566 0 -0.026195230448921504 0.041314397574208649 0 -0.02569023481757244 0.040960711203663375 0 -0.026195230448921504 0.041314397574208649 0 -0.026361914608785595 0.040662378545174738 0 -0.0265967012094846 0.041189532532721243 0 -0.057715450707590835 0.037622175528074085 0 -0.048093264002829456 0.03734221382351028 0 -0.032885428930386457 0.044506168505075522 0 -0.048093264002829456 0.03734221382351028 0 -0.045775139791629164 0.035011576773411775 0 -0.046963902849898417 0.03366567942566142 0 -0.044225512056500167 0.029794113851809773 0 -0.048093264002829456 0.03734221382351028 0 -0.034878743084482501 0.03495716105510991 0 -0.061359400310363271 0.032117919539092273 0 -0.059780605249951144 0.031420599961601174 0 -0.060801200823308151 0.029699045954293016 0 -0.048093264002829456 0.03734221382351028 0 -0.049391911604815451 0.027040563280837839 0 -0.034878743084482501 0.03495716105510991 0 -0.033974567182169978 0.031353355527490204 0 -0.026361914608785595 0.040662378545174738 0 -0.025781100432437861 0.040521054069416099 0 -0.026444445569559084 0.039811810604826622 0 -0.026195230448921504 0.041314397574208649 0 -0.026361914608785595 0.040662378545174738 0 -0.025781100432437861 0.040521054069416099 0 -0.059816569108214507 0.033758121969349561 0 -0.058245411624833647 0.033753112650213496 0 -0.05862169856460496 0.032319328034965338 0 -0.056782660819879358 0.031885514079521657 0 -0.058245411624833647 0.033753112650213496 0 -0.05862169856460496 0.032319328034965338 0 -0.059816569108214507 0.033758121969349561 0 -0.061359400310363271 0.032117919539092273 0 -0.059780605249951144 0.031420599961601174 0 -0.059816569108214507 0.033758121969349561 0 -0.05862169856460496 0.032319328034965338 0 -0.059780605249951144 0.031420599961601174 0 -0.05862169856460496 0.032319328034965338 0 -0.059780605249951144 0.031420599961601174 0 -0.05844581661491341 0.03052693900081143 0 -0.056782660819879358 0.031885514079521657 0 -0.05862169856460496 0.032319328034965338 0 -0.05844581661491341 0.03052693900081143 0 -0.056885659599054533 0.028982574095850047 0 -0.05844581661491341 0.03052693900081143 0 -0.05867316657445671 0.028928043464060908 0 -0.05844581661491341 0.03052693900081143 0 -0.059543896671093367 0.029787306488657031 0 -0.05867316657445671 0.028928043464060908 0 -0.059780605249951144 0.031420599961601174 0 -0.05844581661491341 0.03052693900081143 0 -0.059543896671093367 0.029787306488657031 0 -0.059780605249951144 0.031420599961601174 0 -0.059543896671093367 0.029787306488657031 0 -0.060801200823308151 0.029699045954293016 0 -0.059543896671093367 0.029787306488657031 0 -0.059955777659275164 0.028286311809796249 0 -0.060801200823308151 0.029699045954293016 0 -0.043293448020531748 0.022758868886494012 0 -0.040862319492421313 0.020998147038701714 0 -0.041425369296705698 0.021774816789997778 0 -0.041289588969578045 0.021731459115433983 0 -0.041201886608971151 0.021406332438129335 0 -0.048735969322931533 0.02465727004282223 0 -0.047943167586196357 0.024399521715075236 0 -0.049182544810367705 0.026144611332060749 0 -0.051459212225001584 0.025230800582845145 0 -0.049391911604815451 0.027040563280837839 0 -0.043293448020531748 0.022758868886494012 0 -0.051459212225001584 0.025230800582845145 0 -0.059543896671093367 0.029787306488657031 0 -0.059955777659275164 0.028286311809796249 0 -0.05867316657445671 0.028928043464060908 0 -0.059955777659275164 0.028286311809796249 0 -0.05867316657445671 0.028928043464060908 0 -0.058074340534535987 0.027408451043043333 0 -0.051459212225001584 0.025230800582845145 0 -0.056621887685170992 0.026386717818018563 0 -0.053095649324315236 0.024740081709889877 0 -0.053247143921835667 0.024787602622408627 0 -0.053188294387834588 0.024808304809319993 0 -0.056885659599054533 0.028982574095850047 0 -0.05867316657445671 0.028928043464060908 0 -0.058074340534535987 0.027408451043043333 0 -0.041320609666741691 0.023511691318866032 0 -0.041906089873902923 0.022676747409881244 0 -0.041346080573469314 0.022242257657228391 0 -0.041906089873902923 0.022676747409881244 0 -0.041346080573469314 0.022242257657228391 0 -0.041809810204070062 0.022103080093493429 0 -0.034878743084482501 0.03495716105510991 0 -0.049391911604815451 0.027040563280837839 0 -0.040657701504995258 0.02206961174782858 0 -0.040795991140370948 0.02259154395250396 0 -0.041346080573469314 0.022242257657228391 0 -0.041320609666741691 0.023511691318866032 0 -0.040795991140370948 0.02259154395250396 0 -0.041346080573469314 0.022242257657228391 0 -0.043293448020531748 0.022758868886494012 0 -0.049391911604815451 0.027040563280837839 0 -0.041099052478116717 0.021932261320345439 0 -0.041346080573469314 0.022242257657228391 0 -0.041316906798028893 0.021841513799059804 0 -0.041346080573469314 0.022242257657228391 0 -0.041316906798028893 0.021841513799059804 0 -0.041583187537168761 0.021808203722317877 0 -0.043293448020531748 0.022758868886494012 0 -0.04054924777957248 0.021958690321160702 0 -0.041099052478116717 0.021932261320345439 0 -0.041316906798028893 0.021841513799059804 0 -0.041255723447926974 0.021625089350543969 0 -0.041316906798028893 0.021841513799059804 0 -0.041583187537168761 0.021808203722317877 0 -0.04142739786104653 0.021567552999734417 0 -0.041346080573469314 0.022242257657228391 0 -0.041583187537168761 0.021808203722317877 0 -0.041809810204070062 0.022103080093493429 0 -0.041583187537168761 0.021808203722317877 0 -0.041809810204070062 0.022103080093493429 0 -0.041894824088517205 0.021701478072893261 0 -0.041809810204070062 0.022103080093493429 0 -0.041894824088517205 0.021701478072893261 0 -0.042372325358745001 0.021996780796126568 0 -0.041906089873902923 0.022676747409881244 0 -0.041809810204070062 0.022103080093493429 0 -0.042372325358745001 0.021996780796126568 0 -0.042359864070004791 0.023271740150508691 0 -0.034872265303198806 0.02756894684594715 0 -0.041894824088517205 0.021701478072893261 0 -0.041947534789568856 0.021629529947513396 0 -0.041960825106785005 0.021475716587585358 0 -0.030268114290072985 0.028591735973954775 0 -0.031178795929029893 0.028216434609378459 0 -0.031262875492299613 0.029112283291599629 0 -0.034872265303198806 0.02756894684594715 0 -0.027133816218010285 0.034052447384485283 0 -0.027084524664911052 0.039128468644397431 0 -0.027669777642215031 0.039558641138149567 0 -0.027339367260111186 0.039761235833858481 0 -0.027084524664911052 0.039128468644397431 0 -0.027339367260111186 0.039761235833858481 0 -0.02696690352637381 0.039834270730824684 0 -0.027339367260111186 0.039761235833858481 0 -0.027614296496949214 0.040073956416657973 0 -0.027830642872515691 0.039691122362264811 0 -0.027669777642215031 0.039558641138149567 0 -0.027339367260111186 0.039761235833858481 0 -0.027830642872515691 0.039691122362264811 0 -0.027339367260111186 0.039761235833858481 0 -0.02696690352637381 0.039834270730824684 0 -0.027234583398844322 0.040188076273233966 0 -0.027339367260111186 0.039761235833858481 0 -0.027614296496949214 0.040073956416657973 0 -0.027234583398844322 0.040188076273233966 0 -0.026444445569559084 0.039811810604826622 0 -0.027084524664911052 0.039128468644397431 0 -0.02696690352637381 0.039834270730824684 0 -0.033974567182169978 0.031353355527490204 0 -0.034872265303198806 0.02756894684594715 0 -0.02696690352637381 0.039834270730824684 0 -0.026818908778171804 0.040351490679976974 0 -0.027234583398844322 0.040188076273233966 0 -0.026444445569559084 0.039811810604826622 0 -0.02696690352637381 0.039834270730824684 0 -0.026818908778171804 0.040351490679976974 0 -0.026361914608785595 0.040662378545174738 0 -0.026444445569559084 0.039811810604826622 0 -0.026818908778171804 0.040351490679976974 0 -0.026361914608785595 0.040662378545174738 0 -0.026818908778171804 0.040351490679976974 0 -0.026829946070344356 0.040882113274389655 0 -0.026818908778171804 0.040351490679976974 0 -0.027215334345956396 0.040742624743528119 0 -0.026829946070344356 0.040882113274389655 0 -0.026818908778171804 0.040351490679976974 0 -0.027234583398844322 0.040188076273233966 0 -0.027215334345956396 0.040742624743528119 0 -0.027234583398844322 0.040188076273233966 0 -0.027574725257083901 0.040537196044864714 0 -0.027215334345956396 0.040742624743528119 0 -0.027614296496949214 0.040073956416657973 0 -0.027574725257083901 0.040537196044864714 0 -0.027857741052410217 0.04037156653304616 0 -0.027614296496949214 0.040073956416657973 0 -0.027234583398844322 0.040188076273233966 0 -0.027574725257083901 0.040537196044864714 0 -0.027574725257083901 0.040537196044864714 0 -0.027215334345956396 0.040742624743528119 0 -0.027619034869370111 0.041015971051858682 0 -0.027215334345956396 0.040742624743528119 0 -0.027619034869370111 0.041015971051858682 0 -0.027090346990027412 0.041334993925027416 0 -0.027662153909856449 0.041701499117841323 0 -0.027619034869370111 0.041015971051858682 0 -0.027090346990027412 0.041334993925027416 0 -0.026509032499192873 0.041756549822792012 0 -0.027090346990027412 0.041334993925027416 0 -0.0265967012094846 0.041189532532721243 0 -0.026509032499192873 0.041756549822792012 0 -0.026195230448921504 0.041314397574208649 0 -0.0265967012094846 0.041189532532721243 0 -0.026361914608785595 0.040662378545174738 0 -0.0265967012094846 0.041189532532721243 0 -0.026829946070344356 0.040882113274389655 0 -0.027215334345956396 0.040742624743528119 0 -0.027090346990027412 0.041334993925027416 0 -0.026829946070344356 0.040882113274389655 0 -0.027090346990027412 0.041334993925027416 0 -0.0265967012094846 0.041189532532721243 0 -0.026829946070344356 0.040882113274389655 0 -0.028888205478216723 0.041172891996395303 0 -0.02844149331400685 0.040570720714604207 0 -0.02834944774586207 0.040913073017178586 0 -0.02858317885158803 0.041668554457110658 0 -0.02834944774586207 0.040913073017178586 0 -0.028098969023266751 0.041307243139652901 0 -0.028888205478216723 0.041172891996395303 0 -0.02858317885158803 0.041668554457110658 0 -0.02834944774586207 0.040913073017178586 0 -0.027662153909856449 0.041701499117841323 0 -0.027619034869370111 0.041015971051858682 0 -0.028098969023266751 0.041307243139652901 0 -0.027619034869370111 0.041015971051858682 0 -0.028098969023266751 0.041307243139652901 0 -0.0279981345246283 0.040774135452783813 0 -0.02834944774586207 0.040913073017178586 0 -0.028098969023266751 0.041307243139652901 0 -0.0279981345246283 0.040774135452783813 0 -0.02834944774586207 0.040913073017178586 0 -0.0279981345246283 0.040774135452783813 0 -0.028209752980121107 0.040468268825489005 0 -0.027574725257083901 0.040537196044864714 0 -0.0279981345246283 0.040774135452783813 0 -0.027857741052410217 0.04037156653304616 0 -0.027574725257083901 0.040537196044864714 0 -0.027619034869370111 0.041015971051858682 0 -0.0279981345246283 0.040774135452783813 0 -0.027857741052410217 0.04037156653304616 0 -0.028209752980121107 0.040468268825489005 0 -0.027996567914853238 0.040173351221439287 0 -0.0279981345246283 0.040774135452783813 0 -0.027857741052410217 0.04037156653304616 0 -0.028209752980121107 0.040468268825489005 0 -0.02844149331400685 0.040570720714604207 0 -0.02834944774586207 0.040913073017178586 0 -0.028209752980121107 0.040468268825489005 0 -0.02844149331400685 0.040570720714604207 0 -0.028209752980121107 0.040468268825489005 0 -0.02837755046927826 0.040281077215954079 0 -0.024975800809004047 0.035891126774505254 0 -0.023361412425107825 0.038797633808702291 0 -0.021463097593226253 0.035599588597881197 0 -0.028209752980121107 0.040468268825489005 0 -0.02837755046927826 0.040281077215954079 0 -0.027996567914853238 0.040173351221439287 0 -0.023361412425107825 0.038797633808702291 0 -0.01884952429938273 0.036743542126221496 0 -0.021463097593226253 0.035599588597881197 0 -0.025734032299626338 0.039634874373645684 0 -0.024626231344499597 0.036250242875836343 0 -0.02837755046927826 0.040281077215954079 0 -0.027996567914853238 0.040173351221439287 0 -0.027830642872515691 0.039691122362264811 0 -0.027614296496949214 0.040073956416657973 0 -0.027996567914853238 0.040173351221439287 0 -0.027830642872515691 0.039691122362264811 0 -0.027614296496949214 0.040073956416657973 0 -0.027857741052410217 0.04037156653304616 0 -0.027996567914853238 0.040173351221439287 0 -0.027133816218010285 0.034052447384485283 0 -0.024626231344499597 0.036250242875836343 0 -0.01793328656814705 0.036279439872359903 0 -0.019501316374625099 0.034225598474036785 0 -0.019599301530182189 0.031644339225684187 0 -0.027133816218010285 0.034052447384485283 0 -0.025060683401169612 0.030074529370395411 0 -0.031178795929029893 0.028216434609378459 0 -0.031262875492299613 0.029112283291599629 0 -0.03179068094662485 0.027649699784076873 0 -0.01793328656814705 0.036279439872359903 0 -0.019288025623073708 0.035621409594286418 0 -0.019501316374625099 0.034225598474036785 0 -0.01793328656814705 0.036279439872359903 0 -0.01884952429938273 0.036743542126221496 0 -0.019288025623073708 0.035621409594286418 0 -0.01884952429938273 0.036743542126221496 0 -0.019288025623073708 0.035621409594286418 0 -0.021463097593226253 0.035599588597881197 0 -0.019288025623073708 0.035621409594286418 0 -0.021463097593226253 0.035599588597881197 0 -0.019501316374625099 0.034225598474036785 0 -0.021463097593226253 0.035599588597881197 0 -0.021040484798900159 0.033160668442411563 0 -0.019501316374625099 0.034225598474036785 0 -0.024975800809004047 0.035891126774505254 0 -0.021463097593226253 0.035599588597881197 0 -0.023037771093562396 0.033682866130362796 0 -0.021463097593226253 0.035599588597881197 0 -0.021040484798900159 0.033160668442411563 0 -0.023037771093562396 0.033682866130362796 0 -0.023037771093562396 0.033682866130362796 0 -0.022050760898182642 0.031121288008038678 0 -0.026291147379712308 0.032887956087333706 0 -0.022050760898182642 0.031121288008038678 0 -0.022431031918450594 0.028698185831582259 0 -0.026291147379712308 0.032887956087333706 0 -0.021040484798900159 0.033160668442411563 0 -0.023037771093562396 0.033682866130362796 0 -0.022050760898182642 0.031121288008038678 0 -0.03179068094662485 0.027649699784076873 0 -0.032272446191442428 0.02614980324578399 0 -0.031281050342393632 0.027393346603956228 0 -0.022050760898182642 0.031121288008038678 0 -0.019599301530182189 0.031644339225684187 0 -0.0210199448576944 0.027591015857551103 0 -0.031178795929029893 0.028216434609378459 0 -0.03179068094662485 0.027649699784076873 0 -0.031281050342393632 0.027393346603956228 0 -0.021040484798900159 0.033160668442411563 0 -0.022050760898182642 0.031121288008038678 0 -0.019599301530182189 0.031644339225684187 0 -0.021040484798900159 0.033160668442411563 0 -0.019501316374625099 0.034225598474036785 0 -0.019599301530182189 0.031644339225684187 0 -0.041114546171101239 0.021577250615285329 0 -0.041718146335484742 0.021543927039611249 0 -0.041864441353350428 0.021287915223989092 0 -0.029736798374853643 0.024356072758746846 0 -0.037904025348065355 0.023460291836003306 0 -0.025060683401169612 0.030074529370395411 0 -0.029736798374853643 0.024356072758746846 0 -0.022050760898182642 0.031121288008038678 0 -0.0210199448576944 0.027591015857551103 0 -0.022431031918450594 0.028698185831582259 0 -0.0210199448576944 0.027591015857551103 0 -0.022431031918450594 0.028698185831582259 0 -0.022632149820083665 0.027176256725099941 0 -0.022431031918450594 0.028698185831582259 0 -0.022632149820083665 0.027176256725099941 0 -0.02326005087792974 0.027906076587676996 0 -0.0210199448576944 0.027591015857551103 0 -0.022632149820083665 0.027176256725099941 0 -0.022756518236778548 0.025402169169020123 0 -0.025507686894863265 0.021291292943793203 0 -0.025588792590884844 0.020815093993475853 0 -0.025831319771639265 0.020725547721515455 0 -0.029736798374853643 0.024356072758746846 0 -0.023285983796573255 0.023423473558174958 0 -0.029736798374853643 0.024356072758746846 0 -0.033287027229134736 0.021159459812624629 0 -0.041114546171101239 0.021577250615285329 0 -0.041514980350266489 0.022125029616732659 0 -0.041718146335484742 0.021543927039611249 0 -0.041114546171101239 0.021577250615285329 0 -0.040739551008964703 0.022218284073812749 0 -0.041514980350266489 0.022125029616732659 0 -0.043072557170096747 0.020287025525601167 0 -0.043441896048867355 0.019121723101473857 0 -0.042634174826381779 0.01963098453131535 0 -0.043072557170096747 0.020287025525601167 0 -0.043441896048867355 0.019121723101473857 0 -0.044459575099289383 0.019163900264256094 0 -0.040739551008964703 0.022218284073812749 0 -0.041514980350266489 0.022125029616732659 0 -0.040399975528701122 0.022954038701707688 0 -0.033287027229134736 0.021159459812624629 0 -0.034430339825316521 0.020405540193869032 0 -0.025588792590884844 0.020815093993475853 0 -0.025673251033267432 0.020322419399794438 0 -0.025831319771639265 0.020725547721515455 0 -0.043815975833520787 0.020910979292199025 0 -0.034430339825316521 0.020405540193869032 0 -0.043109196516812547 0.020023809624423891 0 -0.041753001683976922 0.019840485060111827 0 -0.042775539444820307 0.018077121496534971 0 -0.043109196516812547 0.020023809624423891 0 -0.04206629015668012 0.020468161102785314 0 -0.041753001683976922 0.019840485060111827 0 -0.041753001683976922 0.019840485060111827 0 -0.041574248596954085 0.018264176839591115 0 -0.042775539444820307 0.018077121496534971 0 -0.042528016160081866 0.019785773887426156 0 -0.043508857383188236 0.017220313668889816 0 -0.041946947196725773 0.019672082714786602 0 -0.043331934325219298 0.019298378996638048 0 -0.043224574207647991 0.018275929604852047 0 -0.041514980350266489 0.022125029616732659 0 -0.042144443874958838 0.021292958885980467 0 -0.041718146335484742 0.021543927039611249 0 -0.043815975833520787 0.020910979292199025 0 -0.0415564053312307 0.02153520809971143 0 -0.043072557170096747 0.020287025525601167 0 -0.042634174826381779 0.01963098453131535 0 -0.042202532219504804 0.020924448820192433 0 -0.041946947196725773 0.019672082714786602 0 -0.043331934325219298 0.019298378996638048 0 -0.042202532219504804 0.020924448820192433 0 -0.043072557170096747 0.020287025525601167 0 -0.042202532219504804 0.020924448820192433 0 -0.042144443874958838 0.021292958885980467 0 -0.042973635366634955 0.019459026312398479 0 -0.042249593405384617 0.02081549498710053 0 -0.043109196516812547 0.020023809624423891 0 -0.04206629015668012 0.020468161102785314 0 -0.041832453928850093 0.021217121383807196 0 -0.041946947196725773 0.019672082714786602 0 -0.041832453928850093 0.021217121383807196 0 -0.042018772916524574 0.021024684176618305 0 -0.041946947196725773 0.019672082714786602 0 -0.042202532219504804 0.020924448820192433 0 -0.042018772916524574 0.021024684176618305 0 -0.042528016160081866 0.019785773887426156 0 -0.041905908690934954 0.021100865753077597 0 -0.041832453928850093 0.021217121383807196 0 -0.042018772916524574 0.021024684176618305 0 -0.041943770561459662 0.021382481795720078 0 -0.042018772916524574 0.021024684176618305 0 -0.042144443874958838 0.021292958885980467 0 -0.041943770561459662 0.021382481795720078 0 -0.042202532219504804 0.020924448820192433 0 -0.042018772916524574 0.021024684176618305 0 -0.042144443874958838 0.021292958885980467 0 -0.042144443874958838 0.021292958885980467 0 -0.041943770561459662 0.021382481795720078 0 -0.042005408210071753 0.021370670168176412 0 -0.041832453928850093 0.021217121383807196 0 -0.041943770561459662 0.021382481795720078 0 -0.041729765188269118 0.021424198586098727 0 -0.041718146335484742 0.021543927039611249 0 -0.041932484068932199 0.021382744685421829 0 -0.041864441353350428 0.021287915223989092 0 -0.042144443874958838 0.021292958885980467 0 -0.041718146335484742 0.021543927039611249 0 -0.041932484068932199 0.021382744685421829 0 -0.042144443874958838 0.021292958885980467 0 -0.042005408210071753 0.021370670168176412 0 -0.041932484068932199 0.021382744685421829 0 -0.042005408210071753 0.021370670168176412 0 -0.041932484068932199 0.021382744685421829 0 -0.041864441353350428 0.021287915223989092 0 -0.041947534789568856 0.021629529947513396 0 -0.041864441353350428 0.021287915223989092 0 -0.041960825106785005 0.021475716587585358 0 -0.034872265303198806 0.02756894684594715 0 -0.037904025348065355 0.023460291836003306 0 -0.030268114290072985 0.028591735973954775 0 -0.031178795929029893 0.028216434609378459 0 -0.031281050342393632 0.027393346603956228 0 -0.042005408210071753 0.021370670168176412 0 -0.041864441353350428 0.021287915223989092 0 -0.041960825106785005 0.021475716587585358 0 -0.041943770561459662 0.021382481795720078 0 -0.041893459203988195 0.02148874677112133 0 -0.041729765188269118 0.021424198586098727 0 -0.041943770561459662 0.021382481795720078 0 -0.041893459203988195 0.02148874677112133 0 -0.041960825106785005 0.021475716587585358 0 -0.041943770561459662 0.021382481795720078 0 -0.042005408210071753 0.021370670168176412 0 -0.041960825106785005 0.021475716587585358 0 -0.041894824088517205 0.021701478072893261 0 -0.041893459203988195 0.02148874677112133 0 -0.041960825106785005 0.021475716587585358 0 -0.041583187537168761 0.021808203722317877 0 -0.041894824088517205 0.021701478072893261 0 -0.041729765188269118 0.021424198586098727 0 -0.041894824088517205 0.021701478072893261 0 -0.041893459203988195 0.02148874677112133 0 -0.041729765188269118 0.021424198586098727 0 -0.041729765188269118 0.021424198586098727 0 -0.04142739786104653 0.021567552999734417 0 -0.041508848455864236 0.021328041050772229 0 -0.041583187537168761 0.021808203722317877 0 -0.041729765188269118 0.021424198586098727 0 -0.04142739786104653 0.021567552999734417 0 -0.041316906798028893 0.021841513799059804 0 -0.04142739786104653 0.021567552999734417 0 -0.041255723447926974 0.021625089350543969 0 -0.04142739786104653 0.021567552999734417 0 -0.041255723447926974 0.021625089350543969 0 -0.041307242612715261 0.021376357613319741 0 -0.04142739786104653 0.021567552999734417 0 -0.041307242612715261 0.021376357613319741 0 -0.041508848455864236 0.021328041050772229 0 -0.041307242612715261 0.021376357613319741 0 -0.041508848455864236 0.021328041050772229 0 -0.041425801826321475 0.021070107433148015 0 -0.041425801826321475 0.021070107433148015 0 -0.041236964008061892 0.021140136264310192 0 -0.041133819956601349 0.020741430665326081 0 -0.041307242612715261 0.021376357613319741 0 -0.041425801826321475 0.021070107433148015 0 -0.041236964008061892 0.021140136264310192 0 -0.041425801826321475 0.021070107433148015 0 -0.041644377550751351 0.021186038336756547 0 -0.041659697885517523 0.020644387575132185 0 -0.041832453928850093 0.021217121383807196 0 -0.041644377550751351 0.021186038336756547 0 -0.041659697885517523 0.020644387575132185 0 -0.041832453928850093 0.021217121383807196 0 -0.041729765188269118 0.021424198586098727 0 -0.041644377550751351 0.021186038336756547 0 -0.041508848455864236 0.021328041050772229 0 -0.041425801826321475 0.021070107433148015 0 -0.041644377550751351 0.021186038336756547 0 -0.041729765188269118 0.021424198586098727 0 -0.041508848455864236 0.021328041050772229 0 -0.041644377550751351 0.021186038336756547 0 -0.053188294387834588 0.024808304809319993 0 -0.053270117670802995 0.024842887358079341 0 -0.053284584083777869 0.02473576708995695 0 -0.053247143921835667 0.024787602622408627 0 -0.053188294387834588 0.024808304809319993 0 -0.053270117670802995 0.024842887358079341 0 -0.041289588969578045 0.021731459115433983 0 -0.041118640751383641 0.021396347440233533 0 -0.041201886608971151 0.021406332438129335 0 -0.041099052478116717 0.021932261320345439 0 -0.041255723447926974 0.021625089350543969 0 -0.041201886608971151 0.021406332438129335 0 -0.051459212225001584 0.025230800582845145 0 -0.046642939372835701 0.022566216102724052 0 -0.041118640751383641 0.021396347440233533 0 -0.041201886608971151 0.021406332438129335 0 -0.04115945076995995 0.021108052061567947 0 -0.041255723447926974 0.021625089350543969 0 -0.041307242612715261 0.021376357613319741 0 -0.041201886608971151 0.021406332438129335 0 -0.041307242612715261 0.021376357613319741 0 -0.041201886608971151 0.021406332438129335 0 -0.041236964008061892 0.021140136264310192 0 -0.041236964008061892 0.021140136264310192 0 -0.04115945076995995 0.021108052061567947 0 -0.041133819956601349 0.020741430665326081 0 -0.041201886608971151 0.021406332438129335 0 -0.041236964008061892 0.021140136264310192 0 -0.04115945076995995 0.021108052061567947 0 -0.041118640751383641 0.021396347440233533 0 -0.04115945076995995 0.021108052061567947 0 -0.041174658101687356 0.021110016713307568 0 -0.046642939372835701 0.022566216102724052 0 -0.046839418539578161 0.022918724054459907 0 -0.04115945076995995 0.021108052061567947 0 -0.041191377916736452 0.020945521449127761 0 -0.041174658101687356 0.021110016713307568 0 -0.041191377916736452 0.020945521449127761 0 -0.041133819956601349 0.020741430665326081 0 -0.041239303269768969 0.020923441848913968 0 -0.041191377916736452 0.020945521449127761 0 -0.041239303269768969 0.020923441848913968 0 -0.041294741198321015 0.020997349448195694 0 -0.04115945076995995 0.021108052061567947 0 -0.041191377916736452 0.020945521449127761 0 -0.041133819956601349 0.020741430665326081 0 -0.03945945464115317 0.020852846483286065 0 -0.048056240378499447 0.017467586006657827 0 -0.041133819956601349 0.020741430665326081 0 -0.040598180776190235 0.02004834556988723 0 -0.041111286417607654 0.019625874841950757 0 -0.04206629015668012 0.020468161102785314 0 -0.041832453928850093 0.021217121383807196 0 -0.041659697885517523 0.020644387575132185 0 -0.04206629015668012 0.020468161102785314 0 -0.041659697885517523 0.020644387575132185 0 -0.041753001683976922 0.019840485060111827 0 -0.041425801826321475 0.021070107433148015 0 -0.041133819956601349 0.020741430665326081 0 -0.041659697885517523 0.020644387575132185 0 -0.041133819956601349 0.020741430665326081 0 -0.041659697885517523 0.020644387575132185 0 -0.041495999990829618 0.020034020560670086 0 -0.041133819956601349 0.020741430665326081 0 -0.041495999990829618 0.020034020560670086 0 -0.041111286417607654 0.019625874841950757 0 -0.041659697885517523 0.020644387575132185 0 -0.041495999990829618 0.020034020560670086 0 -0.041753001683976922 0.019840485060111827 0 -0.041495999990829618 0.020034020560670086 0 -0.041753001683976922 0.019840485060111827 0 -0.041677483069902509 0.019739704128581687 0 -0.041543135080808986 0.01962795760470611 0 -0.041080281271262072 0.018949419831143004 0 -0.041753001683976922 0.019840485060111827 0 -0.041574248596954085 0.018264176839591115 0 -0.040018167239109094 0.017788106030460556 0 -0.041574248596954085 0.018264176839591115 0 -0.040018167239109094 0.017788106030460556 0 -0.040571996415883896 0.016169988439102913 0 -0.041574248596954085 0.018264176839591115 0 -0.040571996415883896 0.016169988439102913 0 -0.04220766520422406 0.016657248174210056 0 -0.040018167239109094 0.017788106030460556 0 -0.038473779821310249 0.015512440213985531 0 -0.040571996415883896 0.016169988439102913 0 -0.041495999990829618 0.020034020560670086 0 -0.041677483069902509 0.019739704128581687 0 -0.041425206694338849 0.019669414597158409 0 -0.041425206694338849 0.019669414597158409 0 -0.041504862485046527 0.019326642441954939 0 -0.041111286417607654 0.019625874841950757 0 -0.043210392256220267 0.013372352014810884 0 -0.048332132708581763 0.013457958869300103 0 -0.041495999990829618 0.020034020560670086 0 -0.041425206694338849 0.019669414597158409 0 -0.041111286417607654 0.019625874841950757 0 -0.041080281271262072 0.018949419831143004 0 -0.043210392256220267 0.013372352014810884 0 -0.041677483069902509 0.019739704128581687 0 -0.041425206694338849 0.019669414597158409 0 -0.041504862485046527 0.019326642441954939 0 -0.038439058779553101 0.015457403522455995 0 -0.03937484789883846 0.013285827747364216 0 -0.038183038193291725 0.011958541603268032 0 -0.043210392256220267 0.013372352014810884 0 -0.039634835731218475 0.01532914736904461 0 -0.038439058779553101 0.015457403522455995 0 -0.039542213310857284 0.014686564026272251 0 -0.03937484789883846 0.013285827747364216 0 -0.039542213310857284 0.014686564026272251 0 -0.040868134370057568 0.013438858123070413 0 -0.03937484789883846 0.013285827747364216 0 -0.039542213310857284 0.014686564026272251 0 -0.040692280816139702 0.01485041155402605 0 -0.040868134370057568 0.013438858123070413 0 -0.040692280816139702 0.01485041155402605 0 -0.040868134370057568 0.013438858123070413 0 -0.0417789991525577 0.015075968535427229 0 -0.040571996415883896 0.016169988439102913 0 -0.04220766520422406 0.016657248174210056 0 -0.0417789991525577 0.015075968535427229 0 -0.040692280816139702 0.01485041155402605 0 -0.040571996415883896 0.016169988439102913 0 -0.0417789991525577 0.015075968535427229 0 -0.039542213310857284 0.014686564026272251 0 -0.040692280816139702 0.01485041155402605 0 -0.040571996415883896 0.016169988439102913 0 -0.038473779821310249 0.015512440213985531 0 -0.039542213310857284 0.014686564026272251 0 -0.040571996415883896 0.016169988439102913 0 -0.053505192241485547 0.0089690033573866339 0 -0.053523769306209362 0.0079928069185831764 0 -0.05253659477796771 0.0078975010023586475 0 -0.048056240378499447 0.017467586006657827 0 -0.05644194663741265 0.011790567668905638 0 -0.053505192241485547 0.0089690033573866339 0 -0.053523769306209362 0.0079928069185831764 0 -0.054159334516680278 0.0082741880288170703 0 -0.048056240378499447 0.017467586006657827 0 -0.048332132708581763 0.013457958869300103 0 -0.053523769306209362 0.0079928069185831764 0 -0.054159334516680278 0.0082741880288170703 0 -0.053942992492215368 0.0076004782513347056 0 -0.054689398153076864 0.0077651338373214383 0 -0.054159334516680278 0.0082741880288170703 0 -0.053942992492215368 0.0076004782513347056 0 -0.054689398153076864 0.0077651338373214383 0 -0.053942992492215368 0.0076004782513347056 0 -0.054108677778503721 0.0067586775635592958 0 -0.053523769306209362 0.0079928069185831764 0 -0.053942992492215368 0.0076004782513347056 0 -0.053247904319904032 0.0072035862521036284 0 -0.053523769306209362 0.0079928069185831764 0 -0.053247904319904032 0.0072035862521036284 0 -0.05253659477796771 0.0078975010023586475 0 -0.053247904319904032 0.0072035862521036284 0 -0.053861491686005257 0.0052355393964122355 0 -0.052630795384659826 0.0049861945457400966 0 -0.053247904319904032 0.0072035862521036284 0 -0.055517070500932075 0.0054828821795132121 0 -0.053861491686005257 0.0052355393964122355 0 -0.055242999608020205 0.0067111633628953891 0 -0.049753730196478364 0.0063204262875822233 0 -0.053942992492215368 0.0076004782513347056 0 -0.053247904319904032 0.0072035862521036284 0 -0.054108677778503721 0.0067586775635592958 0 -0.050771662644790085 -0.00091592002744803156 0 -0.051199765063385035 -0.00055650630684872613 0 -0.050674332691325173 -0.00045548677488525048 0 -0.049753730196478364 0.0063204262875822233 0 -0.052903811269848909 0.00077192174620290194 0 -0.055517070500932075 0.0054828821795132121 0 -0.053861491686005257 0.0052355393964122355 0 -0.054072483608196213 0.0032832886501469351 0 -0.053861491686005257 0.0052355393964122355 0 -0.052630795384659826 0.0049861945457400966 0 -0.054072483608196213 0.0032832886501469351 0 -0.040003305910089472 0.011564621801663292 0 -0.041524400233536242 0.011874000467958161 0 -0.041895626039136095 0.010060248649007239 0 -0.040003305910089472 0.011564621801663292 0 -0.041524400233536242 0.011874000467958161 0 -0.040868134370057568 0.013438858123070413 0 -0.041524400233536242 0.011874000467958161 0 -0.040868134370057568 0.013438858123070413 0 -0.042337888243361488 0.012742596487980686 0 -0.040003305910089472 0.011564621801663292 0 -0.040868134370057568 0.013438858123070413 0 -0.03937484789883846 0.013285827747364216 0 -0.040003305910089472 0.011564621801663292 0 -0.03937484789883846 0.013285827747364216 0 -0.038183038193291725 0.011958541603268032 0 -0.043210392256220267 0.013372352014810884 0 -0.049753730196478364 0.0063204262875822233 0 -0.038439058779553101 0.015457403522455995 0 -0.035902171101337733 0.011236431914516488 0 -0.038183038193291725 0.011958541603268032 0 -0.040003305910089472 0.011564621801663292 0 -0.038183038193291725 0.011958541603268032 0 -0.038793807399110647 0.0090205885292422225 0 -0.050771662644790085 -0.00091592002744803156 0 -0.050405095564928268 -0.00063428792703927161 0 -0.050674332691325173 -0.00045548677488525048 0 -0.035902171101337733 0.011236431914516488 0 -0.038183038193291725 0.011958541603268032 0 -0.038793807399110647 0.0090205885292422225 0 -0.049753730196478364 0.0063204262875822233 0 -0.04368550219721562 0.0043957163064202312 0 -0.040003305910089472 0.011564621801663292 0 -0.038793807399110647 0.0090205885292422225 0 -0.041895626039136095 0.010060248649007239 0 -0.038793807399110647 0.0090205885292422225 0 -0.041895626039136095 0.010060248649007239 0 -0.041749246096044711 0.0067019908278745906 0 -0.041895626039136095 0.010060248649007239 0 -0.043007448189923032 0.011399423632583316 0 -0.044506041329528082 0.0097252946071843521 0 -0.041895626039136095 0.010060248649007239 0 -0.044506041329528082 0.0097252946071843521 0 -0.044223662187166175 0.0072265135733796922 0 -0.041524400233536242 0.011874000467958161 0 -0.043007448189923032 0.011399423632583316 0 -0.042337888243361488 0.012742596487980686 0 -0.041524400233536242 0.011874000467958161 0 -0.041895626039136095 0.010060248649007239 0 -0.043007448189923032 0.011399423632583316 0 -0.043007448189923032 0.011399423632583316 0 -0.043668547401686485 0.012906601895755532 0 -0.044399083992654638 0.011639948984661207 0 -0.043007448189923032 0.011399423632583316 0 -0.044399083992654638 0.011639948984661207 0 -0.044506041329528082 0.0097252946071843521 0 -0.043007448189923032 0.011399423632583316 0 -0.043668547401686485 0.012906601895755532 0 -0.042337888243361488 0.012742596487980686 0 -0.043668547401686485 0.012906601895755532 0 -0.044870484928544466 0.012592106987058682 0 -0.044127432104595826 0.014157327411889889 0 -0.040868134370057568 0.013438858123070413 0 -0.042337888243361488 0.012742596487980686 0 -0.042787719196981613 0.014130350704034352 0 -0.043668547401686485 0.012906601895755532 0 -0.042337888243361488 0.012742596487980686 0 -0.042787719196981613 0.014130350704034352 0 -0.046344189071547665 0.012764022594922448 0 -0.044870484928544466 0.012592106987058682 0 -0.044127432104595826 0.014157327411889889 0 -0.046344189071547665 0.012764022594922448 0 -0.044870484928544466 0.012592106987058682 0 -0.045542384924587911 0.011417709199053491 0 -0.043668547401686485 0.012906601895755532 0 -0.044870484928544466 0.012592106987058682 0 -0.044399083992654638 0.011639948984661207 0 -0.044399083992654638 0.011639948984661207 0 -0.045542384924587911 0.011417709199053491 0 -0.044506041329528082 0.0097252946071843521 0 -0.044870484928544466 0.012592106987058682 0 -0.044399083992654638 0.011639948984661207 0 -0.045542384924587911 0.011417709199053491 0 -0.046344189071547665 0.012764022594922448 0 -0.045542384924587911 0.011417709199053491 0 -0.046510157723930377 0.010344079369122607 0 -0.046510157723930377 0.010344079369122607 0 -0.044506041329528082 0.0097252946071843521 0 -0.046103612771583952 0.0086400992966731982 0 -0.045542384924587911 0.011417709199053491 0 -0.046510157723930377 0.010344079369122607 0 -0.044506041329528082 0.0097252946071843521 0 -0.044506041329528082 0.0097252946071843521 0 -0.046103612771583952 0.0086400992966731982 0 -0.044223662187166175 0.0072265135733796922 0 -0.046510157723930377 0.010344079369122607 0 -0.046103612771583952 0.0086400992966731982 0 -0.048610305991227655 0.009147543061728448 0 -0.046103612771583952 0.0086400992966731982 0 -0.048610305991227655 0.009147543061728448 0 -0.046653947127827985 0.0067791573365366701 0 -0.046344189071547665 0.012764022594922448 0 -0.046510157723930377 0.010344079369122607 0 -0.048610305991227655 0.009147543061728448 0 -0.045346378414606002 0.0085986624367079597 0 -0.044184161894726882 0.01540988557733124 0 -0.044059428683382675 0.015537734437718815 0 -0.044303602973035559 0.015801276857603769 0 -0.044037928136592852 0.015836002295999022 0 -0.041752924856902351 0.012923959733470049 0 -0.044334135692706833 0.012772059922810768 0 -0.043113730077207882 0.014591275291394363 0 -0.044334135692706833 0.012772059922810768 0 -0.044518286906722403 0.01443238268950109 0 -0.043113730077207882 0.014591275291394363 0 -0.044518286906722403 0.01443238268950109 0 -0.043113730077207882 0.014591275291394363 0 -0.044662358269986858 0.016220286315356828 0 -0.044303602973035559 0.015801276857603769 0 -0.044284459628010531 0.016004510976593032 0 -0.044171261369042314 0.015957226449814812 0 -0.044303602973035559 0.015801276857603769 0 -0.044284459628010531 0.016004510976593032 0 -0.044456969391859495 0.016086971881163061 0 -0.044284459628010531 0.016004510976593032 0 -0.044456969391859495 0.016086971881163061 0 -0.044202447847442851 0.016242100130410032 0 -0.044184161894726882 0.01540988557733124 0 -0.044432855364663265 0.015964220375630486 0 -0.044303602973035559 0.015801276857603769 0 -0.044662358269986858 0.016220286315356828 0 -0.044456969391859495 0.016086971881163061 0 -0.043842162421378575 0.015990824664950956 0 -0.044059428683382675 0.015537734437718815 0 -0.044037928136592852 0.015836002295999022 0 -0.044983510611249014 0.015038918964966787 0 -0.045346378414606002 0.0085986624367079597 0 -0.044303602973035559 0.015801276857603769 0 -0.044037928136592852 0.015836002295999022 0 -0.044171261369042314 0.015957226449814812 0 -0.044037928136592852 0.015836002295999022 0 -0.044171261369042314 0.015957226449814812 0 -0.044056837942707976 0.016050139563122283 0 -0.044171261369042314 0.015957226449814812 0 -0.044056837942707976 0.016050139563122283 0 -0.044202447847442851 0.016242100130410032 0 -0.044284459628010531 0.016004510976593032 0 -0.044171261369042314 0.015957226449814812 0 -0.044202447847442851 0.016242100130410032 0 -0.044056837942707976 0.016050139563122283 0 -0.044202447847442851 0.016242100130410032 0 -0.04398314696976708 0.016416270876416231 0 -0.044056837942707976 0.016050139563122283 0 -0.043900524133068282 0.015983419287289979 0 -0.04398314696976708 0.016416270876416231 0 -0.043842162421378575 0.015990824664950956 0 -0.044037928136592852 0.015836002295999022 0 -0.043900524133068282 0.015983419287289979 0 -0.044037928136592852 0.015836002295999022 0 -0.044056837942707976 0.016050139563122283 0 -0.043900524133068282 0.015983419287289979 0 -0.044202447847442851 0.016242100130410032 0 -0.04398314696976708 0.016416270876416231 0 -0.044303152774850765 0.017278538778937778 0 -0.043900524133068282 0.015983419287289979 0 -0.04398314696976708 0.016416270876416231 0 -0.043715278817844178 0.016903041919256189 0 -0.04398314696976708 0.016416270876416231 0 -0.043715278817844178 0.016903041919256189 0 -0.044303152774850765 0.017278538778937778 0 -0.044662358269986858 0.016220286315356828 0 -0.043341728976250563 0.017981881923185075 0 -0.045219969292232626 0.017265382716933182 0 -0.044438507927789611 0.016216098985092398 0 -0.043817560223811274 0.017625779167220929 0 -0.044662358269986858 0.016220286315356828 0 -0.044456969391859495 0.016086971881163061 0 -0.043341728976250563 0.017981881923185075 0 -0.044456969391859495 0.016086971881163061 0 -0.044202447847442851 0.016242100130410032 0 -0.044303152774850765 0.017278538778937778 0 -0.044459575099289383 0.019163900264256094 0 -0.043341728976250563 0.017981881923185075 0 -0.045219969292232626 0.017265382716933182 0 -0.043441896048867355 0.019121723101473857 0 -0.044459575099289383 0.019163900264256094 0 -0.043341728976250563 0.017981881923185075 0 -0.043331934325219298 0.019298378996638048 0 -0.044303152774850765 0.017278538778937778 0 -0.043224574207647991 0.018275929604852047 0 -0.043441896048867355 0.019121723101473857 0 -0.042634174826381779 0.01963098453131535 0 -0.043341728976250563 0.017981881923185075 0 -0.042973635366634955 0.019459026312398479 0 -0.043817560223811274 0.017625779167220929 0 -0.043546903177746774 0.017472140616029946 0 -0.044303152774850765 0.017278538778937778 0 -0.043224574207647991 0.018275929604852047 0 -0.043715278817844178 0.016903041919256189 0 -0.043546903177746774 0.017472140616029946 0 -0.044303152774850765 0.017278538778937778 0 -0.041946947196725773 0.019672082714786602 0 -0.043224574207647991 0.018275929604852047 0 -0.04281735895307387 0.017468218948934758 0 -0.043715278817844178 0.016903041919256189 0 -0.043546903177746774 0.017472140616029946 0 -0.04281735895307387 0.017468218948934758 0 -0.043546903177746774 0.017472140616029946 0 -0.043224574207647991 0.018275929604852047 0 -0.04281735895307387 0.017468218948934758 0 -0.043109196516812547 0.020023809624423891 0 -0.044254471255192412 0.016835513031066559 0 -0.042775539444820307 0.018077121496534971 0 -0.041574248596954085 0.018264176839591115 0 -0.042775539444820307 0.018077121496534971 0 -0.04220766520422406 0.016657248174210056 0 -0.044254471255192412 0.016835513031066559 0 -0.042775539444820307 0.018077121496534971 0 -0.043604558113613953 0.016507798948329357 0 -0.042775539444820307 0.018077121496534971 0 -0.04220766520422406 0.016657248174210056 0 -0.043604558113613953 0.016507798948329357 0 -0.043604558113613953 0.016507798948329357 0 -0.042870090396600849 0.015339784192247574 0 -0.044127432104595826 0.014157327411889889 0 -0.04220766520422406 0.016657248174210056 0 -0.043604558113613953 0.016507798948329357 0 -0.042870090396600849 0.015339784192247574 0 -0.04220766520422406 0.016657248174210056 0 -0.042870090396600849 0.015339784192247574 0 -0.0417789991525577 0.015075968535427229 0 -0.040868134370057568 0.013438858123070413 0 -0.0417789991525577 0.015075968535427229 0 -0.042787719196981613 0.014130350704034352 0 -0.042870090396600849 0.015339784192247574 0 -0.0417789991525577 0.015075968535427229 0 -0.042787719196981613 0.014130350704034352 0 -0.043668547401686485 0.012906601895755532 0 -0.042787719196981613 0.014130350704034352 0 -0.044127432104595826 0.014157327411889889 0 -0.042870090396600849 0.015339784192247574 0 -0.042787719196981613 0.014130350704034352 0 -0.044127432104595826 0.014157327411889889 0 -0.043900524133068282 0.015983419287289979 0 -0.043715278817844178 0.016903041919256189 0 -0.04281735895307387 0.017468218948934758 0 -0.043842162421378575 0.015990824664950956 0 -0.043900524133068282 0.015983419287289979 0 -0.044254471255192412 0.016835513031066559 0 -0.046344189071547665 0.012764022594922448 0 -0.043604558113613953 0.016507798948329357 0 -0.044127432104595826 0.014157327411889889 0 -0.043881296206247797 0.01608712412459945 0 -0.043508857383188236 0.017220313668889816 0 -0.044983510611249014 0.015038918964966787 0 -0.043790204427414416 0.016135419726779128 0 -0.043842162421378575 0.015990824664950956 0 -0.044254471255192412 0.016835513031066559 0 -0.043604558113613953 0.016507798948329357 0 -0.0499997749690098 0.019325823849994546 0 -0.051830148385314183 0.01984793821505107 0 -0.051420326553362018 0.018348780153287638 0 -0.051830148385314183 0.01984793821505107 0 -0.053091894842792413 0.019196523359626523 0 -0.051420326553362018 0.018348780153287638 0 -0.051830148385314183 0.01984793821505107 0 -0.052644416466292421 0.020833925217897939 0 -0.053091894842792413 0.019196523359626523 0 -0.051830148385314183 0.01984793821505107 0 -0.051444709720499082 0.021502078383716851 0 -0.052644416466292421 0.020833925217897939 0 -0.051444709720499082 0.021502078383716851 0 -0.052717641680084422 0.022363724529408862 0 -0.052644416466292421 0.020833925217897939 0 -0.0499997749690098 0.019325823849994546 0 -0.051444709720499082 0.021502078383716851 0 -0.049999755239030198 0.022276437209847521 0 -0.0499997749690098 0.019325823849994546 0 -0.051830148385314183 0.01984793821505107 0 -0.051444709720499082 0.021502078383716851 0 -0.051444709720499082 0.021502078383716851 0 -0.049999755239030198 0.022276437209847521 0 -0.051420050479279854 0.023814125946157477 0 -0.050000304678573713 0.025227161297415167 0 -0.051324212371331439 0.023875898803618817 0 -0.049999990536885842 0.025227361023393204 0 -0.049999755239030198 0.022276437209847521 0 -0.051420050479279854 0.023814125946157477 0 -0.051682560170957993 0.026054725642464329 0 -0.05125587067024482 0.023942922154031293 0 -0.053223000934846665 0.024254988900497515 0 -0.05125587067024482 0.023942922154031293 0 -0.052502506653832832 0.022587038332562055 0 -0.053223000934846665 0.024254988900497515 0 -0.051444709720499082 0.021502078383716851 0 -0.051420050479279854 0.023814125946157477 0 -0.052717641680084422 0.022363724529408862 0 -0.051324212371331439 0.023875898803618817 0 -0.052628545920268076 0.022442637779233571 0 -0.053628466681375574 0.022592501041593622 0 -0.052502506653832832 0.022587038332562055 0 -0.053863281985111311 0.020995251364491523 0 -0.053628466681375574 0.022592501041593622 0 -0.052502506653832832 0.022587038332562055 0 -0.053223000934846665 0.024254988900497515 0 -0.052628545920268076 0.022442637779233571 0 -0.053794823234895539 0.021182814440499589 0 -0.053181729887454433 0.024334096377993542 0 -0.054869769151701976 0.022544587288333865 0 -0.053080187917388159 0.024470748774615442 0 -0.054657685736129911 0.024858798579745659 0 -0.054952420307457714 0.022410045403166538 0 -0.053628466681375574 0.022592501041593622 0 -0.053223000934846665 0.024254988900497515 0 -0.054952420307457714 0.022410045403166538 0 -0.053628466681375574 0.022592501041593622 0 -0.054952420307457714 0.022410045403166538 0 -0.053863281985111311 0.020995251364491523 0 -0.054952420307457714 0.022410045403166538 0 -0.054977903102865239 0.020984973416434072 0 -0.053863281985111311 0.020995251364491523 0 -0.053863281985111311 0.020995251364491523 0 -0.053091894842792413 0.019196523359626523 0 -0.054921575558463123 0.019314629617058918 0 -0.054977903102865239 0.020984973416434072 0 -0.053863281985111311 0.020995251364491523 0 -0.054921575558463123 0.019314629617058918 0 -0.053863281985111311 0.020995251364491523 0 -0.052644416466292421 0.020833925217897939 0 -0.053091894842792413 0.019196523359626523 0 -0.052717641680084422 0.022363724529408862 0 -0.053863281985111311 0.020995251364491523 0 -0.052644416466292421 0.020833925217897939 0 -0.053091894842792413 0.019196523359626523 0 -0.054921575558463123 0.019314629617058918 0 -0.054194191731741385 0.017962929950388257 0 -0.054921575558463123 0.019314629617058918 0 -0.055216059765421259 0.018055998593985181 0 -0.055878460144098925 0.019079499110615065 0 -0.054921575558463123 0.019314629617058918 0 -0.055216059765421259 0.018055998593985181 0 -0.054194191731741385 0.017962929950388257 0 -0.055216059765421259 0.018055998593985181 0 -0.055878460144098925 0.019079499110615065 0 -0.056742167650281089 0.017757669942114598 0 -0.055878460144098925 0.019079499110615065 0 -0.056776574313816157 0.019114467360396795 0 -0.056742167650281089 0.017757669942114598 0 -0.055878460144098925 0.019079499110615065 0 -0.055259023017641573 0.019920286098573495 0 -0.056694506867142537 0.020133326518431024 0 -0.055878460144098925 0.019079499110615065 0 -0.056694506867142537 0.020133326518431024 0 -0.056776574313816157 0.019114467360396795 0 -0.054921575558463123 0.019314629617058918 0 -0.055878460144098925 0.019079499110615065 0 -0.055259023017641573 0.019920286098573495 0 -0.055104683531609841 0.019549299996976452 0 -0.055598296205832495 0.020318943607588676 0 -0.054977903102865239 0.020984973416434072 0 -0.054921575558463123 0.019314629617058918 0 -0.056290043290914575 0.021198430591275443 0 -0.054952420307457714 0.022410045403166538 0 -0.054977903102865239 0.020984973416434072 0 -0.056290043290914575 0.021198430591275443 0 -0.054952420307457714 0.022410045403166538 0 -0.056290043290914575 0.021198430591275443 0 -0.05723746453317529 0.022916013812218885 0 -0.055598296205832495 0.020318943607588676 0 -0.055192113111432038 0.024421668092026592 0 -0.054316402167345665 0.027515675940580644 0 -0.055192113111432038 0.024421668092026592 0 -0.054657685736129911 0.024858798579745659 0 -0.054952420307457714 0.022410045403166538 0 -0.05723746453317529 0.022916013812218885 0 -0.053742170266735202 0.029637989124006964 0 -0.054778657429482069 0.02970773005790471 0 -0.055089815538523275 0.028622755654131471 0 -0.054450305545241662 0.028664832323864624 0 -0.055192113111432038 0.024421668092026592 0 -0.053243083055712757 0.026858347193367473 0 -0.05306079366306482 0.025408418787602541 0 -0.052288987083049007 0.024765428013805026 0 -0.055716016404193547 0.029808535497095029 0 -0.054778657429482069 0.02970773005790471 0 -0.055089815538523275 0.028622755654131471 0 -0.055192113111432038 0.024421668092026592 0 -0.055121130540093571 0.022197794402965799 0 -0.055259023017641573 0.019920286098573495 0 -0.055741182523805895 0.02083400789827481 0 -0.056694506867142537 0.020133326518431024 0 -0.05306079366306482 0.025408418787602541 0 -0.052288987083049007 0.024765428013805026 0 -0.053112867146563339 0.02459005810755488 0 -0.053112867146563339 0.02459005810755488 0 -0.053276575086748643 0.02482904449228391 0 -0.053256719433584204 0.024488548283886833 0 -0.05306079366306482 0.025408418787602541 0 -0.053112867146563339 0.02459005810755488 0 -0.053276575086748643 0.02482904449228391 0 -0.053243083055712757 0.026858347193367473 0 -0.05306079366306482 0.025408418787602541 0 -0.055726706918531758 0.026312226789151839 0 -0.053244823405488174 0.025407090715620199 0 -0.054220705654591451 0.025602691338390524 0 -0.05306079366306482 0.025408418787602541 0 -0.053276575086748643 0.02482904449228391 0 -0.05326565152846139 0.024981691788547526 0 -0.056621887685170992 0.026386717818018563 0 -0.054220705654591451 0.025602691338390524 0 -0.053276575086748643 0.02482904449228391 0 -0.05326565152846139 0.024981691788547526 0 -0.053270117670802995 0.024842887358079341 0 -0.053247143921835667 0.024787602622408627 0 -0.05326565152846139 0.024981691788547526 0 -0.053270117670802995 0.024842887358079341 0 -0.053276575086748643 0.02482904449228391 0 -0.053284584083777869 0.02473576708995695 0 -0.053256719433584204 0.024488548283886833 0 -0.053276575086748643 0.02482904449228391 0 -0.053270117670802995 0.024842887358079341 0 -0.053284584083777869 0.02473576708995695 0 -0.046839418539578161 0.022918724054459907 0 -0.052965973419197745 0.02103313271629589 0 -0.041191377916736452 0.020945521449127761 0 -0.041174658101687356 0.021110016713307568 0 -0.041294741198321015 0.020997349448195694 0 -0.055121130540093571 0.022197794402965799 0 -0.052965973419197745 0.02103313271629589 0 -0.056694506867142537 0.020133326518431024 0 -0.057861325507421575 0.019380001160201641 0 -0.056776574313816157 0.019114467360396795 0 -0.057861325507421575 0.019380001160201641 0 -0.056776574313816157 0.019114467360396795 0 -0.056742167650281089 0.017757669942114598 0 -0.057519408577674347 0.0187131470365219 0 -0.056742167650281089 0.017757669942114598 0 -0.057733802325893563 0.017646512678526908 0 -0.052965973419197745 0.02103313271629589 0 -0.057963316400271851 0.017580190438578239 0 -0.058761571632660603 0.01772341702461968 0 -0.057519408577674347 0.0187131470365219 0 -0.057733802325893563 0.017646512678526908 0 -0.048056240378499447 0.017467586006657827 0 -0.052965973419197745 0.02103313271629589 0 -0.058761571632660603 0.01772341702461968 0 -0.057733802325893563 0.017646512678526908 0 -0.057959970414655317 0.016436306485095933 0 -0.057733802325893563 0.017646512678526908 0 -0.056796296257758158 0.016521476406979818 0 -0.057959970414655317 0.016436306485095933 0 -0.056742167650281089 0.017757669942114598 0 -0.057733802325893563 0.017646512678526908 0 -0.056796296257758158 0.016521476406979818 0 -0.056796296257758158 0.016521476406979818 0 -0.057959970414655317 0.016436306485095933 0 -0.056740265314234942 0.014579996800224574 0 -0.05644194663741265 0.011790567668905638 0 -0.053715258091530591 0.01025992481991771 0 -0.053247904319904032 0.0072035862521036284 0 -0.05253659477796771 0.0078975010023586475 0 -0.051148793809911899 0.0061268993661487995 0 -0.053247904319904032 0.0072035862521036284 0 -0.052630795384659826 0.0049861945457400966 0 -0.051148793809911899 0.0061268993661487995 0 -0.052630795384659826 0.0049861945457400966 0 -0.05164110260301881 0.0030185381746979469 0 -0.054072483608196213 0.0032832886501469351 0 -0.052630795384659826 0.0049861945457400966 0 -0.051148793809911899 0.0061268993661487995 0 -0.05164110260301881 0.0030185381746979469 0 -0.051148793809911899 0.0061268993661487995 0 -0.050020528624954215 0.0040712946482865187 0 -0.05164110260301881 0.0030185381746979469 0 -0.056740265314234942 0.014579996800224574 0 -0.055247583583605861 0.014091136775356818 0 -0.055376368017558943 0.015518935316202563 0 -0.053715258091530591 0.01025992481991771 0 -0.052889567862540704 0.0089073535410988669 0 -0.056740265314234942 0.014579996800224574 0 -0.055354148793749121 0.01269085477759339 0 -0.055247583583605861 0.014091136775356818 0 -0.055354148793749121 0.01269085477759339 0 -0.054245266178041769 0.012721510197812433 0 -0.055247583583605861 0.014091136775356818 0 -0.054245266178041769 0.012721510197812433 0 -0.054194329623892527 0.014211756439374126 0 -0.055247583583605861 0.014091136775356818 0 -0.054194329623892527 0.014211756439374126 0 -0.055376368017558943 0.015518935316202563 0 -0.05411627575951735 0.015658651129851861 0 -0.054194329623892527 0.014211756439374126 0 -0.055247583583605861 0.014091136775356818 0 -0.055376368017558943 0.015518935316202563 0 -0.055376368017558943 0.015518935316202563 0 -0.05470904405366394 0.01677715772226545 0 -0.055795113175191292 0.016880642402528109 0 -0.055376368017558943 0.015518935316202563 0 -0.05470904405366394 0.01677715772226545 0 -0.05411627575951735 0.015658651129851861 0 -0.056796296257758158 0.016521476406979818 0 -0.056740265314234942 0.014579996800224574 0 -0.055376368017558943 0.015518935316202563 0 -0.056796296257758158 0.016521476406979818 0 -0.055376368017558943 0.015518935316202563 0 -0.055795113175191292 0.016880642402528109 0 -0.055216059765421259 0.018055998593985181 0 -0.056742167650281089 0.017757669942114598 0 -0.055795113175191292 0.016880642402528109 0 -0.056742167650281089 0.017757669942114598 0 -0.056796296257758158 0.016521476406979818 0 -0.055795113175191292 0.016880642402528109 0 -0.055216059765421259 0.018055998593985181 0 -0.05470904405366394 0.01677715772226545 0 -0.055795113175191292 0.016880642402528109 0 -0.055216059765421259 0.018055998593985181 0 -0.05470904405366394 0.01677715772226545 0 -0.054194191731741385 0.017962929950388257 0 -0.05470904405366394 0.01677715772226545 0 -0.054194191731741385 0.017962929950388257 0 -0.053684230809144175 0.016634396018215418 0 -0.054194191731741385 0.017962929950388257 0 -0.05262916031136252 0.017239941392057336 0 -0.053684230809144175 0.016634396018215418 0 -0.053091894842792413 0.019196523359626523 0 -0.054194191731741385 0.017962929950388257 0 -0.05262916031136252 0.017239941392057336 0 -0.05262916031136252 0.017239941392057336 0 -0.05379469567252218 0.015153975231709148 0 -0.051877006951212445 0.015366733631713016 0 -0.05262916031136252 0.017239941392057336 0 -0.053684230809144175 0.016634396018215418 0 -0.052913988855699798 0.015179565848709366 0 -0.052693501059395798 0.016899776800025825 0 -0.053414093220358796 0.015584121297122106 0 -0.053684230809144175 0.016634396018215418 0 -0.05411627575951735 0.015658651129851861 0 -0.052913988855699798 0.015179565848709366 0 -0.05470904405366394 0.01677715772226545 0 -0.053684230809144175 0.016634396018215418 0 -0.05411627575951735 0.015658651129851861 0 -0.052736463759419025 0.010878166853980591 0 -0.053414093220358796 0.015584121297122106 0 -0.054194329623892527 0.014211756439374126 0 -0.053448265527488902 0.0134450624832275 0 -0.052913988855699798 0.015179565848709366 0 -0.054194329623892527 0.014211756439374126 0 -0.05411627575951735 0.015658651129851861 0 -0.052913988855699798 0.015179565848709366 0 -0.054245266178041769 0.012721510197812433 0 -0.054194329623892527 0.014211756439374126 0 -0.05290466427615037 0.012891339366926565 0 -0.054527534354266056 0.014532232054994309 0 -0.052736463759419025 0.010878166853980591 0 -0.05336813551176102 0.013641973849569063 0 -0.051975165913353417 0.013113114697361736 0 -0.053223472228932367 0.011302888985977467 0 -0.054744231198444245 0.012953366797575102 0 -0.05336813551176102 0.013641973849569063 0 -0.05379469567252218 0.015153975231709148 0 -0.054744231198444245 0.012953366797575102 0 -0.05336813551176102 0.013641973849569063 0 -0.053223472228932367 0.011302888985977467 0 -0.05336813551176102 0.013641973849569063 0 -0.05379469567252218 0.015153975231709148 0 -0.051877006951212445 0.015366733631713016 0 -0.05336813551176102 0.013641973849569063 0 -0.051877006951212445 0.015366733631713016 0 -0.051975165913353417 0.013113114697361736 0 -0.051877006951212445 0.015366733631713016 0 -0.051975165913353417 0.013113114697361736 0 -0.049999810372563049 0.013424747159545331 0 -0.051975165913353417 0.013113114697361736 0 -0.049999810372563049 0.013424747159545331 0 -0.051423848040958807 0.012042401655497893 0 -0.051877006951212445 0.015366733631713016 0 -0.049999810372563049 0.013424747159545331 0 -0.049999835207438663 0.016375385460871444 0 -0.051877006951212445 0.015366733631713016 0 -0.049999835207438663 0.016375385460871444 0 -0.051420326553362018 0.018348780153287638 0 -0.05262916031136252 0.017239941392057336 0 -0.051877006951212445 0.015366733631713016 0 -0.051420326553362018 0.018348780153287638 0 -0.053091894842792413 0.019196523359626523 0 -0.05262916031136252 0.017239941392057336 0 -0.051420326553362018 0.018348780153287638 0 -0.0499997749690098 0.019325823849994546 0 -0.049999835207438663 0.016375385460871444 0 -0.051420326553362018 0.018348780153287638 0 -0.049999996954260245 0.0075248714982777964 0 -0.050304256025415849 0.0078473356059883814 0 -0.050290424493684607 0.0060163251206636296 0 -0.050396179181366317 0.0018724392033758887 0 -0.050297722800903374 0.0016892512158837416 0 -0.050547845180452265 0.001687821135289129 0 -0.049944851527408178 0.0061429872642835481 0 -0.050451245923973702 0.0038093325916606436 0 -0.050396179181366317 0.0018724392033758887 0 -0.050547845180452265 0.001687821135289129 0 -0.050697357798046648 0.0021033852438118793 0 -0.050000868151881768 0.0075215716496518379 0 -0.049944851527408178 0.0061429872642835481 0 -0.050396179181366317 0.0018724392033758887 0 -0.05023137329314302 0.0017835917358012788 0 -0.050247903465031801 0.0023187168928650408 0 -0.05023137329314302 0.0017835917358012788 0 -0.050297722800903374 0.0016892512158837416 0 -0.050184701022504635 0.0015921795147493284 0 -0.050396179181366317 0.0018724392033758887 0 -0.05023137329314302 0.0017835917358012788 0 -0.050297722800903374 0.0016892512158837416 0 -0.050297722800903374 0.0016892512158837416 0 -0.050245800557388365 0.0015721504191672235 0 -0.050184701022504635 0.0015921795147493284 0 -0.050000021420132289 0.007523263220404787 0 -0.049999952149234826 0.010474079795598975 0 -0.050360139430740788 0.0098268307900660334 0 -0.049944851527408178 0.0061429872642835481 0 -0.050311716945450606 0.010245212694605136 0 -0.050297722800903374 0.0016892512158837416 0 -0.050547845180452265 0.001687821135289129 0 -0.050245800557388365 0.0015721504191672235 0 -0.050000021420132289 0.007523263220404787 0 -0.050316922462031184 0.0078567350149673452 0 -0.050360139430740788 0.0098268307900660334 0 -0.049944851527408178 0.0061429872642835481 0 -0.051047654769736217 0.0055385345307004561 0 -0.050170053573013927 0.0079432406670515709 0 -0.050221075630324546 0.0099136978742557468 0 -0.051753211615506653 0.0096643661535713715 0 -0.050311716945450606 0.010245212694605136 0 -0.050339810218975593 0.011486169952741963 0 -0.050221075630324546 0.0099136978742557468 0 -0.05116946271653626 0.010851353476820449 0 -0.051753211615506653 0.0096643661535713715 0 -0.049999952149234826 0.010474079795598975 0 -0.050360139430740788 0.0098268307900660334 0 -0.05035415049073718 0.011806953826549471 0 -0.050221075630324546 0.0099136978742557468 0 -0.05116946271653626 0.010851353476820449 0 -0.05035415049073718 0.011806953826549471 0 -0.049999810372563049 0.013424747159545331 0 -0.049999952149234826 0.010474079795598975 0 -0.05035415049073718 0.011806953826549471 0 -0.049999810372563049 0.013424747159545331 0 -0.05035415049073718 0.011806953826549471 0 -0.051423848040958807 0.012042401655497893 0 -0.05116946271653626 0.010851353476820449 0 -0.05035415049073718 0.011806953826549471 0 -0.051423848040958807 0.012042401655497893 0 -0.05116946271653626 0.010851353476820449 0 -0.051423848040958807 0.012042401655497893 0 -0.053223472228932367 0.011302888985977467 0 -0.051975165913353417 0.013113114697361736 0 -0.051423848040958807 0.012042401655497893 0 -0.053223472228932367 0.011302888985977467 0 -0.051047654769736217 0.0055385345307004561 0 -0.051472512768749382 0.0060117275562287728 0 -0.05116946271653626 0.010851353476820449 0 -0.051753211615506653 0.0096643661535713715 0 -0.053223472228932367 0.011302888985977467 0 -0.050245800557388365 0.0015721504191672235 0 -0.050169518313279114 0.0015827932051735089 0 -0.050132294837953062 0.0017140113151140502 0 -0.050169518313279114 0.0015827932051735089 0 -0.050132294837953062 0.0017140113151140502 0 -0.050221644197135686 0.0016964741453319549 0 -0.052736463759419025 0.010878166853980591 0 -0.051472512768749382 0.0060117275562287728 0 -0.05031977927401738 0.0021026897408391999 0 -0.050132294837953062 0.0017140113151140502 0 -0.050221644197135686 0.0016964741453319549 0 -0.05031977927401738 0.0021026897408391999 0 -0.050221644197135686 0.0016964741453319549 0 -0.050351532780024168 0.001647666100698103 0 -0.054245266178041769 0.012721510197812433 0 -0.05290466427615037 0.012891339366926565 0 -0.053847491765304206 0.01084229415354354 0 -0.052736463759419025 0.010878166853980591 0 -0.051311292080655706 0.003934794849265167 0 -0.050169518313279114 0.0015827932051735089 0 -0.050221644197135686 0.0016964741453319549 0 -0.050223318716797492 0.0015452137121385169 0 -0.050169518313279114 0.0015827932051735089 0 -0.050223318716797492 0.0015452137121385169 0 -0.050162355480880147 0.0014903662207971817 0 -0.051311292080655706 0.003934794849265167 0 -0.05024455710531861 0.0023930928387769258 0 -0.050223318716797492 0.0015452137121385169 0 -0.050162355480880147 0.0014903662207971817 0 -0.049948711333919898 0.0015173223160493291 0 -0.050221644197135686 0.0016964741453319549 0 -0.050351532780024168 0.001647666100698103 0 -0.050223318716797492 0.0015452137121385169 0 -0.050162355480880147 0.0014903662207971817 0 -0.050126968155174548 0.0013121439992749189 0 -0.049948711333919898 0.0015173223160493291 0 -0.050162355480880147 0.0014903662207971817 0 -0.050184701022504635 0.0015921795147493284 0 -0.050250176094586985 0.0014019503252073499 0 -0.050245800557388365 0.0015721504191672235 0 -0.050169518313279114 0.0015827932051735089 0 -0.050184701022504635 0.0015921795147493284 0 -0.050169518313279114 0.0015827932051735089 0 -0.050162355480880147 0.0014903662207971817 0 -0.050184701022504635 0.0015921795147493284 0 -0.05023137329314302 0.0017835917358012788 0 -0.050184701022504635 0.0015921795147493284 0 -0.050250176094586985 0.0014019503252073499 0 -0.050162355480880147 0.0014903662207971817 0 -0.050250176094586985 0.0014019503252073499 0 -0.050126968155174548 0.0013121439992749189 0 -0.050250176094586985 0.0014019503252073499 0 -0.050300583049249004 0.00088990331721239355 0 -0.050126968155174548 0.0013121439992749189 0 -0.050300583049249004 0.00088990331721239355 0 -0.050274485856422871 0.0012786133614263769 0 -0.050747219270245975 0.00074601354469850463 0 -0.050300583049249004 0.00088990331721239355 0 -0.050747219270245975 0.00074601354469850463 0 -0.050623336483799311 0.00036864477379109191 0 -0.050274485856422871 0.0012786133614263769 0 -0.050865822886338147 0.0016445360746023946 0 -0.050747219270245975 0.00074601354469850463 0 -0.050274485856422871 0.0012786133614263769 0 -0.050126968155174548 0.0013121439992749189 0 -0.049948711333919898 0.0015173223160493291 0 -0.050300583049249004 0.00088990331721239355 0 -0.050274485856422871 0.0012786133614263769 0 -0.050126968155174548 0.0013121439992749189 0 -0.050274485856422871 0.0012786133614263769 0 -0.049948711333919898 0.0015173223160493291 0 -0.050049387787077161 0.0021473570274206421 0 -0.051311292080655706 0.003934794849265167 0 -0.050081425134562652 0.0012943173100090797 0 -0.049145651404932017 0.0023485801728278465 0 -0.049948711333919898 0.0015173223160493291 0 -0.050049387787077161 0.0021473570274206421 0 -0.050182775357537818 0.0015023361716056131 0 -0.050223318716797492 0.0015452137121385169 0 -0.049948711333919898 0.0015173223160493291 0 -0.052889567862540704 0.0089073535410988669 0 -0.051311292080655706 0.003934794849265167 0 -0.055354148793749121 0.01269085477759339 0 -0.054245266178041769 0.012721510197812433 0 -0.053847491765304206 0.01084229415354354 0 -0.050020528624954215 0.0040712946482865187 0 -0.049145651404932017 0.0023485801728278465 0 -0.050049387787077161 0.0021473570274206421 0 -0.050020528624954215 0.0040712946482865187 0 -0.050049387787077161 0.0021473570274206421 0 -0.050865822886338147 0.0016445360746023946 0 -0.050274485856422871 0.0012786133614263769 0 -0.050049387787077161 0.0021473570274206421 0 -0.050865822886338147 0.0016445360746023946 0 -0.050020528624954215 0.0040712946482865187 0 -0.050865822886338147 0.0016445360746023946 0 -0.05164110260301881 0.0030185381746979469 0 -0.05164110260301881 0.0030185381746979469 0 -0.051907301359979487 0.00084120848024609146 0 -0.054072483608196213 0.0032832886501469351 0 -0.050865822886338147 0.0016445360746023946 0 -0.05164110260301881 0.0030185381746979469 0 -0.051907301359979487 0.00084120848024609146 0 -0.050865822886338147 0.0016445360746023946 0 -0.051907301359979487 0.00084120848024609146 0 -0.051291806159517089 0.00049734644656872174 0 -0.050865822886338147 0.0016445360746023946 0 -0.051291806159517089 0.00049734644656872174 0 -0.050747219270245975 0.00074601354469850463 0 -0.050747219270245975 0.00074601354469850463 0 -0.051004765936411435 0.00020609852491204806 0 -0.050623336483799311 0.00036864477379109191 0 -0.051291806159517089 0.00049734644656872174 0 -0.050747219270245975 0.00074601354469850463 0 -0.051004765936411435 0.00020609852491204806 0 -0.051291806159517089 0.00049734644656872174 0 -0.051004765936411435 0.00020609852491204806 0 -0.051163283717096691 0.00023853824479122334 0 -0.051004765936411435 0.00020609852491204806 0 -0.050623336483799311 0.00036864477379109191 0 -0.050608349477863225 -0.00019640917563052042 0 -0.051004765936411435 0.00020609852491204806 0 -0.050608349477863225 -0.00019640917563052042 0 -0.050898515162003069 -0.00017402553706732699 0 -0.050608349477863225 -0.00019640917563052042 0 -0.050898515162003069 -0.00017402553706732699 0 -0.050789286756006809 -0.00085569158917740088 0 -0.050891633435167914 -0.00028211208212082528 0 -0.050826998581798191 -0.00078554580813647052 0 -0.050806044044887026 -0.0014490072216887875 0 -0.051064828501381165 -0.00094439856296293044 0 -0.050789286756006809 -0.00085569158917740088 0 -0.05122856518738543 -0.00038329167612167022 0 -0.051064828501381165 -0.00094439856296293044 0 -0.050789286756006809 -0.00085569158917740088 0 -0.05122856518738543 -0.00038329167612167022 0 -0.051064828501381165 -0.00094439856296293044 0 -0.050996690645427466 -0.00015100070704844734 0 -0.050969305732016634 -0.0015310565705839328 0 -0.051026380113567339 -0.0012118207627684222 0 -0.051064828501381165 -0.00094439856296293044 0 -0.051026380113567339 -0.0012118207627684222 0 -0.051064828501381165 -0.00094439856296293044 0 -0.050996690645427466 -0.00015100070704844734 0 -0.051026380113567339 -0.0012118207627684222 0 -0.050996690645427466 -0.00015100070704844734 0 -0.050976650040667544 -0.00073861889762020095 0 -0.050996690645427466 -0.00015100070704844734 0 -0.051053513490534906 0.00072432607301584496 0 -0.050629171868215833 0.00093186884652721852 0 -0.050891633435167914 -0.00028211208212082528 0 -0.050657683830484052 0.00058930263530839605 0 -0.05122856518738543 -0.00038329167612167022 0 -0.050996690645427466 -0.00015100070704844734 0 -0.051053513490534906 0.00072432607301584496 0 -0.050623336483799311 0.00036864477379109191 0 -0.050608349477863225 -0.00019640917563052042 0 -0.050272337333317492 0.00044579235632661814 0 -0.050300583049249004 0.00088990331721239355 0 -0.050623336483799311 0.00036864477379109191 0 -0.050272337333317492 0.00044579235632661814 0 -0.050250176094586985 0.0014019503252073499 0 -0.050300583049249004 0.00088990331721239355 0 -0.050272337333317492 0.00044579235632661814 0 -0.050276595226592724 0.0013078410153815653 0 -0.050657683830484052 0.00058930263530839605 0 -0.050250176094586985 0.0014019503252073499 0 -0.051053513490534906 0.00072432607301584496 0 -0.050629171868215833 0.00093186884652721852 0 -0.050250176094586985 0.0014019503252073499 0 -0.050629171868215833 0.00093186884652721852 0 -0.050337794486681346 0.0018095898037759318 0 -0.05023137329314302 0.0017835917358012788 0 -0.050250176094586985 0.0014019503252073499 0 -0.050337794486681346 0.0018095898037759318 0 -0.050629171868215833 0.00093186884652721852 0 -0.050707424123804148 0.00071508776297653503 0 -0.050337794486681346 0.0018095898037759318 0 -0.050996690645427466 -0.00015100070704844734 0 -0.050976650040667544 -0.00073861889762020095 0 -0.050707424123804148 0.00071508776297653503 0 -0.050996690645427466 -0.00015100070704844734 0 -0.050629171868215833 0.00093186884652721852 0 -0.050707424123804148 0.00071508776297653503 0 -0.050825141021368599 -0.00074327219276111513 0 -0.050976650040667544 -0.00073861889762020095 0 -0.050707424123804148 0.00071508776297653503 0 -0.050707424123804148 0.00071508776297653503 0 -0.050512118497989998 0.0016840341607139327 0 -0.050533069943925292 0.00041508675111784875 0 -0.050825141021368599 -0.00074327219276111513 0 -0.050707424123804148 0.00071508776297653503 0 -0.050533069943925292 0.00041508675111784875 0 -0.049999165112102034 -0.00069240516239430503 0 -0.050533069943925292 0.00041508675111784875 0 -0.049999316306560827 0.0020447784876095007 0 -0.050512118497989998 0.0016840341607139327 0 -0.049999316306560827 0.0020447784876095007 0 -0.050378888122963018 0.0026699011739166048 0 -0.050512118497989998 0.0016840341607139327 0 -0.050533069943925292 0.00041508675111784875 0 -0.049999316306560827 0.0020447784876095007 0 -0.049999316306560827 0.0020447784876095007 0 -0.050378888122963018 0.0026699011739166048 0 -0.050239888530364048 0.0038032850563591591 0 -0.049999316306560827 0.0020447784876095007 0 -0.050239888530364048 0.0038032850563591591 0 -0.050000068774360029 0.0047821228494549523 0 -0.050378888122963018 0.0026699011739166048 0 -0.050239888530364048 0.0038032850563591591 0 -0.050247903465031801 0.0023187168928650408 0 -0.050512118497989998 0.0016840341607139327 0 -0.050378888122963018 0.0026699011739166048 0 -0.050337794486681346 0.0018095898037759318 0 -0.050378888122963018 0.0026699011739166048 0 -0.050337794486681346 0.0018095898037759318 0 -0.050247903465031801 0.0023187168928650408 0 -0.050707424123804148 0.00071508776297653503 0 -0.050512118497989998 0.0016840341607139327 0 -0.050337794486681346 0.0018095898037759318 0 -0.05023137329314302 0.0017835917358012788 0 -0.050337794486681346 0.0018095898037759318 0 -0.050247903465031801 0.0023187168928650408 0 -0.050396179181366317 0.0018724392033758887 0 -0.050697357798046648 0.0021033852438118793 0 -0.050247903465031801 0.0023187168928650408 0 -0.050317298730444049 0.0038725193242057283 0 -0.050451245923973702 0.0038093325916606436 0 -0.050239888530364048 0.0038032850563591591 0 -0.050697357798046648 0.0021033852438118793 0 -0.050247903465031801 0.0023187168928650408 0 -0.049999996954260245 0.0075248714982777964 0 -0.050000068774360029 0.0047821228494549523 0 -0.050290424493684607 0.0060163251206636296 0 -0.050239888530364048 0.0038032850563591591 0 -0.050000068774360029 0.0047821228494549523 0 -0.050290424493684607 0.0060163251206636296 0 -0.047321390858718677 -0.0022626240995840233 0 -0.048110579500552669 -0.0030831269594599237 0 -0.048733378176282746 -0.0016916298609643908 0 -0.047321390858718677 -0.0022626240995840233 0 -0.047389045754709938 -0.0031881836153513786 0 -0.046673692873968026 -0.0033555867351191034 0 -0.047321390858718677 -0.0022626240995840233 0 -0.047389045754709938 -0.0031881836153513786 0 -0.048110579500552669 -0.0030831269594599237 0 -0.048110579500552669 -0.0030831269594599237 0 -0.049008515262069764 -0.0028949366308269999 0 -0.048733378176282746 -0.0016916298609643908 0 -0.04962515809277207 -0.0017260960831521042 0 -0.050022609424362714 -0.0012858772553307151 0 -0.049008515262069764 -0.0028949366308269999 0 -0.048733378176282746 -0.0016916298609643908 0 -0.050071058064190009 -0.0011665742603237219 0 -0.048733378176282746 -0.0016916298609643908 0 -0.049750846762217471 -0.00070546386001580546 0 -0.048716519967225792 -0.00065404019193067637 0 -0.048733378176282746 -0.0016916298609643908 0 -0.050071058064190009 -0.0011665742603237219 0 -0.049750846762217471 -0.00070546386001580546 0 -0.048733378176282746 -0.0016916298609643908 0 -0.047525998978834638 -0.00116741025419804 0 -0.048716519967225792 -0.00065404019193067637 0 -0.047321390858718677 -0.0022626240995840233 0 -0.048733378176282746 -0.0016916298609643908 0 -0.047525998978834638 -0.00116741025419804 0 -0.047321390858718677 -0.0022626240995840233 0 -0.045948495587857151 -0.0014294584362046299 0 -0.045609092181684775 -0.0031311026423252765 0 -0.047321390858718677 -0.0022626240995840233 0 -0.047525998978834638 -0.00116741025419804 0 -0.045948495587857151 -0.0014294584362046299 0 -0.045948495587857151 -0.0014294584362046299 0 -0.044176898651382822 -0.00072524479603217713 0 -0.044061835923619952 -0.0022787549661791224 0 -0.045948495587857151 -0.0014294584362046299 0 -0.045609092181684775 -0.0031311026423252765 0 -0.044061835923619952 -0.0022787549661791224 0 -0.045609092181684775 -0.0031311026423252765 0 -0.045775821620077609 -0.0038924032798718956 0 -0.04512886822873291 -0.0032529897257451523 0 -0.045099492632647856 -0.0036687055009570189 0 -0.044432911889956496 -0.0014013467843559449 0 -0.047321390858718677 -0.0022626240995840233 0 -0.045609092181684775 -0.0031311026423252765 0 -0.046673692873968026 -0.0033555867351191034 0 -0.045609092181684775 -0.0031311026423252765 0 -0.046673692873968026 -0.0033555867351191034 0 -0.04636722623888289 -0.0038001266038778215 0 -0.046673692873968026 -0.0033555867351191034 0 -0.047093890304766316 -0.0037258070990222633 0 -0.047204650614051498 -0.0034885650878318029 0 -0.046673692873968026 -0.0033555867351191034 0 -0.04636722623888289 -0.0038001266038778215 0 -0.047093890304766316 -0.0037258070990222633 0 -0.04636722623888289 -0.0038001266038778215 0 -0.047018276765780929 -0.0041582427361089233 0 -0.047093890304766316 -0.0037258070990222633 0 -0.045609092181684775 -0.0031311026423252765 0 -0.04636722623888289 -0.0038001266038778215 0 -0.045775821620077609 -0.0038924032798718956 0 -0.041752924856902351 0.012923959733470049 0 -0.044334135692706833 0.012772059922810768 0 -0.043799118212174186 0.0099287228855152541 0 -0.045346378414606002 0.0085986624367079597 0 -0.044811673035304561 0.0028322991857377606 0 -0.046580603757486259 -0.0044835361889080175 0 -0.04636722623888289 -0.0038001266038778215 0 -0.045775821620077609 -0.0038924032798718956 0 -0.046580603757486259 -0.0044835361889080175 0 -0.04636722623888289 -0.0038001266038778215 0 -0.047018276765780929 -0.0041582427361089233 0 -0.045346378414606002 0.0085986624367079597 0 -0.046556344743390855 0.00080933906999698234 0 -0.046103612771583952 0.0086400992966731982 0 -0.046653947127827985 0.0067791573365366701 0 -0.044223662187166175 0.0072265135733796922 0 -0.046653947127827985 0.0067791573365366701 0 -0.044752837062479685 0.004429043222392506 0 -0.044223662187166175 0.0072265135733796922 0 -0.046556344743390855 0.00080933906999698234 0 -0.047309754621116001 -0.0005770782084114248 0 -0.047018276765780929 -0.0041582427361089233 0 -0.047093890304766316 -0.0037258070990222633 0 -0.04776240515846647 -0.0037889995549324124 0 -0.047093890304766316 -0.0037258070990222633 0 -0.04776240515846647 -0.0037889995549324124 0 -0.047656416395888516 -0.0037114680295185442 0 -0.047309754621116001 -0.0005770782084114248 0 -0.047761303210470007 -0.0011920199268522188 0 -0.048110579500552669 -0.0030831269594599237 0 -0.047909037506190834 -0.0039003494416532981 0 -0.047656416395888516 -0.0037114680295185442 0 -0.047389045754709938 -0.0031881836153513786 0 -0.048110579500552669 -0.0030831269594599237 0 -0.047656416395888516 -0.0037114680295185442 0 -0.047389045754709938 -0.0031881836153513786 0 -0.047656416395888516 -0.0037114680295185442 0 -0.047204650614051498 -0.0034885650878318029 0 -0.047093890304766316 -0.0037258070990222633 0 -0.047656416395888516 -0.0037114680295185442 0 -0.047204650614051498 -0.0034885650878318029 0 -0.047389045754709938 -0.0031881836153513786 0 -0.046673692873968026 -0.0033555867351191034 0 -0.047204650614051498 -0.0034885650878318029 0 -0.050437709780643124 -0.00055359114346782029 0 -0.050340672072998104 -0.00054848691435637343 0 -0.05030384265690159 -0.00049522860532987673 0 -0.050408326917572389 -0.00069263239599677117 0 -0.050437709780643124 -0.00055359114346782029 0 -0.050340672072998104 -0.00054848691435637343 0 -0.048110579500552669 -0.0030831269594599237 0 -0.049008515262069764 -0.0028949366308269999 0 -0.047909037506190834 -0.0039003494416532981 0 -0.04962515809277207 -0.0017260960831521042 0 -0.047309754621116001 -0.0005770782084114248 0 -0.041895626039136095 0.010060248649007239 0 -0.041749246096044711 0.0067019908278745906 0 -0.044223662187166175 0.0072265135733796922 0 -0.044752837062479685 0.004429043222392506 0 -0.041749246096044711 0.0067019908278745906 0 -0.044223662187166175 0.0072265135733796922 0 -0.047309754621116001 -0.0005770782084114248 0 -0.046093768450505571 0.0033010761320165284 0 -0.050405095564928268 -0.00063428792703927161 0 -0.05030384265690159 -0.00049522860532987673 0 -0.050379701929811935 -0.00046623980693395452 0 -0.04368550219721562 0.0043957163064202312 0 -0.046093768450505571 0.0033010761320165284 0 -0.050405095564928268 -0.00063428792703927161 0 -0.050379701929811935 -0.00046623980693395452 0 -0.050674332691325173 -0.00045548677488525048 0 -0.050662806053225894 -0.00023084241710571071 0 -0.050379701929811935 -0.00046623980693395452 0 -0.050674332691325173 -0.00045548677488525048 0 -0.050662806053225894 -0.00023084241710571071 0 -0.050379701929811935 -0.00046623980693395452 0 -0.050261665451625193 -0.00063830114022189559 0 -0.050408326917572389 -0.00069263239599677117 0 -0.050340672072998104 -0.00054848691435637343 0 -0.050261665451625193 -0.00063830114022189559 0 -0.050340672072998104 -0.00054848691435637343 0 -0.050379701929811935 -0.00046623980693395452 0 -0.050261665451625193 -0.00063830114022189559 0 -0.050340672072998104 -0.00054848691435637343 0 -0.05030384265690159 -0.00049522860532987673 0 -0.050379701929811935 -0.00046623980693395452 0 -0.051971754944545014 0.0010596784678373308 0 -0.052903811269848909 0.00077192174620290194 0 -0.051199765063385035 -0.00055650630684872613 0 -0.050674332691325173 -0.00045548677488525048 0 -0.051055086378638766 6.7735230342725133e-05 0 -0.050662806053225894 -0.00023084241710571071 0 -0.050674332691325173 -0.00045548677488525048 0 -0.051055086378638766 6.7735230342725133e-05 0 -0.051907301359979487 0.00084120848024609146 0 -0.051055086378638766 6.7735230342725133e-05 0 -0.051163283717096691 0.00023853824479122334 0 -0.051907301359979487 0.00084120848024609146 0 -0.051199765063385035 -0.00055650630684872613 0 -0.051055086378638766 6.7735230342725133e-05 0 -0.051907301359979487 0.00084120848024609146 0 -0.051291806159517089 0.00049734644656872174 0 -0.051163283717096691 0.00023853824479122334 0 -0.050662806053225894 -0.00023084241710571071 0 -0.051055086378638766 6.7735230342725133e-05 0 -0.051163283717096691 0.00023853824479122334 0 -0.050662806053225894 -0.00023084241710571071 0 -0.051163283717096691 0.00023853824479122334 0 -0.050690102097982991 -0.00025035752432477749 0 -0.050690102097982991 -0.00025035752432477749 0 -0.050682900740917025 -0.00024324298744689979 0 -0.050951236399342056 -5.4771285061015843e-05 0 -0.051163283717096691 0.00023853824479122334 0 -0.050690102097982991 -0.00025035752432477749 0 -0.050951236399342056 -5.4771285061015843e-05 0 -0.051004765936411435 0.00020609852491204806 0 -0.051163283717096691 0.00023853824479122334 0 -0.050951236399342056 -5.4771285061015843e-05 0 -0.050261665451625193 -0.00063830114022189559 0 -0.050071058064190009 -0.0011665742603237219 0 -0.050351501339201646 -0.00064493819896440405 0 -0.050408326917572389 -0.00069263239599677117 0 -0.050261665451625193 -0.00063830114022189559 0 -0.050071058064190009 -0.0011665742603237219 0 -0.050261665451625193 -0.00063830114022189559 0 -0.050690102097982991 -0.00025035752432477749 0 -0.050351501339201646 -0.00064493819896440405 0 -0.050662806053225894 -0.00023084241710571071 0 -0.050261665451625193 -0.00063830114022189559 0 -0.050690102097982991 -0.00025035752432477749 0 -0.050690102097982991 -0.00025035752432477749 0 -0.050351501339201646 -0.00064493819896440405 0 -0.050682900740917025 -0.00024324298744689979 0 -0.050071058064190009 -0.0011665742603237219 0 -0.050351501339201646 -0.00064493819896440405 0 -0.049750846762217471 -0.00070546386001580546 0 -0.050351501339201646 -0.00064493819896440405 0 -0.049750846762217471 -0.00070546386001580546 0 -0.050339583352628454 -0.00020377773194392912 0 -0.049750846762217471 -0.00070546386001580546 0 -0.050339583352628454 -0.00020377773194392912 0 -0.049421773974206773 -0.00024044036933282609 0 -0.050351501339201646 -0.00064493819896440405 0 -0.050339583352628454 -0.00020377773194392912 0 -0.050682900740917025 -0.00024324298744689979 0 -0.050339583352628454 -0.00020377773194392912 0 -0.050682900740917025 -0.00024324298744689979 0 -0.050805406495761575 -0.00016326114761018262 0 -0.050339583352628454 -0.00020377773194392912 0 -0.050805406495761575 -0.00016326114761018262 0 -0.050651673088932557 0.00015302194444063403 0 -0.050339583352628454 -0.00020377773194392912 0 -0.050651673088932557 0.00015302194444063403 0 -0.049456138561173195 0.00032346579448089014 0 -0.050339583352628454 -0.00020377773194392912 0 -0.049456138561173195 0.00032346579448089014 0 -0.049421773974206773 -0.00024044036933282609 0 -0.051004765936411435 0.00020609852491204806 0 -0.050951236399342056 -5.4771285061015843e-05 0 -0.050898515162003069 -0.00017402553706732699 0 -0.050682900740917025 -0.00024324298744689979 0 -0.050951236399342056 -5.4771285061015843e-05 0 -0.050805406495761575 -0.00016326114761018262 0 -0.050951236399342056 -5.4771285061015843e-05 0 -0.050805406495761575 -0.00016326114761018262 0 -0.050898515162003069 -0.00017402553706732699 0 -0.050805406495761575 -0.00016326114761018262 0 -0.050898515162003069 -0.00017402553706732699 0 -0.050789286756006809 -0.00085569158917740088 0 -0.050805406495761575 -0.00016326114761018262 0 -0.05058289110812323 -0.00082390680174334512 0 -0.050789286756006809 -0.00085569158917740088 0 -0.050562665194587436 -0.0015819015951217701 0 -0.05058289110812323 -0.00082390680174334512 0 -0.050789286756006809 -0.00085569158917740088 0 -0.050562665194587436 -0.0015819015951217701 0 -0.050806044044887026 -0.0014490072216887875 0 -0.050789286756006809 -0.00085569158917740088 0 -0.050651673088932557 0.00015302194444063403 0 -0.049248883009494135 0.0014401987961015828 0 -0.049456138561173195 0.00032346579448089014 0 -0.050805406495761575 -0.00016326114761018262 0 -0.05058289110812323 -0.00082390680174334512 0 -0.050651673088932557 0.00015302194444063403 0 -0.050553859582551937 -0.0018082411257499436 0 -0.05058289110812323 -0.00082390680174334512 0 -0.050649468789020394 -0.0010363031575963103 0 -0.05058289110812323 -0.00082390680174334512 0 -0.050651673088932557 0.00015302194444063403 0 -0.050649468789020394 -0.0010363031575963103 0 -0.050602060403508065 0.00027806426286505526 0 -0.050084684263169435 0.00064427067177691281 0 -0.050853536282537137 -0.0016256461616730652 0 -0.050649468789020394 -0.0010363031575963103 0 -0.051301969092286723 -0.0015015876762190417 0 -0.050651673088932557 0.00015302194444063403 0 -0.049218420097930732 0.0028839298525651634 0 -0.049248883009494135 0.0014401987961015828 0 -0.050651673088932557 0.00015302194444063403 0 -0.050649468789020394 -0.0010363031575963103 0 -0.051301969092286723 -0.0015015876762190417 0 -0.048368781121635417 0.0029512004408094304 0 -0.048798397923434177 0.0023454586679840053 0 -0.048402225285312572 0.0020746853498012897 0 -0.049218420097930732 0.0028839298525651634 0 -0.048368781121635417 0.0029512004408094304 0 -0.048798397923434177 0.0023454586679840053 0 -0.048798397923434177 0.0023454586679840053 0 -0.048402225285312572 0.0020746853498012897 0 -0.049248883009494135 0.0014401987961015828 0 -0.048402225285312572 0.0020746853498012897 0 -0.049248883009494135 0.0014401987961015828 0 -0.048580850169678856 0.0012630163449904605 0 -0.049218420097930732 0.0028839298525651634 0 -0.048798397923434177 0.0023454586679840053 0 -0.049248883009494135 0.0014401987961015828 0 -0.047720548269214721 0.0033318769414284995 0 -0.046913741491033847 0.0032670899532902548 0 -0.047669808747854536 0.0026207399294452586 0 -0.046913741491033847 0.0032670899532902548 0 -0.047669808747854536 0.0026207399294452586 0 -0.046983808449220753 0.002420784972310297 0 -0.047720548269214721 0.0033318769414284995 0 -0.048368781121635417 0.0029512004408094304 0 -0.047669808747854536 0.0026207399294452586 0 -0.048368781121635417 0.0029512004408094304 0 -0.048402225285312572 0.0020746853498012897 0 -0.047669808747854536 0.0026207399294452586 0 -0.048402225285312572 0.0020746853498012897 0 -0.047669808747854536 0.0026207399294452586 0 -0.04769354783592672 0.0017358863472682789 0 -0.046983808449220753 0.002420784972310297 0 -0.04769354783592672 0.0017358863472682789 0 -0.046749929206300604 0.0018011464343123341 0 -0.047669808747854536 0.0026207399294452586 0 -0.046983808449220753 0.002420784972310297 0 -0.04769354783592672 0.0017358863472682789 0 -0.04769354783592672 0.0017358863472682789 0 -0.047147837318349664 0.0010711969988540316 0 -0.046749929206300604 0.0018011464343123341 0 -0.04769354783592672 0.0017358863472682789 0 -0.048126200101790355 0.00071113877360191294 0 -0.048580850169678856 0.0012630163449904605 0 -0.048402225285312572 0.0020746853498012897 0 -0.04769354783592672 0.0017358863472682789 0 -0.048580850169678856 0.0012630163449904605 0 -0.04769354783592672 0.0017358863472682789 0 -0.048126200101790355 0.00071113877360191294 0 -0.047147837318349664 0.0010711969988540316 0 -0.049248883009494135 0.0014401987961015828 0 -0.048580850169678856 0.0012630163449904605 0 -0.049456138561173195 0.00032346579448089014 0 -0.048126200101790355 0.00071113877360191294 0 -0.048580850169678856 0.0012630163449904605 0 -0.049456138561173195 0.00032346579448089014 0 -0.049456138561173195 0.00032346579448089014 0 -0.048618565897103824 -1.634583306360351e-05 0 -0.049421773974206773 -0.00024044036933282609 0 -0.048126200101790355 0.00071113877360191294 0 -0.049456138561173195 0.00032346579448089014 0 -0.048618565897103824 -1.634583306360351e-05 0 -0.048126200101790355 0.00071113877360191294 0 -0.048618565897103824 -1.634583306360351e-05 0 -0.047510587857590714 0.00025929400804730114 0 -0.048126200101790355 0.00071113877360191294 0 -0.047147837318349664 0.0010711969988540316 0 -0.047510587857590714 0.00025929400804730114 0 -0.047510587857590714 0.00025929400804730114 0 -0.047849647159255174 -0.00038296669579830932 0 -0.04676514542147079 -0.00034489386166019657 0 -0.048618565897103824 -1.634583306360351e-05 0 -0.047510587857590714 0.00025929400804730114 0 -0.047849647159255174 -0.00038296669579830932 0 -0.048618565897103824 -1.634583306360351e-05 0 -0.047849647159255174 -0.00038296669579830932 0 -0.048716519967225792 -0.00065404019193067637 0 -0.047525998978834638 -0.00116741025419804 0 -0.047849647159255174 -0.00038296669579830932 0 -0.04676514542147079 -0.00034489386166019657 0 -0.047525998978834638 -0.00116741025419804 0 -0.047849647159255174 -0.00038296669579830932 0 -0.048716519967225792 -0.00065404019193067637 0 -0.049750846762217471 -0.00070546386001580546 0 -0.048716519967225792 -0.00065404019193067637 0 -0.049421773974206773 -0.00024044036933282609 0 -0.048618565897103824 -1.634583306360351e-05 0 -0.048716519967225792 -0.00065404019193067637 0 -0.049421773974206773 -0.00024044036933282609 0 -0.045948495587857151 -0.0014294584362046299 0 -0.044176898651382822 -0.00072524479603217713 0 -0.045428893176110735 0.00012079798271474853 0 -0.044176898651382822 -0.00072524479603217713 0 -0.045428893176110735 0.00012079798271474853 0 -0.044109287930949294 0.00028888479156125274 0 -0.047525998978834638 -0.00116741025419804 0 -0.045948495587857151 -0.0014294584362046299 0 -0.04676514542147079 -0.00034489386166019657 0 -0.045948495587857151 -0.0014294584362046299 0 -0.04676514542147079 -0.00034489386166019657 0 -0.045428893176110735 0.00012079798271474853 0 -0.04676514542147079 -0.00034489386166019657 0 -0.046487831347811481 0.00052103680504733934 0 -0.045428893176110735 0.00012079798271474853 0 -0.047510587857590714 0.00025929400804730114 0 -0.04676514542147079 -0.00034489386166019657 0 -0.046487831347811481 0.00052103680504733934 0 -0.047147837318349664 0.0010711969988540316 0 -0.047510587857590714 0.00025929400804730114 0 -0.046487831347811481 0.00052103680504733934 0 -0.046487831347811481 0.00052103680504733934 0 -0.045428893176110735 0.00012079798271474853 0 -0.045647106810678718 0.00099565592260359684 0 -0.045428893176110735 0.00012079798271474853 0 -0.044610200087671352 0.0011879039473488256 0 -0.045647106810678718 0.00099565592260359684 0 -0.045428893176110735 0.00012079798271474853 0 -0.044610200087671352 0.0011879039473488256 0 -0.044109287930949294 0.00028888479156125274 0 -0.044610200087671352 0.0011879039473488256 0 -0.045310099576011335 0.0017548012576683709 0 -0.045647106810678718 0.00099565592260359684 0 -0.045310099576011335 0.0017548012576683709 0 -0.044538141084657111 0.0019703914038326081 0 -0.045045605691194021 0.0027247074953993203 0 -0.044610200087671352 0.0011879039473488256 0 -0.045310099576011335 0.0017548012576683709 0 -0.044538141084657111 0.0019703914038326081 0 -0.044610200087671352 0.0011879039473488256 0 -0.044538141084657111 0.0019703914038326081 0 -0.043564784013365693 0.0019221109381311276 0 -0.047147837318349664 0.0010711969988540316 0 -0.046487831347811481 0.00052103680504733934 0 -0.046241730008976648 0.0013498571853325346 0 -0.047147837318349664 0.0010711969988540316 0 -0.046241730008976648 0.0013498571853325346 0 -0.046749929206300604 0.0018011464343123341 0 -0.046487831347811481 0.00052103680504733934 0 -0.045647106810678718 0.00099565592260359684 0 -0.046241730008976648 0.0013498571853325346 0 -0.045310099576011335 0.0017548012576683709 0 -0.045647106810678718 0.00099565592260359684 0 -0.046241730008976648 0.0013498571853325346 0 -0.045310099576011335 0.0017548012576683709 0 -0.046241730008976648 0.0013498571853325346 0 -0.045917542050411243 0.0020813914839137274 0 -0.046241730008976648 0.0013498571853325346 0 -0.045917542050411243 0.0020813914839137274 0 -0.046749929206300604 0.0018011464343123341 0 -0.046983808449220753 0.002420784972310297 0 -0.046749929206300604 0.0018011464343123341 0 -0.046422020988183668 0.002308153359021097 0 -0.045917542050411243 0.0020813914839137274 0 -0.046749929206300604 0.0018011464343123341 0 -0.046422020988183668 0.002308153359021097 0 -0.046983808449220753 0.002420784972310297 0 -0.046422020988183668 0.002308153359021097 0 -0.046115983235741308 0.0028210908497694393 0 -0.045917542050411243 0.0020813914839137274 0 -0.046422020988183668 0.002308153359021097 0 -0.046115983235741308 0.0028210908497694393 0 -0.045917542050411243 0.0020813914839137274 0 -0.046115983235741308 0.0028210908497694393 0 -0.045045605691194021 0.0027247074953993203 0 -0.046046464783091427 0.0036684802711806084 0 -0.045338619528261827 0.0033582392524954983 0 -0.046115983235741308 0.0028210908497694393 0 -0.046913741491033847 0.0032670899532902548 0 -0.046983808449220753 0.002420784972310297 0 -0.046115983235741308 0.0028210908497694393 0 -0.046913741491033847 0.0032670899532902548 0 -0.046046464783091427 0.0036684802711806084 0 -0.046115983235741308 0.0028210908497694393 0 -0.044538141084657111 0.0019703914038326081 0 -0.044220372931810768 0.0026080531164807672 0 -0.045045605691194021 0.0027247074953993203 0 -0.045310099576011335 0.0017548012576683709 0 -0.045917542050411243 0.0020813914839137274 0 -0.045045605691194021 0.0027247074953993203 0 -0.045338619528261827 0.0033582392524954983 0 -0.046115983235741308 0.0028210908497694393 0 -0.045045605691194021 0.0027247074953993203 0 -0.045338619528261827 0.0033582392524954983 0 -0.044386941022596944 0.0034962659359967577 0 -0.045045605691194021 0.0027247074953993203 0 -0.044386941022596944 0.0034962659359967577 0 -0.044220372931810768 0.0026080531164807672 0 -0.045045605691194021 0.0027247074953993203 0 -0.044386941022596944 0.0034962659359967577 0 -0.044220372931810768 0.0026080531164807672 0 -0.043409463117012825 0.0030197166126226887 0 -0.044220372931810768 0.0026080531164807672 0 -0.043409463117012825 0.0030197166126226887 0 -0.043564784013365693 0.0019221109381311276 0 -0.043409463117012825 0.0030197166126226887 0 -0.042560627919634005 0.0024478397564535884 0 -0.043564784013365693 0.0019221109381311276 0 -0.042348999867775204 0.0036859054180624642 0 -0.041665044480223769 0.0029324282880390535 0 -0.042560627919634005 0.0024478397564535884 0 -0.042348999867775204 0.0036859054180624642 0 -0.043409463117012825 0.0030197166126226887 0 -0.042560627919634005 0.0024478397564535884 0 -0.041665044480223769 0.0029324282880390535 0 -0.042560627919634005 0.0024478397564535884 0 -0.041222739569551962 0.0016923488080935584 0 -0.042348999867775204 0.0036859054180624642 0 -0.041571210971321645 0.0035041604810112487 0 -0.041665044480223769 0.0029324282880390535 0 -0.042560627919634005 0.0024478397564535884 0 -0.042209234833577025 0.0014049076191989358 0 -0.041222739569551962 0.0016923488080935584 0 -0.042560627919634005 0.0024478397564535884 0 -0.042209234833577025 0.0014049076191989358 0 -0.043564784013365693 0.0019221109381311276 0 -0.042209234833577025 0.0014049076191989358 0 -0.043564784013365693 0.0019221109381311276 0 -0.04330152590803707 0.00093332640183450138 0 -0.044610200087671352 0.0011879039473488256 0 -0.043564784013365693 0.0019221109381311276 0 -0.04330152590803707 0.00093332640183450138 0 -0.044538141084657111 0.0019703914038326081 0 -0.044220372931810768 0.0026080531164807672 0 -0.043564784013365693 0.0019221109381311276 0 -0.031258428625056768 0.0025601017822486434 0 -0.032229428945464787 0.0021526572470916827 0 -0.030367427752294982 0.0020438202439282058 0 -0.031258428625056768 0.0025601017822486434 0 -0.03071876463609503 0.0030816538724200695 0 -0.030367427752294982 0.0020438202439282058 0 -0.031258428625056768 0.0025601017822486434 0 -0.03071876463609503 0.0030816538724200695 0 -0.031545739246177519 0.0031091397752562792 0 -0.031258428625056768 0.0025601017822486434 0 -0.031545739246177519 0.0031091397752562792 0 -0.032157235837605207 0.0027339010613608812 0 -0.031731775864937972 0.0034329652134827528 0 -0.031545739246177519 0.0031091397752562792 0 -0.03192953785273233 0.0031827249063841705 0 -0.031545739246177519 0.0031091397752562792 0 -0.03192953785273233 0.0031827249063841705 0 -0.032157235837605207 0.0027339010613608812 0 -0.031258428625056768 0.0025601017822486434 0 -0.032157235837605207 0.0027339010613608812 0 -0.032229428945464787 0.0021526572470916827 0 -0.03601552844797988 0.0037516831128675335 0 -0.037589371533222365 0.0016791512511732042 0 -0.040727680079876746 0.0037184376298690426 0 -0.041665044480223769 0.0029324282880390535 0 -0.041222739569551962 0.0016923488080935584 0 -0.032148457191506795 0.0034827536290011262 0 -0.032157235837605207 0.0027339010613608812 0 -0.033754845064136632 0.0018515133575597315 0 -0.032148457191506795 0.0034827536290011262 0 -0.03192953785273233 0.0031827249063841705 0 -0.032157235837605207 0.0027339010613608812 0 -0.041571210971321645 0.0035041604810112487 0 -0.040727680079876746 0.0037184376298690426 0 -0.041665044480223769 0.0029324282880390535 0 -0.033754845064136632 0.0018515133575597315 0 -0.032229428945464787 0.0021526572470916827 0 -0.033828988166235419 0.00083844978803144816 0 -0.032157235837605207 0.0027339010613608812 0 -0.033754845064136632 0.0018515133575597315 0 -0.032229428945464787 0.0021526572470916827 0 -0.032229428945464787 0.0021526572470916827 0 -0.030488595156703196 0.0010524900267522886 0 -0.030367427752294982 0.0020438202439282058 0 -0.03230458172255414 0.0021515827066860855 0 -0.032314126864211867 0.00070070410230509931 0 -0.032229428945464787 0.0021526572470916827 0 -0.030488595156703196 0.0010524900267522886 0 -0.030916003156679188 9.8397241217200836e-05 0 -0.030488595156703196 0.0010524900267522886 0 -0.030916003156679188 9.8397241217200836e-05 0 -0.029879519614348132 0.00014935202952707377 0 -0.037589371533222365 0.0016791512511732042 0 -0.038797535536844729 -4.5626207501257143e-05 0 -0.033754845064136632 0.0018515133575597315 0 -0.034576011815311898 0.00098532842681453288 0 -0.036257326952237649 0.00059630208961109073 0 -0.033754845064136632 0.0018515133575597315 0 -0.033828988166235419 0.00083844978803144816 0 -0.034576011815311898 0.00098532842681453288 0 -0.033828988166235419 0.00083844978803144816 0 -0.034576011815311898 0.00098532842681453288 0 -0.034433823219906817 0.0002485721672639359 0 -0.034576011815311898 0.00098532842681453288 0 -0.034433823219906817 0.0002485721672639359 0 -0.036257326952237649 0.00059630208961109073 0 -0.034433823219906817 0.0002485721672639359 0 -0.036257326952237649 0.00059630208961109073 0 -0.035650011708370774 -0.0015916002345221572 0 -0.033828988166235419 0.00083844978803144816 0 -0.034433823219906817 0.0002485721672639359 0 -0.033713410542326759 -0.0010396432540971706 0 -0.030916003156679188 9.8397241217200836e-05 0 -0.03020939846685915 -0.0003999569711755499 0 -0.029879519614348132 0.00014935202952707377 0 -0.030916003156679188 9.8397241217200836e-05 0 -0.03020939846685915 -0.0003999569711755499 0 -0.030207747641782766 -0.00096277174793977063 0 -0.032314126864211867 0.00070070410230509931 0 -0.0321179850218428 -0.0015354112996321904 0 -0.04330152590803707 0.00093332640183450138 0 -0.04240039358513896 0.0004989991323330297 0 -0.042907991361526898 -0.00021353621310640997 0 -0.044109287930949294 0.00028888479156125274 0 -0.04330152590803707 0.00093332640183450138 0 -0.042907991361526898 -0.00021353621310640997 0 -0.044610200087671352 0.0011879039473488256 0 -0.044109287930949294 0.00028888479156125274 0 -0.04330152590803707 0.00093332640183450138 0 -0.042209234833577025 0.0014049076191989358 0 -0.04330152590803707 0.00093332640183450138 0 -0.04240039358513896 0.0004989991323330297 0 -0.042209234833577025 0.0014049076191989358 0 -0.041222739569551962 0.0016923488080935584 0 -0.041280885479251753 -0.00019301068460379569 0 -0.04240039358513896 0.0004989991323330297 0 -0.041280885479251753 -0.00019301068460379569 0 -0.042907991361526898 -0.00021353621310640997 0 -0.042209234833577025 0.0014049076191989358 0 -0.04240039358513896 0.0004989991323330297 0 -0.041280885479251753 -0.00019301068460379569 0 -0.041280885479251753 -0.00019301068460379569 0 -0.042655666713311322 -0.0013907547911749618 0 -0.042907991361526898 -0.00021353621310640997 0 -0.041280885479251753 -0.00019301068460379569 0 -0.042655666713311322 -0.0013907547911749618 0 -0.041545612776524896 -0.0021814646341153741 0 -0.044176898651382822 -0.00072524479603217713 0 -0.044109287930949294 0.00028888479156125274 0 -0.042907991361526898 -0.00021353621310640997 0 -0.044176898651382822 -0.00072524479603217713 0 -0.042655666713311322 -0.0013907547911749618 0 -0.042907991361526898 -0.00021353621310640997 0 -0.042599700057261408 -0.0028226964052921488 0 -0.044061835923619952 -0.0022787549661791224 0 -0.04271943781381371 -0.0046269219497917114 0 -0.042655666713311322 -0.0013907547911749618 0 -0.042599700057261408 -0.0028226964052921488 0 -0.044061835923619952 -0.0022787549661791224 0 -0.044176898651382822 -0.00072524479603217713 0 -0.042655666713311322 -0.0013907547911749618 0 -0.044061835923619952 -0.0022787549661791224 0 -0.042655666713311322 -0.0013907547911749618 0 -0.042599700057261408 -0.0028226964052921488 0 -0.041545612776524896 -0.0021814646341153741 0 -0.042599700057261408 -0.0028226964052921488 0 -0.041632292168656181 -0.0036742545529830917 0 -0.041545612776524896 -0.0021814646341153741 0 -0.045609092181684775 -0.0031311026423252765 0 -0.044061835923619952 -0.0022787549661791224 0 -0.04271943781381371 -0.0046269219497917114 0 -0.044432911889956496 -0.0014013467843559449 0 -0.04317330604155406 -0.0035176423841346569 0 -0.042599700057261408 -0.0028226964052921488 0 -0.04271943781381371 -0.0046269219497917114 0 -0.041632292168656181 -0.0036742545529830917 0 -0.043252346262535546 -0.00599275790574616 0 -0.040270223876502823 -0.0048690255173754055 0 -0.037562134526042082 -0.00733141783946564 0 -0.044432911889956496 -0.0014013467843559449 0 -0.036888952401059626 0.0034019999639502887 0 -0.040270223876502823 -0.0048690255173754055 0 -0.038250243330313488 -0.0051527063316074359 0 -0.037562134526042082 -0.00733141783946564 0 -0.043252346262535546 -0.00599275790574616 0 -0.040270223876502823 -0.0048690255173754055 0 -0.041632292168656181 -0.0036742545529830917 0 -0.040270223876502823 -0.0048690255173754055 0 -0.041632292168656181 -0.0036742545529830917 0 -0.040145822069036628 -0.0033600740927430032 0 -0.040270223876502823 -0.0048690255173754055 0 -0.038445664816768511 -0.0040761028052226297 0 -0.040145822069036628 -0.0033600740927430032 0 -0.040270223876502823 -0.0048690255173754055 0 -0.038250243330313488 -0.0051527063316074359 0 -0.038445664816768511 -0.0040761028052226297 0 -0.038250243330313488 -0.0051527063316074359 0 -0.038445664816768511 -0.0040761028052226297 0 -0.036587462817905932 -0.0045580613418200943 0 -0.038445664816768511 -0.0040761028052226297 0 -0.040145822069036628 -0.0033600740927430032 0 -0.037187382719730044 -0.0025070061864881088 0 -0.036257326952237649 0.00059630208961109073 0 -0.040145822069036628 -0.0033600740927430032 0 -0.037187382719730044 -0.0025070061864881088 0 -0.041280885479251753 -0.00019301068460379569 0 -0.040145822069036628 -0.0033600740927430032 0 -0.041545612776524896 -0.0021814646341153741 0 -0.038797535536844729 -4.5626207501257143e-05 0 -0.040083426832060169 -0.0033961187308758768 0 -0.041632292168656181 -0.0036742545529830917 0 -0.040145822069036628 -0.0033600740927430032 0 -0.041545612776524896 -0.0021814646341153741 0 -0.034433823219906817 0.0002485721672639359 0 -0.035650011708370774 -0.0015916002345221572 0 -0.034130029075194725 -0.0032148022327816417 0 -0.036257326952237649 0.00059630208961109073 0 -0.035650011708370774 -0.0015916002345221572 0 -0.037187382719730044 -0.0025070061864881088 0 -0.035647744461822096 -0.0031973404622479091 0 -0.034130029075194725 -0.0032148022327816417 0 -0.035361383464669841 -0.00440001534998994 0 -0.035650011708370774 -0.0015916002345221572 0 -0.035647744461822096 -0.0031973404622479091 0 -0.034130029075194725 -0.0032148022327816417 0 -0.035647744461822096 -0.0031973404622479091 0 -0.037187382719730044 -0.0025070061864881088 0 -0.036587462817905932 -0.0045580613418200943 0 -0.035650011708370774 -0.0015916002345221572 0 -0.035647744461822096 -0.0031973404622479091 0 -0.037187382719730044 -0.0025070061864881088 0 -0.034503144052955466 0.00056822598947077669 0 -0.03404179009278762 -0.0033467674771688778 0 -0.034433823219906817 0.0002485721672639359 0 -0.033976197476280362 -0.0012656826276819114 0 -0.033713410542326759 -0.0010396432540971706 0 -0.03020939846685915 -0.0003999569711755499 0 -0.029982350393984898 -0.00073929735000606675 0 -0.030207747641782766 -0.00096277174793977063 0 -0.029982350393984898 -0.00073929735000606675 0 -0.030207747641782766 -0.00096277174793977063 0 -0.029949993686311717 -0.0009130531725611322 0 -0.030207747641782766 -0.00096277174793977063 0 -0.029814077072534771 -0.0014011095888581816 0 -0.029868326725345153 -0.0010724679859990106 0 -0.030207747641782766 -0.00096277174793977063 0 -0.029949993686311717 -0.0009130531725611322 0 -0.029868326725345153 -0.0010724679859990106 0 -0.034130029075194725 -0.0032148022327816417 0 -0.034594102610226343 -0.0053436925747706475 0 -0.033318290099398129 -0.0070188595425941238 0 -0.033976197476280362 -0.0012656826276819114 0 -0.033647799823298762 -0.0024027676626825253 0 -0.033522067283742171 -0.0024326845489775453 0 -0.033976197476280362 -0.0012656826276819114 0 -0.033713410542326759 -0.0010396432540971706 0 -0.033522067283742171 -0.0024326845489775453 0 -0.030207747641782766 -0.00096277174793977063 0 -0.030021124109680917 -0.0019079970683298605 0 -0.029814077072534771 -0.0014011095888581816 0 -0.0321179850218428 -0.0015354112996321904 0 -0.030567326190181876 0.00027678448181801802 0 -0.03404179009278762 -0.0033467674771688778 0 -0.031931580494329384 0.00089590984631268147 0 -0.034594102610226343 -0.0053436925747706475 0 -0.035659213185932896 -0.0055565607670979428 0 -0.033318290099398129 -0.0070188595425941238 0 -0.038445664816768511 -0.0040761028052226297 0 -0.037187382719730044 -0.0025070061864881088 0 -0.036587462817905932 -0.0045580613418200943 0 -0.034130029075194725 -0.0032148022327816417 0 -0.034594102610226343 -0.0053436925747706475 0 -0.035361383464669841 -0.00440001534998994 0 -0.035647744461822096 -0.0031973404622479091 0 -0.036587462817905932 -0.0045580613418200943 0 -0.035361383464669841 -0.00440001534998994 0 -0.036587462817905932 -0.0045580613418200943 0 -0.035361383464669841 -0.00440001534998994 0 -0.035659213185932896 -0.0055565607670979428 0 -0.034594102610226343 -0.0053436925747706475 0 -0.035361383464669841 -0.00440001534998994 0 -0.035659213185932896 -0.0055565607670979428 0 -0.038250243330313488 -0.0051527063316074359 0 -0.036587462817905932 -0.0045580613418200943 0 -0.037562134526042082 -0.00733141783946564 0 -0.036587462817905932 -0.0045580613418200943 0 -0.035659213185932896 -0.0055565607670979428 0 -0.037142420168862121 -0.0061091473514309023 0 -0.038197853400168354 -0.0060962877772621502 0 -0.036888952401059626 0.0034019999639502887 0 -0.027711176974341979 0.010064273138043372 0 -0.029709949567770066 0.011491517071690608 0 -0.031146854195921714 0.010894982367023756 0 -0.027711176974341979 0.010064273138043372 0 -0.029709949567770066 0.011491517071690608 0 -0.028338436425103298 0.011618672885191143 0 -0.036888952401059626 0.0034019999639502887 0 -0.031931580494329384 0.00089590984631268147 0 -0.035659213185932896 -0.0055565607670979428 0 -0.037142420168862121 -0.0061091473514309023 0 -0.033318290099398129 -0.0070188595425941238 0 -0.029709949567770066 0.011491517071690608 0 -0.0302291750034261 0.012809622042805368 0 -0.028901414926189757 0.012608157842218861 0 -0.029709949567770066 0.011491517071690608 0 -0.028338436425103298 0.011618672885191143 0 -0.028901414926189757 0.012608157842218861 0 -0.030567326190181876 0.00027678448181801802 0 -0.030687173834982564 0.011952150369573596 0 -0.031931580494329384 0.00089590984631268147 0 -0.030687173834982564 0.011952150369573596 0 -0.029494987764392376 0.00065871444734704203 0 -0.030806872795394746 0.00097549606662797762 0 -0.03193421751048417 0.011441388148556685 0 -0.031931580494329384 0.00089590984631268147 0 -0.030567326190181876 0.00027678448181801802 0 -0.029709949567770066 0.011491517071690608 0 -0.031146854195921714 0.010894982367023756 0 -0.0302291750034261 0.012809622042805368 0 -0.028617181776166577 0.0045735523495610692 0 -0.028884715943330332 0.0070333287258364302 0 -0.029886326067268713 0.0059436963754000071 0 -0.030560566899115175 0.014029548519533676 0 -0.031872082329265077 0.014529373279615872 0 -0.029341475292047486 0.015277197951741201 0 -0.031146854195921714 0.010894982367023756 0 -0.0302291750034261 0.012809622042805368 0 -0.031800995444040255 0.01391838584201577 0 -0.0302291750034261 0.012809622042805368 0 -0.030560566899115175 0.014029548519533676 0 -0.031800995444040255 0.01391838584201577 0 -0.030560566899115175 0.014029548519533676 0 -0.031872082329265077 0.014529373279615872 0 -0.031800995444040255 0.01391838584201577 0 -0.030107700561809541 0.013981546238767595 0 -0.030135036457273969 0.011563664093312758 0 -0.030107700561809541 0.013981546238767595 0 -0.030687173834982564 0.011952150369573596 0 -0.028938925077605867 0.0075470599414716811 0 -0.028884715943330332 0.0070333287258364302 0 -0.02933446598191063 0.0073027438248164413 0 -0.028338436425103298 0.011618672885191143 0 -0.028901414926189757 0.012608157842218861 0 -0.026420982107352654 0.013804714908987504 0 -0.028901414926189757 0.012608157842218861 0 -0.028817694636082584 0.013939509467453599 0 -0.026420982107352654 0.013804714908987504 0 -0.0302291750034261 0.012809622042805368 0 -0.030560566899115175 0.014029548519533676 0 -0.028817694636082584 0.013939509467453599 0 -0.0302291750034261 0.012809622042805368 0 -0.028901414926189757 0.012608157842218861 0 -0.028817694636082584 0.013939509467453599 0 -0.030560566899115175 0.014029548519533676 0 -0.028817694636082584 0.013939509467453599 0 -0.029341475292047486 0.015277197951741201 0 -0.028817694636082584 0.013939509467453599 0 -0.027584219577520341 0.015126955908363935 0 -0.029341475292047486 0.015277197951741201 0 -0.028817694636082584 0.013939509467453599 0 -0.026420982107352654 0.013804714908987504 0 -0.027584219577520341 0.015126955908363935 0 -0.044334135692706833 0.012772059922810768 0 -0.043799118212174186 0.0099287228855152541 0 -0.047468036111965005 0.010966405578325535 0 -0.044811673035304561 0.0028322991857377606 0 -0.044432911889956496 -0.0014013467843559449 0 -0.043799118212174186 0.0099287228855152541 0 -0.045781645983085491 0.0069631538531779395 0 -0.047468036111965005 0.010966405578325535 0 -0.036888952401059626 0.0034019999639502887 0 -0.03693084809934076 0.013465674800642794 0 -0.027711176974341979 0.010064273138043372 0 -0.028338436425103298 0.011618672885191143 0 -0.026420982107352654 0.013804714908987504 0 -0.045781645983085491 0.0069631538531779395 0 -0.048558576316071383 0.0076647658860148384 0 -0.047468036111965005 0.010966405578325535 0 -0.028471645483724065 -0.0026425545725320986 0 -0.028514217887248127 -0.0014505254390117911 0 -0.025311586107771979 -0.00095733386734873959 0 -0.028864997032202026 0.0036224161006327363 0 -0.029624810450097249 0.0038044751942974231 0 -0.027751995484384888 0.0048505071803704655 0 -0.030249387009610284 0.0038317084491275438 0 -0.026285109715959765 0.0020262023123716732 0 -0.028864997032202026 0.0036224161006327363 0 -0.027840821078184457 0.0039667113526846197 0 -0.027751995484384888 0.0048505071803704655 0 -0.029826346960083402 0.0070322832050315398 0 -0.027423069118895738 0.0078560969789855679 0 -0.027550709269314955 0.00648556142449923 0 -0.031062599969705451 0.0079816306351017437 0 -0.026571820141139853 0.0051086786473310344 0 -0.025225357992395614 0.0034802993207383955 0 -0.024646557478910255 0.0046776971824380176 0 -0.025595829143535687 0.0055928056564850254 0 -0.026571820141139853 0.0051086786473310344 0 -0.026285109715959765 0.0020262023123716732 0 -0.025225357992395614 0.0034802993207383955 0 -0.024880508920088293 0.0035494741905859072 0 -0.024923665670102586 0.0031684948533811123 0 -0.025225357992395614 0.0034802993207383955 0 -0.025151752659858105 0.0030006989712075892 0 -0.024923665670102586 0.0031684948533811123 0 -0.025225357992395614 0.0034802993207383955 0 -0.024646557478910255 0.0046776971824380176 0 -0.023538739906366488 0.0041112469111432692 0 -0.024712187684693302 0.0039485762457323352 0 -0.026571820141139853 0.0051086786473310344 0 -0.024646557478910255 0.0046776971824380176 0 -0.023538739906366488 0.0041112469111432692 0 -0.02347603417117022 0.0050226188116156388 0 -0.026571820141139853 0.0051086786473310344 0 -0.027550002569615827 0.0084367543926101643 0 -0.023170540582991783 0.0051639169827912678 0 -0.025595829143535687 0.0055928056564850254 0 -0.025062906868772817 0.0078141752831940772 0 -0.027550002569615827 0.0084367543926101643 0 -0.02373494247210052 0.0050538554352216603 0 -0.024646557478910255 0.0046776971824380176 0 -0.02347603417117022 0.0050226188116156388 0 -0.025595829143535687 0.0055928056564850254 0 -0.033009981262651041 0.013465506372078733 0 -0.034184510968664192 0.013733022273895966 0 -0.032821205170986648 0.015008868838257841 0 -0.031062599969705451 0.0079816306351017437 0 -0.027550002569615827 0.0084367543926101643 0 -0.033009981262651041 0.013465506372078733 0 -0.032821205170986648 0.015008868838257841 0 -0.031374932222797546 0.014074491222517969 0 -0.032821205170986648 0.015008868838257841 0 -0.031374932222797546 0.014074491222517969 0 -0.031324485451172619 0.015333246616644576 0 -0.031654082531372682 0.0086820154361782406 0 -0.030505197202100685 0.0091221456712374718 0 -0.031006142605130526 0.0085345819598671938 0 -0.031062599969705451 0.0079816306351017437 0 -0.030865687241648666 0.011692700769434525 0 -0.030865687241648666 0.011692700769434525 0 -0.030135036457273969 0.011563664093312758 0 -0.031374932222797546 0.014074491222517969 0 -0.029709837104127359 0.014663079963488019 0 -0.031324485451172619 0.015333246616644576 0 -0.030505197202100685 0.0091221456712374718 0 -0.029359116117175295 0.0095694932772074238 0 -0.031006142605130526 0.0085345819598671938 0 -0.02933446598191063 0.0073027438248164413 0 -0.029886326067268713 0.0059436963754000071 0 -0.032359169541603693 0.0054814913313396552 0 -0.030135036457273969 0.011563664093312758 0 -0.030249387009610284 0.0038317084491275438 0 -0.028884715943330332 0.0070333287258364302 0 -0.02933446598191063 0.0073027438248164413 0 -0.029886326067268713 0.0059436963754000071 0 -0.029886326067268713 0.0059436963754000071 0 -0.03049408053551694 0.0050445396597100468 0 -0.032359169541603693 0.0054814913313396552 0 -0.028617181776166577 0.0045735523495610692 0 -0.029886326067268713 0.0059436963754000071 0 -0.03049408053551694 0.0050445396597100468 0 -0.029471922938819142 -0.0021293704783815811 0 -0.029671050108422001 -0.0017210807470107708 0 -0.029304386439995774 -0.001436207780269274 0 -0.030021124109680917 -0.0019079970683298605 0 -0.029471922938819142 -0.0021293704783815811 0 -0.029671050108422001 -0.0017210807470107708 0 -0.030567326190181876 0.00027678448181801802 0 -0.029742644621147365 0.0014148824083260951 0 -0.031062599969705451 0.0079816306351017437 0 -0.030249387009610284 0.0038317084491275438 0 -0.029742644621147365 0.0014148824083260951 0 -0.030249387009610284 0.0038317084491275438 0 -0.029471922938819142 -0.0021293704783815811 0 -0.028471645483724065 -0.0026425545725320986 0 -0.028514217887248127 -0.0014505254390117911 0 -0.029471922938819142 -0.0021293704783815811 0 -0.028514217887248127 -0.0014505254390117911 0 -0.029304386439995774 -0.001436207780269274 0 -0.028514217887248127 -0.0014505254390117911 0 -0.02878485514274404 -0.0012391093565735157 0 -0.028335312809529094 -0.000996279132507512 0 -0.028451264878505241 -0.0013399039981850066 0 -0.027595046280828175 0.00037834111228138431 0 -0.028514217887248127 -0.0014505254390117911 0 -0.02878485514274404 -0.0012391093565735157 0 -0.029304386439995774 -0.001436207780269274 0 -0.02878485514274404 -0.0012391093565735157 0 -0.029238516339772484 -0.0010948735357420715 0 -0.02885422548418606 -0.0010004973030787018 0 -0.030021124109680917 -0.0019079970683298605 0 -0.029671050108422001 -0.0017210807470107708 0 -0.029814077072534771 -0.0014011095888581816 0 -0.029671050108422001 -0.0017210807470107708 0 -0.029304386439995774 -0.001436207780269274 0 -0.029814077072534771 -0.0014011095888581816 0 -0.029304386439995774 -0.001436207780269274 0 -0.029574768596285123 -0.0012089756937165943 0 -0.029238516339772484 -0.0010948735357420715 0 -0.02878485514274404 -0.0012391093565735157 0 -0.029304386439995774 -0.001436207780269274 0 -0.029238516339772484 -0.0010948735357420715 0 -0.029574768596285123 -0.0012089756937165943 0 -0.029814077072534771 -0.0014011095888581816 0 -0.029868326725345153 -0.0010724679859990106 0 -0.029304386439995774 -0.001436207780269274 0 -0.029574768596285123 -0.0012089756937165943 0 -0.029814077072534771 -0.0014011095888581816 0 -0.029574768596285123 -0.0012089756937165943 0 -0.029868326725345153 -0.0010724679859990106 0 -0.029707786630918432 -0.00087141467949104659 0 -0.029949993686311717 -0.0009130531725611322 0 -0.029868326725345153 -0.0010724679859990106 0 -0.029707786630918432 -0.00087141467949104659 0 -0.029574768596285123 -0.0012089756937165943 0 -0.029238516339772484 -0.0010948735357420715 0 -0.029707786630918432 -0.00087141467949104659 0 -0.029238516339772484 -0.0010948735357420715 0 -0.029280364431956727 -0.00082301080369642462 0 -0.029707786630918432 -0.00087141467949104659 0 -0.029280364431956727 -0.00082301080369642462 0 -0.029707786630918432 -0.00087141467949104659 0 -0.029712768619583024 -0.00050861851368095169 0 -0.029982350393984898 -0.00073929735000606675 0 -0.029707786630918432 -0.00087141467949104659 0 -0.029712768619583024 -0.00050861851368095169 0 -0.029982350393984898 -0.00073929735000606675 0 -0.029949993686311717 -0.0009130531725611322 0 -0.029707786630918432 -0.00087141467949104659 0 -0.028832530105147813 -0.00073466676538798067 0 -0.028335312809529094 -0.000996279132507512 0 -0.028501297325591118 -0.00022321341457983034 0 -0.02878485514274404 -0.0012391093565735157 0 -0.02885422548418606 -0.0010004973030787018 0 -0.028335312809529094 -0.000996279132507512 0 -0.029238516339772484 -0.0010948735357420715 0 -0.029280364431956727 -0.00082301080369642462 0 -0.02885422548418606 -0.0010004973030787018 0 -0.029280364431956727 -0.00082301080369642462 0 -0.028832530105147813 -0.00073466676538798067 0 -0.029207882250386442 -0.00032327750369039111 0 -0.029280364431956727 -0.00082301080369642462 0 -0.02885422548418606 -0.0010004973030787018 0 -0.028832530105147813 -0.00073466676538798067 0 -0.02885422548418606 -0.0010004973030787018 0 -0.028832530105147813 -0.00073466676538798067 0 -0.028335312809529094 -0.000996279132507512 0 -0.026891382003174535 0.001918322294078267 0 -0.025354494267631245 0.0021654622579023691 0 -0.025633477284580208 0.0027998974826883658 0 -0.026891382003174535 0.001918322294078267 0 -0.026902502606304134 -1.4506864794726819e-05 0 -0.025354494267631245 0.0021654622579023691 0 -0.026902502606304134 -1.4506864794726819e-05 0 -0.025311586107771979 -0.00095733386734873959 0 -0.025354494267631245 0.0021654622579023691 0 -0.028514217887248127 -0.0014505254390117911 0 -0.026902502606304134 -1.4506864794726819e-05 0 -0.025311586107771979 -0.00095733386734873959 0 -0.028514217887248127 -0.0014505254390117911 0 -0.026891382003174535 0.001918322294078267 0 -0.026902502606304134 -1.4506864794726819e-05 0 -0.026285109715959765 0.0020262023123716732 0 -0.025128120450192654 0.0017461926402507141 0 -0.025151752659858105 0.0030006989712075892 0 -0.024898266320290078 0.0031318814649113945 0 -0.025354494267631245 0.0021654622579023691 0 -0.025151752659858105 0.0030006989712075892 0 -0.025354494267631245 0.0021654622579023691 0 -0.025515742456330079 0.0026582164465767033 0 -0.025151752659858105 0.0030006989712075892 0 -0.025485427942325944 0.0029977372238398073 0 -0.025515742456330079 0.0026582164465767033 0 -0.025225357992395614 0.0034802993207383955 0 -0.025151752659858105 0.0030006989712075892 0 -0.025485427942325944 0.0029977372238398073 0 -0.025309270387080706 0.0026885146113733447 0 -0.026285109715959765 0.0020262023123716732 0 -0.025354494267631245 0.0021654622579023691 0 -0.025515742456330079 0.0026582164465767033 0 -0.025505895821960441 0.0025354121492935254 0 -0.025354494267631245 0.0021654622579023691 0 -0.025416929620906904 0.0025637202294264364 0 -0.025505895821960441 0.0025354121492935254 0 -0.025416929620906904 0.0025637202294264364 0 -0.025633477284580208 0.0027998974826883658 0 -0.025417509301284114 0.002578359053147402 0 -0.025354494267631245 0.0021654622579023691 0 -0.025416929620906904 0.0025637202294264364 0 -0.025633477284580208 0.0027998974826883658 0 -0.025416929620906904 0.0025637202294264364 0 -0.025417509301284114 0.002578359053147402 0 -0.025480376052098692 0.002613910499694018 0 -0.027595046280828175 0.00037834111228138431 0 -0.026590301186103549 0.0013817911178071905 0 -0.028335312809529094 -0.000996279132507512 0 -0.027493615358742902 -6.3197655816930174e-06 0 -0.028501297325591118 -0.00022321341457983034 0 -0.027493615358742902 -6.3197655816930174e-06 0 -0.02807679407184082 0.00094503916207343036 0 -0.026533256470265033 0.0013906703056975409 0 -0.027493615358742902 -6.3197655816930174e-06 0 -0.02807679407184082 0.00094503916207343036 0 -0.028501297325591118 -0.00022321341457983034 0 -0.025633477284580208 0.0027998974826883658 0 -0.025417509301284114 0.002578359053147402 0 -0.025235779881139918 0.0023461119641564289 0 -0.026590301186103549 0.0013817911178071905 0 -0.025901817419003645 0.0018882830795975581 0 -0.03020939846685915 -0.0003999569711755499 0 -0.029712768619583024 -0.00050861851368095169 0 -0.029879519614348132 0.00014935202952707377 0 -0.03020939846685915 -0.0003999569711755499 0 -0.029982350393984898 -0.00073929735000606675 0 -0.029712768619583024 -0.00050861851368095169 0 -0.029280364431956727 -0.00082301080369642462 0 -0.029712768619583024 -0.00050861851368095169 0 -0.029207882250386442 -0.00032327750369039111 0 -0.029712768619583024 -0.00050861851368095169 0 -0.029207882250386442 -0.00032327750369039111 0 -0.029879519614348132 0.00014935202952707377 0 -0.029207882250386442 -0.00032327750369039111 0 -0.028501297325591118 -0.00022321341457983034 0 -0.028949129061225466 0.00040963119161928314 0 -0.028832530105147813 -0.00073466676538798067 0 -0.029207882250386442 -0.00032327750369039111 0 -0.028501297325591118 -0.00022321341457983034 0 -0.02807679407184082 0.00094503916207343036 0 -0.028501297325591118 -0.00022321341457983034 0 -0.028949129061225466 0.00040963119161928314 0 -0.02807679407184082 0.00094503916207343036 0 -0.028949129061225466 0.00040963119161928314 0 -0.029374438577444806 0.0012175836232785303 0 -0.028949129061225466 0.00040963119161928314 0 -0.029879519614348132 0.00014935202952707377 0 -0.029374438577444806 0.0012175836232785303 0 -0.030488595156703196 0.0010524900267522886 0 -0.029879519614348132 0.00014935202952707377 0 -0.029374438577444806 0.0012175836232785303 0 -0.029207882250386442 -0.00032327750369039111 0 -0.028949129061225466 0.00040963119161928314 0 -0.029879519614348132 0.00014935202952707377 0 -0.030488595156703196 0.0010524900267522886 0 -0.030367427752294982 0.0020438202439282058 0 -0.029374438577444806 0.0012175836232785303 0 -0.030367427752294982 0.0020438202439282058 0 -0.029374438577444806 0.0012175836232785303 0 -0.029473301896872993 0.0019665664459131778 0 -0.02807679407184082 0.00094503916207343036 0 -0.029374438577444806 0.0012175836232785303 0 -0.028420435459981422 0.0020974407228985981 0 -0.029374438577444806 0.0012175836232785303 0 -0.029473301896872993 0.0019665664459131778 0 -0.028420435459981422 0.0020974407228985981 0 -0.028090368901388375 0.0034253302461455439 0 -0.029123419932993229 0.0032207843009562222 0 -0.028420435459981422 0.0020974407228985981 0 -0.029123419932993229 0.0032207843009562222 0 -0.028420435459981422 0.0020974407228985981 0 -0.029691090480794262 0.0026500661737252473 0 -0.029473301896872993 0.0019665664459131778 0 -0.028420435459981422 0.0020974407228985981 0 -0.029691090480794262 0.0026500661737252473 0 -0.030367427752294982 0.0020438202439282058 0 -0.029473301896872993 0.0019665664459131778 0 -0.029691090480794262 0.0026500661737252473 0 -0.03071876463609503 0.0030816538724200695 0 -0.030367427752294982 0.0020438202439282058 0 -0.029691090480794262 0.0026500661737252473 0 -0.025417509301284114 0.002578359053147402 0 -0.025235779881139918 0.0023461119641564289 0 -0.025401492610506577 0.0022244082668906946 0 -0.02807679407184082 0.00094503916207343036 0 -0.026533256470265033 0.0013906703056975409 0 -0.027235995613054627 0.0021054586391376514 0 -0.02807679407184082 0.00094503916207343036 0 -0.028420435459981422 0.0020974407228985981 0 -0.027235995613054627 0.0021054586391376514 0 -0.026965345570448215 0.0030079546164964578 0 -0.028420435459981422 0.0020974407228985981 0 -0.027235995613054627 0.0021054586391376514 0 -0.026965345570448215 0.0030079546164964578 0 -0.028090368901388375 0.0034253302461455439 0 -0.028420435459981422 0.0020974407228985981 0 -0.026965345570448215 0.0030079546164964578 0 -0.027235995613054627 0.0021054586391376514 0 -0.025715513447756379 0.003131493404744958 0 -0.026533256470265033 0.0013906703056975409 0 -0.027235995613054627 0.0021054586391376514 0 -0.025715513447756379 0.003131493404744958 0 -0.025901817419003645 0.0018882830795975581 0 -0.025479988757537802 0.0023765391198188159 0 -0.025235779881139918 0.0023461119641564289 0 -0.02518560978240628 0.0017661512006324051 0 -0.025401492610506577 0.0022244082668906946 0 -0.02518560978240628 0.0017661512006324051 0 -0.025530784103422438 0.0019359519525716435 0 -0.025401492610506577 0.0022244082668906946 0 -0.025497210956853377 0.0015876466792469038 0 -0.02518560978240628 0.0017661512006324051 0 -0.025530784103422438 0.0019359519525716435 0 -0.025401492610506577 0.0022244082668906946 0 -0.025652108921278966 0.0021622989881980412 0 -0.025506876525271126 0.0024159045262452062 0 -0.025417509301284114 0.002578359053147402 0 -0.025401492610506577 0.0022244082668906946 0 -0.025506876525271126 0.0024159045262452062 0 -0.025530784103422438 0.0019359519525716435 0 -0.025401492610506577 0.0022244082668906946 0 -0.025652108921278966 0.0021622989881980412 0 -0.025742871432774529 0.0022231490790537451 0 -0.025652108921278966 0.0021622989881980412 0 -0.025676653638965808 0.0023708756626687794 0 -0.025742871432774529 0.0022231490790537451 0 -0.025825962418416056 0.0021725913909246167 0 -0.025800335474104479 0.0023048676150816947 0 -0.025742871432774529 0.0022231490790537451 0 -0.025800335474104479 0.0023048676150816947 0 -0.025676653638965808 0.0023708756626687794 0 -0.025652108921278966 0.0021622989881980412 0 -0.025506876525271126 0.0024159045262452062 0 -0.025676653638965808 0.0023708756626687794 0 -0.025652108921278966 0.0021622989881980412 0 -0.025764786223254163 0.0021000422873617424 0 -0.025750985126934692 0.0019261127727847964 0 -0.025742871432774529 0.0022231490790537451 0 -0.025652108921278966 0.0021622989881980412 0 -0.025764786223254163 0.0021000422873617424 0 -0.025742871432774529 0.0022231490790537451 0 -0.025764786223254163 0.0021000422873617424 0 -0.025825962418416056 0.0021725913909246167 0 -0.025530784103422438 0.0019359519525716435 0 -0.025652108921278966 0.0021622989881980412 0 -0.025750985126934692 0.0019261127727847964 0 -0.025530784103422438 0.0019359519525716435 0 -0.025750985126934692 0.0019261127727847964 0 -0.025644216592324003 0.0017725114882872121 0 -0.025497210956853377 0.0015876466792469038 0 -0.025530784103422438 0.0019359519525716435 0 -0.025644216592324003 0.0017725114882872121 0 -0.025819663257664729 0.0016325170090703011 0 -0.025750985126934692 0.0019261127727847964 0 -0.025644216592324003 0.0017725114882872121 0 -0.013006995771337437 -0.0047929218578693653 0 -0.013086069989495172 -0.0045923930306720883 0 -0.013094251375919633 -0.0046079793976628574 0 -0.012870482799342305 -0.0048330489313026075 0 -0.013006995771337437 -0.0047929218578693653 0 -0.013094251375919633 -0.0046079793976628574 0 -0.012029671882271534 -0.006082974377207848 0 -0.018892787697602009 -0.0018023346820004696 0 -0.025819663257664729 0.0016325170090703011 0 -0.025750985126934692 0.0019261127727847964 0 -0.025908093673267799 0.002100702376383645 0 -0.019382341493741208 -0.0016070665044038721 0 -0.020314533751572241 -0.001110769714284206 0 -0.011149206210461371 -0.0060773755178988483 0 -0.011718631189960914 -0.0059607594669940462 0 -0.011712666375514295 -0.0068514978709483853 0 -0.0124189005528463 -0.0059919086238294731 0 -0.011712666375514295 -0.0068514978709483853 0 -0.0128967581621503 -0.0072843298459488283 0 -0.011718631189960914 -0.0059607594669940462 0 -0.0124189005528463 -0.0059919086238294731 0 -0.011712666375514295 -0.0068514978709483853 0 -0.018103445634805492 -0.0011068413779214527 0 -0.018892787697602009 -0.0018023346820004696 0 -0.02445102018149295 0.0045809037522362801 0 -0.024925483850455787 0.0040582312958225234 0 -0.025311569066364871 0.0041489040622857366 0 -0.02445102018149295 0.0045809037522362801 0 -0.024925483850455787 0.0040582312958225234 0 -0.024654018178501689 0.0038642848269711235 0 -0.02445102018149295 0.0045809037522362801 0 -0.024654018178501689 0.0038642848269711235 0 -0.02393147093744576 0.0038433519726608985 0 -0.024925483850455787 0.0040582312958225234 0 -0.025144696466591149 0.0039782040705901561 0 -0.025003818812363975 0.0037104764099250499 0 -0.024925483850455787 0.0040582312958225234 0 -0.024654018178501689 0.0038642848269711235 0 -0.025003818812363975 0.0037104764099250499 0 -0.025921578279129172 0.0021868130575128401 0 -0.025800335474104479 0.0023048676150816947 0 -0.025826880324257003 0.0025165310543103004 0 -0.025764786223254163 0.0021000422873617424 0 -0.025908093673267799 0.002100702376383645 0 -0.025825962418416056 0.0021725913909246167 0 -0.025764786223254163 0.0021000422873617424 0 -0.025750985126934692 0.0019261127727847964 0 -0.025908093673267799 0.002100702376383645 0 -0.025902173637571035 0.0021367865547516928 0 -0.025921578279129172 0.0021868130575128401 0 -0.025825962418416056 0.0021725913909246167 0 -0.020314533751572241 -0.001110769714284206 0 -0.022915564508962361 -0.00097232370110974132 0 -0.020258853949321989 -0.0011665726982136332 0 -0.020338463434895853 -0.00090903730420065503 0 -0.020434822301854064 -0.0012438943957599074 0 -0.020314533751572241 -0.001110769714284206 0 -0.018892787697602009 -0.0018023346820004696 0 -0.020314533751572241 -0.001110769714284206 0 -0.021709999095382022 0.0014094539543415003 0 -0.024925483850455787 0.0040582312958225234 0 -0.025311569066364871 0.0041489040622857366 0 -0.025144696466591149 0.0039782040705901561 0 -0.02533950165209364 0.0040242099035999439 0 -0.025311569066364871 0.0041489040622857366 0 -0.025144696466591149 0.0039782040705901561 0 -0.021709999095382022 0.0014094539543415003 0 -0.018892787697602009 -0.0018023346820004696 0 -0.02533950165209364 0.0040242099035999439 0 -0.025144696466591149 0.0039782040705901561 0 -0.025003818812363975 0.0037104764099250499 0 -0.025921578279129172 0.0021868130575128401 0 -0.025825962418416056 0.0021725913909246167 0 -0.025800335474104479 0.0023048676150816947 0 -0.021709999095382022 0.0014094539543415003 0 -0.025626816542194526 0.0030345698939949063 0 -0.025299092920535501 0.0038686082396118828 0 -0.025181597673918886 0.0034324101433713798 0 -0.025482033329063854 0.0034410001388352107 0 -0.02533950165209364 0.0040242099035999439 0 -0.025181597673918886 0.0034324101433713798 0 -0.025003818812363975 0.0037104764099250499 0 -0.021709999095382022 0.0014094539543415003 0 -0.025555015157047969 0.0046032340631407213 0 -0.025181597673918886 0.0034324101433713798 0 -0.025482033329063854 0.0034410001388352107 0 -0.025356007168286964 0.0031570713510638121 0 -0.024654018178501689 0.0038642848269711235 0 -0.024797681634833979 0.0033440891728204842 0 -0.02393147093744576 0.0038433519726608985 0 -0.024654018178501689 0.0038642848269711235 0 -0.025003818812363975 0.0037104764099250499 0 -0.024797681634833979 0.0033440891728204842 0 -0.025181597673918886 0.0034324101433713798 0 -0.025003818812363975 0.0037104764099250499 0 -0.024797681634833979 0.0033440891728204842 0 -0.025181597673918886 0.0034324101433713798 0 -0.024797681634833979 0.0033440891728204842 0 -0.025099543575794733 0.0031310300394721507 0 -0.024797681634833979 0.0033440891728204842 0 -0.025099543575794733 0.0031310300394721507 0 -0.024718720803628639 0.0030624597654991012 0 -0.025099543575794733 0.0031310300394721507 0 -0.024718720803628639 0.0030624597654991012 0 -0.025127880049019474 0.0029389183280848501 0 -0.025482033329063854 0.0034410001388352107 0 -0.025356007168286964 0.0031570713510638121 0 -0.025655345435813427 0.0028552877714481681 0 -0.025099543575794733 0.0031310300394721507 0 -0.025356007168286964 0.0031570713510638121 0 -0.02536768200234793 0.0029762281341568922 0 -0.025181597673918886 0.0034324101433713798 0 -0.025099543575794733 0.0031310300394721507 0 -0.025356007168286964 0.0031570713510638121 0 -0.025099543575794733 0.0031310300394721507 0 -0.02536768200234793 0.0029762281341568922 0 -0.025127880049019474 0.0029389183280848501 0 -0.02536768200234793 0.0029762281341568922 0 -0.025655345435813427 0.0028552877714481681 0 -0.025498509505391204 0.0028838173695715915 0 -0.025356007168286964 0.0031570713510638121 0 -0.02536768200234793 0.0029762281341568922 0 -0.025655345435813427 0.0028552877714481681 0 -0.025826880324257003 0.0025165310543103004 0 -0.025655345435813427 0.0028552877714481681 0 -0.025593794888522658 0.0026074025004111877 0 -0.025626816542194526 0.0030345698939949063 0 -0.025670413584571412 0.0028462898553558145 0 -0.025655345435813427 0.0028552877714481681 0 -0.025601163875551683 0.0027084673548858672 0 -0.025593794888522658 0.0026074025004111877 0 -0.025601163875551683 0.0027084673548858672 0 -0.025480376052098692 0.002613910499694018 0 -0.025593794888522658 0.0026074025004111877 0 -0.025601163875551683 0.0027084673548858672 0 -0.025480376052098692 0.002613910499694018 0 -0.025505895821960441 0.0025354121492935254 0 -0.025416929620906904 0.0025637202294264364 0 -0.025480376052098692 0.002613910499694018 0 -0.025505895821960441 0.0025354121492935254 0 -0.025417509301284114 0.002578359053147402 0 -0.025480376052098692 0.002613910499694018 0 -0.025506876525271126 0.0024159045262452062 0 -0.025480376052098692 0.002613910499694018 0 -0.025506876525271126 0.0024159045262452062 0 -0.025593794888522658 0.0026074025004111877 0 -0.025506876525271126 0.0024159045262452062 0 -0.025676653638965808 0.0023708756626687794 0 -0.025593794888522658 0.0026074025004111877 0 -0.025826880324257003 0.0025165310543103004 0 -0.025676653638965808 0.0023708756626687794 0 -0.025593794888522658 0.0026074025004111877 0 -0.025800335474104479 0.0023048676150816947 0 -0.025826880324257003 0.0025165310543103004 0 -0.025676653638965808 0.0023708756626687794 0 -0.019397766727919034 0.0051501598767761227 0 -0.022123197753022406 0.0034308111225639826 0 -0.019815281101984005 0.0017153232663408586 0 -0.017544577765806528 0.0036803926006308582 0 -0.016825026231680737 0.0035823928356269181 0 -0.016560260559168757 0.0026591948985893892 0 -0.016515850299013545 0.0017214684277280774 0 -0.018780083423151146 0.0047610692474284056 0 -0.016825026231680737 0.0035823928356269181 0 -0.016226441461939061 0.003659879584342289 0 -0.016560260559168757 0.0026591948985893892 0 -0.021810595080465723 0.0074386407428709053 0 -0.02145823162879958 0.005529718013347177 0 -0.023371366004639953 0.0055857113532183688 0 -0.021810595080465723 0.0074386407428709053 0 -0.019397766727919034 0.0051501598767761227 0 -0.02145823162879958 0.005529718013347177 0 -0.02145823162879958 0.005529718013347177 0 -0.022573559384796816 0.0046929707824258692 0 -0.023371366004639953 0.0055857113532183688 0 -0.02145823162879958 0.005529718013347177 0 -0.022573559384796816 0.0046929707824258692 0 -0.022123197753022406 0.0034308111225639826 0 -0.019397766727919034 0.0051501598767761227 0 -0.02145823162879958 0.005529718013347177 0 -0.022123197753022406 0.0034308111225639826 0 -0.023500971120646634 0.0054760321787843637 0 -0.024106720889980275 0.0039720337530211964 0 -0.023279397413717189 0.0042146021580741055 0 -0.023371366004639953 0.0055857113532183688 0 -0.024363568537601847 0.0040819888522734063 0 -0.023279397413717189 0.0042146021580741055 0 -0.022573559384796816 0.0046929707824258692 0 -0.022123197753022406 0.0034308111225639826 0 -0.023279397413717189 0.0042146021580741055 0 -0.024363568537601847 0.0040819888522734063 0 -0.023527289791146773 0.0033111593298721887 0 -0.023279397413717189 0.0042146021580741055 0 -0.022573559384796816 0.0046929707824258692 0 -0.023371366004639953 0.0055857113532183688 0 -0.016515850299013545 0.0017214684277280774 0 -0.023500971120646634 0.0054760321787843637 0 -0.021844365838065601 0.0056361567987649455 0 -0.022477513799221922 0.0052462343894715147 0 -0.022939136321366807 0.0046161005427077621 0 -0.022477513799221922 0.0052462343894715147 0 -0.023290241072135481 0.0051047402297128746 0 -0.022939136321366807 0.0046161005427077621 0 -0.023290241072135481 0.0051047402297128746 0 -0.022939136321366807 0.0046161005427077621 0 -0.02373370917551058 0.004479558916087951 0 -0.018103445634805492 -0.0011068413779214527 0 -0.016826040144843422 -0.00073849638826570252 0 -0.011149206210461371 -0.0060773755178988483 0 -0.011712666375514295 -0.0068514978709483853 0 -0.010488790401677064 -0.0063182863649103305 0 -0.02445102018149295 0.0045809037522362801 0 -0.023290241072135481 0.0051047402297128746 0 -0.02373370917551058 0.004479558916087951 0 -0.02445102018149295 0.0045809037522362801 0 -0.02373370917551058 0.004479558916087951 0 -0.02393147093744576 0.0038433519726608985 0 -0.022939136321366807 0.0046161005427077621 0 -0.02373370917551058 0.004479558916087951 0 -0.02393147093744576 0.0038433519726608985 0 -0.024728214998188312 0.0034021644761215264 0 -0.024106720889980275 0.0039720337530211964 0 -0.024797681634833979 0.0033440891728204842 0 -0.024363568537601847 0.0040819888522734063 0 -0.024256474425995895 0.0033157193428366605 0 -0.024363568537601847 0.0040819888522734063 0 -0.024256474425995895 0.0033157193428366605 0 -0.023527289791146773 0.0033111593298721887 0 -0.024718720803628639 0.0030624597654991012 0 -0.024256474425995895 0.0033157193428366605 0 -0.0241875980572221 0.0029603814958462002 0 -0.024797681634833979 0.0033440891728204842 0 -0.024718720803628639 0.0030624597654991012 0 -0.024256474425995895 0.0033157193428366605 0 -0.024256474425995895 0.0033157193428366605 0 -0.0241875980572221 0.0029603814958462002 0 -0.023527289791146773 0.0033111593298721887 0 -0.0241875980572221 0.0029603814958462002 0 -0.023527289791146773 0.0033111593298721887 0 -0.02350657218319718 0.0029190149756745058 0 -0.023527289791146773 0.0033111593298721887 0 -0.022123197753022406 0.0034308111225639826 0 -0.02350657218319718 0.0029190149756745058 0 -0.023279397413717189 0.0042146021580741055 0 -0.023527289791146773 0.0033111593298721887 0 -0.022123197753022406 0.0034308111225639826 0 -0.022167336731251777 0.0034446097346860381 0 -0.022539051884718542 0.0020470134122230559 0 -0.022123197753022406 0.0034308111225639826 0 -0.021649330100476056 0.00091098569749236953 0 -0.019815281101984005 0.0017153232663408586 0 -0.021649330100476056 0.00091098569749236953 0 -0.019815281101984005 0.0017153232663408586 0 -0.019926954380963997 3.7916458968203884e-05 0 -0.018511225251494751 0.0006974429757761483 0 -0.019815281101984005 0.0017153232663408586 0 -0.019926954380963997 3.7916458968203884e-05 0 -0.019171608436123849 -0.00055590443138897887 0 -0.020593439559129848 -0.00025196954807388451 0 -0.019926954380963997 3.7916458968203884e-05 0 -0.020593439559129848 -0.00025196954807388451 0 -0.019926954380963997 3.7916458968203884e-05 0 -0.021426445915124041 -4.5697673420707002e-05 0 -0.021649330100476056 0.00091098569749236953 0 -0.019926954380963997 3.7916458968203884e-05 0 -0.021426445915124041 -4.5697673420707002e-05 0 -0.020593439559129848 -0.00025196954807388451 0 -0.021426445915124041 -4.5697673420707002e-05 0 -0.021263230648263486 -2.3407647601845489e-05 0 -0.021426445915124041 -4.5697673420707002e-05 0 -0.021540719711830327 0.00023553249961027919 0 -0.021263230648263486 -2.3407647601845489e-05 0 -0.02408472985173481 0.0027563193045236616 0 -0.024651521822183609 0.002727147914572924 0 -0.024220828651547861 0.0026767049920561918 0 -0.022748418294217306 0.0014035885181144629 0 -0.022974234074302616 0.0013616032617085178 0 -0.0241875980572221 0.0029603814958462002 0 -0.02350657218319718 0.0029190149756745058 0 -0.02408472985173481 0.0027563193045236616 0 -0.022539051884718542 0.0020470134122230559 0 -0.022748418294217306 0.0014035885181144629 0 -0.0241875980572221 0.0029603814958462002 0 -0.02408472985173481 0.0027563193045236616 0 -0.024737656718991832 0.0028446010207915351 0 -0.024718720803628639 0.0030624597654991012 0 -0.0241875980572221 0.0029603814958462002 0 -0.024737656718991832 0.0028446010207915351 0 -0.02408472985173481 0.0027563193045236616 0 -0.024737656718991832 0.0028446010207915351 0 -0.024651521822183609 0.002727147914572924 0 -0.024737656718991832 0.0028446010207915351 0 -0.024651521822183609 0.002727147914572924 0 -0.025216363585350766 0.0027619292839027375 0 -0.024651521822183609 0.002727147914572924 0 -0.024781774658655675 0.0024647456921487103 0 -0.025077431456008561 0.0025716371159424144 0 -0.024651521822183609 0.002727147914572924 0 -0.024781774658655675 0.0024647456921487103 0 -0.024220828651547861 0.0026767049920561918 0 -0.024781774658655675 0.0024647456921487103 0 -0.025071845216038779 0.0023260920504536669 0 -0.025077431456008561 0.0025716371159424144 0 -0.025071845216038779 0.0023260920504536669 0 -0.025256249313555735 0.0026898656507617245 0 -0.025055774603029331 0.0024457955982375933 0 -0.025071845216038779 0.0023260920504536669 0 -0.024674891671749025 0.0018024224739139616 0 -0.025055774603029331 0.0024457955982375933 0 -0.024781774658655675 0.0024647456921487103 0 -0.025071845216038779 0.0023260920504536669 0 -0.024674891671749025 0.0018024224739139616 0 -0.023649177490982248 0.0011877047379985559 0 -0.022201709947762632 0.00066096575454919332 0 -0.021540719711830327 0.00023553249961027919 0 -0.023510256420186233 0.0010023555377207296 0 -0.022974234074302616 0.0013616032617085178 0 -0.024674891671749025 0.0018024224739139616 0 -0.023649177490982248 0.0011877047379985559 0 -0.024220828651547861 0.0026767049920561918 0 -0.023649177490982248 0.0011877047379985559 0 -0.022201709947762632 0.00066096575454919332 0 -0.02226678128391292 0.00071116759896806749 0 -0.024781774658655675 0.0024647456921487103 0 -0.024674891671749025 0.0018024224739139616 0 -0.024220828651547861 0.0026767049920561918 0 -0.022201709947762632 0.00066096575454919332 0 -0.021540719711830327 0.00023553249961027919 0 -0.021544092952717198 0.00020295710346858123 0 -0.020593439559129848 -0.00025196954807388451 0 -0.021263230648263486 -2.3407647601845489e-05 0 -0.021544092952717198 0.00020295710346858123 0 -0.021540719711830327 0.00023553249961027919 0 -0.021263230648263486 -2.3407647601845489e-05 0 -0.021544092952717198 0.00020295710346858123 0 -0.022201709947762632 0.00066096575454919332 0 -0.021544092952717198 0.00020295710346858123 0 -0.02226678128391292 0.00071116759896806749 0 -0.021544092952717198 0.00020295710346858123 0 -0.02226678128391292 0.00071116759896806749 0 -0.021716784874983418 0.00040349311118092703 0 -0.021716784874983418 0.00040349311118092703 0 -0.021549913973416716 0.00031784962820911866 0 -0.02146142650640159 0.00016333520066591281 0 -0.021544092952717198 0.00020295710346858123 0 -0.021716784874983418 0.00040349311118092703 0 -0.021549913973416716 0.00031784962820911866 0 -0.021383622755166316 0.0004021017865159004 0 -0.021549913973416716 0.00031784962820911866 0 -0.021435297320306829 0.00028819600642439959 0 -0.021383622755166316 0.0004021017865159004 0 -0.021398664531500192 0.00026400846396903017 0 -0.021435297320306829 0.00028819600642439959 0 -0.021383622755166316 0.0004021017865159004 0 -0.021544092952717198 0.00020295710346858123 0 -0.021549913973416716 0.00031784962820911866 0 -0.021549913973416716 0.00031784962820911866 0 -0.021435297320306829 0.00028819600642439959 0 -0.02146142650640159 0.00016333520066591281 0 -0.021349948442806143 0.00023262055042745668 0 -0.021435297320306829 0.00028819600642439959 0 -0.02146142650640159 0.00016333520066591281 0 -0.018321907793661114 0.003628062278000669 0 -0.019009097726660783 0.0025446383869108529 0 -0.01635697359481731 0.0015230417608616564 0 -0.023240705459039036 -0.0003377597968547111 0 -0.020066550413257212 -0.00072373982658166579 0 -0.020593439559129848 -0.00025196954807388451 0 -0.021544092952717198 0.00020295710346858123 0 -0.026022705050608261 0.0029688207618761087 0 -0.025706522399001466 0.0028220982428252073 0 -0.025647654281160989 0.0029057538643076611 0 -0.026022705050608261 0.0029688207618761087 0 -0.025690654913752602 0.0027140190975705461 0 -0.025706522399001466 0.0028220982428252073 0 -0.026022705050608261 0.0029688207618761087 0 -0.025647654281160989 0.0029057538643076611 0 -0.025709276869504413 0.0029757595414237645 0 -0.026022705050608261 0.0029688207618761087 0 -0.025711365251568762 0.0028758913529010766 0 -0.025902724741409734 0.0031954933716523636 0 -0.025711365251568762 0.0028758913529010766 0 -0.025485427942325944 0.0029977372238398073 0 -0.025902724741409734 0.0031954933716523636 0 -0.025711365251568762 0.0028758913529010766 0 -0.025485427942325944 0.0029977372238398073 0 -0.025515742456330079 0.0026582164465767033 0 -0.025711365251568762 0.0028758913529010766 0 -0.025515742456330079 0.0026582164465767033 0 -0.025690654913752602 0.0027140190975705461 0 -0.026022705050608261 0.0029688207618761087 0 -0.025711365251568762 0.0028758913529010766 0 -0.025690654913752602 0.0027140190975705461 0 -0.025515742456330079 0.0026582164465767033 0 -0.025690654913752602 0.0027140190975705461 0 -0.025505895821960441 0.0025354121492935254 0 -0.025601163875551683 0.0027084673548858672 0 -0.025690654913752602 0.0027140190975705461 0 -0.025505895821960441 0.0025354121492935254 0 -0.025601163875551683 0.0027084673548858672 0 -0.025690654913752602 0.0027140190975705461 0 -0.025706522399001466 0.0028220982428252073 0 -0.025655345435813427 0.0028552877714481681 0 -0.025601163875551683 0.0027084673548858672 0 -0.025706522399001466 0.0028220982428252073 0 -0.025655345435813427 0.0028552877714481681 0 -0.025706522399001466 0.0028220982428252073 0 -0.025498509505391204 0.0028838173695715915 0 -0.02536768200234793 0.0029762281341568922 0 -0.025498509505391204 0.0028838173695715915 0 -0.025127880049019474 0.0029389183280848501 0 -0.025498509505391204 0.0028838173695715915 0 -0.025127880049019474 0.0029389183280848501 0 -0.025332327809014964 0.0028690506402063542 0 -0.025498509505391204 0.0028838173695715915 0 -0.025647654281160989 0.0029057538643076611 0 -0.025332327809014964 0.0028690506402063542 0 -0.025706522399001466 0.0028220982428252073 0 -0.025498509505391204 0.0028838173695715915 0 -0.025647654281160989 0.0029057538643076611 0 -0.024737656718991832 0.0028446010207915351 0 -0.025127880049019474 0.0029389183280848501 0 -0.025332327809014964 0.0028690506402063542 0 -0.024718720803628639 0.0030624597654991012 0 -0.024737656718991832 0.0028446010207915351 0 -0.025127880049019474 0.0029389183280848501 0 -0.024737656718991832 0.0028446010207915351 0 -0.025216363585350766 0.0027619292839027375 0 -0.025332327809014964 0.0028690506402063542 0 -0.025216363585350766 0.0027619292839027375 0 -0.025332327809014964 0.0028690506402063542 0 -0.025709276869504413 0.0029757595414237645 0 -0.025647654281160989 0.0029057538643076611 0 -0.025332327809014964 0.0028690506402063542 0 -0.025709276869504413 0.0029757595414237645 0 -0.025216363585350766 0.0027619292839027375 0 -0.025709276869504413 0.0029757595414237645 0 -0.025522988581958443 0.002774052842446494 0 -0.024651521822183609 0.002727147914572924 0 -0.025216363585350766 0.0027619292839027375 0 -0.025077431456008561 0.0025716371159424144 0 -0.025216363585350766 0.0027619292839027375 0 -0.025295166180067833 0.0026719861208157219 0 -0.025077431456008561 0.0025716371159424144 0 -0.025216363585350766 0.0027619292839027375 0 -0.025522988581958443 0.002774052842446494 0 -0.025295166180067833 0.0026719861208157219 0 -0.025071845216038779 0.0023260920504536669 0 -0.025077431456008561 0.0025716371159424144 0 -0.025352994029974707 0.0026010473150843267 0 -0.025295166180067833 0.0026719861208157219 0 -0.025077431456008561 0.0025716371159424144 0 -0.025352994029974707 0.0026010473150843267 0 -0.025522988581958443 0.002774052842446494 0 -0.025295166180067833 0.0026719861208157219 0 -0.025352994029974707 0.0026010473150843267 0 -0.025071845216038779 0.0023260920504536669 0 -0.025352994029974707 0.0026010473150843267 0 -0.025256249313555735 0.0026898656507617245 0 -0.025522988581958443 0.002774052842446494 0 -0.025514359411095981 0.0026713738439568314 0 -0.025332713871188187 0.0023309113925487029 0 -0.025522988581958443 0.002774052842446494 0 -0.025352994029974707 0.0026010473150843267 0 -0.025514359411095981 0.0026713738439568314 0 -0.025352994029974707 0.0026010473150843267 0 -0.025514359411095981 0.0026713738439568314 0 -0.025575592250298752 0.0030319445455718303 0 -0.025522988581958443 0.002774052842446494 0 -0.026634653172464294 0.0033787031568754933 0 -0.025332713871188187 0.0023309113925487029 0 -0.026634653172464294 0.0033787031568754933 0 -0.025595829143535687 0.0055928056564850254 0 -0.029414567988089023 0.0075674648075178168 0 -0.026748445850215567 0.0035413847237742717 0 -0.027313046571045291 0.0050799301574386956 0 -0.025709276869504413 0.0029757595414237645 0 -0.025522988581958443 0.002774052842446494 0 -0.026634653172464294 0.0033787031568754933 0 -0.026022705050608261 0.0029688207618761087 0 -0.025709276869504413 0.0029757595414237645 0 -0.026634653172464294 0.0033787031568754933 0 -0.026634653172464294 0.0033787031568754933 0 -0.025902724741409734 0.0031954933716523636 0 -0.025595829143535687 0.0055928056564850254 0 -0.025225357992395614 0.0034802993207383955 0 -0.025902724741409734 0.0031954933716523636 0 -0.025595829143535687 0.0055928056564850254 0 -0.025225357992395614 0.0034802993207383955 0 -0.025485427942325944 0.0029977372238398073 0 -0.025902724741409734 0.0031954933716523636 0 -0.026022705050608261 0.0029688207618761087 0 -0.026634653172464294 0.0033787031568754933 0 -0.025902724741409734 0.0031954933716523636 0 -0.027008423968558001 0.0084247735851241696 0 -0.026800787614140297 0.010674611445735447 0 -0.025062906868772817 0.0078141752831940772 0 -0.025595829143535687 0.0055928056564850254 0 -0.027008423968558001 0.0084247735851241696 0 -0.025062906868772817 0.0078141752831940772 0 -0.025595829143535687 0.0055928056564850254 0 -0.027008423968558001 0.0084247735851241696 0 -0.029414567988089023 0.0075674648075178168 0 -0.027008423968558001 0.0084247735851241696 0 -0.026800787614140297 0.010674611445735447 0 -0.028591847493974414 0.010198942672991035 0 -0.026800787614140297 0.010674611445735447 0 -0.02905642873681441 0.012326148714974712 0 -0.028068584518533675 0.013356708680371502 0 -0.026800787614140297 0.010674611445735447 0 -0.02905642873681441 0.012326148714974712 0 -0.028591847493974414 0.010198942672991035 0 -0.02905642873681441 0.012326148714974712 0 -0.028591847493974414 0.010198942672991035 0 -0.030516808538005334 0.011923030753497297 0 -0.028591847493974414 0.010198942672991035 0 -0.029414567988089023 0.0075674648075178168 0 -0.030516808538005334 0.011923030753497297 0 -0.027008423968558001 0.0084247735851241696 0 -0.028591847493974414 0.010198942672991035 0 -0.029414567988089023 0.0075674648075178168 0 -0.027313046571045291 0.0050799301574386956 0 -0.028109268820526851 0.0088795344812552142 0 -0.025332713871188187 0.0023309113925487029 0 -0.025929683514767102 0.003809922083684073 0 -0.025492239383531973 0.0058316955710887497 0 -0.025514359411095981 0.0026713738439568314 0 -0.025332713871188187 0.0023309113925487029 0 -0.025647786430323668 0.0029441332292700069 0 -0.025514359411095981 0.0026713738439568314 0 -0.025647786430323668 0.0029441332292700069 0 -0.025575592250298752 0.0030319445455718303 0 -0.025575592250298752 0.0030319445455718303 0 -0.025502251420751104 0.0035346617648762298 0 -0.025929683514767102 0.003809922083684073 0 -0.025647786430323668 0.0029441332292700069 0 -0.025575592250298752 0.0030319445455718303 0 -0.025929683514767102 0.003809922083684073 0 -0.025332713871188187 0.0023309113925487029 0 -0.025647786430323668 0.0029441332292700069 0 -0.025929683514767102 0.003809922083684073 0 -0.025256249313555735 0.0026898656507617245 0 -0.025575592250298752 0.0030319445455718303 0 -0.025401494692152651 0.0031859661891878704 0 -0.025352994029974707 0.0026010473150843267 0 -0.025256249313555735 0.0026898656507617245 0 -0.025575592250298752 0.0030319445455718303 0 -0.025575592250298752 0.0030319445455718303 0 -0.025401494692152651 0.0031859661891878704 0 -0.025502251420751104 0.0035346617648762298 0 -0.025502251420751104 0.0035346617648762298 0 -0.025929683514767102 0.003809922083684073 0 -0.025371918616601947 0.003842105676349837 0 -0.025401494692152651 0.0031859661891878704 0 -0.025502251420751104 0.0035346617648762298 0 -0.025420100027305187 0.0035153934196560949 0 -0.025502251420751104 0.0035346617648762298 0 -0.025371918616601947 0.003842105676349837 0 -0.025420100027305187 0.0035153934196560949 0 -0.025929683514767102 0.003809922083684073 0 -0.025492239383531973 0.0058316955710887497 0 -0.031708482671344372 0.0087631000051639936 0 -0.026026712705502723 0.0039165882764685108 0 -0.02900799306331504 0.0064425804218265683 0 -0.028109268820526851 0.0088795344812552142 0 -0.029646429854830333 0.013142610614305248 0 -0.029789677641262891 0.013047696912419429 0 -0.029848523534911395 0.01357111893393928 0 -0.029222211664386422 0.014021753535776678 0 -0.025492239383531973 0.0058316955710887497 0 -0.031708482671344372 0.0087631000051639936 0 -0.029848523534911395 0.01357111893393928 0 -0.030516808538005334 0.011923030753497297 0 -0.029789677641262891 0.013047696912419429 0 -0.029848523534911395 0.01357111893393928 0 -0.031708482671344372 0.0087631000051639936 0 -0.031985255886714289 0.013043756721265806 0 -0.029848523534911395 0.01357111893393928 0 -0.031708482671344372 0.0087631000051639936 0 -0.031985255886714289 0.013043756721265806 0 -0.034641249506500868 0.01314984796251187 0 -0.031985255886714289 0.013043756721265806 0 -0.029848523534911395 0.01357111893393928 0 -0.031816782938441167 0.015641986441310936 0 -0.031985255886714289 0.013043756721265806 0 -0.034641249506500868 0.01314984796251187 0 -0.031816782938441167 0.015641986441310936 0 -0.029848523534911395 0.01357111893393928 0 -0.03020552246732033 0.015261341277208093 0 -0.031816782938441167 0.015641986441310936 0 -0.029848523534911395 0.01357111893393928 0 -0.029222211664386422 0.014021753535776678 0 -0.029244521914791592 0.015325498718020471 0 -0.029848523534911395 0.01357111893393928 0 -0.029244521914791592 0.015325498718020471 0 -0.03020552246732033 0.015261341277208093 0 -0.028354055858212775 0.015894758355802702 0 -0.029222211664386422 0.014021753535776678 0 -0.029244521914791592 0.015325498718020471 0 -0.026800787614140297 0.010674611445735447 0 -0.028068584518533675 0.013356708680371502 0 -0.025852791164318698 0.0127885956962443 0 -0.028354055858212775 0.015894758355802702 0 -0.028068584518533675 0.013356708680371502 0 -0.025852791164318698 0.0127885956962443 0 -0.028354055858212775 0.015894758355802702 0 -0.028068584518533675 0.013356708680371502 0 -0.029222211664386422 0.014021753535776678 0 -0.02905642873681441 0.012326148714974712 0 -0.028068584518533675 0.013356708680371502 0 -0.029222211664386422 0.014021753535776678 0 -0.02905642873681441 0.012326148714974712 0 -0.029789677641262891 0.013047696912419429 0 -0.029222211664386422 0.014021753535776678 0 -0.02905642873681441 0.012326148714974712 0 -0.030516808538005334 0.011923030753497297 0 -0.029789677641262891 0.013047696912419429 0 -0.021404124476656086 -3.5092571212045988e-05 0 -0.021608234010469792 -0.0004176588774968908 0 -0.021351534019055124 0.00034359146637271966 0 -0.021504666794646486 0.00024200642476454565 0 -0.021404124476656086 -3.5092571212045988e-05 0 -0.021351534019055124 0.00034359146637271966 0 -0.024021128203422556 0.0014631062984186123 0 -0.024806089540736997 0.0020296727356633915 0 -0.021404124476656086 -3.5092571212045988e-05 0 -0.02146142650640159 0.00016333520066591281 0 -0.021608234010469792 -0.0004176588774968908 0 -0.021349948442806143 0.00023262055042745668 0 -0.021404124476656086 -3.5092571212045988e-05 0 -0.02146142650640159 0.00016333520066591281 0 -0.018321907793661114 0.003628062278000669 0 -0.021620152065375826 -0.0012649863295536073 0 -0.02226678128391292 0.00071116759896806749 0 -0.021716784874983418 0.00040349311118092703 0 -0.021608234010469792 -0.0004176588774968908 0 -0.021716784874983418 0.00040349311118092703 0 -0.02146142650640159 0.00016333520066591281 0 -0.021608234010469792 -0.0004176588774968908 0 -0.026553979381648159 0.0031841787015804918 0 -0.026501781669553526 0.0040689566106658845 0 -0.027228229419338171 0.0041048673990188907 0 -0.026553979381648159 0.0031841787015804918 0 -0.026060520653649437 0.0036207534445158564 0 -0.026501781669553526 0.0040689566106658845 0 -0.026553979381648159 0.0031841787015804918 0 -0.026060520653649437 0.0036207534445158564 0 -0.025336270666018158 0.0028650404337641137 0 -0.026060520653649437 0.0036207534445158564 0 -0.026105508988307387 0.0041326060373697189 0 -0.026501781669553526 0.0040689566106658845 0 -0.026060520653649437 0.0036207534445158564 0 -0.025648494576060679 0.0036059098676077903 0 -0.026105508988307387 0.0041326060373697189 0 -0.026060520653649437 0.0036207534445158564 0 -0.025336270666018158 0.0028650404337641137 0 -0.025648494576060679 0.0036059098676077903 0 -0.024674891671749025 0.0018024224739139616 0 -0.026553979381648159 0.0031841787015804918 0 -0.025336270666018158 0.0028650404337641137 0 -0.024674891671749025 0.0018024224739139616 0 -0.023649177490982248 0.0011877047379985559 0 -0.021608234010469792 -0.0004176588774968908 0 -0.024692898951087727 0.0017998736105646472 0 -0.024021128203422556 0.0014631062984186123 0 -0.023649177490982248 0.0011877047379985559 0 -0.02226678128391292 0.00071116759896806749 0 -0.021608234010469792 -0.0004176588774968908 0 -0.024674891671749025 0.0018024224739139616 0 -0.025336270666018158 0.0028650404337641137 0 -0.025055774603029331 0.0024457955982375933 0 -0.025336270666018158 0.0028650404337641137 0 -0.025306983616094559 0.0030348703206118021 0 -0.025648494576060679 0.0036059098676077903 0 -0.025336270666018158 0.0028650404337641137 0 -0.025055774603029331 0.0024457955982375933 0 -0.025306983616094559 0.0030348703206118021 0 -0.025256249313555735 0.0026898656507617245 0 -0.025055774603029331 0.0024457955982375933 0 -0.025306983616094559 0.0030348703206118021 0 -0.025256249313555735 0.0026898656507617245 0 -0.025401494692152651 0.0031859661891878704 0 -0.025306983616094559 0.0030348703206118021 0 -0.025306983616094559 0.0030348703206118021 0 -0.025420100027305187 0.0035153934196560949 0 -0.025648494576060679 0.0036059098676077903 0 -0.025401494692152651 0.0031859661891878704 0 -0.025306983616094559 0.0030348703206118021 0 -0.025420100027305187 0.0035153934196560949 0 -0.025420100027305187 0.0035153934196560949 0 -0.025648494576060679 0.0036059098676077903 0 -0.025658606246016676 0.0040971643985725217 0 -0.025371918616601947 0.003842105676349837 0 -0.025658606246016676 0.0040971643985725217 0 -0.025784084483186635 0.0048814627523431648 0 -0.02900799306331504 0.0064425804218265683 0 -0.026194913413198004 0.009851378466242575 0 -0.025371918616601947 0.003842105676349837 0 -0.025420100027305187 0.0035153934196560949 0 -0.025658606246016676 0.0040971643985725217 0 -0.025648494576060679 0.0036059098676077903 0 -0.025658606246016676 0.0040971643985725217 0 -0.025859621748935181 0.004206618257679799 0 -0.025658606246016676 0.0040971643985725217 0 -0.025784084483186635 0.0048814627523431648 0 -0.025824892096793593 0.0046569904647370377 0 -0.025658606246016676 0.0040971643985725217 0 -0.025824892096793593 0.0046569904647370377 0 -0.025859621748935181 0.004206618257679799 0 -0.025731914474719227 0.0047569102210400669 0 -0.025824892096793593 0.0046569904647370377 0 -0.026114682050591836 0.0047389750683704598 0 -0.026194913413198004 0.009851378466242575 0 -0.025405415892757424 0.016516151740786775 0 -0.026194913413198004 0.009851378466242575 0 -0.027011813232210097 0.0078534857922925947 0 -0.025731914474719227 0.0047569102210400669 0 -0.026114682050591836 0.0047389750683704598 0 -0.02614846037112031 0.0052781501177088623 0 -0.025824892096793593 0.0046569904647370377 0 -0.026114682050591836 0.0047389750683704598 0 -0.026054725949981223 0.0044512358926539035 0 -0.026194913413198004 0.009851378466242575 0 -0.023594951360745107 0.010856227495629461 0 -0.026054725949981223 0.0044512358926539035 0 -0.026105508988307387 0.0041326060373697189 0 -0.026278663736883121 0.0044350643361672232 0 -0.026114682050591836 0.0047389750683704598 0 -0.026054725949981223 0.0044512358926539035 0 -0.026278663736883121 0.0044350643361672232 0 -0.026054725949981223 0.0044512358926539035 0 -0.025859621748935181 0.004206618257679799 0 -0.026105508988307387 0.0041326060373697189 0 -0.025824892096793593 0.0046569904647370377 0 -0.026054725949981223 0.0044512358926539035 0 -0.025859621748935181 0.004206618257679799 0 -0.025648494576060679 0.0036059098676077903 0 -0.025859621748935181 0.004206618257679799 0 -0.026105508988307387 0.0041326060373697189 0 -0.026105508988307387 0.0041326060373697189 0 -0.026501781669553526 0.0040689566106658845 0 -0.026278663736883121 0.0044350643361672232 0 -0.026501781669553526 0.0040689566106658845 0 -0.026278663736883121 0.0044350643361672232 0 -0.026621936370419343 0.0047176827382505986 0 -0.026114682050591836 0.0047389750683704598 0 -0.026621936370419343 0.0047176827382505986 0 -0.02614846037112031 0.0052781501177088623 0 -0.027657506340919801 0.0027074219809147251 0 -0.023594951360745107 0.010856227495629461 0 -0.026114682050591836 0.0047389750683704598 0 -0.026278663736883121 0.0044350643361672232 0 -0.026621936370419343 0.0047176827382505986 0 -0.026621936370419343 0.0047176827382505986 0 -0.026273453588525675 0.0060067155778539055 0 -0.025112324888505958 0.006314756344452721 0 -0.026621936370419343 0.0047176827382505986 0 -0.027185169558006414 0.0055414482806322354 0 -0.027192795232292847 0.0048383555301382223 0 -0.026621936370419343 0.0047176827382505986 0 -0.027185169558006414 0.0055414482806322354 0 -0.026273453588525675 0.0060067155778539055 0 -0.0276193582325274 0.0050561220941984699 0 -0.027185169558006414 0.0055414482806322354 0 -0.027192795232292847 0.0048383555301382223 0 -0.026501781669553526 0.0040689566106658845 0 -0.026621936370419343 0.0047176827382505986 0 -0.027228229419338171 0.0041048673990188907 0 -0.0276193582325274 0.0050561220941984699 0 -0.027192795232292847 0.0048383555301382223 0 -0.027228229419338171 0.0041048673990188907 0 -0.026621936370419343 0.0047176827382505986 0 -0.027192795232292847 0.0048383555301382223 0 -0.027228229419338171 0.0041048673990188907 0 -0.01979818963068319 0.016828758991855958 0 -0.012578725399007265 0.024876432694480064 0 -0.02034408750821725 0.017624187363384357 0 -0.018158923465838955 0.01753704655277449 0 -0.018251199013712388 0.019987259174265321 0 -0.01979818963068319 0.016828758991855958 0 -0.023619664360538833 0.011998913722154069 0 -0.027185169558006414 0.0055414482806322354 0 -0.026772453378680103 0.0067237779913351895 0 -0.026273453588525675 0.0060067155778539055 0 -0.027825155393474306 0.0067462744683510628 0 -0.027590921851113292 0.0061532145963904212 0 -0.026772453378680103 0.0067237779913351895 0 -0.027590921851113292 0.0061532145963904212 0 -0.027185169558006414 0.0055414482806322354 0 -0.026772453378680103 0.0067237779913351895 0 -0.026772453378680103 0.0067237779913351895 0 -0.026273453588525675 0.0060067155778539055 0 -0.025529929586131459 0.0067547217383603329 0 -0.023619664360538833 0.011998913722154069 0 -0.018149519501927818 0.015397933669603053 0 -0.026273453588525675 0.0060067155778539055 0 -0.025529929586131459 0.0067547217383603329 0 -0.025112324888505958 0.006314756344452721 0 -0.018149519501927818 0.015397933669603053 0 -0.012578725399007265 0.024876432694480064 0 -0.018158923465838955 0.01753704655277449 0 -0.015983971825997891 0.017439121787967842 0 -0.018251199013712388 0.019987259174265321 0 -0.011025429457900034 0.021259078135995011 0 -0.010145596081587558 0.023670565070266391 0 -0.013748795408098369 0.024296983564764483 0 -0.0095619221617383419 0.021197760420716492 0 -0.0076412059943649748 0.023563307140383554 0 -0.010145596081587558 0.023670565070266391 0 -0.011025429457900034 0.021259078135995011 0 -0.0095619221617383419 0.021197760420716492 0 -0.010145596081587558 0.023670565070266391 0 -0.018149519501927818 0.015397933669603053 0 -0.023594951360745107 0.010856227495629461 0 -0.021463507164076554 0.014207491708586224 0 -0.024433166713332087 0.017464969152143427 0 -0.021880825324960596 0.017121923053045274 0 -0.018149519501927818 0.015397933669603053 0 -0.018611084683712188 0.018424973407050349 0 -0.020153504123923111 0.015476810178689767 0 -0.020456753861893894 0.015792795486460814 0 -0.020691228369160181 0.015509132653315234 0 -0.023594951360745107 0.010856227495629461 0 -0.018611084683712188 0.018424973407050349 0 -0.024433166713332087 0.017464969152143427 0 -0.023655623116527975 0.018430400592243341 0 -0.021880825324960596 0.017121923053045274 0 -0.021463507164076554 0.014207491708586224 0 -0.021880825324960596 0.017121923053045274 0 -0.020318436402370042 0.017167160194170802 0 -0.018611084683712188 0.018424973407050349 0 -0.021711463656615221 0.018400106004174591 0 -0.023655623116527975 0.018430400592243341 0 -0.021880825324960596 0.017121923053045274 0 -0.019521081803474394 0.018336909959913619 0 -0.021463507164076554 0.014207491708586224 0 -0.020318436402370042 0.017167160194170802 0 -0.019037051671944132 0.016701384520289235 0 -0.021880825324960596 0.017121923053045274 0 -0.020318436402370042 0.017167160194170802 0 -0.019521081803474394 0.018336909959913619 0 -0.018611084683712188 0.018424973407050349 0 -0.014048907481315544 0.02268046364247104 0 -0.023132112514041767 0.018558122757015599 0 -0.021199709238640237 0.021015268226626593 0 -0.019521081803474394 0.018336909959913619 0 -0.0076412059943649748 0.023563307140383554 0 -0.0086969163643834495 0.026243644380562727 0 -0.0057979077691814153 0.025930568646455283 0 -0.014048907481315544 0.02268046364247104 0 -0.012567777642338114 0.024506429106279381 0 -0.006739064938345622 0.028550535150699323 0 -0.0086969163643834495 0.026243644380562727 0 -0.0057979077691814153 0.025930568646455283 0 -0.006739064938345622 0.028550535150699323 0 -0.0093965072419256723 0.028950867348845926 0 -0.0086969163643834495 0.026243644380562727 0 -0.0086947016121782517 0.029198491407697567 0 -0.010252420399696288 0.027422808448539011 0 -0.0093965072419256723 0.028950867348845926 0 -0.0086969163643834495 0.026243644380562727 0 -0.011615783691892404 0.02665887631274385 0 -0.0086969163643834495 0.026243644380562727 0 -0.010145596081587558 0.023670565070266391 0 -0.011615783691892404 0.02665887631274385 0 -0.0076412059943649748 0.023563307140383554 0 -0.0086969163643834495 0.026243644380562727 0 -0.010145596081587558 0.023670565070266391 0 -0.010252420399696288 0.027422808448539011 0 -0.012578725399007265 0.024876432694480064 0 -0.010145596081587558 0.023670565070266391 0 -0.011615783691892404 0.02665887631274385 0 -0.013748795408098369 0.024296983564764483 0 -0.0091375118099133925 0.029442846370849249 0 -0.0090947546875336308 0.027956727894915868 0 -0.010117862572055653 0.028520593957087066 0 -0.0090947546875336308 0.027956727894915868 0 -0.010117862572055653 0.028520593957087066 0 -0.010248957367356971 0.026604255771452697 0 -0.010117862572055653 0.028520593957087066 0 -0.010910748592110968 0.028134341582191216 0 -0.010248957367356971 0.026604255771452697 0 -0.011661542861991236 0.027939097170185077 0 -0.010910748592110968 0.028134341582191216 0 -0.010248957367356971 0.026604255771452697 0 -0.010946682045540043 0.029260523751636205 0 -0.010117862572055653 0.028520593957087066 0 -0.010910748592110968 0.028134341582191216 0 -0.010822880805814101 0.028045542305287368 0 -0.012578725399007265 0.024876432694480064 0 -0.032705727196073571 0.026706686163723698 0 -0.033324552546997691 0.023476652269105943 0 -0.03504921126023882 0.027974324108780122 0 -0.031728589147355067 0.019962901268692029 0 -0.024578946491231657 0.024393304622710003 0 -0.02931932418472381 0.01665129163615519 0 -0.028568388358184392 0.016267279378577075 0 -0.029250913095764792 0.018166503484012071 0 -0.032705727196073571 0.026706686163723698 0 -0.030488268413469664 0.026285451431049798 0 -0.030671196361855075 0.028251618249004708 0 -0.032705727196073571 0.026706686163723698 0 -0.030488268413469664 0.026285451431049798 0 -0.033324552546997691 0.023476652269105943 0 -0.028371585507648841 0.016045983939595183 0 -0.031728589147355067 0.019962901268692029 0 -0.028354055858212775 0.015894758355802702 0 -0.029300613792357866 0.022395690871914824 0 -0.033324552546997691 0.023476652269105943 0 -0.030488268413469664 0.026285451431049798 0 -0.029300613792357866 0.022395690871914824 0 -0.033324552546997691 0.023476652269105943 0 -0.028354055858212775 0.015894758355802702 0 -0.028568388358184392 0.016267279378577075 0 -0.029244521914791592 0.015325498718020471 0 -0.02931932418472381 0.01665129163615519 0 -0.028568388358184392 0.016267279378577075 0 -0.029244521914791592 0.015325498718020471 0 -0.02931932418472381 0.01665129163615519 0 -0.029244521914791592 0.015325498718020471 0 -0.030247012239962241 0.016887841627261944 0 -0.029244521914791592 0.015325498718020471 0 -0.03020552246732033 0.015261341277208093 0 -0.030247012239962241 0.016887841627261944 0 -0.03020552246732033 0.015261341277208093 0 -0.031816782938441167 0.015641986441310936 0 -0.030247012239962241 0.016887841627261944 0 -0.019037051671944132 0.016701384520289235 0 -0.019521081803474394 0.018336909959913619 0 -0.016798868371946628 0.019086071456497117 0 -0.025405415892757424 0.016516151740786775 0 -0.023577557125732319 0.01756996429487704 0 -0.020318436402370042 0.017167160194170802 0 -0.019037051671944132 0.016701384520289235 0 -0.019521081803474394 0.018336909959913619 0 -0.019521081803474394 0.018336909959913619 0 -0.018683985170859035 0.020744545349693392 0 -0.016798868371946628 0.019086071456497117 0 -0.021199709238640237 0.021015268226626593 0 -0.019521081803474394 0.018336909959913619 0 -0.018683985170859035 0.020744545349693392 0 -0.02931932418472381 0.01665129163615519 0 -0.030247012239962241 0.016887841627261944 0 -0.029250913095764792 0.018166503484012071 0 -0.016798868371946628 0.019086071456497117 0 -0.016868189393897243 0.0216959576036059 0 -0.014627205136820143 0.021348516565639807 0 -0.018683985170859035 0.020744545349693392 0 -0.016798868371946628 0.019086071456497117 0 -0.016868189393897243 0.0216959576036059 0 -0.023577557125732319 0.01756996429487704 0 -0.024578946491231657 0.024393304622710003 0 -0.016868189393897243 0.0216959576036059 0 -0.019176880334884759 0.023570000549077614 0 -0.015870359521610807 0.023716289284022612 0 -0.016868189393897243 0.0216959576036059 0 -0.015870359521610807 0.023716289284022612 0 -0.014627205136820143 0.021348516565639807 0 -0.017931582458340947 0.026781212555457526 0 -0.024578946491231657 0.024393304622710003 0 -0.021199709238640237 0.021015268226626593 0 -0.018683985170859035 0.020744545349693392 0 -0.019176880334884759 0.023570000549077614 0 -0.018683985170859035 0.020744545349693392 0 -0.016868189393897243 0.0216959576036059 0 -0.019176880334884759 0.023570000549077614 0 -0.0041221941409592278 0.028184884146422375 0 -0.006739064938345622 0.028550535150699323 0 -0.0057979077691814153 0.025930568646455283 0 -0.011436005074620505 0.028662327978828329 0 -0.012567777642338114 0.024506429106279381 0 -0.019581748248586984 0.030331619649370589 0 -0.020193981231903139 0.03032893837921221 0 -0.019951086460713325 0.02976271263679043 0 -0.017128598993505082 0.026104378551394795 0 -0.019176880334884759 0.023570000549077614 0 -0.015870359521610807 0.023716289284022612 0 -0.011436005074620505 0.028662327978828329 0 -0.017931582458340947 0.026781212555457526 0 -0.019581748248586984 0.030331619649370589 0 -0.019023227789728536 0.030468254354030354 0 -0.019129761393498975 0.02978399724190851 0 -0.019581748248586984 0.030331619649370589 0 -0.019951086460713325 0.02976271263679043 0 -0.019129761393498975 0.02978399724190851 0 -0.024578946491231657 0.024393304622710003 0 -0.029458447741146549 0.031659552589150111 0 -0.032705727196073571 0.026706686163723698 0 -0.03504921126023882 0.027974324108780122 0 -0.03213144068110093 0.030867874666762982 0 -0.019951086460713325 0.02976271263679043 0 -0.019697380961853406 0.02917547783366798 0 -0.019129761393498975 0.02978399724190851 0 -0.032705727196073571 0.026706686163723698 0 -0.030671196361855075 0.028251618249004708 0 -0.032156494776417577 0.029805639468394839 0 -0.033131495468170812 0.026344296755870512 0 -0.029458447741146549 0.031659552589150111 0 -0.030671196361855075 0.028251618249004708 0 -0.032156494776417577 0.029805639468394839 0 -0.030808814616932953 0.029825456405565446 0 -0.025373227728162293 0.03294945418381142 0 -0.029458447741146549 0.031659552589150111 0 -0.030963623214280398 0.031293060325498986 0 -0.032156494776417577 0.029805639468394839 0 -0.030808814616932953 0.029825456405565446 0 -0.031585127756424879 0.033336942438653726 0 -0.029458447741146549 0.031659552589150111 0 -0.031839608390198386 0.035374159923699973 0 -0.031397130818723466 0.035382193421507724 0 -0.031881012173762914 0.03476897286578931 0 -0.030963623214280398 0.031293060325498986 0 -0.03016345517154673 0.030199941180148543 0 -0.030808814616932953 0.029825456405565446 0 -0.030963623214280398 0.031293060325498986 0 -0.030027545484735553 0.031404709772391445 0 -0.03016345517154673 0.030199941180148543 0 -0.03016345517154673 0.030199941180148543 0 -0.030808814616932953 0.029825456405565446 0 -0.030150030858882546 0.029121273036462898 0 -0.030027545484735553 0.031404709772391445 0 -0.03016345517154673 0.030199941180148543 0 -0.029226242832764447 0.029439567109719497 0 -0.029226242832764447 0.029439567109719497 0 -0.029188261722992995 0.028107323489021643 0 -0.028846243677946262 0.027751638587835404 0 -0.03016345517154673 0.030199941180148543 0 -0.029226242832764447 0.029439567109719497 0 -0.029672047685487063 0.02907459313518863 0 -0.029226242832764447 0.029439567109719497 0 -0.029672047685487063 0.02907459313518863 0 -0.029188261722992995 0.028107323489021643 0 -0.030671196361855075 0.028251618249004708 0 -0.030808814616932953 0.029825456405565446 0 -0.030150030858882546 0.029121273036462898 0 -0.029672047685487063 0.02907459313518863 0 -0.030150030858882546 0.029121273036462898 0 -0.029629941980270257 0.028108134893685719 0 -0.03016345517154673 0.030199941180148543 0 -0.029672047685487063 0.02907459313518863 0 -0.030150030858882546 0.029121273036462898 0 -0.029672047685487063 0.02907459313518863 0 -0.029188261722992995 0.028107323489021643 0 -0.029629941980270257 0.028108134893685719 0 -0.029188261722992995 0.028107323489021643 0 -0.029629941980270257 0.028108134893685719 0 -0.029067249342745242 0.027305904632570838 0 -0.030671196361855075 0.028251618249004708 0 -0.029629941980270257 0.028108134893685719 0 -0.029234805703596215 0.02691677915584547 0 -0.030671196361855075 0.028251618249004708 0 -0.030150030858882546 0.029121273036462898 0 -0.029629941980270257 0.028108134893685719 0 -0.030488268413469664 0.026285451431049798 0 -0.030671196361855075 0.028251618249004708 0 -0.029234805703596215 0.02691677915584547 0 -0.030488268413469664 0.026285451431049798 0 -0.029234805703596215 0.02691677915584547 0 -0.028064661085361202 0.025366741796474298 0 -0.029234805703596215 0.02691677915584547 0 -0.028064661085361202 0.025366741796474298 0 -0.028572233100623293 0.026284047979969694 0 -0.029629941980270257 0.028108134893685719 0 -0.029234805703596215 0.02691677915584547 0 -0.029067249342745242 0.027305904632570838 0 -0.029234805703596215 0.02691677915584547 0 -0.028572233100623293 0.026284047979969694 0 -0.029067249342745242 0.027305904632570838 0 -0.029188261722992995 0.028107323489021643 0 -0.028846243677946262 0.027751638587835404 0 -0.0288458441504802 0.027073963627569694 0 -0.029188261722992995 0.028107323489021643 0 -0.029067249342745242 0.027305904632570838 0 -0.0288458441504802 0.027073963627569694 0 -0.028846243677946262 0.027751638587835404 0 -0.0288458441504802 0.027073963627569694 0 -0.028833013148809442 0.026733826167858986 0 -0.028572233100623293 0.026284047979969694 0 -0.029067249342745242 0.027305904632570838 0 -0.0288458441504802 0.027073963627569694 0 -0.0288458441504802 0.027073963627569694 0 -0.028792965954774343 0.026655554906141819 0 -0.028833013148809442 0.026733826167858986 0 -0.028572233100623293 0.026284047979969694 0 -0.0288458441504802 0.027073963627569694 0 -0.028792965954774343 0.026655554906141819 0 -0.028572233100623293 0.026284047979969694 0 -0.028792965954774343 0.026655554906141819 0 -0.028881197044476017 0.027082605116400031 0 -0.031404508251847603 0.024847176986333 0 -0.03031226212174206 0.023250969046463309 0 -0.028792965954774343 0.026655554906141819 0 -0.028833013148809442 0.026733826167858986 0 -0.028881197044476017 0.027082605116400031 0 -0.035815159970170145 0.025072156634832261 0 -0.035907405156809784 0.024333889348269511 0 -0.034162015762244848 0.024464385907760098 0 -0.028064661085361202 0.025366741796474298 0 -0.028572233100623293 0.026284047979969694 0 -0.028881197044476017 0.027082605116400031 0 -0.026555695603703564 0.024978188782440059 0 -0.03031226212174206 0.023250969046463309 0 -0.028064661085361202 0.025366741796474298 0 -0.021648995520887535 0.022495367718924405 0 -0.025953431374053187 0.019563891368205667 0 -0.029300613792357866 0.022395690871914824 0 -0.028064661085361202 0.025366741796474298 0 -0.025953431374053187 0.019563891368205667 0 -0.030488268413469664 0.026285451431049798 0 -0.029300613792357866 0.022395690871914824 0 -0.028064661085361202 0.025366741796474298 0 -0.032318406098636704 0.02493871641070463 0 -0.032983306251638859 0.023114620534014946 0 -0.029994518844783963 0.023673566734712919 0 -0.032318406098636704 0.02493871641070463 0 -0.030404959388298972 0.025273501204984245 0 -0.029994518844783963 0.023673566734712919 0 -0.035907405156809784 0.024333889348269511 0 -0.032983306251638859 0.023114620534014946 0 -0.034162015762244848 0.024464385907760098 0 -0.033392412456557913 0.021848526563310763 0 -0.031359909937567709 0.021022162218092673 0 -0.032750074155244099 0.020499674431182398 0 -0.03031226212174206 0.023250969046463309 0 -0.033052798525773967 0.022218400551529672 0 -0.032318406098636704 0.02493871641070463 0 -0.032983306251638859 0.023114620534014946 0 -0.034162015762244848 0.024464385907760098 0 -0.032318406098636704 0.02493871641070463 0 -0.034162015762244848 0.024464385907760098 0 -0.033077301759756164 0.027047355084615216 0 -0.035815159970170145 0.025072156634832261 0 -0.034162015762244848 0.024464385907760098 0 -0.033077301759756164 0.027047355084615216 0 -0.031404508251847603 0.024847176986333 0 -0.030858932130758462 0.027843086097110233 0 -0.028846243677946262 0.027751638587835404 0 -0.028833013148809442 0.026733826167858986 0 -0.028310630247638337 0.028495615256088239 0 -0.033077301759756164 0.027047355084615216 0 -0.030404959388298972 0.025273501204984245 0 -0.029457743220715628 0.027029585928217578 0 -0.032318406098636704 0.02493871641070463 0 -0.033077301759756164 0.027047355084615216 0 -0.030404959388298972 0.025273501204984245 0 -0.030858932130758462 0.027843086097110233 0 -0.028761551382110773 0.029566616394492321 0 -0.028310630247638337 0.028495615256088239 0 -0.02888557128478951 0.030690941501630931 0 -0.027524313735061784 0.030057384916660237 0 -0.033077301759756164 0.027047355084615216 0 -0.030095928798917877 0.029163958233371229 0 -0.029457743220715628 0.027029585928217578 0 -0.029226242832764447 0.029439567109719497 0 -0.028310630247638337 0.028495615256088239 0 -0.02888557128478951 0.030690941501630931 0 -0.029226242832764447 0.029439567109719497 0 -0.028846243677946262 0.027751638587835404 0 -0.028310630247638337 0.028495615256088239 0 -0.030027545484735553 0.031404709772391445 0 -0.029226242832764447 0.029439567109719497 0 -0.02888557128478951 0.030690941501630931 0 -0.028226244533225437 0.031637643747200732 0 -0.02888557128478951 0.030690941501630931 0 -0.027524313735061784 0.030057384916660237 0 -0.027350717277085483 0.031896560663500363 0 -0.026529417796654749 0.031128009751622984 0 -0.027524313735061784 0.030057384916660237 0 -0.027350717277085483 0.031896560663500363 0 -0.028226244533225437 0.031637643747200732 0 -0.027524313735061784 0.030057384916660237 0 -0.026703373773327405 0.031033141595841446 0 -0.028761551382110773 0.029566616394492321 0 -0.026529417796654749 0.031128009751622984 0 -0.027707998289926289 0.028204931550754909 0 -0.030095928798917877 0.029163958233371229 0 -0.026529417796654749 0.031128009751622984 0 -0.027707998289926289 0.028204931550754909 0 -0.025395692746390443 0.028968314063210775 0 -0.027707998289926289 0.028204931550754909 0 -0.025395692746390443 0.028968314063210775 0 -0.026659805702600573 0.026941609541642781 0 -0.027707998289926289 0.028204931550754909 0 -0.030095928798917877 0.029163958233371229 0 -0.029457743220715628 0.027029585928217578 0 -0.022641332156956243 0.028943029060157738 0 -0.024842014579353418 0.031976983430736475 0 -0.022431031918450594 0.028698185831582259 0 -0.023471101238031623 0.031038214194242152 0 -0.023673728100056815 0.028933721608426194 0 -0.023471101238031623 0.031038214194242152 0 -0.025395692746390443 0.028968314063210775 0 -0.023673728100056815 0.028933721608426194 0 -0.026529417796654749 0.031128009751622984 0 -0.023471101238031623 0.031038214194242152 0 -0.025395692746390443 0.028968314063210775 0 -0.025395692746390443 0.028968314063210775 0 -0.025127231381167556 0.026672110259828134 0 -0.026659805702600573 0.026941609541642781 0 -0.025395692746390443 0.028968314063210775 0 -0.024203599260815389 0.027868226824910341 0 -0.025127231381167556 0.026672110259828134 0 -0.025395692746390443 0.028968314063210775 0 -0.023673728100056815 0.028933721608426194 0 -0.024203599260815389 0.027868226824910341 0 -0.023673728100056815 0.028933721608426194 0 -0.024203599260815389 0.027868226824910341 0 -0.02326005087792974 0.027906076587676996 0 -0.022431031918450594 0.028698185831582259 0 -0.023673728100056815 0.028933721608426194 0 -0.02326005087792974 0.027906076587676996 0 -0.023731783658045815 0.026461893873184813 0 -0.023836059028527673 0.024846485354149545 0 -0.022756518236778548 0.025402169169020123 0 -0.022632149820083665 0.027176256725099941 0 -0.023731783658045815 0.026461893873184813 0 -0.022756518236778548 0.025402169169020123 0 -0.022632149820083665 0.027176256725099941 0 -0.02326005087792974 0.027906076587676996 0 -0.023731783658045815 0.026461893873184813 0 -0.024203599260815389 0.027868226824910341 0 -0.02326005087792974 0.027906076587676996 0 -0.023731783658045815 0.026461893873184813 0 -0.024203599260815389 0.027868226824910341 0 -0.023731783658045815 0.026461893873184813 0 -0.025127231381167556 0.026672110259828134 0 -0.023731783658045815 0.026461893873184813 0 -0.024896940564874973 0.025085214552244627 0 -0.023836059028527673 0.024846485354149545 0 -0.023731783658045815 0.026461893873184813 0 -0.025127231381167556 0.026672110259828134 0 -0.024896940564874973 0.025085214552244627 0 -0.025127231381167556 0.026672110259828134 0 -0.02646540887699601 0.025189182390485249 0 -0.024896940564874973 0.025085214552244627 0 -0.025127231381167556 0.026672110259828134 0 -0.02646540887699601 0.025189182390485249 0 -0.026659805702600573 0.026941609541642781 0 -0.02646540887699601 0.025189182390485249 0 -0.025772635598662663 0.023766074879978425 0 -0.024896940564874973 0.025085214552244627 0 -0.02646540887699601 0.025189182390485249 0 -0.025772635598662663 0.023766074879978425 0 -0.027476624352138729 0.023294597817123633 0 -0.025772635598662663 0.023766074879978425 0 -0.027476624352138729 0.023294597817123633 0 -0.026456270023481939 0.022065286513309489 0 -0.025772635598662663 0.023766074879978425 0 -0.024743892059398753 0.024083418936788302 0 -0.0245148492986507 0.022599464458065533 0 -0.025772635598662663 0.023766074879978425 0 -0.024743892059398753 0.024083418936788302 0 -0.024896940564874973 0.025085214552244627 0 -0.023836059028527673 0.024846485354149545 0 -0.022756518236778548 0.025402169169020123 0 -0.0245148492986507 0.022599464458065533 0 -0.025673251033267432 0.020322419399794438 0 -0.025831319771639265 0.020725547721515455 0 -0.026243640826812509 0.020113444373534187 0 -0.023285983796573255 0.023423473558174958 0 -0.025643546756966108 0.021193143260299165 0 -0.024743892059398753 0.024083418936788302 0 -0.024896940564874973 0.025085214552244627 0 -0.023836059028527673 0.024846485354149545 0 -0.024743892059398753 0.024083418936788302 0 -0.023836059028527673 0.024846485354149545 0 -0.0245148492986507 0.022599464458065533 0 -0.030404959388298972 0.025273501204984245 0 -0.029457743220715628 0.027029585928217578 0 -0.028285412671249059 0.025540484947627781 0 -0.027707998289926289 0.028204931550754909 0 -0.026659805702600573 0.026941609541642781 0 -0.028285412671249059 0.025540484947627781 0 -0.027707998289926289 0.028204931550754909 0 -0.029457743220715628 0.027029585928217578 0 -0.028285412671249059 0.025540484947627781 0 -0.02646540887699601 0.025189182390485249 0 -0.026659805702600573 0.026941609541642781 0 -0.028285412671249059 0.025540484947627781 0 -0.028285412671249059 0.025540484947627781 0 -0.027476624352138729 0.023294597817123633 0 -0.029994518844783963 0.023673566734712919 0 -0.02646540887699601 0.025189182390485249 0 -0.028285412671249059 0.025540484947627781 0 -0.027476624352138729 0.023294597817123633 0 -0.030404959388298972 0.025273501204984245 0 -0.028285412671249059 0.025540484947627781 0 -0.029994518844783963 0.023673566734712919 0 -0.029994518844783963 0.023673566734712919 0 -0.030059077835085452 0.021798702924396826 0 -0.028254034490062925 0.021772964841776914 0 -0.030059077835085452 0.021798702924396826 0 -0.028254034490062925 0.021772964841776914 0 -0.027178594379975222 0.019940191211618566 0 -0.02950042110819899 0.02095674044702317 0 -0.027350849906875831 0.020019152095808769 0 -0.029463035367369644 0.020283780564169674 0 -0.027178594379975222 0.019940191211618566 0 -0.028624881746551235 0.019476463331979575 0 -0.027476624352138729 0.023294597817123633 0 -0.029994518844783963 0.023673566734712919 0 -0.028254034490062925 0.021772964841776914 0 -0.027476624352138729 0.023294597817123633 0 -0.028254034490062925 0.021772964841776914 0 -0.027343867776219444 0.021807242462649007 0 -0.027476624352138729 0.023294597817123633 0 -0.027343867776219444 0.021807242462649007 0 -0.026456270023481939 0.022065286513309489 0 -0.027343867776219444 0.021807242462649007 0 -0.027178594379975222 0.019940191211618566 0 -0.026456270023481939 0.022065286513309489 0 -0.028254034490062925 0.021772964841776914 0 -0.027343867776219444 0.021807242462649007 0 -0.027178594379975222 0.019940191211618566 0 -0.02796228456669549 0.019265503725589595 0 -0.028767112361750464 0.018739257528762241 0 -0.028624881746551235 0.019476463331979575 0 -0.02796228456669549 0.019265503725589595 0 -0.027178594379975222 0.019940191211618566 0 -0.028624881746551235 0.019476463331979575 0 -0.02796228456669549 0.019265503725589595 0 -0.027178594379975222 0.019940191211618566 0 -0.027214592450845176 0.019326113908274364 0 -0.02796228456669549 0.019265503725589595 0 -0.027214592450845176 0.019326113908274364 0 -0.027583905924378836 0.018990959562926818 0 -0.027186762293041011 0.018944044235300796 0 -0.027583905924378836 0.018990959562926818 0 -0.027476274532884978 0.018652743596519212 0 -0.027214592450845176 0.019326113908274364 0 -0.027186762293041011 0.018944044235300796 0 -0.027583905924378836 0.018990959562926818 0 -0.027583905924378836 0.018990959562926818 0 -0.027476274532884978 0.018652743596519212 0 -0.028051182121383071 0.018651366404149803 0 -0.02796228456669549 0.019265503725589595 0 -0.027583905924378836 0.018990959562926818 0 -0.028051182121383071 0.018651366404149803 0 -0.027476274532884978 0.018652743596519212 0 -0.028051182121383071 0.018651366404149803 0 -0.027613384761381542 0.017986358820156603 0 -0.027476274532884978 0.018652743596519212 0 -0.026984252461714167 0.018604291950500545 0 -0.027613384761381542 0.017986358820156603 0 -0.028051182121383071 0.018651366404149803 0 -0.028767112361750464 0.018739257528762241 0 -0.028755550303905222 0.018015618083005322 0 -0.02796228456669549 0.019265503725589595 0 -0.028051182121383071 0.018651366404149803 0 -0.028767112361750464 0.018739257528762241 0 -0.029463035367369644 0.020283780564169674 0 -0.029466362456555602 0.018638707795265046 0 -0.028624881746551235 0.019476463331979575 0 -0.029463035367369644 0.020283780564169674 0 -0.029466362456555602 0.018638707795265046 0 -0.030563834265732597 0.019022198353594432 0 -0.028767112361750464 0.018739257528762241 0 -0.029466362456555602 0.018638707795265046 0 -0.028624881746551235 0.019476463331979575 0 -0.028767112361750464 0.018739257528762241 0 -0.029466362456555602 0.018638707795265046 0 -0.028755550303905222 0.018015618083005322 0 -0.025246617721010872 0.020471811672094671 0 -0.026117116037675012 0.01967757914096218 0 -0.025491278757007376 0.019160512419967191 0 -0.025673251033267432 0.020322419399794438 0 -0.026117116037675012 0.01967757914096218 0 -0.026243640826812509 0.020113444373534187 0 -0.034430339825316521 0.020405540193869032 0 -0.02320517698719219 0.020678749215710064 0 -0.034430339825316521 0.020405540193869032 0 -0.035418851490795954 0.018075341265351826 0 -0.027178594379975222 0.019940191211618566 0 -0.0245148492986507 0.022599464458065533 0 -0.026456270023481939 0.022065286513309489 0 -0.027214592450845176 0.019326113908274364 0 -0.026243640826812509 0.020113444373534187 0 -0.026543989752674028 0.019402667590641937 0 -0.027028849295899608 0.019502717144552581 0 -0.025643546756966108 0.021193143260299165 0 -0.027178594379975222 0.019940191211618566 0 -0.027214592450845176 0.019326113908274364 0 -0.0245148492986507 0.022599464458065533 0 -0.026117116037675012 0.01967757914096218 0 -0.026243640826812509 0.020113444373534187 0 -0.026543989752674028 0.019402667590641937 0 -0.025772635598662663 0.023766074879978425 0 -0.0245148492986507 0.022599464458065533 0 -0.026456270023481939 0.022065286513309489 0 -0.027214592450845176 0.019326113908274364 0 -0.026862051309166506 0.019048104424792118 0 -0.026543989752674028 0.019402667590641937 0 -0.026984252461714167 0.018604291950500545 0 -0.026862051309166506 0.019048104424792118 0 -0.026353796687241405 0.018676237123887923 0 -0.027214592450845176 0.019326113908274364 0 -0.027186762293041011 0.018944044235300796 0 -0.026862051309166506 0.019048104424792118 0 -0.027186762293041011 0.018944044235300796 0 -0.026984252461714167 0.018604291950500545 0 -0.026862051309166506 0.019048104424792118 0 -0.027186762293041011 0.018944044235300796 0 -0.027476274532884978 0.018652743596519212 0 -0.026984252461714167 0.018604291950500545 0 -0.026862051309166506 0.019048104424792118 0 -0.026353796687241405 0.018676237123887923 0 -0.026543989752674028 0.019402667590641937 0 -0.026353796687241405 0.018676237123887923 0 -0.026543989752674028 0.019402667590641937 0 -0.026121456680592393 0.019236935157665374 0 -0.026117116037675012 0.01967757914096218 0 -0.026543989752674028 0.019402667590641937 0 -0.026121456680592393 0.019236935157665374 0 -0.026117116037675012 0.01967757914096218 0 -0.026121456680592393 0.019236935157665374 0 -0.025491278757007376 0.019160512419967191 0 -0.026353796687241405 0.018676237123887923 0 -0.026121456680592393 0.019236935157665374 0 -0.025491278757007376 0.019160512419967191 0 -0.035418851490795954 0.018075341265351826 0 -0.03604973827601312 0.015494291613715089 0 -0.044662358269986858 0.016220286315356828 0 -0.045219969292232626 0.017265382716933182 0 -0.046356668416781578 0.014373609224637996 0 -0.026353796687241405 0.018676237123887923 0 -0.025491278757007376 0.019160512419967191 0 -0.025662309710418187 0.017091507281098126 0 -0.044518286906722403 0.01443238268950109 0 -0.044662358269986858 0.016220286315356828 0 -0.046356668416781578 0.014373609224637996 0 -0.026353796687241405 0.018676237123887923 0 -0.025662309710418187 0.017091507281098126 0 -0.026796114979862382 0.017819936893507277 0 -0.025662309710418187 0.017091507281098126 0 -0.026796114979862382 0.017819936893507277 0 -0.027823327775227277 0.016686148469131402 0 -0.026984252461714167 0.018604291950500545 0 -0.026353796687241405 0.018676237123887923 0 -0.026796114979862382 0.017819936893507277 0 -0.026984252461714167 0.018604291950500545 0 -0.026796114979862382 0.017819936893507277 0 -0.027613384761381542 0.017986358820156603 0 -0.026796114979862382 0.017819936893507277 0 -0.027613384761381542 0.017986358820156603 0 -0.027823327775227277 0.016686148469131402 0 -0.03693084809934076 0.013465674800642794 0 -0.03604973827601312 0.015494291613715089 0 -0.026420982107352654 0.013804714908987504 0 -0.025662309710418187 0.017091507281098126 0 -0.027584219577520341 0.015126955908363935 0 -0.025662309710418187 0.017091507281098126 0 -0.027823327775227277 0.016686148469131402 0 -0.027584219577520341 0.015126955908363935 0 -0.044334135692706833 0.012772059922810768 0 -0.047468036111965005 0.010966405578325535 0 -0.046356668416781578 0.014373609224637996 0 -0.044334135692706833 0.012772059922810768 0 -0.044518286906722403 0.01443238268950109 0 -0.046356668416781578 0.014373609224637996 0 -0.029466362456555602 0.018638707795265046 0 -0.029284470504235154 0.017447182040429086 0 -0.030232051218060232 0.017282653609550971 0 -0.029284470504235154 0.017447182040429086 0 -0.028755550303905222 0.018015618083005322 0 -0.028342015951069621 0.017390784169066201 0 -0.029284470504235154 0.017447182040429086 0 -0.028342015951069621 0.017390784169066201 0 -0.029106708234758718 0.01665563066779881 0 -0.029284470504235154 0.017447182040429086 0 -0.029617760033414965 0.016884895273972203 0 -0.030232051218060232 0.017282653609550971 0 -0.029466362456555602 0.018638707795265046 0 -0.029284470504235154 0.017447182040429086 0 -0.028755550303905222 0.018015618083005322 0 -0.028051182121383071 0.018651366404149803 0 -0.028755550303905222 0.018015618083005322 0 -0.028178532726188976 0.01801289484514907 0 -0.028178532726188976 0.01801289484514907 0 -0.027613384761381542 0.017986358820156603 0 -0.028342015951069621 0.017390784169066201 0 -0.028755550303905222 0.018015618083005322 0 -0.028178532726188976 0.01801289484514907 0 -0.028342015951069621 0.017390784169066201 0 -0.028051182121383071 0.018651366404149803 0 -0.028178532726188976 0.01801289484514907 0 -0.027613384761381542 0.017986358820156603 0 -0.027613384761381542 0.017986358820156603 0 -0.028342015951069621 0.017390784169066201 0 -0.027823327775227277 0.016686148469131402 0 -0.028342015951069621 0.017390784169066201 0 -0.027823327775227277 0.016686148469131402 0 -0.029106708234758718 0.01665563066779881 0 -0.031903299120195162 0.014614744723849401 0 -0.027823327775227277 0.016686148469131402 0 -0.029341475292047486 0.015277197951741201 0 -0.027823327775227277 0.016686148469131402 0 -0.027584219577520341 0.015126955908363935 0 -0.029341475292047486 0.015277197951741201 0 -0.030107700561809541 0.013981546238767595 0 -0.030107932806812482 0.0150638852789685 0 -0.029764954493763762 0.015571781647195084 0 -0.029843322302447944 0.016177938137577116 0 -0.030232051218060232 0.017282653609550971 0 -0.029773406469073505 0.015634025655697777 0 -0.027823327775227277 0.016686148469131402 0 -0.029106708234758718 0.01665563066779881 0 -0.030107700561809541 0.013981546238767595 0 -0.028178382349094887 0.01695398447792074 0 -0.029284470504235154 0.017447182040429086 0 -0.029106708234758718 0.01665563066779881 0 -0.029617760033414965 0.016884895273972203 0 -0.029617760033414965 0.016884895273972203 0 -0.029843322302447944 0.016177938137577116 0 -0.030232051218060232 0.017282653609550971 0 -0.029106708234758718 0.01665563066779881 0 -0.029617760033414965 0.016884895273972203 0 -0.029843322302447944 0.016177938137577116 0 -0.029773406469073505 0.015634025655697777 0 -0.029106708234758718 0.01665563066779881 0 -0.029843322302447944 0.016177938137577116 0 -0.030107700561809541 0.013981546238767595 0 -0.030098484977881122 0.015739563998867188 0 -0.030107700561809541 0.013981546238767595 0 -0.030091802121932059 0.017349598057254705 0 -0.029396409475614144 0.014842803946307314 0 -0.030155625840740986 0.015750984022279202 0 -0.029935611064750921 0.016906852935376505 0 -0.030155625840740986 0.015750984022279202 0 -0.029935611064750921 0.016906852935376505 0 -0.031850594700140365 0.016654547899293118 0 -0.030155625840740986 0.015750984022279202 0 -0.031850594700140365 0.016654547899293118 0 -0.031324485451172619 0.015333246616644576 0 -0.029396409475614144 0.014842803946307314 0 -0.029709837104127359 0.014663079963488019 0 -0.030155625840740986 0.015750984022279202 0 -0.029709837104127359 0.014663079963488019 0 -0.030155625840740986 0.015750984022279202 0 -0.031324485451172619 0.015333246616644576 0 -0.031077615209380547 0.017758056488179897 0 -0.029935611064750921 0.016906852935376505 0 -0.031850594700140365 0.016654547899293118 0 -0.031077615209380547 0.017758056488179897 0 -0.029935611064750921 0.016906852935376505 0 -0.030563834265732597 0.019022198353594432 0 -0.029466362456555602 0.018638707795265046 0 -0.030232051218060232 0.017282653609550971 0 -0.030563834265732597 0.019022198353594432 0 -0.030091802121932059 0.017349598057254705 0 -0.030503606825012294 0.018768021978671282 0 -0.031077615209380547 0.017758056488179897 0 -0.031850594700140365 0.016654547899293118 0 -0.032157070856903849 0.018640943255192215 0 -0.032821205170986648 0.015008868838257841 0 -0.031850594700140365 0.016654547899293118 0 -0.031324485451172619 0.015333246616644576 0 -0.034184510968664192 0.013733022273895966 0 -0.032821205170986648 0.015008868838257841 0 -0.033961167035074798 0.016539850363857671 0 -0.032821205170986648 0.015008868838257841 0 -0.031850594700140365 0.016654547899293118 0 -0.033961167035074798 0.016539850363857671 0 -0.027550002569615827 0.0084367543926101643 0 -0.028693792430109524 0.013273293069793685 0 -0.023170540582991783 0.0051639169827912678 0 -0.023050588746993159 0.0095138508006113228 0 -0.025062906868772817 0.0078141752831940772 0 -0.026800787614140297 0.010674611445735447 0 -0.023050588746993159 0.0095138508006113228 0 -0.025062906868772817 0.0078141752831940772 0 -0.026800787614140297 0.010674611445735447 0 -0.023050588746993159 0.0095138508006113228 0 -0.025852791164318698 0.0127885956962443 0 -0.028693792430109524 0.013273293069793685 0 -0.027796015291474418 0.016572165072875115 0 -0.031850594700140365 0.016654547899293118 0 -0.033961167035074798 0.016539850363857671 0 -0.032157070856903849 0.018640943255192215 0 -0.033961167035074798 0.016539850363857671 0 -0.033670819456630578 0.019283160596264799 0 -0.032157070856903849 0.018640943255192215 0 -0.033670819456630578 0.019283160596264799 0 -0.032750074155244099 0.020499674431182398 0 -0.032157070856903849 0.018640943255192215 0 -0.028354055858212775 0.015894758355802702 0 -0.022740604988830931 0.014311870981747384 0 -0.025852791164318698 0.0127885956962443 0 -0.023050588746993159 0.0095138508006113228 0 -0.022740604988830931 0.014311870981747384 0 -0.025852791164318698 0.0127885956962443 0 -0.028354055858212775 0.015894758355802702 0 -0.029300613792357866 0.022395690871914824 0 -0.025953431374053187 0.019563891368205667 0 -0.028354055858212775 0.015894758355802702 0 -0.025953431374053187 0.019563891368205667 0 -0.022740604988830931 0.014311870981747384 0 -0.03031226212174206 0.023250969046463309 0 -0.027796015291474418 0.016572165072875115 0 -0.033392412456557913 0.021848526563310763 0 -0.033670819456630578 0.019283160596264799 0 -0.032750074155244099 0.020499674431182398 0 -0.021648995520887535 0.022495367718924405 0 -0.025953431374053187 0.019563891368205667 0 -0.022740604988830931 0.014311870981747384 0 -0.031359909937567709 0.021022162218092673 0 -0.032750074155244099 0.020499674431182398 0 -0.032157070856903849 0.018640943255192215 0 -0.031359909937567709 0.021022162218092673 0 -0.029463035367369644 0.020283780564169674 0 -0.030563834265732597 0.019022198353594432 0 -0.033052798525773967 0.022218400551529672 0 -0.02950042110819899 0.02095674044702317 0 -0.032983306251638859 0.023114620534014946 0 -0.029994518844783963 0.023673566734712919 0 -0.030059077835085452 0.021798702924396826 0 -0.031359909937567709 0.021022162218092673 0 -0.030563834265732597 0.019022198353594432 0 -0.032157070856903849 0.018640943255192215 0 -0.031077615209380547 0.017758056488179897 0 -0.030563834265732597 0.019022198353594432 0 -0.032157070856903849 0.018640943255192215 0 
</DataArray>
</PointData>
<CellData Scalars="region_id,cross_section_updated," Vectors="" Tensors="stress,">
<DataArray type="Float64" Name="region_id" format="ascii">
5 5 5 5 5 5 5 5 5 5 5 5 5 5 5 5 5 5 6 6 6 6 5 5 5 6 6 5 5 5 5 5 5 5 5 5 5 5 5 5 5 5 6 5 5 5 6 5 5 5 6 5 5 5 6 5 6 5 5 5 5 5 5 5 6 5 6 5 5 5 5 5 5 5 5 5 5 6 5 5 6 5 5 6 5 5 6 5 5 5 5 6 6 5 6 6 5 5 5 5 5 5 5 6 5 5 5 6 5 5 6 5 6 6 5 5 6 6 5 5 5 5 6 5 6 5 5 5 6 6 5 6 5 6 5 5 6 6 5 5 5 6 5 6 5 5 5 6 5 6 5 6 6 5 5 5 5 5 6 5 5 5 5 5 6 6 5 6 5 5 6 5 5 5 5 6 5 5 5 6 5 5 5 5 5 6 6 5 6 5 6 5 5 5 5 5 5 5 5 5 6 5 6 5 5 5 5 5 5 5 5 5 5 5 5 5 5 5 5 5 5 6 5 5 5 5 5 5 5 5 6 5 5 5 5 5 5 5 6 5 5 5 5 6 6 5 5 6 5 5 6 5 5 6 6 5 5 5 6 6 5 5 5 6 5 5 6 5 5 6 5 5 5 6 6 5 5 6 5 5 6 5 5 5 5 6 6 5 6 6 6 5 5 5 5 6 6 5 5 5 5 6 6 5 6 5 6 5 5 6 6 5 5 5 5 6 5 5 6 6 6 5 6 5 5 6 6 6 6 5 5 5 5 5 5 5 6 6 5 5 5 6 6 5 6 6 5 5 6 5 5 5 5 5 6 5 5 6 5 6 5 6 5 5 6 5 5 5 6 5 6 5 5 5 5 5 6 6 5 5 5 5 6 5 5 5 6 5 5 5 6 5 5 6 6 5 5 5 5 5 5 5 5 5 5 5 5 5 6 6 5 5 5 6 5 5 5 5 5 5 5 5 5 5 5 6 5 5 6 5 6 6 5 5 5 5 5 5 5 5 5 5 5 5 5 6 6 5 5 5 6 5 5 5 5 6 5 5 5 5 5 5 5 5 6 5 5 5 5 5 5 5 5 6 6 6 5 5 5 6 6 6 5 5 5 5 5 5 6 6 6 5 5 5 5 6 5 5 5 5 5 6 5 5 5 6 5 6 5 5 5 5 5 6 5 5 5 5 5 5 5 6 5 5 5 6 5 5 5 5 6 5 5 6 5 5 6 5 5 6 5 5 5 5 5 5 5 5 5 5 5 5 6 5 5 5 5 5 5 5 5 5 5 5 5 6 5 5 5 5 5 5 5 6 5 6 5 5 5 5 5 6 5 5 5 5 5 5 5 5 6 5 6 5 5 5 5 6 6 5 6 5 5 6 5 5 5 5 5 6 5 5 5 5 5 6 5 6 5 5 6 5 6 5 5 5 5 5 5 5 5 5 5 5 5 6 5 5 5 5 6 5 5 5 5 5 5 5 6 5 5 5 5 6 6 5 5 5 6 6 5 6 5 6 5 5 5 5 6 6 5 5 5 5 5 5 6 5 6 6 5 5 5 5 6 5 5 5 5 5 5 6 6 5 5 5 5 6 6 5 5 6 5 5 5 5 5 5 6 6 5 6 5 6 5 5 5 5 6 5 5 5 5 5 5 5 5 5 6 5 5 5 6 5 5 5 5 5 5 6 5 5 5 5 5 5 5 5 5 6 5 5 6 5 5 5 5 5 6 5 5 5 5 5 5 5 5 5 6 5 6 5 5 5 5 5 5 6 5 5 5 5 5 5 5 5 5 5 6 5 5 6 5 5 5 5 6 5 5 5 5 5 6 5 5 5 5 5 6 5 5 6 5 5 5 6 6 5 5 5 5 6 5 5 6 5 5 5 6 5 5 6 5 5 5 5 5 5 5 5 5 5 5 5 5 5 6 5 6 6 5 5 6 5 5 5 5 5 6 5 5 6 5 6 5 5 5 6 5 6 5 6 5 5 6 5 5 5 5 5 5 5 6 5 5 5 5 5 5 5 5 5 6 5 5 5 6 5 6 5 5 5 5 5 5 5 5 5 5 6 5 5 5 5 5 5 6 5 5 5 5 5 5 6 5 5 5 5 5 5 5 6 5 5 5 5 5 5 5 6 5 5 5 6 5 5 5 5 5 6 6 5 5 6 5 6 5 5 5 5 5 6 5 6 5 5 6 5 5 6 5 5 5 5 6 5 5 5 5 5 6 5 5 5 5 6 5 5 5 5 6 5 5 5 5 5 5 5 5 5 5 6 5 5 5 5 6 5 5 5 5 5 5 5 5 5 5 5 5 5 5 5 5 5 5 5 5 5 5 5 5 5 5 6 5 5 5 5 6 5 5 5 5 5 6 6 6 5 5 5 5 6 5 6 6 6 5 5 5 5 5 6 5 5 5 5 5 5 5 5 5 5 5 6 5 5 5 5 5 5 5 5 5 5 5 5 5 5 5 5 5 6 5 5 5 5 5 5 5 5 5 5 5 5 5 5 6 6 5 5 6 5 5 5 5 6 5 5 6 5 5 5 5 5 6 5 5 5 5 5 5 5 6 5 5 5 6 6 5 5 5 5 5 5 6 5 5 5 5 5 5 5 5 5 5 5 5 5 5 5 5 5 6 5 6 5 5 5 5 5 5 5 6 5 5 5 6 5 5 5 5 5 5 5 5 5 5 5 5 5 5 5 5 5 5 5 5 5 5 5 5 5 5 5 5 5 5 5 5 5 5 5 5 5 5 5 5 5 5 5 5 5 5 5 5 5 5 5 5 5 5 5 5 5 5 5 5 5 5 5 5 5 5 5 5 5 5 5 5 5 5 5 5 5 5 5 5 5 5 5 5 5 5 5 5 5 5 5 5 5 5 5 5 5 5 5 5 5 5 5 5 5 5 5 5 5 6 5 6 5 5 6 5 6 6 5 5 5 5 5 5 5 5 5 5 5 5 5 6 5 5 5 5 5 5 5 6 5 5 5 5 5 6 5 5 5 5 5 6 6 5 5 5 5 5 5 5 5 5 5 6 6 5 5 5 5 5 5 5 5 5 5 5 6 5 5 5 5 5 5 5 5 5 5 6 5 5 6 5 5 5 5 6 5 5 5 5 6 5 5 5 5 5 5 5 5 5 5 6 5 5 5 5 5 6 5 5 5 5 5 6 5 6 5 5 6 5 5 5 5 5 5 5 5 5 5 5 5 5 5 5 5 5 5 5 5 5 5 5 5 5 5 5 5 5 5 5 5 5 5 5 6 5 5 5 5 5 5 5 5 5 5 5 5 5 5 5 5 5 6 6 5 5 6 5 5 5 5 5 5 5 5 5 5 5 5 6 5 5 5 5 6 5 5 5 5 5 5 5 5 5 5 5 5 5 5 6 5 5 5 5 5 5 5 5 5 5 5 5 6 5 6 5 5 5 5 6 5 5 5 6 5 5 6 5 5 5 5 5 5 5 6 6 5 5 5 6 5 5 5 5 5 5 5 5 5 5 5 5 5 5 5 5 5 5 5 5 5 5 5 5 6 6 6 6 5 5 5 5 6 6 5 5 5 5 5 5 5 5 5 5 5 5 5 5 5 5 6 5 5 5 5 5 5 5 5 5 5 5 5 5 5 5 6 5 5 5 5 6 5 5 6 5 5 5 6 5 5 5 5 5 5 5 5 5 5 5 5 5 5 5 5 5 6 5 6 6 5 5 6 5 5 5 5 5 5 5 6 5 6 5 5 6 6 5 5 5 5 5 6 5 5 5 5 5 5 5 5 5 5 5 5 5 5 6 5 6 5 5 5 5 6 5 5 5 5 5 6 5 5 5 5 5 5 5 5 5 5 5 5 6 5 6 5 5 5 5 5 5 5 5 5 5 5 5 5 5 5 5 5 5 5 5 5 5 5 5 5 5 5 5 5 5 5 5 5 5 5 5 5 5 5 6 5 5 6 5 5 5 6 5 5 5 6 6 6 5 6 5 5 5 6 5 5 5 6 5 6 5 5 6 5 5 5 5 5 5 5 5 5 5 5 5 5 5 5 5 5 5 6 5 5 5 5 5 5 5 5 5 5 5 5 5 5 5 5 5 5 5 5 5 5 5 5 5 5 5 5 5 6 5 5 5 5 5 5 5 5 5 5 5 5 5 5 5 5 5 6 5 5 5 5 5 5 5 5 5 5 5 5 5 5 5 5 5 5 5 5 5 5 5 5 5 5 5 5 5 5 5 6 5 5 5 5 5 5 5 6 5 5 6 5 5 5 6 5 6 5 5 5 5 5 5 6 5 5 5 6 5 5 5 5 5 5 5 5 5 5 5 5 5 5 5 5 5 5 5 5 5 5 5 5 5 6 5 5 5 5 5 5 5 5 6 5 5 5 5 5 5 5 5 5 5 5 5 5 5 5 5 5 6 5 5 5 5 5 5 5 5 5 5 5 5 5 5 5 5 5 5 5 5 5 5 5 5 5 5 5 5 5 5 5 5 5 5 5 5 5 5 5 5 5 5 5 5 5 5 5 5 5 5 5 5 5 5 5 5 5 5 5 5 5 5 5 5 5 5 5 5 5 5 5 5 5 5 5 5 5 5 5 5 5 5 5 5 5 5 5 5 5 5 5 5 5 5 5 5 6 5 6 5 5 5 6 5 5 5 6 5 5 5 5 5 5 5 5 5 5 6 5 5 5 5 5 5 5 5 5 5 5 5 5 5 5 5 5 5 5 5 5 5 5 5 5 5 5 5 5 5 5 5 5 5 5 5 5 5 5 6 5 5 5 5 5 6 5 5 5 5 5 5 5 6 5 5 5 6 5 5 5 5 6 6 5 5 5 5 5 5 5 5 5 5 5 5 5 6 5 5 5 5 5 5 5 5 6 5 6 5 5 5 5 5 5 5 5 6 5 6 5 5 5 5 5 5 5 5 6 5 6 6 5 5 5 5 5 5 6 5 5 5 5 6 6 5 6 5 6 5 5 6 5 5 6 5 5 5 6 5 5 5 5 6 5 5 5 6 5 6 5 5 5 5 5 5 5 5 6 5 6 6 6 5 5 5 6 5 5 5 5 5 5 5 5 5 5 5 5 5 6 5 6 5 5 6 5 5 5 5 5 5 6 5 5 5 5 5 5 5 5 6 5 5 5 6 5 5 5 5 5 5 5 5 5 5 6 5 5 5 5 5 5 5 5 5 5 5 5 5 5 5 5 5 5 5 5 6 5 5 5 5 5 5 5 5 5 6 5 5 5 5 5 5 5 5 6 5 5 5 5 5 5 5 5 5 6 6 5 5 5 6 5 5 5 5 5 5 5 5 5 5 5 5 5 5 5 5 5 5 5 5 6 5 6 5 5 5 5 5 5 5 5 5 5 5 5 5 5 5 5 5 5 6 5 5 5 5 6 5 5 5 5 5 5 5 5 5 6 5 5 5 5 5 5 5 5 5 5 5 5 5 5 5 5 5 5 5 5 5 5 5 6 5 5 5 5 5 5 5 5 5 5 5 5 5 5 6 5 5 5 5 5 5 5 5 5 5 6 5 5 5 5 6 6 5 6 5 5 5 5 5 5 6 5 5 5 5 5 5 5 6 5 5 5 5 6 5 6 5 5 5 5 5 5 5 5 5 5 5 5 5 6 6 5 5 6 5 5 5 6 5 5 5 6 5 5 6 5 5 5 5 5 5 5 5 5 6 5 5 5 5 6 5 5 5 6 5 5 5 5 6 5 5 5 5 6 5 5 5 5 6 5 5 5 5 5 5 6 6 5 5 5 5 5 5 6 5 5 6 5 5 5 6 5 6 5 5 5 5 5 5 5 5 5 5 5 5 5 5 5 5 5 6 5 5 5 5 5 6 5 5 5 5 5 5 5 5 5 5 5 5 5 5 5 5 5 5 6 5 5 6 5 6 5 6 5 5 6 5 5 5 5 5 5 6 5 5 5 5 5 6 6 5 5 5 6 5 5 5 5 5 6 5 5 5 5 5 5 5 5 5 5 5 5 5 5 5 5 5 5 5 5 5 5 5 5 5 5 5 5 5 6 5 5 6 5 5 5 5 5 6 5 5 5 5 5 5 5 5 5 5 5 6 5 5 5 5 5 5 5 5 5 5 5 5 6 5 5 5 6 5 5 6 6 6 5 6 5 6 5 6 5 6 5 6 5 5 6 6 5 5 5 5 5 5 6 5 5 6 6 5 5 5 5 5 5 5 5 5 5 5 6 5 5 5 5 5 5 6 5 5 5 6 5 6 5 5 5 5 5 5 5 5 5 5 5 5 5 5 5 5 5 5 5 5 5 5 5 5 5 5 5 5 5 5 5 5 5 5 5 5 5 5 5 5 5 5 6 5 6 5 5 5 5 5 5 5 5 5 5 5 5 5 5 5 5 5 5 5 5 5 5 5 5 5 5 6 5 5 5 5 5 5 5 5 5 5 5 5 5 5 5 5 5 5 5 5 5 5 5 6 6 5 5 6 5 5 5 5 5 5 5 5 5 5 5 5 6 6 5 5 5 5 5 6 5 6 5 5 5 6 5 6 6 5 6 5 5 5 5 5 5 5 5 5 5 5 5 5 5 5 5 5 5 5 5 5 5 5 5 5 5 5 5 6 5 5 5 5 5 6 5 5 5 5 5 5 6 5 5 5 5 5 5 6 5 5 5 5 5 5 6 5 6 5 6 5 5 5 5 5 5 5 5 5 5 5 5 6 5 5 5 6 5 5 5 5 6 5 6 5 5 5 5 5 5 5 5 5 5 5 5 5 5 6 5 5 6 5 5 5 5 5 5 5 5 6 5 5 5 5 5 5 5 5 6 5 5 5 5 5 5 6 5 5 5 5 5 5 5 5 5 5 5 5 5 5 5 5 5 5 5 5 5 5 5 5 5 5 5 5 5 5 5 5 5 5 5 5 5 5 5 5 5 5 5 5 5 5 5 6 5 5 5 5 5 5 5 5 5 6 5 5 6 5 5 5 6 5 6 6 5 5 6 5 5 5 5 5 5 5 5 5 5 6 5 5 6 5 5 5 6 5 5 5 5 5 5 5 5 5 5 5 6 5 5 5 5 5 5 6 5 5 5 5 5 6 5 5 5 5 5 5 6 5 5 5 5 5 6 5 5 5 5 5 5 5 5 6 5 5 5 5 5 5 5 5 5 6 5 5 6 5 5 5 5 6 5 5 6 5 5 5 5 5 5 5 5 5 5 5 5 5 5 6 5 5 5 5 5 5 5 5 6 5 5 6 5 5 5 5 5 5 5 6 5 5 5 5 5 5 6 5 5 5 5 5 5 5 6 5 5 5 6 5 5 5 5 6 5 5 5 5 5 5 5 5 5 5 5 6 5 5 5 5 5 5 6 5 5 6 5 5 5 5 5 5 5 5 5 6 5 5 5 5 6 5 6 5 5 5 5 5 6 5 5 5 6 5 5 5 5 5 5 5 5 6 5 5 5 5 5 6 5 5 5 5 6 5 5 5 6 5 5 5 5 5 5 5 5 5 6 5 5 5 5 5 5 5 5 5 6 5 5 6 5 5 5 5 5 5 5 5 5 5 5 5 5 5 5 5 6 5 5 6 5 5 5 6 5 5 5 6 5 5 5 5 5 5 6 5 5 5 5 5 5 5 5 5 5 5 6 5 5 6 6 5 5 5 5 5 5 6 5 5 5 5 5 5 6 5 5 5 5 5 5 5 5 5 5 5 5 5 6 5 5 5 5 5 5 5 5 6 6 5 5 5 5 6 5 5 5 5 5 5 5 5 5 5 5 5 6 5 5 5 5 6 5 6 6 5 5 5 5 6 5 5 5 5 5 5 6 5 5 5 5 5 5 5 5 5 5 5 5 5 5 5 5 6 6 5 5 5 6 5 5 5 5 5 6 5 5 5 5 5 5 6 5 5 5 5 6 5 5 5 5 5 5 5 6 5 5 5 6 6 5 5 6 5 5 5 5 5 5 5 5 6 5 5 5 6 5 5 5 6 5 5 6 5 5 5 5 6 5 6 6 5 5 5 5 5 5 5 5 5 5 5 5 5 5 5 5 5 5 5 5 5 5 5 5 5 5 5 6 5 5 5 6 5 5 5 5 5 6 6 5 6 5 5 5 6 5 5 5 6 5 5 5 5 5 5 5 5 5 5 5 5 5 5 5 5 5 6 5 6 5 5 5 5 5 5 5 5 6 5 5 5 5 5 5 5 5 5 6 6 5 5 5 6 5 5 5 5 6 5 5 5 5 5 5 5 6 6 5 5 5 6 5 5 5 5 5 5 5 5 5 5 6 5 5 5 6 5 6 5 5 5 5 5 5 5 6 5 5 5 5 6 5 5 5 5 5 5 6 5 5 5 5 5 5 5 5 5 5 5 6 5 5 5 5 6 5 5 6 5 5 5 5 5 5 5 5 5 5 6 5 5 5 6 5 5 5 5 6 5 5 6 5 6 6 5 5 5 5 5 5 5 5 5 5 5 5 5 5 5 5 5 5 6 5 6 5 5 6 5 6 5 5 5 5 5 5 5 5 5 5 5 5 5 5 5 5 5 5 5 5 5 5 5 5 5 5 5 5 5 5 5 5 5 5 5 5 5 5 6 5 5 5 6 5 5 5 6 5 6 5 5 5 5 5 5 5 6 5 5 5 5 5 5 6 5 5 5 6 5 5 5 5 6 5 5 5 6 5 6 5 5 5 6 5 5 5 5 5 5 5 5 6 5 5 6 5 5 5 5 5 5 6 5 5 5 5 5 5 5 5 5 5 5 5 5 5 5 5 5 5 5 5 5 5 5 5 5 5 5 5 5 5 5 5 5 5 5 5 5 5 5 5 5 5 5 5 6 5 5 5 5 5 5 5 6 5 5 5 5 5 5 6 5 5 5 5 5 6 5 5 6 5 5 5 5 5 5 6 5 5 5 6 5 5 5 6 5 5 5 5 5 5 6 5 5 5 5 5 5 5 5 5 5 5 5 5 5 5 6 5 6 5 6 5 6 6 5 6 5 5 6 5 5 5 5 6 5 5 6 6 5 5 5 5 5 5 5 6 5 6 5 5 5 5 6 6 5 5 6 5 5 5 5 5 5 5 5 6 5 6 5 5 5 5 6 5 5 5 6 6 5 5 5 5 5 5 5 5 5 5 5 5 6 5 5 5 5 5 5 6 5 5 5 5 6 5 5 5 5 5 5 5 5 5 5 5 5 5 5 5 5 6 5 6 5 5 5 5 6 6 5 6 5 5 6 5 5 5 6 5 5 5 6 5 6 5 5 5 5 5 6 5 6 5 6 5 5 5 6 5 5 6 5 5 5 5 5 5 5 5 5 5 5 6 5 5 5 5 6 5 5 5 5 5 5 6 6 5 5 5 6 5 6 6 5 5 5 6 5 5 5 5 5 6 5 5 5 5 5 5 5 5 5 6 5 5 6 5 5 5 5 5 5 5 6 5 5 6 6 5 5 5 6 5 6 5 5 6 5 5 6 6 5 5 5 6 5 6 5 6 5 5 5 5 5 5 5 6 6 5 5 5 5 5 5 5 5 6 5 5 5 5 5 5 5 5 5 5 5 5 5 5 5 6 5 5 5 5 5 5 5 5 6 5 5 5 5 5 5 5 6 5 5 5 5 5 5 5 5 5 5 5 5 5 5 6 5 5 5 5 5 5 5 5 6 5 5 5 5 6 5 5 5 5 5 5 5 5 5 5 5 5 5 5 5 6 5 5 5 5 6 5 6 5 5 5 5 6 5 5 5 5 6 5 6 5 5 5 5 5 5 5 5 6 5 5 6 6 5 5 5 6 6 5 6 6 5 5 5 5 6 5 6 5 5 5 6 5 5 6 5 5 6 5 6 5 6 5 5 5 5 5 5 6 6 5 5 6 6 6 6 5 6 6 5 6 5 5 5 6 6 5 5 6 5 5 5 6 5 5 5 6 5 6 5 5 6 5 5 5 5 5 6 5 5 5 5 5 5 5 5 5 5 5 5 5 6 5 5 6 5 5 5 5 5 5 5 5 5 5 5 5 5 5 5 5 5 5 5 5 5 5 5 5 6 5 5 5 5 5 6 5 5 5 5 5 5 5 5 5 5 5 5 5 5 5 5 6 5 5 5 5 5 5 6 5 5 5 5 5 6 5 5 6 6 5 5 5 5 5 5 5 5 5 5 5 5 5 5 5 5 5 5 5 5 6 5 5 5 5 5 6 5 5 6 5 6 5 5 6 6 6 5 5 6 5 5 5 5 5 6 5 5 5 5 5 5 5 5 5 5 5 5 5 6 5 5 5 5 5 5 5 6 5 5 5 5 6 5 5 6 5 5 5 5 5 5 5 5 5 5 5 5 6 5 5 5 5 6 5 5 5 5 5 5 5 5 6 5 6 5 6 5 5 5 5 5 5 5 5 5 5 5 5 5 5 5 5 5 5 5 5 5 5 5 5 6 5 5 5 6 5 5 5 5 5 5 6 5 5 6 5 6 5 6 5 5 5 5 5 5 5 5 5 5 5 5 5 5 5 6 5 5 5 5 5 5 5 5 5 5 5 5 6 5 5 5 5 5 5 5 5 6 5 5 5 5 6 5 5 5 5 6 5 5 5 6 5 5 5 5 6 5 5 6 5 5 5 5 6 5 5 5 5 5 5 5 5 5 5 6 5 5 5 5 6 6 5 5 5 5 5 5 5 5 5 5 5 5 5 5 5 5 5 5 5 5 5 5 5 5 5 5 5 5 5 5 5 6 5 5 5 5 5 5 5 5 5 5 5 5 5 5 5 5 5 5 5 6 5 5 5 5 5 5 5 5 5 5 5 5 5 5 5 5 5 5 5 5 5 5 5 5 5 5 5 5 5 5 6 5 5 5 6 5 5 5 5 5 5 5 6 5 5 5 5 5 5 5 5 6 5 5 6 5 5 5 5 5 5 5 6 5 5 5 5 6 5 6 6 6 5 5 5 6 5 5 5 5 5 6 6 5 5 5 6 5 5 5 5 6 5 5 5 5 5 5 5 5 5 5 5 5 5 5 5 5 5 5 6 5 5 6 6 5 6 5 6 5 5 6 5 6 6 5 5 5 6 5 5 5 5 6 5 5 5 5 5 6 5 5 5 5 6 5 6 5 5 5 5 5 5 5 5 5 6 5 5 6 5 5 5 5 5 5 5 5 5 6 5 5 5 6 5 5 5 5 5 5 5 5 5 5 5 5 5 6 5 5 5 5 6 5 5 5 5 5 5 5 5 5 5 5 5 5 5 5 5 5 5 6 5 5 5 6 6 5 5 5 5 6 5 5 6 5 5 5 6 5 6 5 5 6 5 5 5 6 6 5 6 5 5 6 5 5 5 6 6 5 5 5 5 5 6 6 5 5 6 6 6 5 5 6 5 5 5 5 5 5 5 5 5 5 5 6 5 5 5 5 5 6 6 5 6 5 5 5 5 5 5 5 6 6 5 5 6 5 5 5 5 5 5 5 6 5 5 5 5 5 5 5 5 5 6 6 5 5 6 5 5 5 5 5 5 6 5 6 5 5 5 5 6 6 5 6 5 5 5 6 5 5 5 5 5 5 5 5 5 6 5 6 5 5 5 5 5 5 5 5 6 5 5 5 5 5 6 5 5 5 5 5 5 5 5 5 5 5 5 5 5 6 5 5 5 5 6 5 5 5 5 5 5 5 5 5 5 5 5 5 5 5 5 6 5 5 5 5 5 5 5 6 5 5 5 6 5 5 5 5 5 6 6 5 5 5 5 5 5 6 5 5 6 5 6 5 6 5 6 6 5 6 5 5 6 5 6 5 5 5 5 6 5 5 5 5 6 5 5 6 5 6 5 5 6 5 5 5 6 5 5 6 6 5 5 5 6 5 5 5 5 5 5 5 5 6 5 5 5 5 5 5 5 6 5 5 5 5 5 6 5 5 5 5 6 5 5 5 6 6 5 5 5 5 5 5 5 5 6 5 5 5 5 5 5 5 5 6 5 5 5 6 5 5 5 5 5 5 5 5 5 5 5 5 5 5 6 5 5 5 5 5 5 5 5 5 5 6 5 5 5 5 5 5 5 5 5 5 5 5 5 5 5 6 5 5 6 6 5 5 5 5 5 6 6 5 5 5 5 5 5 5 5 5 5 5 5 5 5 5 5 5 6 5 5 5 5 6 5 5 6 6 6 6 5 6 5 5 5 5 6 5 5 6 5 5 5 5 5 5 5 5 5 5 6 5 5 5 5 5 5 5 6 5 5 6 5 5 5 5 5 5 5 5 5 5 5 6 5 5 5 5 5 5 5 5 5 5 5 5 5 5 5 5 5 5 6 5 5 5 5 5 5 5 6 5 5 5 6 5 5 6 5 5 5 6 5 5 5 5 5 5 5 5 5 5 5 5 5 5 5 5 5 5 5 5 5 5 5 5 5 5 5 5 6 5 5 5 5 5 5 5 5 5 5 5 5 5 5 5 5 5 5 5 5 6 5 5 5 5 5 5 5 5 5 5 5 6 6 5 5 5 5 5 6 5 6 5 5 5 5 5 5 5 5 5 5 6 5 5 6 5 5 5 5 5 5 5 5 6 5 6 5 5 5 5 5 5 5 5 5 5 5 5 5 5 5 5 5 5 6 5 5 5 5 5 6 5 5 5 5 6 5 5 5 6 5 6 5 5 5 5 5 5 5 5 5 5 5 5 5 6 5 5 5 5 5 6 5 5 5 6 6 5 5 5 5 5 6 5 6 5 6 6 5 5 6 5 6 5 6 5 5 6 5 5 6 5 5 5 5 5 6 5 5 6 5 5 5 5 5 5 5 5 5 5 5 6 6 5 5 5 6 5 5 5 5 5 5 6 5 5 5 6 5 5 5 5 5 5 5 5 5 5 5 5 5 5 5 5 5 5 5 5 6 5 5 5 5 5 5 5 5 5 5 6 5 5 5 5 5 5 5 5 6 5 5 5 5 5 5 5 6 5 5 5 5 6 5 5 5 6 5 6 5 6 6 5 6 5 5 6 5 6 5 5 6 5 5 5 5 6 5 5 5 6 5 5 5 5 5 5 5 5 5 6 6 5 6 5 5 5 6 5 6 5 6 5 5 6 5 5 6 5 6 5 5 5 6 5 5 5 5 6 6 5 5 5 5 5 5 5 5 6 5 6 6 5 5 6 5 5 5 5 5 6 5 5 6 5 6 5 5 5 5 5 5 5 5 5 6 5 6 5 5 5 6 5 5 5 5 6 5 5 6 5 5 5 5 5 5 5 5 5 5 5 5 5 5 5 5 5 5 5 5 5 5 5 5 5 5 5 5 5 5 5 5 5 5 5 5 5 5 5 5 5 5 5 5 5 5 5 5 5 5 6 5 6 5 5 5 5 5 5 5 5 5 5 5 6 5 5 5 5 5 5 6 5 6 5 5 6 5 5 5 6 5 6 5 5 5 5 6 5 6 5 5 6 5 5 6 5 5 6 5 5 5 5 6 5 5 5 5 5 5 5 5 6 5 5 5 5 6 5 5 6 5 5 5 5 6 5 6 5 5 5 5 5 5 5 5 5 5 5 5 5 5 5 5 5 5 5 5 5 5 5 5 5 5 5 5 5 5 5 5 5 5 6 5 5 5 6 5 5 5 6 6 5 5 5 5 6 5 5 5 5 5 5 5 6 5 5 6 5 5 5 5 5 5 5 5 5 5 5 5 5 5 5 5 5 5 5 5 5 5 5 5 5 5 5 5 6 5 5 6 5 5 6 5 5 5 5 5 6 6 5 5 6 5 5 6 6 5 6 5 5 5 5 5 5 5 6 5 5 5 5 6 5 5 5 5 5 5 5 5 5 5 6 5 5 5 5 5 5 5 5 5 5 6 5 6 5 5 5 5 5 5 5 5 5 5 5 5 6 5 5 6 5 5 6 5 5 5 5 5 5 5 5 5 5 5 5 5 5 6 5 5 5 6 5 5 5 6 5 5 5 5 5 6 5 5 6 6 5 5 6 5 6 5 5 5 5 6 5 5 5 5 6 5 5 5 6 5 5 5 5 5 6 5 5 5 5 5 5 6 5 5 5 5 6 5 5 5 5 5 5 6 5 5 5 5 5 5 5 6 5 5 5 6 6 5 5 5 6 6 5 5 5 5 5 6 5 5 5 5 6 5 5 6 5 5 5 5 5 5 5 5 6 5 5 5 5 6 5 6 5 5 5 5 6 6 5 5 5 5 5 6 6 5 5 5 5 5 5 5 5 5 5 5 5 5 5 6 5 6 5 5 5 5 5 5 5 5 5 5 5 6 5 5 5 6 6 5 5 5 6 5 5 6 5 5 5 5 5 6 5 5 6 5 5 5 6 5 5 5 6 5 5 5 5 5 5 5 5 6 5 5 5 5 5 6 5 5 5 5 5 5 5 5 5 6 5 6 5 5 5 5 5 5 5 5 5 5 6 5 5 5 5 5 5 5 5 5 5 5 5 5 5 5 5 5 5 5 5 5 5 5 5 5 5 5 5 5 5 5 5 5 5 5 5 5 5 5 6 5 5 5 5 5 5 5 5 5 5 5 5 5 5 5 6 5 5 5 6 5 5 5 5 5 6 5 5 5 5 5 5 5 5 5 5 5 5 6 5 5 5 5 5 5 5 5 5 5 5 5 5 5 5 5 5 5 5 5 6 5 5 5 5 5 5 5 5 5 5 5 5 5 5 5 5 5 5 5 5 6 6 5 5 5 5 5 6 5 5 5 5 5 5 5 5 5 5 5 5 5 5 5 5 5 5 5 5 5 5 5 5 5 5 5 5 6 5 6 5 5 5 6 5 5 5 5 5 5 5 5 5 5 5 5 6 5 5 5 5 5 5 5 5 6 5 5 5 6 5 5 5 5 5 5 5 6 5 6 5 5 5 5 5 5 5 5 5 5 5 5 5 5 5 5 5 5 6 5 5 5 5 5 5 5 6 5 5 5 6 5 5 5 5 5 5 6 5 5 5 5 5 5 5 5 5 6 5 5 5 5 5 5 5 5 5 5 5 5 5 5 5 5 6 5 6 5 5 5 5 5 5 5 5 5 5 6 5 5 5 6 5 5 5 5 5 5 5 5 5 5 5 5 5 5 5 5 5 5 5 5 5 6 5 5 5 5 5 5 5 6 5 5 5 5 5 5 5 5 5 5 6 5 5 5 5 5 5 5 5 5 5 6 5 5 6 5 6 5 5 5 5 5 6 5 5 5 5 5 5 5 5 5 5 5 5 5 5 6 5 5 5 5 5 5 5 5 5 5 5 5 5 5 5 5 5 5 5 5 5 5 5 5 5 5 5 5 5 6 5 5 5 5 5 5 5 5 5 5 5 5 5 5 5 5 5 5 5 5 5 6 5 5 5 5 5 5 5 5 5 5 5 6 5 6 6 5 5 5 6 5 5 6 5 5 6 5 5 5 5 5 5 5 5 5 5 5 5 5 5 5 6 5 5 5 6 5 5 5 5 5 5 5 5 5 5 5 5 5 5 5 5 5 5 5 5 5 6 5 5 5 5 5 5 5 6 5 5 5 5 5 5 5 5 5 5 5 6 5 5 5 6 5 5 5 6 5 5 5 5 5 5 5 5 5 5 5 5 6 5 5 6 5 5 5 6 5 5 5 6 5 5 5 5 5 5 6 5 5 6 5 5 5 5 6 5 5 5 6 5 6 6 5 5 5 5 5 6 5 5 6 5 5 6 5 5 5 5 5 5 6 5 5 5 6 5 6 5 5 6 5 5 5 6 5 5 5 5 5 5 6 6 5 5 5 6 5 5 6 5 5 6 5 5 5 5 5 5 5 5 6 6 6 5 5 5 6 5 6 5 5 6 5 5 6 5 5 6 5 5 5 5 5 6 5 5 5 6 6 5 6 5 5 5 5 5 5 5 5 5 5 5 6 5 5 5 5 6 5 5 5 5 5 5 5 5 5 5 5 6 5 5 5 5 6 5 6 5 5 5 5 5 5 5 5 5 5 5 5 5 5 5 5 5 5 5 5 6 5 5 5 5 5 6 6 5 5 5 5 5 6 5 5 5 5 5 5 5 5 5 5 5 6 5 5 5 5 6 5 6 5 5 5 6 5 5 5 6 5 5 5 5 5 5 6 6 5 5 5 6 6 5 5 5 6 6 5 5 5 5 5 5 5 6 5 5 5 6 5 5 5 5 5 5 5 5 6 5 5 5 5 5 5 5 6 6 5 5 5 6 5 5 5 5 5 5 6 5 6 5 5 5 5 6 5 5 5 5 5 5 5 5 5 5 5 6 5 5 5 5 5 5 5 5 5 5 5 6 5 5 5 5 5 6 5 5 6 5 5 5 5 6 5 5 5 6 5 5 6 6 6 5 5 5 6 5 5 5 5 5 5 5 5 5 5 6 5 5 6 5 5 6 5 5 5 5 5 5 6 5 5 5 5 5 5 5 5 5 6 5 5 5 5 5 5 5 5 5 5 5 5 5 5 5 5 5 5 6 5 5 5 5 5 6 6 5 6 5 5 5 6 5 6 5 5 5 5 5 5 5 5 5 5 5 5 5 6 6 5 5 5 5 6 5 5 5 6 5 5 5 5 5 5 5 5 5 5 5 5 5 5 5 5 5 5 5 5 5 5 5 5 5 5 5 5 5 5 5 5 5 6 5 5 5 5 5 5 5 5 5 5 5 5 5 6 5 5 5 6 5 5 5 5 5 6 5 5 5 5 5 5 6 5 5 5 5 5 5 6 5 5 5 5 5 6 6 5 5 5 5 5 6 5 5 5 5 5 6 5 5 5 5 5 5 5 5 5 5 5 5 5 5 5 5 5 5 5 5 5 5 5 5 5 5 6 6 5 5 5 5 5 5 5 6 5 5 5 5 5 5 5 5 5 5 5 5 5 5 5 5 5 5 5 5 5 5 5 5 5 5 5 5 5 5 5 5 5 5 5 5 5 5 5 5 5 6 5 5 5 6 6 5 5 5 5 5 5 5 5 5 5 6 5 5 5 6 5 5 5 5 5 5 5 5 6 5 5 6 5 5 5 5 5 5 6 5 5 6 5 5 5 5 6 5 6 5 6 5 5 6 5 5 5 5 5 5 5 5 5 5 5 5 6 5 5 5 5 5 5 5 5 5 5 5 5 5 5 5 5 6 6 5 6 5 5 5 6 5 5 5 5 5 6 5 5 5 6 5 5 6 5 5 6 5 5 6 5 5 5 6 5 5 5 5 5 5 6 5 5 6 5 5 5 5 5 6 5 5 6 5 5 6 6 5 6 5 5 5 5 5 5 5 5 6 5 5 5 5 5 6 5 5 5 5 5 5 5 5 5 5 5 5 5 6 6 5 5 5 6 5 5 5 5 5 5 5 5 5 5 5 5 6 5 5 5 6 5 5 5 6 5 5 5 5 5 5 6 5 5 5 5 5 5 5 6 5 5 5 5 5 5 5 5 6 5 6 5 5 5 5 5 5 5 5 5 5 6 5 5 5 6 6 5 5 5 5 5 5 5 5 5 5 5 5 5 5 5 5 5 5 5 5 5 5 5 5 5 5 5 6 5 5 6 5 5 5 5 5 5 5 5 5 5 5 5 5 5 5 5 5 6 6 5 5 6 5 6 5 5 6 5 5 5 6 6 6 5 5 5 5 5 5 5 5 5 5 5 5 5 5 5 5 5 5 5 5 5 5 5 6 5 5 5 5 5 5 5 5 6 5 5 6 5 5 5 5 5 5 5 5 5 6 6 5 5 5 5 5 5 5 5 5 5 6 5 5 5 5 5 5 5 6 5 5 6 5 5 5 5 5 5 5 5 6 5 5 5 5 5 5 5 5 5 5 5 6 5 5 5 5 5 5 5 5 5 6 6 5 5 5 5 5 5 6 5 5 5 5 6 5 5 5 5 5 6 5 5 5 5 5 5 6 5 5 5 6 5 5 5 5 5 5 5 5 5 5 5 5 5 5 5 5 5 5 5 5 6 5 5 5 6 5 5 5 5 6 5 5 6 5 5 5 5 5 5 5 5 5 5 5 5 5 5 5 5 5 5 5 5 5 5 5 5 5 5 5 5 5 5 6 5 5 5 5 5 5 5 5 6 6 5 5 5 5 5 5 5 5 5 5 5 5 5 5 5 5 5 5 5 6 5 5 5 6 5 5 5 5 6 5 6 6 5 5 5 5 5 6 5 5 5 5 5 5 5 5 6 5 5 5 5 5 5 5 5 5 5 6 5 5 5 5 6 5 5 5 5 5 5 5 5 5 5 5 5 5 5 5 5 6 5 5 6 5 5 6 5 5 5 5 6 6 5 5 5 5 5 5 5 5 6 5 6 5 5 6 6 5 5 5 5 6 5 5 5 5 5 5 6 5 5 5 5 6 5 5 5 5 5 5 5 5 5 6 6 5 5 6 5 5 5 5 5 5 5 5 5 5 5 5 5 5 5 5 5 5 5 5 5 5 5 5 5 6 5 5 5 5 5 6 5 5 5 5 6 5 5 5 5 6 5 5 6 5 5 5 5 5 5 5 5 5 5 5 5 5 5 6 5 5 5 6 5 5 5 5 5 5 5 5 5 5 5 5 5 5 5 5 5 5 5 5 5 6 5 5 5 5 5 5 5 6 5 5 5 5 5 5 5 5 5 5 5 5 5 6 5 5 6 5 5 5 5 5 6 5 5 5 5 6 6 6 5 5 5 5 6 5 5 5 5 5 6 5 5 5 5 5 6 5 6 5 5 5 5 6 5 6 5 5 5 5 6 5 5 5 5 5 5 6 5 5 5 5 5 5 6 5 5 5 5 5 5 5 5 5 5 5 5 5 5 5 5 5 5 5 5 5 5 5 5 5 5 5 5 5 5 6 5 5 5 6 6 5 5 5 5 6 5 6 6 5 5 6 5 5 6 5 6 5 5 5 5 5 5 6 5 5 6 5 5 5 5 5 5 5 6 5 5 5 5 6 5 5 5 5 6 5 5 5 5 5 6 5 5 5 6 5 5 5 5 5 5 5 5 6 5 5 5 5 5 5 5 5 5 5 5 5 5 5 5 5 5 5 5 5 6 5 5 5 5 5 5 5 6 6 5 5 5 5 6 5 5 5 5 5 5 5 5 5 6 5 5 5 5 6 5 5 5 5 5 5 5 5 5 5 5 5 5 6 5 5 5 5 5 6 5 5 5 5 5 5 5 5 5 5 5 5 5 5 5 5 5 5 6 5 5 5 5 5 5 5 5 5 5 5 5 5 5 5 5 5 5 5 5 5 5 5 5 5 5 6 5 5 6 5 5 5 5 5 5 5 6 5 5 5 6 5 5 5 5 5 5 6 5 5 5 5 5 5 5 5 5 5 5 5 5 5 5 5 5 5 5 5 5 5 5 6 6 5 6 5 5 5 5 5 5 5 6 5 5 6 5 5 5 5 5 5 5 5 5 5 5 5 5 5 6 5 5 5 5 5 6 5 5 5 6 5 6 5 6 5 5 6 5 5 5 5 5 5 5 5 5 5 5 5 6 5 5 6 6 5 5 5 5 6 6 5 5 5 6 5 5 5 5 5 5 5 5 6 5 5 5 6 5 5 5 5 5 5 5 5 5 5 5 5 5 5 5 5 5 5 5 5 5 5 5 6 5 5 5 5 5 5 5 5 5 5 5 5 6 5 5 6 5 5 5 5 5 5 5 5 5 6 5 5 5 5 5 5 5 6 5 5 5 5 5 5 5 5 5 5 5 5 5 5 5 6 5 5 5 5 6 5 5 5 6 5 6 5 5 6 5 6 5 5 6 5 6 5 5 5 5 5 5 5 5 5 5 5 5 5 5 5 5 5 5 5 5 5 5 5 5 5 5 5 5 5 5 5 5 5 5 5 5 5 5 6 5 5 5 5 5 5 5 6 5 5 6 5 5 6 5 5 6 5 5 5 5 6 5 5 6 5 5 5 6 6 5 6 5 6 6 5 5 5 5 5 5 5 5 5 5 5 5 5 6 5 5 6 6 5 5 6 5 5 5 5 6 5 5 6 5 5 6 5 5 5 5 5 5 6 5 5 6 5 5 5 5 5 5 5 6 5 5 5 5 5 5 5 5 5 5 5 5 5 5 5 5 5 5 5 5 5 5 5 5 5 5 5 5 5 5 5 5 5 6 5 5 5 6 5 6 5 5 5 5 5 5 5 5 5 5 5 5 5 5 5 5 5 6 6 5 5 5 5 5 6 6 5 5 5 5 5 6 5 6 5 5 5 6 5 5 6 5 5 5 6 5 5 5 6 5 5 5 5 5 5 5 5 5 5 6 5 5 5 5 5 5 5 5 5 5 5 5 5 5 5 5 5 5 5 5 5 5 5 5 5 6 5 5 5 5 5 5 6 5 5 5 5 6 5 5 5 5 5 5 5 5 6 5 5 5 5 5 5 6 5 6 5 5 6 5 5 5 5 5 5 5 5 5 6 5 6 5 5 5 5 5 5 5 6 5 5 6 5 5 5 5 5 5 5 6 5 5 5 5 6 5 5 5 5 5 5 5 5 5 5 5 5 5 5 5 5 5 5 5 5 5 5 5 5 6 5 5 5 5 5 5 5 6 5 5 6 5 5 5 5 5 5 5 5 5 5 5 5 6 5 5 5 5 5 5 6 5 5 5 5 5 5 5 5 5 5 5 5 5 5 5 5 5 5 5 6 6 5 5 5 5 5 5 5 5 5 6 5 5 5 5 6 5 5 6 6 5 5 5 5 5 5 5 5 5 5 5 5 5 5 5 5 6 5 5 5 6 6 5 5 6 5 5 6 5 5 5 5 5 6 5 6 5 5 5 5 6 5 6 5 5 5 6 5 6 5 5 5 5 6 5 5 5 5 5 5 6 5 5 5 5 5 5 5 5 5 5 5 5 5 5 5 5 5 5 6 5 5 6 5 5 5 6 5 5 5 5 5 5 5 5 5 5 5 5 5 5 6 5 6 5 5 5 5 5 6 5 5 6 5 6 5 5 5 5 5 5 5 5 6 5 5 5 6 5 5 5 6 5 5 6 5 5 5 5 5 5 5 5 5 5 5 5 5 5 5 6 5 5 6 5 5 5 5 5 5 5 5 5 5 5 5 5 5 5 6 5 5 5 5 5 5 5 6 5 5 5 5 6 5 5 5 5 5 5 5 5 5 5 5 5 5 5 5 5 5 5 5 5 6 5 5 5 5 5 5 5 6 5 5 5 5 5 5 5 5 5 5 6 5 5 5 5 5 5 5 6 5 5 6 5 5 6 5 5 6 5 5 5 5 5 5 5 5 6 5 5 6 5 6 5 5 5 5 5 5 6 5 5 5 5 5 5 5 5 5 5 5 5 5 5 5 5 5 5 5 5 5 5 5 5 5 5 5 5 5 5 5 5 5 5 6 5 5 5 5 5 5 5 5 5 5 5 5 5 5 5 5 5 5 5 5 5 5 5 5 5 5 5 5 5 5 5 5 5 5 5 5 5 5 5 5 5 5 5 5 5 5 5 5 5 5 5 5 5 5 5 5 5 5 5 5 5 5 5 5 5 5 5 5 5 5 5 5 5 5 5 5 5 5 5 5 5 5 5 5 6 5 5 5 5 5 5 5 6 5 5 6 5 5 5 5 5 5 5 5 6 5 5 5 5 5 5 5 5 5 5 5 5 5 5 5 5 5 6 5 5 6 5 5 5 5 5 5 5 5 5 6 5 5 5 5 5 5 5 6 5 5 5 5 5 5 5 5 5 6 6 5 5 5 5 5 5 5 5 6 5 5 6 5 5 5 6 6 5 6 5 5 5 5 5 5 6 6 5 5 5 5 5 5 5 5 5 6 5 6 5 5 5 5 6 5 5 6 5 6 5 5 5 6 5 6 5 6 5 5 6 5 5 5 6 6 5 5 5 6 5 5 5 5 5 6 6 6 5 5 5 6 5 5 5 5 5 5 5 5 5 5 5 5 5 5 5 5 5 5 5 5 5 5 5 5 5 5 6 5 5 5 5 6 5 5 5 5 5 6 5 5 5 5 6 5 5 5 5 5 5 5 5 5 5 5 5 5 5 5 5 5 5 5 5 5 5 5 5 5 5 5 6 5 5 5 5 5 5 5 5 5 5 5 5 5 5 5 5 5 5 5 6 5 6 5 5 5 6 5 5 5 5 5 5 5 5 5 6 5 6 6 5 5 6 5 5 6 5 5 6 5 5 5 5 5 5 5 5 5 5 5 5 5 5 6 5 5 5 5 5 5 5 5 5 5 5 6 5 5 5 5 5 5 6 5 5 5 5 6 5 5 5 6 5 5 5 5 6 5 5 5 5 5 5 5 5 6 5 5 5 5 5 5 5 5 5 6 5 6 5 5 5 5 5 5 5 5 5 5 5 6 5 5 5 5 5 5 5 5 5 5 5 5 5 5 5 6 6 5 5 5 5 5 5 5 5 5 5 5 5 5 5 5 5 5 5 5 5 5 5 5 5 5 5 5 5 5 5 5 5 5 5 5 5 6 5 5 5 5 5 5 5 5 5 5 5 5 5 5 5 6 5 5 5 5 5 5 5 5 5 5 5 5 5 6 6 5 5 5 5 5 5 5 5 5 5 5 5 5 5 5 5 5 5 5 6 5 5 6 5 5 5 5 5 5 5 5 5 5 6 5 5 5 5 5 5 5 5 5 5 6 5 5 5 5 5 6 6 5 5 6 5 5 5 5 5 5 5 5 6 5 5 5 5 5 5 5 5 6 5 6 5 5 5 5 6 5 6 5 5 5 5 6 5 6 5 6 5 5 6 5 5 5 6 5 5 6 5 5 6 5 5 5 6 5 5 5 5 5 5 6 5 6 5 5 5 6 5 5 5 5 5 5 5 5 6 5 5 5 5 5 5 6 5 5 6 5 5 5 6 5 5 6 5 5 6 5 5 5 6 5 6 5 6 5 5 5 5 5 5 5 5 5 5 5 5 5 5 5 5 5 5 5 5 5 5 5 5 5 5 5 6 5 5 5 6 5 5 5 5 5 5 5 6 5 5 5 6 5 5 5 6 5 5 5 5 5 5 5 5 6 5 5 5 5 6 5 5 5 5 5 5 5 5 5 5 5 5 5 5 5 5 5 5 5 5 5 5 5 5 6 5 5 5 5 5 5 5 5 5 5 5 6 5 5 5 5 5 5 5 5 5 5 5 5 5 5 5 5 5 5 5 5 5 5 5 5 6 6 5 5 6 5 5 5 5 5 5 5 5 5 5 5 5 5 6 5 5 5 5 5 5 5 5 6 5 5 5 5 5 5 5 5 5 5 5 5 5 5 5 5 5 6 5 5 6 5 5 5 5 6 6 5 5 5 5 5 5 5 5 6 5 5 5 5 6 5 5 5 6 5 5 5 5 5 5 5 6 5 5 5 5 6 5 5 5 
</DataArray>
<DataArray type="Float64" Name="stress" NumberOfComponents="9" format="ascii">
-3062.9688418245059 3676.0497348622594 0 3676.0497348622594 0.1829016178380698 0 0 0 0 -1.7462659785887809 3537.0930387048757 0 3537.0930387048757 -2053.5088820994642 0 0 0 0 -2444.4678688548156 4138.0700188655901 0 4138.0700188655901 -524.0835032339819 0 0 0 0 -2558.9972563954252 3631.1748420352378 0 3631.1748420352378 -1775.5182065652625 0 0 0 0 -803.54133135383017 2529.2260085393209 0 2529.2260085393209 -3096.8575707643613 0 0 0 0 277.02709045796655 509.0767302371969 0 509.0767302371969 -3499.8722432182985 0 0 0 0 -1472.697038662147 1364.5178014514859 0 1364.5178014514859 -120.75165950474911 0 0 0 0 -61.647751034121029 129.77084168823785 0 129.77084168823785 -1249.9969484048706 0 0 0 0 -6.6658838870353065 701.6165817095025 0 701.6165817095025 -1447.0732228666384 0 0 0 0 -116.05897902390279 58.862747570798092 0 58.862747570798092 -570.55357876152266 0 0 0 0 -244.28594570769201 911.58950371557148 0 911.58950371557148 -2200.7682702095481 0 0 0 0 131.76190011773724 -691.07165825727861 0 -691.07165825727861 -925.67047525430826 0 0 0 0 -359.47959660502238 314.16327514671684 0 314.16327514671684 -1192.8651086448808 0 0 0 0 367.76956714723201 -149.32654267994076 0 -149.32654267994076 -1920.543697459565 0 0 0 0 -216.48945308951079 -309.36947864307149 0 -309.36947864307149 -170.57373656975687 0 0 0 0 58.963188386056572 70.346699335379526 0 70.346699335379526 325.24213381658774 0 0 0 0 22.53633651275959 -126.4791721716083 0 -126.4791721716083 640.13369506888557 0 0 0 0 -2.8877718639560044 21.841760890209116 0 21.841760890209116 17.430533485166961 0 0 0 0 -16.171594632027109 13.928312945664146 0 13.928312945664146 18.742675222443722 0 0 0 0 -6.2689908009721194 18.252651211610782 0 18.252651211610782 -4.3673959415214654 0 0 0 0 -22.723652934950152 28.333078201724788 0 28.333078201724788 22.480374863129043 0 0 0 0 -0.71138439908364148 11.186643037526437 0 11.186643037526437 -0.21402069401250401 0 0 0 0 0.029445816806401126 23.197644921543542 0 23.197644921543542 10.85277879118803 0 0 0 0 -16.817222676356323 20.517854219360743 0 20.517854219360743 24.822137420065701 0 0 0 0 -291.50364016741514 -286.29206974485714 0 -286.29206974485714 573.90843697606761 0 0 0 0 2.6064023564458694 4.7116463480999471 0 4.7116463480999471 -3.1715205245470202 0 0 0 0 -6.7759046085943737 10.153708650664228 0 10.153708650664228 -8.0884325809284974 0 0 0 0 -1.4365705724339932 25.400440109078772 0 25.400440109078772 7.5888262238586321 0 0 0 0 -276.14065551559906 -386.22786532147438 0 -386.22786532147438 -2748.4637340118643 0 0 0 0 80.374622985211317 152.13260245070705 0 152.13260245070705 -180.84989657471306 0 0 0 0 58.306522137951106 29.907289784430759 0 29.907289784430759 -99.671093032491626 0 0 0 0 -123.4619740214257 -14.607863965284196 0 -14.607863965284196 -6.1996640946454136 0 0 0 0 45.923562016861979 -20.513178722889279 0 -20.513178722889279 -303.66847103289183 0 0 0 0 69.966510214406298 74.386338217067532 0 74.386338217067532 -632.01489540333569 0 0 0 0 66.361371137114475 63.56801763526164 0 63.56801763526164 -238.24991986624082 0 0 0 0 108.49300154668163 242.00241169989749 0 242.00241169989749 -412.03554099486792 0 0 0 0 -94.689896540076006 671.05427093384787 0 671.05427093384787 -803.66533806556981 0 0 0 0 -40.15179495983466 382.89185090348474 0 382.89185090348474 37.773625449131941 0 0 0 0 42.953319434891455 216.23608646431239 0 216.23608646431239 -6.9342456188023789 0 0 0 0 91.371708088976447 229.97746479086345 0 229.97746479086345 -21.826060765277361 0 0 0 0 48.699197938418365 242.34693338479701 0 242.34693338479701 12.442803294688929 0 0 0 0 -31.372243473597337 140.77642820258916 0 140.77642820258916 459.87903110530169 0 0 0 0 -24.466413117173204 9.2725135708743096 0 9.2725135708743096 -1.2366361925015212 0 0 0 0 17.686751674627885 390.43504983936145 0 390.43504983936145 154.28679592460685 0 0 0 0 80.413833279191749 287.33589888912684 0 287.33589888912684 46.532890858567953 0 0 0 0 -767.96043611544883 121.64766639028676 0 121.64766639028676 1934.6157279239997 0 0 0 0 -10.291754969754038 0.88483818219435761 0 0.88483818219435761 0.66014979672115714 0 0 0 0 -3572.784387510299 3047.0794073537545 0 3047.0794073537545 -755.19258596003056 0 0 0 0 -2512.4569972747195 -377.08067557949107 0 -377.08067557949107 -61.70589152854518 0 0 0 0 -33.620863565884065 18.057294793936308 0 18.057294793936308 0.012616199586773291 0 0 0 0 -15.730018885038021 7.7503453355129039 0 7.7503453355129039 -4.7607221382558578 0 0 0 0 -27.052693267251016 21.613507945279707 0 21.613507945279707 -7.4892872414202429 0 0 0 0 -10.802674036604003 10.593313064222457 0 10.593313064222457 -0.022104197443695739 0 0 0 0 -380.9644174000714 -123.53438346317853 0 -123.53438346317853 68.625026318935397 0 0 0 0 -8.5042430718086166 12.179914342633424 0 12.179914342633424 -3.0629123026378124 0 0 0 0 154.23626610716747 68.813814201348578 0 68.813814201348578 -183.50695406890009 0 0 0 0 -3.1152932267461892 3.0680483507605913 0 3.0680483507605913 3.0191248975710892 0 0 0 0 22.880523471772904 122.16957682464272 0 122.16957682464272 -68.133562992501538 0 0 0 0 -78.669690810813336 153.12441080647113 0 153.12441080647113 -77.545128572557587 0 0 0 0 -45.87863330199616 64.706276932061883 0 64.706276932061883 1.6900661884865258 0 0 0 0 -65.576970874506515 92.962175010005012 0 92.962175010005012 -72.174020284583094 0 0 0 0 -10.31204244155947 43.204877171996031 0 43.204877171996031 -41.895518354518572 0 0 0 0 -11.113411812810227 10.413637257661321 0 10.413637257661321 -132.83975769334211 0 0 0 0 -176.96201768901665 153.26733654056443 0 153.26733654056443 74.388467054229295 0 0 0 0 -53.376981129397848 38.44198869673032 0 38.44198869673032 -25.293677136266467 0 0 0 0 -34.046309956584082 172.60838969328142 0 172.60838969328142 82.378964630814153 0 0 0 0 -10.923004102799979 0.37141745167937756 0 0.37141745167937756 3.3147613985776161 0 0 0 0 -48.049579651255044 50.781896357781079 0 50.781896357781079 -23.130495821926161 0 0 0 0 -48.013653426386981 40.232101721458548 0 40.232101721458548 -12.363198701685178 0 0 0 0 -66.041191233263817 56.481958023097832 0 56.481958023097832 -0.30833730898768635 0 0 0 0 -88.421312054077134 79.690822704270431 0 79.690822704270431 -24.361527830624254 0 0 0 0 -44.70744210423436 55.307439049924142 0 55.307439049924142 -30.723807064016 0 0 0 0 -50.977564983237244 52.910616699060483 0 52.910616699060483 -24.259617654635804 0 0 0 0 -46.502489664126188 51.35424174729269 0 51.35424174729269 -23.961418266619148 0 0 0 0 -7.2477283355474356 34.388235005859315 0 34.388235005859315 -5.6718620185565669 0 0 0 0 -21.638635297153087 19.292630496857782 0 19.292630496857782 -13.29410928292782 0 0 0 0 -26.460531265321151 47.513880147265809 0 47.513880147265809 -8.2536144386976957 0 0 0 0 -12.449434223827836 20.333390000444524 0 20.333390000444524 15.382482941346439 0 0 0 0 -0.11440818090341054 47.094122335591237 0 47.094122335591237 -8.2573181217996989 0 0 0 0 -9.7807735968381166 46.005630028696032 0 46.005630028696032 25.956833408679813 0 0 0 0 -24.946656065427817 23.680011137901872 0 23.680011137901872 -10.429062345551017 0 0 0 0 -22.824406157014892 59.400836890621576 0 59.400836890621576 40.149456281127641 0 0 0 0 -5.0258833499683533 35.716286444258003 0 35.716286444258003 -1.1745302391500445 0 0 0 0 -38.170915104558844 28.711837252583209 0 28.711837252583209 -0.16017965236733289 0 0 0 0 -17.389742958417628 42.789042669581249 0 42.789042669581249 19.014475547184702 0 0 0 0 -11.465322725300211 69.099273406471184 0 69.099273406471184 -1.1252161372540286 0 0 0 0 -14.714100330047813 25.565708612313102 0 25.565708612313102 -14.091711015399198 0 0 0 0 93.022130073106382 186.93839096442389 0 186.93839096442389 36.371828921925044 0 0 0 0 54.810764103400288 203.69400890108955 0 203.69400890108955 80.351694659838358 0 0 0 0 40.376057867979398 142.9349248016224 0 142.9349248016224 9.1672442446069908 0 0 0 0 74.959655761762406 65.687676736379217 0 65.687676736379217 -26.310682783281663 0 0 0 0 -24.282284130269318 34.294523476039572 0 34.294523476039572 -15.368612969348703 0 0 0 0 -43.9450569925624 29.731135092670755 0 29.731135092670755 -6.9774066796488228 0 0 0 0 -11.965943085902836 38.867112127307337 0 38.867112127307337 21.943438686255831 0 0 0 0 -42.054531833599185 63.552984322152668 0 63.552984322152668 -14.46899904076372 0 0 0 0 -13.718321520382119 10.722294051769097 0 10.722294051769097 -0.11244860233637155 0 0 0 0 -33.081354093446862 95.856306348447106 0 95.856306348447106 183.51599312599865 0 0 0 0 -37.990489926596638 56.041362479954842 0 56.041362479954842 91.457409137277864 0 0 0 0 27.317797727708239 129.50897579955927 0 129.50897579955927 46.68687673372915 0 0 0 0 47.541199046507245 169.85911058451165 0 169.85911058451165 110.59281611618644 0 0 0 0 138.14178334485041 63.984191629555426 0 63.984191629555426 -28.596067903687072 0 0 0 0 54.044554201187566 178.16266791141243 0 178.16266791141243 75.9620798278047 0 0 0 0 -10.633127971770591 81.708189887202025 0 81.708189887202025 -15.081358198338421 0 0 0 0 7.1354563197936614 30.156141589495064 0 30.156141589495064 -1.7568796579532204 0 0 0 0 78.684283352384227 68.091312952616136 0 68.091312952616136 -62.417746643346618 0 0 0 0 13.300447078217985 109.57051534923085 0 109.57051534923085 -89.597452093468746 0 0 0 0 -3.7651440952977282 55.680777946889066 0 55.680777946889066 16.630508281974471 0 0 0 0 28.964509637975368 21.167087038984505 0 21.167087038984505 11.276549990427554 0 0 0 0 16.570451804887853 28.729191316448123 0 28.729191316448123 -3.7356563183275284 0 0 0 0 324.34575206911541 292.65519278215652 0 292.65519278215652 -689.53512399795 0 0 0 0 7.9009830808014669 46.045278868149751 0 46.045278868149751 -8.1867965882040039 0 0 0 0 -9.0039461019187002 63.844270723646332 0 63.844270723646332 -11.951141009922139 0 0 0 0 -4.8481067672749987 37.83933661398703 0 37.83933661398703 -4.6143796039589517 0 0 0 0 -0.7761501888693374 57.827358591676536 0 57.827358591676536 -32.703511553988562 0 0 0 0 22.575453466444742 86.336929618199065 0 86.336929618199065 -0.091835865154280327 0 0 0 0 27.919056900020223 103.47635720425023 0 103.47635720425023 24.273981680104043 0 0 0 0 29.496487880031736 60.958397572368483 0 60.958397572368483 29.252617790611652 0 0 0 0 -34.000422651150359 40.086282787522208 0 40.086282787522208 -0.18752105767731564 0 0 0 0 35.541068128077313 135.66837188592763 0 135.66837188592763 -165.87533500219433 0 0 0 0 -10.545437806344125 81.376711218086712 0 81.376711218086712 90.652504139565281 0 0 0 0 38.262058196211001 53.310957774821873 0 53.310957774821873 -222.09932589626987 0 0 0 0 9.042566762327624 97.858291845062922 0 97.858291845062922 -121.6250327010348 0 0 0 0 3.9685519825466713 12.013634183595201 0 12.013634183595201 13.41401991886346 0 0 0 0 95.332047622578102 -36.128180000960128 0 -36.128180000960128 -127.90700038700015 0 0 0 0 6.0263512594771669 45.717581281524616 0 45.717581281524616 -6.3029431182119424 0 0 0 0 -30.563145997926767 218.46898974233591 0 218.46898974233591 53.848703059047693 0 0 0 0 25.437113967105688 54.148981453497981 0 54.148981453497981 -6.5017895253986353 0 0 0 0 13.035548247935367 47.035225502680987 0 47.035225502680987 -8.4837655970768537 0 0 0 0 42.972791728953837 80.685535113282526 0 80.685535113282526 39.310420668806159 0 0 0 0 56.274334144035095 75.322204479385789 0 75.322204479385789 6.0663467923902488 0 0 0 0 16.280930367182009 71.303420662079589 0 71.303420662079589 -32.627119396929629 0 0 0 0 0.23022038257039412 12.136807663849169 0 12.136807663849169 -0.68841353987885867 0 0 0 0 16.692623029928654 67.140898427984212 0 67.140898427984212 -55.017975578826736 0 0 0 0 25.428131093956097 66.711800485963479 0 66.711800485963479 17.086640935326471 0 0 0 0 72.926942290745501 44.444587685266015 0 44.444587685266015 63.509006313281134 0 0 0 0 12.740180391178001 47.765128365135752 0 47.765128365135752 1.5170249980001245 0 0 0 0 24.795271155482865 46.885452046726982 0 46.885452046726982 26.657315175878125 0 0 0 0 6.7479329602875282 51.524246216420977 0 51.524246216420977 12.615464335300715 0 0 0 0 1.048653322737664 56.678225516436214 0 56.678225516436214 28.284316585821216 0 0 0 0 3.4916773815930355 67.064109067483514 0 67.064109067483514 56.885676409387088 0 0 0 0 8.8739939864899497 112.48265501011338 0 112.48265501011338 68.60961932837381 0 0 0 0 13.809971017517285 10.587482472512427 0 10.587482472512427 4.5732057786255211 0 0 0 0 1.2248867508460535 139.91941085330836 0 139.91941085330836 -29.777070545533206 0 0 0 0 -7.9600330433605109 37.417309268850232 0 37.417309268850232 36.877145631596903 0 0 0 0 -48.376750572046149 71.753014248584805 0 71.753014248584805 20.448523855367966 0 0 0 0 -2.9303747590165585 86.597604585869703 0 86.597604585869703 -28.904352249228396 0 0 0 0 -19.759906754006806 94.759979294096411 0 94.759979294096411 -24.529922407047707 0 0 0 0 25.571387359215123 51.180224462483466 0 51.180224462483466 38.207881177946234 0 0 0 0 -5.4896146432001842 120.94029714749558 0 120.94029714749558 43.866980164078996 0 0 0 0 33.002027464246765 58.001324066043367 0 58.001324066043367 31.71264773265321 0 0 0 0 -1.0722487627645023 100.41405648289947 0 100.41405648289947 -32.320517962340546 0 0 0 0 66.511896997097168 67.625576352931688 0 67.625576352931688 -41.769387217393273 0 0 0 0 45.312017448662573 75.444005972497536 0 75.444005972497536 6.7731718487698345 0 0 0 0 78.808728907024488 99.597387796879048 0 99.597387796879048 35.652259065842372 0 0 0 0 -4.7592933574342169 88.763572341733379 0 88.763572341733379 -49.747399454001879 0 0 0 0 79.077804094820749 101.30450756712526 0 101.30450756712526 46.133304717528517 0 0 0 0 -32.370469208910436 86.888563481978053 0 86.888563481978053 -21.16946217387158 0 0 0 0 -13.327402886323398 58.37161324833869 0 58.37161324833869 -21.269983934849733 0 0 0 0 13.47023501395222 24.682713067816564 0 24.682713067816564 10.623109430806664 0 0 0 0 -28.515662668673031 61.005744144995333 0 61.005744144995333 -47.012611346435733 0 0 0 0 -12.776432020938955 87.049790617813414 0 87.049790617813414 -10.932036208643694 0 0 0 0 -28.463767884881236 64.237204579570971 0 64.237204579570971 12.933006791572552 0 0 0 0 -7.1631454586749896 53.488927648984827 0 53.488927648984827 -6.2108656132622855 0 0 0 0 10.991773844252748 48.424554266168343 0 48.424554266168343 -26.969511451214203 0 0 0 0 -3.9961406503592798 38.714331356892842 0 38.714331356892842 23.224266984409951 0 0 0 0 -39.99710020152196 42.774066144604419 0 42.774066144604419 -8.4221449298964899 0 0 0 0 -21.882981156406458 75.638600815997052 0 75.638600815997052 -18.760837789766811 0 0 0 0 -3.7158341127440053 8.1160076997216493 0 8.1160076997216493 -6.415617363312748 0 0 0 0 -88.068188915647625 -24.804053755484347 0 -24.804053755484347 201.61060726770665 0 0 0 0 -11.554629787729937 69.052127014208963 0 69.052127014208963 8.9134353601402836 0 0 0 0 -24.371996626109649 24.170574830509025 0 24.170574830509025 -17.225673955329228 0 0 0 0 11.489743364159949 54.618525522651908 0 54.618525522651908 -24.879704823633801 0 0 0 0 30.666020790609764 50.521949003195914 0 50.521949003195914 -24.06669796206188 0 0 0 0 -5.0954252855444793 100.33563721631799 0 100.33563721631799 22.298031462254585 0 0 0 0 -191.99296005751239 -47.538090003450634 0 -47.538090003450634 179.3994204161645 0 0 0 0 0.33869054453741043 4.3639193736573816 0 4.3639193736573816 4.3467999010031804 0 0 0 0 0.3242821101739537 46.057059812297666 0 46.057059812297666 52.849812891508918 0 0 0 0 41.793401948190876 44.431589113752125 0 44.431589113752125 38.754936825171171 0 0 0 0 -143.71350604554755 69.311838299916417 0 69.311838299916417 26.772064044838771 0 0 0 0 0.76378719757232005 5.8235061739749199 0 5.8235061739749199 12.676827140198554 0 0 0 0 -15.672108680286328 15.594231632429 0 15.594231632429 6.1948363341653021 0 0 0 0 -34.387006023477625 54.188881736198255 0 54.188881736198255 14.587708797698724 0 0 0 0 -0.06223253151983954 16.57122108949261 0 16.57122108949261 20.734445414098445 0 0 0 0 -10.58891940995818 20.448251750131021 0 20.448251750131021 21.524265446088975 0 0 0 0 -3.2988900748023298 19.145787467969058 0 19.145787467969058 18.70401465195755 0 0 0 0 -17.033850521416298 14.012425642776762 0 14.012425642776762 -3.4632571993825536 0 0 0 0 -3.5013842285193064 7.0758833311619469 0 7.0758833311619469 19.746743196503417 0 0 0 0 1.4993292858066525 41.429410065828961 0 41.429410065828961 40.154474753406248 0 0 0 0 -3.0319021762160787 27.274976482552404 0 27.274976482552404 -12.650629085662416 0 0 0 0 -11.761061367258662 24.767989678468439 0 24.767989678468439 44.248686164013634 0 0 0 0 0.43563905780609957 24.710630309135411 0 24.710630309135411 -14.528727060590256 0 0 0 0 -13.247357368411031 43.786227213684469 0 43.786227213684469 54.470473002053041 0 0 0 0 58.556440191838192 -10.27824963603598 0 -10.27824963603598 -144.87644127590465 0 0 0 0 -11.853292863468141 22.070561368318522 0 22.070561368318522 -0.24578074178134557 0 0 0 0 8.8653011450223858 46.264091408193053 0 46.264091408193053 -2.8888745647564065 0 0 0 0 -281.08676445417404 -504.92993758535158 0 -504.92993758535158 -528.25095308024902 0 0 0 0 1278.9043230631505 789.46655812236713 0 789.46655812236713 340.39845177084499 0 0 0 0 -765.58127858366424 776.64577637122056 0 776.64577637122056 647.54921596340137 0 0 0 0 -15.386158309532675 -32.844638405991873 0 -32.844638405991873 241.97932937064616 0 0 0 0 8.0181039948365651 183.98141656286316 0 183.98141656286316 107.3026477636231 0 0 0 0 30.631456038993889 61.399643480188217 0 61.399643480188217 48.289695511788068 0 0 0 0 628.46927717718063 855.42257554992102 0 855.42257554992102 319.88656462251674 0 0 0 0 2.6700558519615356 13.030077581716682 0 13.030077581716682 0.17056702967133219 0 0 0 0 -1.5943801493413048 171.13967282886006 0 171.13967282886006 -385.33084723204956 0 0 0 0 -13.219217354868306 89.205396387915243 0 89.205396387915243 -251.88588836253621 0 0 0 0 -12.712535391023266 78.676469429992721 0 78.676469429992721 -105.6497482417617 0 0 0 0 -23.043643428775795 81.293552775195394 0 81.293552775195394 120.06014017775306 0 0 0 0 -43.507530940420111 122.38650977128418 0 122.38650977128418 -82.61562696180772 0 0 0 0 -38.651261021004757 76.601356370098074 0 76.601356370098074 -62.730208933004178 0 0 0 0 -17.641056542313891 119.51081862900173 0 119.51081862900173 -143.03133215442358 0 0 0 0 -55.235133842837968 169.39596022916521 0 169.39596022916521 -113.0497896981542 0 0 0 0 -52.901059782765515 175.18881991276794 0 175.18881991276794 -99.646669924113667 0 0 0 0 -54.832065502778278 157.68516281477059 0 157.68516281477059 -93.155519990905304 0 0 0 0 -79.624778380348289 185.89397782620654 0 185.89397782620654 -48.79391437585582 0 0 0 0 -83.907198950324528 200.39533281688273 0 200.39533281688273 -92.905437033070484 0 0 0 0 -86.788751599262469 220.67302686254698 0 220.67302686254698 -0.26736064167926088 0 0 0 0 -47.635911832068814 206.88499939361645 0 206.88499939361645 -174.63067527308885 0 0 0 0 -57.200978204222338 159.16126698194057 0 159.16126698194057 -205.59965711244149 0 0 0 0 -24.831473222875502 239.87987340495602 0 239.87987340495602 -117.36214315997495 0 0 0 0 -3.5125473798871099 169.64543142598086 0 169.64543142598086 -208.41396804570104 0 0 0 0 104.56331738150766 330.60330040812187 0 330.60330040812187 0.8126677802647464 0 0 0 0 2.1425957322684894 10.653015615109382 0 10.653015615109382 1.2241002474299947 0 0 0 0 -65.900937314218027 161.74759869875197 0 161.74759869875197 -245.74411407235311 0 0 0 0 88.075322490938561 250.55980704685135 0 250.55980704685135 -690.05085754544416 0 0 0 0 -90.560760883177863 141.035426786475 0 141.035426786475 -199.67277719777849 0 0 0 0 -88.998357306103571 208.78167068581388 0 208.78167068581388 -243.60329383049975 0 0 0 0 28.278340390927042 -105.56720844590745 0 -105.56720844590745 -298.23128668579739 0 0 0 0 60.03330405986344 16.629271027588402 0 16.629271027588402 171.31865091322106 0 0 0 0 -55.719534124422353 160.7462140796415 0 160.7462140796415 470.55891892398176 0 0 0 0 106.69368776384363 22.596109033296671 0 22.596109033296671 142.76512572234788 0 0 0 0 0.88910438453967799 5.7032504397967045 0 5.7032504397967045 0.55058715849382622 0 0 0 0 -38.86130615392176 189.27219517788035 0 189.27219517788035 795.65545185030533 0 0 0 0 252.43507763813977 227.33392458124217 0 227.33392458124217 7.1745478966331575 0 0 0 0 198.57884524196356 -11.748699540404687 0 -11.748699540404687 -27.030639426753623 0 0 0 0 205.66416676342487 161.51761552983953 0 161.51761552983953 -359.76692739826103 0 0 0 0 291.70408708754985 -13.768562647353974 0 -13.768562647353974 -945.87897039713607 0 0 0 0 505.53747357334214 52.849472631358367 0 52.849472631358367 -278.35821100627436 0 0 0 0 381.12999763037078 -405.44424186823562 0 -405.44424186823562 227.88464257025043 0 0 0 0 -0.86968948026475346 1.0246199122623239 0 1.0246199122623239 5.7210765937090855 0 0 0 0 -67.489116899378132 34.290398233319138 0 34.290398233319138 10.976071325188968 0 0 0 0 -53.835092437439016 75.343699583856505 0 75.343699583856505 -0.18107211658868161 0 0 0 0 38.765605351683917 69.146034419143689 0 69.146034419143689 0.13512912794249132 0 0 0 0 -19.628260087571107 5.32203518114693 0 5.32203518114693 -10.8139452469768 0 0 0 0 1.5281709710768325 9.2899427904945355 0 9.2899427904945355 3.4731762978486245 0 0 0 0 2.627768621624174 4.7315510172354323 0 4.7315510172354323 -21.895765741564958 0 0 0 0 -1.9708119808055926 59.789349664235488 0 59.789349664235488 -38.705098418586203 0 0 0 0 51.302214152034139 -1.4421528430684702 0 -1.4421528430684702 -51.935259984678851 0 0 0 0 -1.5726398350018016 3.0757366336470682 0 3.0757366336470682 -5.2869761713208163 0 0 0 0 -17.057930514667532 7.2279563785828032 0 7.2279563785828032 7.9726796420291066 0 0 0 0 71.291255749441916 15.364084035958513 0 15.364084035958513 -41.112442958081374 0 0 0 0 -15.570300295124866 4.1643960050604392 0 4.1643960050604392 -0.45594277832083208 0 0 0 0 -46.677455115339399 20.351677553587251 0 20.351677553587251 -0.010573103383649141 0 0 0 0 -7.10807562861919 7.3576892348537513 0 7.3576892348537513 -0.0045730244601145387 0 0 0 0 -7.1849917636018859 4.0550449875975119 0 4.0550449875975119 3.445134821365798 0 0 0 0 -8.1308572742111362 -3.5164162419097238 0 -3.5164162419097238 0.17738025713344996 0 0 0 0 119.78549874614691 -42.929827606945764 0 -42.929827606945764 13.860411937319441 0 0 0 0 -59.592512243514648 29.857537942167255 0 29.857537942167255 0.062122543322638966 0 0 0 0 -17.687339467171114 20.792528941034107 0 20.792528941034107 -10.410564868128859 0 0 0 0 -12.27015869005524 0.43484008716256994 0 0.43484008716256994 0.43015721791476835 0 0 0 0 -20.596207952865768 4.9791061744263061 0 4.9791061744263061 16.838648484800729 0 0 0 0 0.11149801904684864 7.0283094652113505 0 7.0283094652113505 -23.418665948847774 0 0 0 0 2.558224012642313 -0.84489647480222629 0 -0.84489647480222629 -20.629320548061514 0 0 0 0 -39.2164577403164 31.191113168744778 0 31.191113168744778 -21.345400836216868 0 0 0 0 2.9766293993388189 11.086876087674 0 11.086876087674 -11.551413682264695 0 0 0 0 -2.1070244622242171 29.746386198501568 0 29.746386198501568 -23.970017397376068 0 0 0 0 1.482565344122122 70.699795372387598 0 70.699795372387598 -22.723694862681441 0 0 0 0 -4.1362867719247163 4.646617434726636 0 4.646617434726636 -5.2235362771613723 0 0 0 0 -13.324385356303537 -3.0415572403726401 0 -3.0415572403726401 -6.6622489568544552 0 0 0 0 -2.4131666750399745 59.564316915140807 0 59.564316915140807 10.730230240616947 0 0 0 0 2.5791315379446509 10.993295991666571 0 10.993295991666571 -27.38663636684538 0 0 0 0 28.998719463852467 36.265262661167071 0 36.265262661167071 -30.952066256781109 0 0 0 0 130.89093887484341 20.755326430706191 0 20.755326430706191 -62.409487495067879 0 0 0 0 -15.832283057214227 33.328380343678873 0 33.328380343678873 -40.728881459566765 0 0 0 0 -5.4679683707092295 7.0553933072040991 0 7.0553933072040991 -8.1087665772224682 0 0 0 0 4.4808034050067818 16.319977985197369 0 16.319977985197369 -7.4690203683123286 0 0 0 0 -4.3590087060147198 42.96359612201195 0 42.96359612201195 -35.366483693243936 0 0 0 0 10.494886472530197 9.3839354628580622 0 9.3839354628580622 -39.716408898340887 0 0 0 0 15.446865563323115 23.214738090603035 0 23.214738090603035 -31.065096251111697 0 0 0 0 -102.10144891106756 466.74506333768659 0 466.74506333768659 -396.55147861191654 0 0 0 0 54.688541703420924 32.769500309746945 0 32.769500309746945 55.65760628200951 0 0 0 0 -2.99853832154065 3.7080996503100181 0 3.7080996503100181 0.77586266409826976 0 0 0 0 33.701880920998519 26.255601122058579 0 26.255601122058579 -32.888798282081552 0 0 0 0 -74.104408092047379 -10.240979031099414 0 -10.240979031099414 49.649153671751264 0 0 0 0 -59.001757746631938 59.207879371984745 0 59.207879371984745 -16.097737015836174 0 0 0 0 51.410325902688783 -4.0084163785359124 0 -4.0084163785359124 -122.72939216763189 0 0 0 0 5.0216412812075522 21.572592706730546 0 21.572592706730546 -39.52591553058403 0 0 0 0 24.725165573852166 35.332491315447555 0 35.332491315447555 -3.6940444671279238 0 0 0 0 17.520796285380129 52.047046072541434 0 52.047046072541434 -4.9892473383224569 0 0 0 0 5.9568568728525975 21.914792718037916 0 21.914792718037916 -6.8165801691874037 0 0 0 0 7.100578715514942 37.761135625662945 0 37.761135625662945 -19.158856934835683 0 0 0 0 11.892909975338398 46.777841966849195 0 46.777841966849195 -39.841166797913559 0 0 0 0 99.062394159380347 34.535392696765484 0 34.535392696765484 -5.0732285855337977 0 0 0 0 -5.388848321246769 48.332546113808348 0 48.332546113808348 41.29426453151973 0 0 0 0 48.319915389525704 103.2631312278827 0 103.2631312278827 37.440018509863876 0 0 0 0 126.57238059291558 12.896133470552741 0 12.896133470552741 -11.958731563732726 0 0 0 0 12.064160750592009 14.226293078807757 0 14.226293078807757 0.79846595698245437 0 0 0 0 0.43624200335213459 33.665390075125288 0 33.665390075125288 -23.537832221438237 0 0 0 0 -0.59195795643609017 93.85338564706035 0 93.85338564706035 67.676816779945511 0 0 0 0 20.356129633611999 45.658115499005362 0 45.658115499005362 -15.238713277707575 0 0 0 0 49.017537756531965 48.524896145041566 0 48.524896145041566 -5.5683444212481845 0 0 0 0 1.1493395890574902 30.332035157131031 0 30.332035157131031 -18.048677164711989 0 0 0 0 29.608126838868941 56.209289415777782 0 56.209289415777782 15.122217399577494 0 0 0 0 6.8975722698340292 34.789157292384004 0 34.789157292384004 -21.872749423058963 0 0 0 0 3.0460189875448123 31.042871179175563 0 31.042871179175563 -18.550360115710646 0 0 0 0 19.579159457921492 34.694836277867296 0 34.694836277867296 -14.800069793882756 0 0 0 0 6.3855091686709784 35.726837186142802 0 35.726837186142802 4.1034815119346604 0 0 0 0 12.429021062448243 32.747732246059961 0 32.747732246059961 -4.0948239421046537 0 0 0 0 22.960447358025704 49.597530863116845 0 49.597530863116845 4.7581218635605182 0 0 0 0 14.877139866075595 30.174335562987835 0 30.174335562987835 -33.815421811130363 0 0 0 0 20.349594217848221 33.045512780232229 0 33.045512780232229 -11.551587100217574 0 0 0 0 15.028139923915774 29.895545893842353 0 29.895545893842353 -18.23369880379164 0 0 0 0 8.7084313733066665 51.005928543090704 0 51.005928543090704 -55.81459366909985 0 0 0 0 0.99424164777155966 47.11157572871889 0 47.11157572871889 -57.212414598616306 0 0 0 0 25.120907929318491 57.093477035348769 0 57.093477035348769 28.139761603772058 0 0 0 0 86.466735692603834 104.4943647077107 0 104.4943647077107 18.38415595699189 0 0 0 0 13.468826863815707 25.348161240252338 0 25.348161240252338 -15.853974778840723 0 0 0 0 21.195536194369197 31.414767776150256 0 31.414767776150256 -12.468478780327132 0 0 0 0 90.196823461272288 93.878804895372014 0 93.878804895372014 23.922667860355432 0 0 0 0 16.486926333064076 29.09543014917557 0 29.09543014917557 -15.734470592539196 0 0 0 0 -16.481535589811131 29.535922254203356 0 29.535922254203356 30.545959831264099 0 0 0 0 6.1413533562317904 41.926506459522528 0 41.926506459522528 4.2754766254236642 0 0 0 0 32.899287339911098 65.548868639409193 0 65.548868639409193 5.886190950172022 0 0 0 0 2.9067178941849932 26.36189891896214 0 26.36189891896214 -5.0644465253166118 0 0 0 0 47.83939819119405 61.858059947320726 0 61.858059947320726 29.142510933335871 0 0 0 0 23.55761921859812 49.617781885332079 0 49.617781885332079 11.285594491520897 0 0 0 0 32.586600819597209 27.320789441151348 0 27.320789441151348 -33.856350358231509 0 0 0 0 23.732502728986901 25.211723898415343 0 25.211723898415343 -28.092434984904884 0 0 0 0 3.0928215151574676 40.673221211793816 0 40.673221211793816 11.65880671760965 0 0 0 0 10.583961538916611 29.558026848507311 0 29.558026848507311 6.0904767320744213 0 0 0 0 22.171999803744256 35.976477385614999 0 35.976477385614999 10.247830984939355 0 0 0 0 33.889747812994756 46.893731402233243 0 46.893731402233243 18.352978673472535 0 0 0 0 -427.05273023142945 897.8733234188403 0 897.8733234188403 919.38211365180905 0 0 0 0 84.72610875646933 98.51632873271592 0 98.51632873271592 -125.40026809568735 0 0 0 0 -35.69330829003593 113.96250951676848 0 113.96250951676848 -227.0120513720758 0 0 0 0 358.17270307255967 184.54314655876806 0 184.54314655876806 -173.95480136654805 0 0 0 0 -2.1268843764264602 105.24105695619073 0 105.24105695619073 -123.25209223765705 0 0 0 0 9.7092950490697518 33.217864261153558 0 33.217864261153558 -17.333315794917951 0 0 0 0 -1.3741272169637746 36.714172012985671 0 36.714172012985671 5.4608287296781555 0 0 0 0 -598.03704757608648 -0.10853201427016756 0 -0.10853201427016756 238.58006762771402 0 0 0 0 56.800290692277486 50.725588016168331 0 50.725588016168331 2.7163516560540302 0 0 0 0 -12.125838936422952 160.42501707840711 0 160.42501707840711 -217.45990055322181 0 0 0 0 17.690318356772224 52.648936148289067 0 52.648936148289067 9.6660342088163134 0 0 0 0 37.481296903527848 31.042087127566674 0 31.042087127566674 -46.260183671789491 0 0 0 0 20.875070180627517 36.205925872927764 0 36.205925872927764 -20.21161479735747 0 0 0 0 34.759533498558085 32.449506093574314 0 32.449506093574314 -32.714381437992131 0 0 0 0 60.515403340947771 57.669782477696046 0 57.669782477696046 4.7740807416836333 0 0 0 0 1.7976214570662705 56.712301135950838 0 56.712301135950838 -56.42235984592844 0 0 0 0 4.9623447689518798 46.391524814433069 0 46.391524814433069 -88.481412478737184 0 0 0 0 4.7047735959959596 1.9431551204469031 0 1.9431551204469031 0.052059439963983323 0 0 0 0 239.61441958033174 -34.136580373935431 0 -34.136580373935431 -60.846022328420077 0 0 0 0 -7.3604888501722598 -43.765605611231877 0 -43.765605611231877 150.11898008669232 0 0 0 0 687.02441361064848 270.11835562503984 0 270.11835562503984 -217.33373033157113 0 0 0 0 28.391956546412985 56.254950588963766 0 56.254950588963766 30.327803899985156 0 0 0 0 3.4110091886832379 50.159814989063307 0 50.159814989063307 29.13268169564617 0 0 0 0 12.398360256447461 37.337954008385893 0 37.337954008385893 -22.181458807265173 0 0 0 0 -76.103876215780474 77.004599870848324 0 77.004599870848324 52.084783119629719 0 0 0 0 -3.1570335729193175 82.714571179400082 0 82.714571179400082 39.684342105756514 0 0 0 0 -4.7026642748152199 46.719553929344443 0 46.719553929344443 -6.1476043613083817 0 0 0 0 -1.5832139369740617 41.263854492164683 0 41.263854492164683 68.492435843058047 0 0 0 0 10.429408726991142 12.268501687635478 0 12.268501687635478 -11.152171847660043 0 0 0 0 -5.1691786222654628 61.775738688324054 0 61.775738688324054 20.755634547385853 0 0 0 0 27.869532074297183 63.47506148138649 0 63.47506148138649 31.184555152559938 0 0 0 0 -1.6277459326192911 66.430046810708518 0 66.430046810708518 4.175139516722993 0 0 0 0 -3.7063575469946954 75.109633557964116 0 75.109633557964116 3.9426616642585941 0 0 0 0 -0.78189207239441316 46.168076248953767 0 46.168076248953767 -16.988210347094338 0 0 0 0 1.4357551814646285 66.423040864428913 0 66.423040864428913 -13.271458541537868 0 0 0 0 164.70577281805163 204.604024254244 0 204.604024254244 -216.82433649865561 0 0 0 0 -167.60820672227419 29.073430940479739 0 29.073430940479739 157.69691022124607 0 0 0 0 30.666358836988707 61.953175790748674 0 61.953175790748674 56.557715833857344 0 0 0 0 -10.497551726875827 226.95585246075643 0 226.95585246075643 -44.369461708629387 0 0 0 0 1.5369746577301271 2.6704441411653761 0 2.6704441411653761 -14.8608371897962 0 0 0 0 16.303409442771226 287.31876321627351 0 287.31876321627351 -13.448054351290921 0 0 0 0 134.57101569825318 391.15715615113731 0 391.15715615113731 -34.776630597538315 0 0 0 0 -115.56689404827921 219.63238493612153 0 219.63238493612153 137.99967760842992 0 0 0 0 -72.608579119754722 40.336133401287952 0 40.336133401287952 245.76409877243714 0 0 0 0 -203.68077081298179 197.21729249351847 0 197.21729249351847 64.220991205555038 0 0 0 0 -6.5826672519661429 24.401460184356665 0 24.401460184356665 23.824607522647369 0 0 0 0 26.621825446083122 23.285895063798847 0 23.285895063798847 -8.4200235854011112 0 0 0 0 -20.227590654743835 60.380020225609769 0 60.380020225609769 -40.509150612910162 0 0 0 0 7.2804119315260323 58.830841608185438 0 58.830841608185438 12.219056550318783 0 0 0 0 -10.231089411536232 72.168775503632787 0 72.168775503632787 17.910681320616277 0 0 0 0 -8.2313160281337332 55.290647957808687 0 55.290647957808687 -9.4248898919322528 0 0 0 0 6.5168969568676971 34.541278396229529 0 34.541278396229529 9.7198194417180162 0 0 0 0 5.8329398830392165 43.185605982100242 0 43.185605982100242 -12.769241643050918 0 0 0 0 -0.37671850733750034 56.188453139780904 0 56.188453139780904 -9.6031679650968726 0 0 0 0 -13.894737363189051 66.576271562695183 0 66.576271562695183 23.099549330610898 0 0 0 0 -12.344599337526205 29.32150163934979 0 29.32150163934979 -13.238208797378803 0 0 0 0 -12.760182096382778 38.664037716778694 0 38.664037716778694 -13.83514562662458 0 0 0 0 16.775443719685427 73.148728719665087 0 73.148728719665087 23.204162770508674 0 0 0 0 -7.4925825823738705 89.158091233457526 0 89.158091233457526 18.267043617146555 0 0 0 0 2.2272654270879997 54.741917489972309 0 54.741917489972309 15.743406929623575 0 0 0 0 -196.13193864543427 -3.8269201446091756 0 -3.8269201446091756 -12.889760143851163 0 0 0 0 -8.1104954360707779 88.156611369628081 0 88.156611369628081 28.140436724876054 0 0 0 0 -26.667652050992388 50.098107722201675 0 50.098107722201675 -33.407717531575599 0 0 0 0 13.600217358560258 32.982722501032015 0 32.982722501032015 -1.3521595156248623 0 0 0 0 -194.51477106020684 81.354976167662244 0 81.354976167662244 26.555938714984222 0 0 0 0 -117.22429046532488 53.760061643770314 0 53.760061643770314 19.509779940955923 0 0 0 0 -45.246266297705006 96.621825159927539 0 96.621825159927539 18.758520779389073 0 0 0 0 -185.83705914033635 -243.20829342005891 0 -243.20829342005891 -79.141743286258134 0 0 0 0 -154.02682654003729 73.236907565122237 0 73.236907565122237 112.11282456507615 0 0 0 0 563.42209195479518 -126.77439027260698 0 -126.77439027260698 -95.804571475600824 0 0 0 0 -51.886961180563958 174.16751335618028 0 174.16751335618028 642.58899433612532 0 0 0 0 725.31175766859087 157.38406326890981 0 157.38406326890981 -148.35051391618617 0 0 0 0 164.74780747802288 41.508389881862968 0 41.508389881862968 -155.80845343469991 0 0 0 0 84.242461758971331 -26.019633931478893 0 -26.019633931478893 -188.34450503694825 0 0 0 0 91.328458741729264 292.04598498158157 0 292.04598498158157 -221.4152729739435 0 0 0 0 372.81222646238894 119.54942304701399 0 119.54942304701399 -0.31820894274278544 0 0 0 0 10.177367921773111 -292.52081664760044 0 -292.52081664760044 -421.60356696082454 0 0 0 0 1.5536128841869186 3.9443505638711542 0 3.9443505638711542 2.3294362592129119 0 0 0 0 18.869541035825307 17.445672223046159 0 17.445672223046159 7.2768689558378981 0 0 0 0 53.261486481729662 416.04461750754854 0 416.04461750754854 742.02522164006223 0 0 0 0 338.91263085588434 118.19391052409264 0 118.19391052409264 -239.25528231236967 0 0 0 0 -661.36210934492556 1.6290105777879944 0 1.6290105777879944 1256.3196454886347 0 0 0 0 8.8431278358154373 4.2738855839133123 0 4.2738855839133123 2.5724988300460723 0 0 0 0 267.08140904648462 27.723074725086917 0 27.723074725086917 -306.70439208377502 0 0 0 0 -78.307775015397056 155.91073492764917 0 155.91073492764917 -115.73037703293085 0 0 0 0 -215.80408346645709 331.30601842927354 0 331.30601842927354 -330.61123713612324 0 0 0 0 -348.82783942855167 -119.18460168035381 0 -119.18460168035381 -30.375554070589715 0 0 0 0 -497.5734896241047 201.73151176627289 0 201.73151176627289 -25.073376911106607 0 0 0 0 -168.17543389799539 59.723208101153432 0 59.723208101153432 35.968254859719309 0 0 0 0 -163.12621917942306 85.680720523832861 0 85.680720523832861 70.034285232140974 0 0 0 0 -206.78433773615507 241.6211596674284 0 241.6211596674284 -57.355694884332479 0 0 0 0 -86.064139515627176 116.86529645803967 0 116.86529645803967 52.021877405502892 0 0 0 0 -96.903607791442482 174.93675899059963 0 174.93675899059963 84.400802937074332 0 0 0 0 237.24060119399655 -3.3765671053552069 0 -3.3765671053552069 -392.44401884400577 0 0 0 0 -38.750396529123833 86.225870672056274 0 86.225870672056274 -43.775068739164226 0 0 0 0 -139.9451069439674 188.79014915438893 0 188.79014915438893 296.17037437546242 0 0 0 0 21.77299875922472 140.39592968175566 0 140.39592968175566 -227.49736116592976 0 0 0 0 -10.428327032635764 5.7220485611663818 0 5.7220485611663818 37.306540223758162 0 0 0 0 -50.111947440644144 103.91439778135828 0 103.91439778135828 185.26238545743399 0 0 0 0 -10.163661382533661 51.462955100261553 0 51.462955100261553 -32.74374732571971 0 0 0 0 -40.213353945509198 46.083156319572339 0 46.083156319572339 -7.6010172781122378 0 0 0 0 -25.380422203705166 71.722777047976706 0 71.722777047976706 138.14693577279104 0 0 0 0 -53.796491757282638 94.060769388459448 0 94.060769388459448 122.79514445526729 0 0 0 0 -150.96240183967893 141.7398051396849 0 141.7398051396849 159.88063183595659 0 0 0 0 -69.693737379442609 52.786629481855925 0 52.786629481855925 80.509085694822716 0 0 0 0 6.1466497867804719 198.08124276558374 0 198.08124276558374 176.83369749986741 0 0 0 0 -36.615315635848674 30.642415873626305 0 30.642415873626305 69.521352732437663 0 0 0 0 -66.448325684998053 26.53303595774878 0 26.53303595774878 94.071792221977375 0 0 0 0 -3.2785926410288084 96.360313418103033 0 96.360313418103033 117.00884783419315 0 0 0 0 5.4218982066740864 79.427523096113873 0 79.427523096113873 103.83591869808151 0 0 0 0 -4.7583047972875647 71.807738943156437 0 71.807738943156437 29.866964355425807 0 0 0 0 -24.932124255239614 59.535012608146644 0 59.535012608146644 119.86984545758605 0 0 0 0 1.4962749783953768 59.438819186092587 0 59.438819186092587 50.928227020311169 0 0 0 0 -3.9996469316101866 80.889100144733675 0 80.889100144733675 14.048508583960938 0 0 0 0 -17.646394196623248 55.77108056611695 0 55.77108056611695 -7.4633286638604801 0 0 0 0 8.1877189675333284 40.464580152564622 0 40.464580152564622 30.819419654513922 0 0 0 0 -25.533628208198934 3.9648091193594155 0 3.9648091193594155 35.365399488997355 0 0 0 0 -22.296298742308863 24.327413886254362 0 24.327413886254362 66.621788982120052 0 0 0 0 -9.6097121210405021 11.818090035624209 0 11.818090035624209 23.668419790163171 0 0 0 0 -5.0499723283757021 5.0086078573894213 0 5.0086078573894213 -5.2084789111358418 0 0 0 0 -10.171657907549161 15.306322504936361 0 15.306322504936361 15.255604803940514 0 0 0 0 -35.898115858362871 -6.328639779061632 0 -6.328639779061632 0.58581069877982372 0 0 0 0 -36.523411261514411 -1.9926922976519563 0 -1.9926922976519563 -26.427381742920261 0 0 0 0 -97.058284302147513 -21.655492587133267 0 -21.655492587133267 27.911822485330049 0 0 0 0 -1.1040513132281262 2.1702120397747962 0 2.1702120397747962 -2.8803100940224908 0 0 0 0 129.2324782828 117.05315976923521 0 117.05315976923521 -184.37034313201002 0 0 0 0 -195.70914187816379 76.242850022383209 0 76.242850022383209 127.3688520965643 0 0 0 0 -45.837538983891136 -57.61607583787918 0 -57.61607583787918 71.493817470334761 0 0 0 0 26.224650327087147 98.129104499974346 0 98.129104499974346 117.78564463596558 0 0 0 0 30.447858337356593 -11.803311128882342 0 -11.803311128882342 18.065285218122881 0 0 0 0 27.598849515212351 -37.544122075902123 0 -37.544122075902123 65.984242308928515 0 0 0 0 -20.788808064564364 -19.25109276958392 0 -19.25109276958392 149.58716466132228 0 0 0 0 500.32883601565118 110.6881518302871 0 110.6881518302871 32.145663968432928 0 0 0 0 -0.48709081618778782 0.17739928595193533 0 0.17739928595193533 2.9702174363018798 0 0 0 0 85.379222607749398 17.701962423234363 0 17.701962423234363 14.306965921641677 0 0 0 0 70.134433236249606 24.474266500088561 0 24.474266500088561 -5.2733243036054773 0 0 0 0 57.986247907334473 77.045717239712758 0 77.045717239712758 -37.784699264506344 0 0 0 0 86.877082053091726 10.886420166432799 0 10.886420166432799 -1.0863965897297021 0 0 0 0 76.568555874167942 30.33130929905019 0 30.33130929905019 0.024104278782033361 0 0 0 0 -43.435143249291286 -7.5671859832909831 0 -7.5671859832909831 55.265407634724397 0 0 0 0 7.1910177882673452 6.9860019357292913 0 6.9860019357292913 40.763949065276393 0 0 0 0 6.6422837942955084 29.443559560051654 0 29.443559560051654 7.0536542919289786 0 0 0 0 2.1331736742965859 0.70340647170852577 0 0.70340647170852577 -0.11553086942154778 0 0 0 0 -6.2281532629529579 10.375714277067765 0 10.375714277067765 -0.53362243556193789 0 0 0 0 -0.40642909087881662 2.7122602280701926 0 2.7122602280701926 5.3759509233828737 0 0 0 0 0.48601319859153591 34.249940213296213 0 34.249940213296213 10.125522119734342 0 0 0 0 -7.5814584052786813 59.86510848564285 0 59.86510848564285 16.439382872224087 0 0 0 0 10.201202906682738 18.601776625953789 0 18.601776625953789 13.57513695929083 0 0 0 0 -4.407533274755707 17.268523883809763 0 17.268523883809763 3.1582302928641184 0 0 0 0 -2.1251679450536471 13.656531910692969 0 13.656531910692969 -9.7152317951949101 0 0 0 0 4.8811274877529627 21.075210773294828 0 21.075210773294828 33.554639938071205 0 0 0 0 -10.759244516098988 27.501249614710105 0 27.501249614710105 26.56635103789813 0 0 0 0 3.1214529206044972 54.710371334724186 0 54.710371334724186 3.5635383604894741 0 0 0 0 5.0397927749436349 48.691831154523243 0 48.691831154523243 11.796730452660995 0 0 0 0 -34.994294507312588 59.224794305715477 0 59.224794305715477 12.654147075969377 0 0 0 0 26.73949386991444 62.956519078557903 0 62.956519078557903 14.255283343423798 0 0 0 0 51.790767474041786 61.09672163677169 0 61.09672163677169 25.053627358342055 0 0 0 0 -10.241273070890486 18.416511570679027 0 18.416511570679027 -5.5065865183547373 0 0 0 0 4.9519499477554234 14.130468833670186 0 14.130468833670186 -23.791242936579039 0 0 0 0 -0.41298400391666235 7.1011024532958658 0 7.1011024532958658 5.6849753647177863 0 0 0 0 -28.576920675142901 97.49218672754796 0 97.49218672754796 22.971159269141936 0 0 0 0 55.953237395035103 32.802124557303614 0 32.802124557303614 -14.697822750233172 0 0 0 0 25.36758366696813 56.006551546764967 0 56.006551546764967 -39.437761168024736 0 0 0 0 56.676319739926839 36.277581522401306 0 36.277581522401306 -13.830330535914982 0 0 0 0 -4.7896043424901507 11.775051425189638 0 11.775051425189638 -2.8373960956723749 0 0 0 0 64.95277800221811 18.626794289797544 0 18.626794289797544 1.9597141729391296 0 0 0 0 24.112504652090138 54.084145297965733 0 54.084145297965733 -20.821042553900043 0 0 0 0 63.426289972911945 40.243015270209526 0 40.243015270209526 -27.510901101166382 0 0 0 0 -8.8339773735642666 65.268392956240859 0 65.268392956240859 -12.294672664589598 0 0 0 0 -11.497876849432942 -2.5629106770429644 0 -2.5629106770429644 -76.912536561398156 0 0 0 0 1.1963128342196256 7.1445190769494218 0 7.1445190769494218 5.8543801799106632 0 0 0 0 -46.026177196150002 82.243460511107969 0 82.243460511107969 -2.2885502946592169 0 0 0 0 -11.004372429117211 36.538787662375398 0 36.538787662375398 32.194655162660638 0 0 0 0 89.129752039472805 98.847215714908089 0 98.847215714908089 -52.860002017583611 0 0 0 0 -15.448042074890367 24.5766396833599 0 24.5766396833599 10.312288731948627 0 0 0 0 37.837523846668773 49.347723544065957 0 49.347723544065957 3.5464454922021105 0 0 0 0 4.8439590173462932 15.895616185992743 0 15.895616185992743 -21.696381874477794 0 0 0 0 202.37821916414578 121.51775858178496 0 121.51775858178496 13.276776931423228 0 0 0 0 136.71011718228692 82.336479479461559 0 82.336479479461559 13.097154494200367 0 0 0 0 123.57116898594541 50.744161930226255 0 50.744161930226255 62.470018544659979 0 0 0 0 35.964705338134081 321.20369678669522 0 321.20369678669522 229.18997915917862 0 0 0 0 621.17336026832345 222.44837204919895 0 222.44837204919895 2.1750970304274233 0 0 0 0 0.095951370343833275 -1.0994250646626824 0 -1.0994250646626824 2.2263158076974889 0 0 0 0 -290.65733320845175 89.317296709341463 0 89.317296709341463 112.51747223619896 0 0 0 0 124.73387471720343 39.330792448774446 0 39.330792448774446 -16.503995251674496 0 0 0 0 -5.4581314204115188 284.12492513883626 0 284.12492513883626 166.80511369010492 0 0 0 0 163.32329024946375 284.51935231879179 0 284.51935231879179 161.59327343268524 0 0 0 0 190.06667730229674 326.35175324499141 0 326.35175324499141 222.29518529842608 0 0 0 0 27.841620303603122 -10.813727473253493 0 -10.813727473253493 75.671341940003913 0 0 0 0 285.98470542248106 127.4751941936247 0 127.4751941936247 4.4779728041175986 0 0 0 0 -87.025434180655679 37.807295755056643 0 37.807295755056643 15.111054406012698 0 0 0 0 -46.516428068687674 68.916478074926999 0 68.916478074926999 56.384145412404905 0 0 0 0 56.740168187592644 178.48782023233071 0 178.48782023233071 7.0669476921539172 0 0 0 0 84.329331225992064 180.30237910918368 0 180.30237910918368 255.6307842890983 0 0 0 0 -79.281426340333667 32.18600228474245 0 32.18600228474245 25.873266919468051 0 0 0 0 -1.1034718165501545 -34.067273883318194 0 -34.067273883318194 190.78472463360231 0 0 0 0 64.171009129582671 320.06669080104984 0 320.06669080104984 160.3580351168348 0 0 0 0 167.01980677222309 233.794941018401 0 233.794941018401 34.758844926043821 0 0 0 0 204.41950693464605 103.40474207539955 0 103.40474207539955 -40.786510652978905 0 0 0 0 0.083576282206081487 7.6259799899619622 0 7.6259799899619622 -12.879968921493969 0 0 0 0 -63.319340010755695 154.27912672457023 0 154.27912672457023 385.95970032634068 0 0 0 0 15.577345439523924 60.497804794893455 0 60.497804794893455 34.32843103106643 0 0 0 0 17.633474436040103 47.10412702721937 0 47.10412702721937 -32.319425911822094 0 0 0 0 43.745207473402843 220.92599734267606 0 220.92599734267606 176.10552486826055 0 0 0 0 -28.806630702398252 170.83693083305116 0 170.83693083305116 180.13265201869945 0 0 0 0 -73.594015788812044 25.15863037112419 0 25.15863037112419 32.232857860006874 0 0 0 0 -12.409492953869631 118.50318090222663 0 118.50318090222663 140.35755074358894 0 0 0 0 7.5104924668994499 198.40678943788953 0 198.40678943788953 190.91712761159579 0 0 0 0 8.0588591290937757 44.435006378760121 0 44.435006378760121 -38.817287628527325 0 0 0 0 101.88352013766416 148.46919129088928 0 148.46919129088928 119.95766188037669 0 0 0 0 258.88961980490421 576.09857592791377 0 576.09857592791377 225.78969134719955 0 0 0 0 209.82316265902773 271.33960349302652 0 271.33960349302652 8.8093120489793364 0 0 0 0 340.27819965215167 224.09124900487222 0 224.09124900487222 23.350914510796429 0 0 0 0 301.9423588206846 169.04541568967397 0 169.04541568967397 122.01307365165485 0 0 0 0 271.46427129372023 245.95458317179873 0 245.95458317179873 185.77822155072681 0 0 0 0 361.27484316108166 148.12117647745254 0 148.12117647745254 36.056240756923216 0 0 0 0 97.725029629735218 34.679603102926194 0 34.679603102926194 -27.932845006565913 0 0 0 0 74.432892655695468 63.452967242295927 0 63.452967242295927 -25.576152026216732 0 0 0 0 -167.21950453216414 -78.803903705560515 0 -78.803903705560515 -107.76817579198541 0 0 0 0 -366.6746076781892 355.70416428589579 0 355.70416428589579 -176.87057206742611 0 0 0 0 -134.60658610549581 341.97941750121754 0 341.97941750121754 -361.79530731633713 0 0 0 0 -4.6110741353936078 3.4612051396513834 0 3.4612051396513834 -1.8323183843122166 0 0 0 0 187.42713098873355 109.70946961270101 0 109.70946961270101 -391.72463867774059 0 0 0 0 -279.2098107727943 521.0206099957577 0 521.0206099957577 31.42425602750518 0 0 0 0 210.26130488808485 200.99313300415656 0 200.99313300415656 236.3742048062777 0 0 0 0 6.9219058705421048 400.10776491159049 0 400.10776491159049 438.03134598266115 0 0 0 0 -26.049733230167476 144.05387065090326 0 144.05387065090326 285.27516533487506 0 0 0 0 -281.01816807208002 -41.764431822680443 0 -41.764431822680443 128.55682746625098 0 0 0 0 -17.818794139820966 153.3433288089218 0 153.3433288089218 270.342932293388 0 0 0 0 -37.119634865775879 71.714502625218302 0 71.714502625218302 180.89048751486553 0 0 0 0 87.122156091627403 142.76176221062997 0 142.76176221062997 101.62821311924199 0 0 0 0 39.477386313308671 222.82815145307541 0 222.82815145307541 264.93522366910111 0 0 0 0 -22.379085636857781 48.830143224364292 0 48.830143224364292 132.23927369217563 0 0 0 0 22.159702018238022 57.280686753922055 0 57.280686753922055 68.49579598987475 0 0 0 0 -14.438361741302089 6.8091205086072506 0 6.8091205086072506 -3.7488040712709534 0 0 0 0 -87.599796625672752 95.596058203160283 0 95.596058203160283 88.814195793966064 0 0 0 0 -138.13026603988692 -37.698024778997933 0 -37.698024778997933 -63.786216577296727 0 0 0 0 -32.239987267707875 16.900317608820615 0 16.900317608820615 -92.922766991090612 0 0 0 0 -27.829810041374003 64.42193750421211 0 64.42193750421211 -392.0811824495031 0 0 0 0 -370.54429927616729 3.6365845335967606 0 3.6365845335967606 -52.066189915563882 0 0 0 0 -586.12522889637148 993.30817092110556 0 993.30817092110556 -203.30761275143595 0 0 0 0 -1.4186658725520829 217.17995541133132 0 217.17995541133132 -19.150359039565956 0 0 0 0 22.027322600524428 19.615452699846287 0 19.615452699846287 16.104360844207946 0 0 0 0 -76.238380078866612 36.673771730886074 0 36.673771730886074 43.237190202515194 0 0 0 0 30.108504119477971 27.304555062760357 0 27.304555062760357 8.1207081452400303 0 0 0 0 34.033243617479457 908.9798595211978 0 908.9798595211978 -633.30533443316745 0 0 0 0 276.28153528225084 31.49795172892118 0 31.49795172892118 -1614.3371829637545 0 0 0 0 1.0237076595962726 1502.1186555559354 0 1502.1186555559354 303.61313836892077 0 0 0 0 -94.784284388864762 -643.98784545640956 0 -643.98784545640956 2274.0831439750764 0 0 0 0 63.259122414296144 500.68325253803323 0 500.68325253803323 411.13483388577879 0 0 0 0 7.2900389725659238 4.4011005397325675 0 4.4011005397325675 4.2369062453329036 0 0 0 0 328.82596424638177 196.25143333040614 0 196.25143333040614 -688.94162956461514 0 0 0 0 -0.41806699947632642 207.96329421114461 0 207.96329421114461 105.33449104425381 0 0 0 0 221.58542783620942 188.13243590397906 0 188.13243590397906 92.513379315671045 0 0 0 0 -169.66397482077446 -68.040645893043347 0 -68.040645893043347 189.14708305386011 0 0 0 0 -333.48729636048665 233.07764437521837 0 233.07764437521837 301.35529565358593 0 0 0 0 -138.38188352862198 419.92187767228643 0 419.92187767228643 -324.03823190621915 0 0 0 0 131.88234061782714 56.521689161942049 0 56.521689161942049 -193.18764270050451 0 0 0 0 -334.34940740451566 -481.011863942731 0 -481.011863942731 1415.6418812490956 0 0 0 0 20.110604633129014 17.240053790766012 0 17.240053790766012 14.067465556439856 0 0 0 0 135.55088605752098 1.6296827786991344 0 1.6296827786991344 -89.499685831848183 0 0 0 0 32.975059442218651 39.141408446536275 0 39.141408446536275 15.01249305466267 0 0 0 0 -154.5035094046907 110.83308166324423 0 110.83308166324423 184.38251912295163 0 0 0 0 -93.184409041168692 212.95158608503516 0 212.95158608503516 -39.88096990660415 0 0 0 0 11.479538528015837 -34.782854426259291 0 -34.782854426259291 528.23091771084 0 0 0 0 38.395834162947722 40.507524700547947 0 40.507524700547947 -6.7928368760622106 0 0 0 0 -8.1696834687235764 6.6505867091181017 0 6.6505867091181017 5.7302328038682333 0 0 0 0 13.506014397840602 54.109999224376622 0 54.109999224376622 24.892533480013299 0 0 0 0 9.2646225329663139 73.667316862163716 0 73.667316862163716 55.071521023128298 0 0 0 0 13.166018323418598 44.888038515908022 0 44.888038515908022 34.136050871910683 0 0 0 0 1035.8983103494975 -931.80515469334932 0 -931.80515469334932 1241.7006481732533 0 0 0 0 -559.76864627617761 1241.5767352186376 0 1241.5767352186376 -339.64854885383102 0 0 0 0 -28.756633565156278 13.48541743952628 0 13.48541743952628 25.950605585999313 0 0 0 0 951.53390921148821 842.92795123189717 0 842.92795123189717 -566.41364805640478 0 0 0 0 430.89741629519267 429.20257644505182 0 429.20257644505182 -26.448172674710804 0 0 0 0 -69.784358507726211 560.75920584911728 0 560.75920584911728 -60.365352252061712 0 0 0 0 1003.0884561834382 -6.0668182920774143 0 -6.0668182920774143 -238.30087335898133 0 0 0 0 -601.74435233972326 281.42482152579032 0 281.42482152579032 660.03551223321665 0 0 0 0 8.1864564925903665 7.9155836236882919 0 7.9155836236882919 7.1102738978333377 0 0 0 0 -452.48434452390939 490.64770111838516 0 490.64770111838516 746.280200454843 0 0 0 0 116.6684068634313 147.8926263265439 0 147.8926263265439 7.0402133088355185 0 0 0 0 54.28883170329209 154.09545858867205 0 154.09545858867205 21.273707956352155 0 0 0 0 -3.4968076662808016 42.44156457499048 0 42.44156457499048 31.13044967125461 0 0 0 0 -45.238360511226347 71.71863287629094 0 71.71863287629094 70.492860495440254 0 0 0 0 -7.3965206023209902 54.569387348475686 0 54.569387348475686 54.336759744775634 0 0 0 0 -95.289096287952816 254.08688246075644 0 254.08688246075644 102.52918654972746 0 0 0 0 -29.728170595196843 29.421918106051876 0 29.421918106051876 22.997324071952221 0 0 0 0 111.44924026131503 186.0075305149403 0 186.0075305149403 69.403113034633861 0 0 0 0 -115.06655300624698 116.20874820307654 0 116.20874820307654 73.502382770388067 0 0 0 0 -85.199064721986247 58.836046574060461 0 58.836046574060461 15.2448777041879 0 0 0 0 -89.99831399982213 5.3659659505610762 0 5.3659659505610762 100.07830988061596 0 0 0 0 -18.138840428894426 15.404264006404389 0 15.404264006404389 49.795472517897167 0 0 0 0 436.59397546040418 131.59541215153331 0 131.59541215153331 11.388158077708795 0 0 0 0 -137.15407009861156 106.81209976683658 0 106.81209976683658 31.333866250388382 0 0 0 0 -44.526379262650153 76.167462231838726 0 76.167462231838726 16.155526893669958 0 0 0 0 530.08319194917567 120.60364471247885 0 120.60364471247885 -113.83900751956389 0 0 0 0 95.880236045268248 38.384257991936465 0 38.384257991936465 -25.994562597774348 0 0 0 0 131.04274297284428 207.84262128281989 0 207.84262128281989 111.84675317135043 0 0 0 0 181.65089120544144 37.629319573308749 0 37.629319573308749 82.284635557467482 0 0 0 0 327.85549618690857 200.9499209191199 0 200.9499209191199 48.979063213890186 0 0 0 0 78.156962898512575 167.75330256562302 0 167.75330256562302 138.44573041944386 0 0 0 0 1294.3577490220487 330.69598058165138 0 330.69598058165138 -58.389153476462525 0 0 0 0 1137.504355927289 -1068.6778737292479 0 -1068.6778737292479 -493.088422011082 0 0 0 0 -53.125044927699491 605.38394988371874 0 605.38394988371874 270.89474523404351 0 0 0 0 7.4195669611946755 21.303169943715346 0 21.303169943715346 -19.026992866556924 0 0 0 0 -395.96606676798183 -228.78601925832754 0 -228.78601925832754 -16.724855587730417 0 0 0 0 -129.71458486071788 205.09116584358708 0 205.09116584358708 337.64986078424408 0 0 0 0 -171.87477825101814 -14.841525165436906 0 -14.841525165436906 141.68596669472026 0 0 0 0 -180.24175187264336 -92.020904969074763 0 -92.020904969074763 477.53439314779826 0 0 0 0 4.6006679808339044 3.6579446828553159 0 3.6579446828553159 16.908631467372857 0 0 0 0 -415.33253199260798 839.56702588571352 0 839.56702588571352 394.45033259464981 0 0 0 0 -384.28276664516306 235.30391064641299 0 235.30391064641299 849.28100508927309 0 0 0 0 -65.096437311294721 190.37411595413869 0 190.37411595413869 44.092092913622764 0 0 0 0 -382.66764265279426 374.27198744108267 0 374.27198744108267 224.79539026296698 0 0 0 0 -119.73136204684852 235.41835412303772 0 235.41835412303772 121.77077108551748 0 0 0 0 32.855338852270506 56.185474533165689 0 56.185474533165689 1.0102813387302376 0 0 0 0 83.573982149537187 141.44782397412928 0 141.44782397412928 6.5991889044626078 0 0 0 0 0.58689165054170189 32.079002066576379 0 32.079002066576379 -19.703383204750381 0 0 0 0 6.4606582312844694 358.64368293529697 0 358.64368293529697 -494.10130808547547 0 0 0 0 -10.140286404261133 -59.468382111721439 0 -59.468382111721439 -125.41189422154275 0 0 0 0 210.20582511174143 92.143463244610757 0 92.143463244610757 -251.28677061371855 0 0 0 0 55.560835129464976 59.220738360199903 0 59.220738360199903 76.325222561401461 0 0 0 0 20.889163025812536 25.979084535596968 0 25.979084535596968 10.782411536752505 0 0 0 0 2.5384916084632891 24.683406736885672 0 24.683406736885672 43.820552225544276 0 0 0 0 81.329330476524774 21.305237057495106 0 21.305237057495106 -57.63759539219609 0 0 0 0 5.8288165955018485 32.985619551422133 0 32.985619551422133 22.477333155955421 0 0 0 0 -39.863552541472018 25.1655576829653 0 25.1655576829653 102.93454186891904 0 0 0 0 -4.8920769708768717 34.187330512111032 0 34.187330512111032 48.598137758678121 0 0 0 0 21.499517891096787 45.755631898313425 0 45.755631898313425 27.57126044266893 0 0 0 0 30.614159547709278 57.332668995204585 0 57.332668995204585 13.890821483757463 0 0 0 0 14.6666918315413 37.37267191423966 0 37.37267191423966 -15.421508540884673 0 0 0 0 15.990548532397952 84.601591071012081 0 84.601591071012081 112.38076056538193 0 0 0 0 29.742739674952077 32.928170607015829 0 32.928170607015829 -11.581188327749985 0 0 0 0 45.999218624594505 -13.771472682212334 0 -13.771472682212334 57.562412549144938 0 0 0 0 -159.85405151615851 52.776047802210087 0 52.776047802210087 244.18554827560001 0 0 0 0 -67.899344399687834 177.34078808385675 0 177.34078808385675 -31.398176939561381 0 0 0 0 7.7675318072579103 44.135440015303175 0 44.135440015303175 -94.05838417627092 0 0 0 0 3.0383190421040922 6.0294468210875607 0 6.0294468210875607 3.3356606594971083 0 0 0 0 1.1798701426517937 4.6214836804514405 0 4.6214836804514405 5.7371270330457378 0 0 0 0 47.665447305887938 117.49786927364767 0 117.49786927364767 98.71786718047224 0 0 0 0 86.959632085519843 28.903093697095755 0 28.903093697095755 69.379261532594683 0 0 0 0 62.099427845678292 39.657188517739996 0 39.657188517739996 70.42151963415381 0 0 0 0 -6.8173658538144082 53.61657171540719 0 53.61657171540719 93.105758041943773 0 0 0 0 -0.75956929312087595 146.35588435374666 0 146.35588435374666 193.07004774350207 0 0 0 0 42.785164954169886 -6.631802410891396 0 -6.631802410891396 139.94263999452232 0 0 0 0 -4.4640350678584326 6.659048440462783 0 6.659048440462783 2.2981049971010634 0 0 0 0 -5.8767075656796806 53.014534949194058 0 53.014534949194058 85.104129574363469 0 0 0 0 -4.2837807867007314 29.215753741044537 0 29.215753741044537 -0.8716183421661583 0 0 0 0 -14.425638714471901 27.394722060627657 0 27.394722060627657 12.480035807245599 0 0 0 0 -6.2400598896783777 71.341807567558135 0 71.341807567558135 78.851089430536376 0 0 0 0 -11.2094188585761 36.008139380661305 0 36.008139380661305 15.884554247582855 0 0 0 0 6.3902108408146887 37.909406019967719 0 37.909406019967719 13.483895103941904 0 0 0 0 -9.1419953328440897 56.309299341337464 0 56.309299341337464 23.476676021833555 0 0 0 0 -30.198527924100006 21.575118870734052 0 21.575118870734052 -4.1560616001814878 0 0 0 0 -84.908568239683518 230.51108409348672 0 230.51108409348672 2.8098188183394086 0 0 0 0 11.729994710403844 47.811993766688829 0 47.811993766688829 30.462166461044035 0 0 0 0 14.622443297557766 52.650477729242994 0 52.650477729242994 31.939368308994744 0 0 0 0 19.552255013186368 47.857722680204461 0 47.857722680204461 6.3952208820628584 0 0 0 0 18.340697148812751 39.849222179370656 0 39.849222179370656 40.696163185974001 0 0 0 0 18.661139094881946 51.861010758002521 0 51.861010758002521 32.039321343145275 0 0 0 0 -23.677426409445047 9.2413690951501763 0 9.2413690951501763 -1.7759724592392558 0 0 0 0 4.6175755633594235 18.243144732918502 0 18.243144732918502 -16.268057118826988 0 0 0 0 34.290438214957248 85.133622149020084 0 85.133622149020084 99.744895940668357 0 0 0 0 71.513638748408994 25.72627164203368 0 25.72627164203368 102.92624445688853 0 0 0 0 30.845219392605941 92.319501522018982 0 92.319501522018982 151.50330726401444 0 0 0 0 -79.784074473216606 51.395092208385904 0 51.395092208385904 -6.9364487183775054 0 0 0 0 3.3871960599780095 26.963466700206023 0 26.963466700206023 -10.794284789315 0 0 0 0 -8.0934286902527788 8.7015847350272111 0 8.7015847350272111 16.917245001991716 0 0 0 0 -35.071657040141872 77.794445061081205 0 77.794445061081205 87.998760868184036 0 0 0 0 0.12325670466143174 75.140631027444641 0 75.140631027444641 36.064594443625538 0 0 0 0 -6.4729346692819831 8.5382190603798662 0 8.5382190603798662 5.8617567852602264 0 0 0 0 -96.747849213890731 16.059133970353287 0 16.059133970353287 14.188917497624061 0 0 0 0 -10.616340060616494 67.060680694518396 0 67.060680694518396 33.432088630564976 0 0 0 0 -11.907759841240477 50.38238182652276 0 50.38238182652276 0.69202139240223914 0 0 0 0 -50.895347440848127 35.437034808361204 0 35.437034808361204 85.626797145419914 0 0 0 0 30.681926534831291 47.651053739951749 0 47.651053739951749 44.048487484134967 0 0 0 0 28.740996220731176 20.498932535585482 0 20.498932535585482 50.785237518313807 0 0 0 0 23.107691845858085 36.458783507700559 0 36.458783507700559 24.784324665114212 0 0 0 0 0.54134375743078067 6.2695071898750143 0 6.2695071898750143 4.5855871810035751 0 0 0 0 29.849958371953107 46.795142726787162 0 46.795142726787162 44.60880943729353 0 0 0 0 -14.050551390373556 22.708644337666328 0 22.708644337666328 33.706222699756381 0 0 0 0 -30.079478831612505 -12.400325447804789 0 -12.400325447804789 95.706932623899775 0 0 0 0 2.1811130908200766 -0.0051791901163369403 0 -0.0051791901163369403 -1.3730278894939261 0 0 0 0 -0.14521503195283003 70.554899341841519 0 70.554899341841519 6.4434970813363179 0 0 0 0 -4.7572312347037951 61.245177367345605 0 61.245177367345605 -11.557022613334993 0 0 0 0 -1.4136739267851226 66.726895034022164 0 66.726895034022164 60.870175000653035 0 0 0 0 -10.239784407633124 55.11522732946105 0 55.11522732946105 45.96418949351937 0 0 0 0 -21.326677823925138 22.466558241293882 0 22.466558241293882 26.048536863669511 0 0 0 0 0.040734826747211628 71.4400400621671 0 71.4400400621671 46.995512608176796 0 0 0 0 10.771574209094979 70.324312814602308 0 70.324312814602308 45.726802927025346 0 0 0 0 -0.028927746185217984 77.696763237927371 0 77.696763237927371 41.031418289152498 0 0 0 0 12.994075573074952 58.279863957200178 0 58.279863957200178 38.502536987973144 0 0 0 0 32.868095470621483 65.449002725101309 0 65.449002725101309 29.177408842173463 0 0 0 0 29.515557088772766 76.632196518174169 0 76.632196518174169 33.013887668788811 0 0 0 0 53.413917147074244 125.33856038060549 0 125.33856038060549 84.862825923933997 0 0 0 0 13.747012168452784 65.010242120513794 0 65.010242120513794 3.7688750229863217 0 0 0 0 42.83154994744109 62.557481402152916 0 62.557481402152916 29.765443325646629 0 0 0 0 -21.586212441902035 25.310253552323218 0 25.310253552323218 19.376434126979319 0 0 0 0 -88.18378324439982 48.701555229490623 0 48.701555229490623 107.42059781074204 0 0 0 0 -32.596595340990461 119.88783117685671 0 119.88783117685671 195.05964318857878 0 0 0 0 -55.805996032227995 -190.43197373735165 0 -190.43197373735165 141.32943923077437 0 0 0 0 -22.459110252871824 27.312566129582592 0 27.312566129582592 11.649412597681817 0 0 0 0 -22.957921254012035 36.877584349640529 0 36.877584349640529 -188.34937438041379 0 0 0 0 -109.12623219563102 -44.849798894254491 0 -44.849798894254491 37.326683253246301 0 0 0 0 56.755322753582732 52.848589610908675 0 52.848589610908675 15.641813434907817 0 0 0 0 62.464975741931994 58.736501596044036 0 58.736501596044036 12.467973654798698 0 0 0 0 56.071285671452642 39.568792524920354 0 39.568792524920354 -12.477519895423029 0 0 0 0 48.376744525594404 52.160259641946141 0 52.160259641946141 17.614303021364321 0 0 0 0 -21.674861461502331 31.966665322876167 0 31.966665322876167 6.1810804189142914 0 0 0 0 43.618653730110964 40.920332046747717 0 40.920332046747717 0.23775856411884888 0 0 0 0 0.12233817054023145 92.545283508907119 0 92.545283508907119 24.403295816940954 0 0 0 0 59.829926059930585 92.473955258446949 0 92.473955258446949 0.61592438496882096 0 0 0 0 66.235703555837972 55.713262836437934 0 55.713262836437934 7.9502667609922355 0 0 0 0 124.40835773589788 26.238399302521429 0 26.238399302521429 -11.701715407009033 0 0 0 0 100.5874925320386 75.971273999675759 0 75.971273999675759 -72.082445761348936 0 0 0 0 -0.1932071562429786 177.15204625974778 0 177.15204625974778 -8.6841269932192517 0 0 0 0 108.2779394533427 105.23612138226599 0 105.23612138226599 -11.802605285814934 0 0 0 0 223.15411738978582 206.2669003623414 0 206.2669003623414 -26.991066779581161 0 0 0 0 -4.8877986651033893 1.6632370328133277 0 1.6632370328133277 3.1301004833175057 0 0 0 0 0.14476013193780091 70.94118297163368 0 70.94118297163368 93.430141284603451 0 0 0 0 -284.75035284381011 -430.54712913724507 0 -430.54712913724507 903.63959952931327 0 0 0 0 10.442268937534834 -0.13504931083190286 0 -0.13504931083190286 -0.0932152078541435 0 0 0 0 -99.535402374836849 158.22714047455884 0 158.22714047455884 979.52850781762754 0 0 0 0 361.31756395191042 876.9891882227239 0 876.9891882227239 -235.08992555694567 0 0 0 0 304.31401556692435 68.453964214671942 0 68.453964214671942 -75.304876308524399 0 0 0 0 176.00434437935473 -35.771039118375484 0 -35.771039118375484 -47.631947179179406 0 0 0 0 17.459298024361487 -5.205635945116228 0 -5.205635945116228 -11.053302810450987 0 0 0 0 24.774688570636272 10.754676757653243 0 10.754676757653243 1.7793520319898732 0 0 0 0 17.867096584709429 59.515462767743614 0 59.515462767743614 -12.087441470721387 0 0 0 0 21.452630953412154 96.481545446702512 0 96.481545446702512 213.03363607734354 0 0 0 0 90.178616009943653 168.18491260479641 0 168.18491260479641 209.94143699968845 0 0 0 0 62.595092223593383 71.766547078523217 0 71.766547078523217 160.19000951694034 0 0 0 0 15.697844136098865 127.25537880513002 0 127.25537880513002 139.6880333635645 0 0 0 0 40.154272585261424 45.081756981386434 0 45.081756981386434 -47.07186410666327 0 0 0 0 -57.688439300778555 65.180658607052465 0 65.180658607052465 218.50604983980156 0 0 0 0 30.225927346880781 97.706654298050125 0 97.706654298050125 92.747237203526311 0 0 0 0 12.650554979598382 99.312531142888474 0 99.312531142888474 -124.08088497007975 0 0 0 0 16.268110043628383 42.663318966630897 0 42.663318966630897 50.683931818489498 0 0 0 0 30.195111493318109 13.107383348284202 0 13.107383348284202 -98.972551228987868 0 0 0 0 -12.111961804161695 22.448266285613016 0 22.448266285613016 -13.823918801825869 0 0 0 0 2.2351398664759472 45.58377726499748 0 45.58377726499748 -46.508750158844123 0 0 0 0 69.721073253749637 163.20020368199948 0 163.20020368199948 85.970376709150969 0 0 0 0 142.20401705458062 222.42890081494079 0 222.42890081494079 121.19944015272631 0 0 0 0 58.544105672859587 174.1498471410323 0 174.1498471410323 171.38287869110718 0 0 0 0 0.037363894531154074 123.29165376017772 0 123.29165376017772 127.28860790815088 0 0 0 0 80.741750739569397 97.102221801833821 0 97.102221801833821 101.92157207499258 0 0 0 0 -7.174471781581758 6.4101091037417177 0 6.4101091037417177 -7.6394983917132464 0 0 0 0 95.123948600084987 139.18885654129735 0 139.18885654129735 89.507627382896317 0 0 0 0 63.516900772970985 -166.590946453176 0 -166.590946453176 -241.30456023826679 0 0 0 0 84.160124702844769 629.92640357463097 0 629.92640357463097 44.764979767208388 0 0 0 0 179.03849143995467 777.69166948122711 0 777.69166948122711 643.04314350182904 0 0 0 0 -433.26679983947542 454.20503460968393 0 454.20503460968393 707.37632388725979 0 0 0 0 238.96688279468799 393.65557972710849 0 393.65557972710849 340.66260583815892 0 0 0 0 -508.91800700494787 4.8100095465742925 0 4.8100095465742925 198.97137970864424 0 0 0 0 52.218998692871537 194.51829982117488 0 194.51829982117488 -34.020698448883195 0 0 0 0 64.438078284294079 -80.246870149039182 0 -80.246870149039182 186.17261171381324 0 0 0 0 -89.28949021952576 147.45687262328738 0 147.45687262328738 313.81374495320051 0 0 0 0 5.8295304622081403 -8.2763540074997621 0 -8.2763540074997621 11.008367612723731 0 0 0 0 505.9424161859788 283.2325744536065 0 283.2325744536065 222.52221766794901 0 0 0 0 155.6208391287073 359.76654693150795 0 359.76654693150795 660.33337665540785 0 0 0 0 1.7374530886717707 -2.2285034933606482 0 -2.2285034933606482 3.5919937217487998 0 0 0 0 -245.371619497746 -143.42801179238813 0 -143.42801179238813 -43.889841683751001 0 0 0 0 -113.65854472329374 -92.594845398220059 0 -92.594845398220059 -64.497705670352843 0 0 0 0 -221.91243810762535 113.04715925923483 0 113.04715925923483 30.499687875288146 0 0 0 0 -379.52777734349365 125.41405013541407 0 125.41405013541407 42.492803342068328 0 0 0 0 28.443323175832916 43.918036509842324 0 43.918036509842324 57.330721708533417 0 0 0 0 150.63050824890524 367.75657935025993 0 367.75657935025993 -124.11941184865282 0 0 0 0 -22.937367020800593 10.827514511647678 0 10.827514511647678 114.54547046801599 0 0 0 0 -382.51617612072732 -159.05821809569898 0 -159.05821809569898 174.76176486475015 0 0 0 0 -204.81979907385539 -43.30763892174582 0 -43.30763892174582 272.88480178440659 0 0 0 0 756.58982430479955 61.245890360387421 0 61.245890360387421 -90.878176843696565 0 0 0 0 28.620335369466829 46.008702088284878 0 46.008702088284878 61.32343403173482 0 0 0 0 -166.63691796131025 133.59077058433286 0 133.59077058433286 46.102988634869689 0 0 0 0 -236.8758289146208 42.493690540008174 0 42.493690540008174 203.40508138944278 0 0 0 0 -45.098698085232172 -5.6690311927959556 0 -5.6690311927959556 74.856683715546751 0 0 0 0 -117.70667072354991 22.034178274447186 0 22.034178274447186 69.955715962831164 0 0 0 0 37.729344024512102 -31.966831950061533 0 -31.966831950061533 49.592471410040162 0 0 0 0 0.52072910813473072 1.7978501473016593 0 1.7978501473016593 6.2225278752635518 0 0 0 0 -56.439065860991832 -85.584703022170288 0 -85.584703022170288 175.0396757375056 0 0 0 0 -18.723587438231334 2.4100385525198362 0 2.4100385525198362 29.378952114951971 0 0 0 0 -16.267442868246519 14.151782692749748 0 14.151782692749748 6.9966915211098666 0 0 0 0 -29.846731340774568 16.788054994227423 0 16.788054994227423 24.804791563461549 0 0 0 0 -75.950519473612076 28.882872945470808 0 28.882872945470808 54.563338861742523 0 0 0 0 -22.33723385828489 31.967086051168735 0 31.967086051168735 54.68670452178776 0 0 0 0 -11.807206950609498 34.854090433931106 0 34.854090433931106 15.905525680628571 0 0 0 0 17.800174881053124 44.098826883061875 0 44.098826883061875 6.4303008784299465 0 0 0 0 81.39001518196892 106.10443419215153 0 106.10443419215153 14.399560164710238 0 0 0 0 9.1788093821669463 51.283920794790902 0 51.283920794790902 24.0940767647553 0 0 0 0 13.991847694851458 61.171418077436101 0 61.171418077436101 -9.6366893100057496 0 0 0 0 60.468268703785725 70.710300548198575 0 70.710300548198575 -43.244781198547571 0 0 0 0 -16.562359357234811 47.250675255509151 0 47.250675255509151 11.80343160533522 0 0 0 0 33.655445863405475 76.579451312521996 0 76.579451312521996 -0.84363611497974489 0 0 0 0 124.15589040907798 104.04205829482817 0 104.04205829482817 -26.525122522609308 0 0 0 0 -37.763853120262866 55.167828107224807 0 55.167828107224807 -43.782892549977376 0 0 0 0 -8.8135913697915385 162.17946910413002 0 162.17946910413002 -108.36218506789737 0 0 0 0 -82.942687459348235 266.44803874389254 0 266.44803874389254 -296.06361317176197 0 0 0 0 -30.236650743463542 59.41248408271349 0 59.41248408271349 64.870192779111676 0 0 0 0 -25.920230693919834 23.960897587422124 0 23.960897587422124 83.036604160216683 0 0 0 0 32.344229744718177 135.54179837713127 0 135.54179837713127 -93.875040565613745 0 0 0 0 -193.01915861031739 430.59992167587916 0 430.59992167587916 -479.75348736759042 0 0 0 0 5.0053319073357869 21.455481109426074 0 21.455481109426074 5.5126429859517714 0 0 0 0 233.7036573344958 166.99269491470477 0 166.99269491470477 -7.8417731430381536 0 0 0 0 232.28817993374514 122.2932092833048 0 122.2932092833048 -13.80854905002343 0 0 0 0 278.56644701781624 131.87896138884025 0 131.87896138884025 -33.741889799130149 0 0 0 0 177.20157846622169 157.98487534811284 0 157.98487534811284 10.183914709712553 0 0 0 0 160.02851218450814 37.523378240395687 0 37.523378240395687 -71.341985456943803 0 0 0 0 203.76022419673973 64.746720510505838 0 64.746720510505838 -93.898793734668288 0 0 0 0 200.55862324387999 83.097470038061147 0 83.097470038061147 -46.622561268653953 0 0 0 0 103.45874611859472 62.019738521970794 0 62.019738521970794 -50.332956470228964 0 0 0 0 114.03010284609627 62.138528519812098 0 62.138528519812098 -54.303902143117739 0 0 0 0 30.530019459998584 -68.583589772966661 0 -68.583589772966661 -70.590708556512254 0 0 0 0 219.53573753760429 -33.691914287195686 0 -33.691914287195686 -66.439073942805408 0 0 0 0 86.234449721276178 67.636967712660407 0 67.636967712660407 -42.892013228469295 0 0 0 0 -26.134345505503006 -10.007417047949275 0 -10.007417047949275 -88.650033259880729 0 0 0 0 35.890338969737059 37.045372756005236 0 37.045372756005236 11.945247397474304 0 0 0 0 -0.43161750697757384 4.2599976892879283 0 4.2599976892879283 3.0642851583529023 0 0 0 0 34.204031759785721 60.210854885946901 0 60.210854885946901 -60.876161225052783 0 0 0 0 33.738051356263099 23.305052932155618 0 23.305052932155618 9.2060511421982056 0 0 0 0 -2.2865484844011519 31.022057962700103 0 31.022057962700103 20.120995073510954 0 0 0 0 8.60010652490746 21.50824047878632 0 21.50824047878632 29.26900520651543 0 0 0 0 -27.200342853582697 2.0887746881180647 0 2.0887746881180647 32.931202558844234 0 0 0 0 -11.044324129268546 18.586251897778254 0 18.586251897778254 24.388351165105774 0 0 0 0 -11.640191192942439 -0.79186784600460669 0 -0.79186784600460669 29.623970038650441 0 0 0 0 -30.404365085269092 25.111985771272884 0 25.111985771272884 14.16822429066633 0 0 0 0 -36.099757270661939 23.325488070933716 0 23.325488070933716 29.344576275550935 0 0 0 0 32.014547534112353 51.996457636218111 0 51.996457636218111 33.999528286665736 0 0 0 0 29.238324299105443 57.151792079497682 0 57.151792079497682 29.076548996021302 0 0 0 0 -5.499869167294321 8.2710664657368085 0 8.2710664657368085 4.7514796496607232 0 0 0 0 48.13190248356841 64.389172944975144 0 64.389172944975144 27.312797475577099 0 0 0 0 52.679516817705007 34.94970577402637 0 34.94970577402637 -134.77396901187603 0 0 0 0 -3.8799653584670182 1.1588802727882381 0 1.1588802727882381 0.36909041538214638 0 0 0 0 -23.521491377381608 32.618827454320126 0 32.618827454320126 340.20161013066536 0 0 0 0 5.3486446037348969 -0.14185910110029454 0 -0.14185910110029454 -2.7053777646887198 0 0 0 0 51.397440313088737 307.98923243878198 0 307.98923243878198 2.8646581420471193 0 0 0 0 -25.557533687249816 32.838195202240968 0 32.838195202240968 55.213484707463067 0 0 0 0 -21.094834807357984 40.34559679728045 0 40.34559679728045 34.563517035556288 0 0 0 0 -7.0365888447723819 28.574127268093548 0 28.574127268093548 26.896576217152585 0 0 0 0 -8.2228677785606124 20.620755985000869 0 20.620755985000869 11.484028972947272 0 0 0 0 7.5831315011827201 36.350029954613319 0 36.350029954613319 9.8404975215406978 0 0 0 0 -20.695132089836989 61.205968867827323 0 61.205968867827323 -0.21135698953003157 0 0 0 0 -1.8882726382860824 7.0914788886021256 0 7.0914788886021256 6.2840272396054218 0 0 0 0 71.958264370419784 59.920650490043954 0 59.920650490043954 -57.297046890365891 0 0 0 0 -23.122913453757064 37.02358977257245 0 37.02358977257245 14.213596661893462 0 0 0 0 -15.532142516176094 13.711926008098857 0 13.711926008098857 28.658651935096799 0 0 0 0 -20.618785827413376 30.672710609860587 0 30.672710609860587 64.852517113882641 0 0 0 0 -1.109056343062548 26.223919942116481 0 26.223919942116481 31.692582558644062 0 0 0 0 42.216700474164099 49.097443191047205 0 49.097443191047205 22.069701233979686 0 0 0 0 5.0441106830076023 37.626545149527374 0 37.626545149527374 48.55411724960868 0 0 0 0 7.5196194290620042 45.229200094636326 0 45.229200094636326 37.852636689473002 0 0 0 0 18.991487849190889 61.844549016246674 0 61.844549016246674 84.70976165792672 0 0 0 0 16.218900284933625 44.985580296823173 0 44.985580296823173 30.165533295243222 0 0 0 0 -9.403941329179105 20.881797216823145 0 20.881797216823145 40.435818991464231 0 0 0 0 29.587658116673992 55.41871194914529 0 55.41871194914529 48.648881285429525 0 0 0 0 4.1027870949619683 53.343006030252582 0 53.343006030252582 98.622099526994134 0 0 0 0 26.132191214863269 84.904535493791627 0 84.904535493791627 94.130337562135537 0 0 0 0 -19.263695342364372 50.60593835320833 0 50.60593835320833 100.85879819482943 0 0 0 0 -5.047421116149053 51.672072135690541 0 51.672072135690541 86.406527938604995 0 0 0 0 10.848797151207691 70.819643438706407 0 70.819643438706407 132.11912294117428 0 0 0 0 3.0436984750558622 70.886151713581057 0 70.886151713581057 142.7825899902964 0 0 0 0 3.5971708597207908 59.639851131560135 0 59.639851131560135 100.31289205228677 0 0 0 0 8.1912795922035002 90.760779856449517 0 90.760779856449517 123.27663325806498 0 0 0 0 2.3551552382151044 36.870444463498586 0 36.870444463498586 -27.654202000420078 0 0 0 0 25.321552546680323 76.773029794010654 0 76.773029794010654 51.375385401443054 0 0 0 0 14.475268070731545 77.416144595859805 0 77.416144595859805 67.644124939994072 0 0 0 0 40.122153204451024 157.79414949602506 0 157.79414949602506 270.95150836612447 0 0 0 0 -8.629864691777982 40.096493598285704 0 40.096493598285704 -27.449669334927385 0 0 0 0 14.372201741556637 97.804628071266052 0 97.804628071266052 92.42895933593536 0 0 0 0 9.102497266945818 57.803379686565599 0 57.803379686565599 -29.472335691170855 0 0 0 0 23.870290834573098 89.925277705599001 0 89.925277705599001 129.151748735203 0 0 0 0 -3.9455918482271954 120.08282189823512 0 120.08282189823512 173.39523134197952 0 0 0 0 15.300727959955111 90.39227959316122 0 90.39227959316122 143.59408549014915 0 0 0 0 15.180444947109208 93.333904989871371 0 93.333904989871371 121.68064846335619 0 0 0 0 12.320514977182029 79.165988355198351 0 79.165988355198351 146.44682835817184 0 0 0 0 -4.7877983549551573 77.907113896246301 0 77.907113896246301 203.84087361983256 0 0 0 0 9.986652911757119 76.492597497963288 0 76.492597497963288 162.636855285411 0 0 0 0 3.3937169473792892 64.528719103371259 0 64.528719103371259 162.11063108001235 0 0 0 0 -2.0312590205576271 87.691214390513778 0 87.691214390513778 172.31180028204835 0 0 0 0 -1.5731260744578321 62.561587511389007 0 62.561587511389007 205.20469262797269 0 0 0 0 -2.6703945323184826 4.6816700411397676 0 4.6816700411397676 2.0034842252665044 0 0 0 0 -4.6319256093120202 43.240490220905485 0 43.240490220905485 239.08647007029504 0 0 0 0 4.0965720640451764 61.125891198656973 0 61.125891198656973 213.55282811816141 0 0 0 0 -2.0865156965592746 79.48560293063484 0 79.48560293063484 217.71040526616707 0 0 0 0 -3.3683338832925074 69.418877072850592 0 69.418877072850592 210.2607346166551 0 0 0 0 29.17348073044559 -562.87930406712621 0 -562.87930406712621 606.66277278004054 0 0 0 0 -413.85421102290275 -65.477595079821185 0 -65.477595079821185 1278.3605471612136 0 0 0 0 -27.051932678748415 1.9729906034089666 0 1.9729906034089666 1.1183448726211935 0 0 0 0 -115.41329479811247 -91.993104974508242 0 -91.993104974508242 80.640731497776869 0 0 0 0 109.89597213962043 55.528103655932682 0 55.528103655932682 597.80283692984085 0 0 0 0 -4.9049985038582236 -540.18028693360247 0 -540.18028693360247 20.53497893740132 0 0 0 0 -346.23390509004821 -388.50306987454314 0 -388.50306987454314 687.92958032979914 0 0 0 0 18.929666331619956 -296.53911944298306 0 -296.53911944298306 418.86506220136653 0 0 0 0 9.433269164088415 -294.10918570792273 0 -294.10918570792273 492.61823373921652 0 0 0 0 -19.753197361814728 -2.9699463948822995 0 -2.9699463948822995 0.0028537367276157966 0 0 0 0 173.81478688877905 -234.58995554555531 0 -234.58995554555531 407.95772736764047 0 0 0 0 57.849669239425566 -154.65613536299497 0 -154.65613536299497 387.3991494072834 0 0 0 0 80.531522177145234 -347.20023431602931 0 -347.20023431602931 79.377505853859475 0 0 0 0 167.62072166026337 -219.46390036607045 0 -219.46390036607045 81.849059438329277 0 0 0 0 75.078818472364219 -120.03746386228158 0 -120.03746386228158 111.00242817125036 0 0 0 0 -24.130332950502634 8.3200397816472105 0 8.3200397816472105 44.256621613410971 0 0 0 0 89.845758592855418 -137.24717682300252 0 -137.24717682300252 53.978698413313396 0 0 0 0 -12.88372463099688 -0.76882982157408719 0 -0.76882982157408719 4.290183225287187 0 0 0 0 64.613087601377629 -38.339239179462311 0 -38.339239179462311 75.896644391978043 0 0 0 0 139.10161062475527 -128.77979472423613 0 -128.77979472423613 -52.727471594537747 0 0 0 0 137.53046523989178 -136.26985366152076 0 -136.26985366152076 -2.7644016595950234 0 0 0 0 -38.663977502270427 23.577439471111575 0 23.577439471111575 33.373138046517852 0 0 0 0 -12.977331678906921 14.565697859761713 0 14.565697859761713 23.882267424272868 0 0 0 0 -33.577823857963267 0.80791572814973733 0 0.80791572814973733 52.689831483003218 0 0 0 0 -20.789979737892281 -49.48631677688536 0 -49.48631677688536 -3.414914309487358 0 0 0 0 -1.1960592184660186 -2.0929770888110824 0 -2.0929770888110824 -0.074792729683480275 0 0 0 0 -35.443197065254935 28.498279895007727 0 28.498279895007727 130.72639899766364 0 0 0 0 -11.675938733504154 42.889886750090227 0 42.889886750090227 139.35620862166979 0 0 0 0 -4.674542862274393 38.740961617305857 0 38.740961617305857 139.70548906706972 0 0 0 0 -29.064550932331372 35.335185000149153 0 35.335185000149153 -27.403153479657504 0 0 0 0 -549.2496134360772 864.54690218572978 0 864.54690218572978 1041.5017462466785 0 0 0 0 -201.38418286871092 132.95746746577424 0 132.95746746577424 394.629677493489 0 0 0 0 -227.4808715118852 307.82185283967556 0 307.82185283967556 250.12224620894995 0 0 0 0 1.1611202925196267 166.70530734088607 0 166.70530734088607 368.97992302974308 0 0 0 0 206.96220482197532 47.617042626232433 0 47.617042626232433 24.184012410682044 0 0 0 0 -44.636085635407881 13.329257714276046 0 13.329257714276046 53.878106752130947 0 0 0 0 -31.512603657025807 53.707418273735769 0 53.707418273735769 -12.949999577015433 0 0 0 0 -78.717676971107721 119.60544362949622 0 119.60544362949622 330.77005480791559 0 0 0 0 -9.2105525702427258 224.81689305065402 0 224.81689305065402 406.71567906402925 0 0 0 0 -73.456390065902781 22.020026123375636 0 22.020026123375636 55.661593142951347 0 0 0 0 32.308417408290552 89.90917714079842 0 89.90917714079842 86.006312447520031 0 0 0 0 -14.774519361827231 50.264829322513698 0 50.264829322513698 -27.232098278896956 0 0 0 0 -20.227323015438742 120.56537228509842 0 120.56537228509842 136.81207769538014 0 0 0 0 9.4672541668260237 88.521193787368247 0 88.521193787368247 183.37839634606462 0 0 0 0 -26.177718751947396 93.168569430423304 0 93.168569430423304 292.88679404164577 0 0 0 0 13.901699695023126 59.831938999970589 0 59.831938999970589 285.61792663186498 0 0 0 0 -683.17686882257112 844.27619833411154 0 844.27619833411154 1096.3147962504754 0 0 0 0 -23.735064978607795 6.5035380760084252 0 6.5035380760084252 -0.062615190698519285 0 0 0 0 -98.937625807811855 25.510219551233604 0 25.510219551233604 302.94994657334246 0 0 0 0 -9.0494095581393594 4.6699372549558049 0 4.6699372549558049 -1.1463332904666608 0 0 0 0 -10.973816271041869 933.95594135158171 0 933.95594135158171 -596.27520149816701 0 0 0 0 -40.553565360169159 146.96785601693409 0 146.96785601693409 233.25936906733477 0 0 0 0 9.4536800142836341 16.549921789961907 0 16.549921789961907 -5.0527120221193513 0 0 0 0 2.4363952949934173 276.62690321065838 0 276.62690321065838 465.51060122165654 0 0 0 0 28.805742077383911 229.91649867343949 0 229.91649867343949 -133.02395119505672 0 0 0 0 -54.283033828309101 48.817967746118335 0 48.817967746118335 -28.414055875404131 0 0 0 0 397.97661785859964 728.34771008263488 0 728.34771008263488 -334.75488632208726 0 0 0 0 -370.60481162954238 117.49241798472576 0 117.49241798472576 466.40502099522848 0 0 0 0 -14.709614372826763 51.547916285038809 0 51.547916285038809 81.940655896425596 0 0 0 0 -23.63532991934153 137.97738843531806 0 137.97738843531806 -57.235142918259953 0 0 0 0 -48.217769580184779 57.580606884658017 0 57.580606884658017 -37.886219785666171 0 0 0 0 -152.62308990011661 -0.54497080348664895 0 -0.54497080348664895 78.210683982935734 0 0 0 0 30.445150320301764 -61.16403190636629 0 -61.16403190636629 45.88840976568099 0 0 0 0 -485.96112787733728 1053.2515523839211 0 1053.2515523839211 1340.6675812413268 0 0 0 0 -441.94238548953581 1403.2685509334026 0 1403.2685509334026 -1631.6652116079422 0 0 0 0 -759.86861612314897 -199.87819857416389 0 -199.87819857416389 -1249.9349303626586 0 0 0 0 -15.974827100199832 14.443106397345588 0 14.443106397345588 -2.6652278074427045 0 0 0 0 271.96732617121597 -519.59915091099174 0 -519.59915091099174 -42.764854181657938 0 0 0 0 424.24422541497916 327.04469616022106 0 327.04469616022106 -1028.6865791469208 0 0 0 0 133.79399103540345 660.92325052045271 0 660.92325052045271 -797.96929255902069 0 0 0 0 172.56712803531263 730.81742442396353 0 730.81742442396353 -705.61576720427911 0 0 0 0 -54.379269625827249 27.284919649920184 0 27.284919649920184 -5.8550817742454626 0 0 0 0 433.43901247620579 875.49879958935753 0 875.49879958935753 -875.62437193571532 0 0 0 0 -1276.6817131068237 1542.9412629335857 0 1542.9412629335857 -872.23088898653987 0 0 0 0 141.9483826853575 119.68131871073388 0 119.68131871073388 -102.29792049039679 0 0 0 0 -1508.6413987362466 -573.316070858491 0 -573.316070858491 1630.160010497555 0 0 0 0 -25.008727256659142 9.023732524968743 0 9.023732524968743 -2.9203007244735133 0 0 0 0 170.71873500608126 484.23520503375198 0 484.23520503375198 -2922.2869016486366 0 0 0 0 -229.94870093920326 -1105.2687529335017 0 -1105.2687529335017 156.89590487950773 0 0 0 0 -1195.6149670428131 -95.5956106142512 0 -95.5956106142512 -207.2588473992364 0 0 0 0 -1517.504893702775 419.30484429805074 0 419.30484429805074 -433.59224814582376 0 0 0 0 -1541.5809544764925 -178.5252330776857 0 -178.5252330776857 -65.041307104744192 0 0 0 0 -2407.7550949576544 1854.5301080314375 0 1854.5301080314375 -811.1773910262782 0 0 0 0 -5081.4631904783164 322.12494093799978 0 322.12494093799978 291.7462432209868 0 0 0 0 714.93122681570458 856.50410536259915 0 856.50410536259915 -1159.207398824532 0 0 0 0 -2767.3281809095934 912.55569996951272 0 912.55569996951272 2796.3994947705505 0 0 0 0 1204.1719886035426 1031.8413643645581 0 1031.8413643645581 -859.68849841654082 0 0 0 0 -3.9445193460219201 13.652749216470994 0 13.652749216470994 -24.258332761931342 0 0 0 0 3481.8387071353645 675.65470988245579 0 675.65470988245579 -1116.1186898981177 0 0 0 0 -219.98478659332613 549.47711369098579 0 549.47711369098579 -175.4379436928175 0 0 0 0 339.69050615970264 1354.6879607360315 0 1354.6879607360315 -937.31562703631062 0 0 0 0 1250.3524294770177 962.78503844197894 0 962.78503844197894 -806.90153622826256 0 0 0 0 -50.338774714307363 29.323946363075159 0 29.323946363075159 -7.3856004446827725 0 0 0 0 380.16313780608471 182.31466210439612 0 182.31466210439612 -118.80563695116143 0 0 0 0 436.49562066458748 209.62147912023283 0 209.62147912023283 -934.02462942340389 0 0 0 0 411.82247622183058 80.375247721727646 0 80.375247721727646 -159.50896527829173 0 0 0 0 399.51092545915162 -22.675398319908709 0 -22.675398319908709 -440.14156492771144 0 0 0 0 269.74597166324384 -185.52094733896229 0 -185.52094733896229 -258.33283802778533 0 0 0 0 207.71429639015696 -76.108934751187917 0 -76.108934751187917 -195.63764609461759 0 0 0 0 144.27690922260808 -149.28783670437042 0 -149.28783670437042 -92.323090067104204 0 0 0 0 259.39504149409186 -159.91622794824434 0 -159.91622794824434 -91.361804501502775 0 0 0 0 126.98090446920833 -338.74892336704943 0 -338.74892336704943 77.643993049625351 0 0 0 0 188.61596646117687 -297.54751787915302 0 -297.54751787915302 -162.944376166859 0 0 0 0 293.59677755222947 -222.16994934145441 0 -222.16994934145441 -214.89598985871999 0 0 0 0 212.28369156962435 -391.59837126161619 0 -391.59837126161619 -560.03548458848672 0 0 0 0 147.02848288886526 -317.78401107972331 0 -317.78401107972331 -261.39118425483321 0 0 0 0 9.4021968839952024 -309.19248926486762 0 -309.19248926486762 -254.66138015188062 0 0 0 0 -1677.5854084328166 -410.58446525339241 0 -410.58446525339241 26.226735384913809 0 0 0 0 -207.36910893410095 712.13391394283826 0 712.13391394283826 -1565.4815883174851 0 0 0 0 -146.39596175898623 -723.97483391972492 0 -723.97483391972492 -1347.7857012595123 0 0 0 0 -21.099677120968408 193.96202632894529 0 193.96202632894529 -142.34577318253287 0 0 0 0 -1866.2334024586162 266.04111972210012 0 266.04111972210012 286.49439286559937 0 0 0 0 -657.40560193025158 62.271166118531255 0 62.271166118531255 214.82469280315672 0 0 0 0 -1140.8030660730255 -294.64977449208072 0 -294.64977449208072 158.4022301932273 0 0 0 0 -483.98197604948655 281.22527015924788 0 281.22527015924788 364.71048152257572 0 0 0 0 -465.13302324721008 93.275808767895796 0 93.275808767895796 11.292546760108053 0 0 0 0 814.95027964342444 303.61758714977987 0 303.61758714977987 59.755575657225563 0 0 0 0 -274.0074479204909 544.0535803883115 0 544.0535803883115 181.77004476176808 0 0 0 0 -296.93157301767496 -80.015387078208732 0 -80.015387078208732 159.52518094405241 0 0 0 0 -49.079297859250516 47.947548113623569 0 47.947548113623569 -42.599603957989139 0 0 0 0 30.95081100335301 87.288139779069297 0 87.288139779069297 389.78391166014626 0 0 0 0 701.95631169893022 1034.1120385948489 0 1034.1120385948489 356.42079626930581 0 0 0 0 231.64798618682835 350.26817520456825 0 350.26817520456825 503.44216887035873 0 0 0 0 400.75796429241018 271.514286278707 0 271.514286278707 -354.11184086243884 0 0 0 0 -47.523214892038084 47.342741151347582 0 47.342741151347582 -48.780646433271485 0 0 0 0 501.07355825098057 506.87080119228631 0 506.87080119228631 164.32359256007476 0 0 0 0 618.22967754204001 240.34877480539217 0 240.34877480539217 -251.26281263790224 0 0 0 0 239.69505515467608 296.37592788029906 0 296.37592788029906 40.766230198956691 0 0 0 0 -26.552930705325707 227.15190517012707 0 227.15190517012707 512.04186358441075 0 0 0 0 60.780769214301472 243.74973463658932 0 243.74973463658932 514.79622986871254 0 0 0 0 9.6423342457471222 -16.877658412165374 0 -16.877658412165374 19.746958330676399 0 0 0 0 -5.2424461370375184 26.636714957966589 0 26.636714957966589 11.763439748084581 0 0 0 0 -30.418140540529237 1.6927536894930597 0 1.6927536894930597 8.0511628513196811 0 0 0 0 -74.399201613792684 -52.900362217811562 0 -52.900362217811562 98.02955837871923 0 0 0 0 -7.1323142616602127 3.0305595003301278 0 3.0305595003301278 126.23478789222827 0 0 0 0 -27.470262712566182 472.1680510056467 0 472.1680510056467 845.07431470365555 0 0 0 0 185.09277310728794 309.49586317284593 0 309.49586317284593 770.60790236289176 0 0 0 0 -0.72617872060567379 -3.3542519460029823 0 -3.3542519460029823 9.7899696311682121 0 0 0 0 28.952287524298299 -123.35507549516842 0 -123.35507549516842 471.83868367851028 0 0 0 0 -0.41384746324177968 0.53026518365858522 0 0.53026518365858522 4.4335758373585925 0 0 0 0 -4.9893093488551017 5.238776390297943 0 5.238776390297943 3.2055538148350351 0 0 0 0 -12.590940493117898 -14.822491487270668 0 -14.822491487270668 38.038242148083562 0 0 0 0 69.942808053332556 177.04283017573971 0 177.04283017573971 621.1702398451489 0 0 0 0 305.46764644613722 215.59772488001363 0 215.59772488001363 369.81746594368451 0 0 0 0 446.23175265078316 377.6326495789026 0 377.6326495789026 553.61027189965353 0 0 0 0 314.87888136286347 980.66160994165875 0 980.66160994165875 545.19217959058983 0 0 0 0 -80.972555925080087 30.077002402627841 0 30.077002402627841 501.87294949073112 0 0 0 0 -46.350495331630668 42.372936367159554 0 42.372936367159554 -33.981497116255753 0 0 0 0 279.50636266870424 689.14646872056619 0 689.14646872056619 760.03089668640314 0 0 0 0 -1513.0912131354271 500.10069967435629 0 500.10069967435629 133.32411034390589 0 0 0 0 -1206.679044118413 -137.65742545068861 0 -137.65742545068861 277.58127961823629 0 0 0 0 6.4053660196696001 -390.97296301429606 0 -390.97296301429606 -37.55317682975874 0 0 0 0 -2649.1155782381684 56.847057424533887 0 56.847057424533887 640.08952017523552 0 0 0 0 -117.69618093327153 1048.7720918305822 0 1048.7720918305822 711.44785461349238 0 0 0 0 -507.53258506199927 664.3483840369363 0 664.3483840369363 1091.0881076258693 0 0 0 0 -677.53058063742355 167.04269964069408 0 167.04269964069408 -20.328838594603894 0 0 0 0 -387.38084782475198 392.74957410249453 0 392.74957410249453 -1438.5027283035961 0 0 0 0 789.09976064242073 -387.40589708380139 0 -387.40589708380139 -1418.1028734774973 0 0 0 0 -268.15039331259322 411.01995792783055 0 411.01995792783055 -1656.1095480544795 0 0 0 0 -22.697441038097054 17.993963469088385 0 17.993963469088385 -14.224289413446463 0 0 0 0 343.92440829662519 1295.6763159376255 0 1295.6763159376255 -2755.1563653018875 0 0 0 0 715.02187906827839 714.29381700811155 0 714.29381700811155 -2466.9011295015116 0 0 0 0 -465.84144574170932 1074.8205673379498 0 1074.8205673379498 -1239.1524019250737 0 0 0 0 -1870.7936922137305 2176.0222388234743 0 2176.0222388234743 -2064.7393373376399 0 0 0 0 -463.24336512584705 1080.2168079305366 0 1080.2168079305366 -1236.8123556663654 0 0 0 0 -40.783545825499459 648.16219190274705 0 648.16219190274705 -975.66075532598916 0 0 0 0 -76.424494497434353 606.79138501232887 0 606.79138501232887 -359.57595516748916 0 0 0 0 -58.564059489341162 84.369102791703199 0 84.369102791703199 -270.83150056132672 0 0 0 0 70.157596606863081 73.767320711343928 0 73.767320711343928 -1003.860283617727 0 0 0 0 -201.18813153504743 491.53501574888378 0 491.53501574888378 -709.62063082201348 0 0 0 0 -243.65699483128265 624.43896508950547 0 624.43896508950547 -1121.2876884716206 0 0 0 0 39.750931220012717 177.50086709215884 0 177.50086709215884 -1342.6606605352954 0 0 0 0 62.316343897829938 305.56413592050558 0 305.56413592050558 -1053.3423651732301 0 0 0 0 -585.81931834747957 1626.0331651724155 0 1626.0331651724155 -259.00325478916784 0 0 0 0 -830.42971713695442 521.68961058372224 0 521.68961058372224 -1104.805901163043 0 0 0 0 356.89893351550563 972.85978535123286 0 972.85978535123286 -942.82714367283916 0 0 0 0 2123.8347871972655 1334.7690348963006 0 1334.7690348963006 -764.92995869423976 0 0 0 0 -9.6474760304232774 36.530322773034868 0 36.530322773034868 -63.679517426817739 0 0 0 0 819.73557157671166 239.9845793263421 0 239.9845793263421 410.01141841033677 0 0 0 0 -1579.0267040258186 728.62656214200524 0 728.62656214200524 -817.6927485710039 0 0 0 0 -2452.1002374575164 400.53768902445313 0 400.53768902445313 -401.36621308134272 0 0 0 0 -2519.0562995684741 578.66931642361851 0 578.66931642361851 -47.954689403032717 0 0 0 0 -2519.5345163974271 582.33791670588721 0 582.33791670588721 191.27488718370296 0 0 0 0 -1746.4657201077207 148.28323199971055 0 148.28323199971055 166.61967891147651 0 0 0 0 -3125.2458393611887 1166.5573624907483 0 1166.5573624907483 229.72632382935319 0 0 0 0 -2174.3757676211535 1900.9892974843269 0 1900.9892974843269 -2386.0990666609232 0 0 0 0 -2281.1772433056976 -81.934741023962943 0 -81.934741023962943 -2211.8552406984709 0 0 0 0 -3304.906972998142 1044.4624323440867 0 1044.4624323440867 -616.53895653717336 0 0 0 0 -818.92846614817972 1126.8464827805274 0 1126.8464827805274 -1278.9092993324803 0 0 0 0 -649.12705169693618 113.68342771040739 0 113.68342771040739 -1552.2184333302757 0 0 0 0 -585.92343838787929 828.91740837087218 0 828.91740837087218 -2216.7616438892019 0 0 0 0 5.6989044870133512 1512.0217201674895 0 1512.0217201674895 -961.92891010611788 0 0 0 0 -1.8788719078701064 50.920984179377626 0 50.920984179377626 -88.222936780688386 0 0 0 0 -25.784487259237437 22.049424885518704 0 22.049424885518704 -21.533789438734104 0 0 0 0 161.23999227241438 213.28345118511425 0 213.28345118511425 -154.30672153652631 0 0 0 0 -168.14157477539266 125.44835475817126 0 125.44835475817126 -94.015041831136841 0 0 0 0 37.718067837721435 40.216027126357261 0 40.216027126357261 -9.1421374401330695 0 0 0 0 105.57192711785319 1297.5319892294647 0 1297.5319892294647 -2320.0355222176877 0 0 0 0 -61.151541670667939 196.8583512920959 0 196.8583512920959 -206.16538158250205 0 0 0 0 -227.56383996852674 156.75949941347426 0 156.75949941347426 -137.50736516703182 0 0 0 0 -78.049855513439979 178.71632509273695 0 178.71632509273695 -218.01763321104681 0 0 0 0 -68.740397815772781 58.519739495225593 0 58.519739495225593 60.957324920072494 0 0 0 0 -73.408501266618259 220.29355977587147 0 220.29355977587147 -178.04340395301642 0 0 0 0 -62.808309904532507 162.17568581229352 0 162.17568581229352 -153.55596399784372 0 0 0 0 -19.559095224876046 23.322169810863386 0 23.322169810863386 -28.951941358138072 0 0 0 0 -91.334111456177197 146.78768416475214 0 146.78768416475214 -216.47810153145474 0 0 0 0 -160.50645609654021 127.51866517034068 0 127.51866517034068 -167.57442088460084 0 0 0 0 -137.54729583999142 120.98178801148606 0 120.98178801148606 -179.49987633287674 0 0 0 0 -106.2362022876041 151.39572557066276 0 151.39572557066276 -191.35315509864267 0 0 0 0 -100.92647249816218 119.94662601205346 0 119.94662601205346 -203.96760529234234 0 0 0 0 -25.105316677672562 22.324517806133173 0 22.324517806133173 -15.974742771142289 0 0 0 0 -106.65631988855284 82.104472618793125 0 82.104472618793125 -149.75787126432988 0 0 0 0 -110.94509526514275 245.5247221492549 0 245.5247221492549 -45.549794609818491 0 0 0 0 16.83955147757888 136.04842643252448 0 136.04842643252448 -87.763405714395049 0 0 0 0 7.4049589737123824 273.4714268378699 0 273.4714268378699 -54.99268395431136 0 0 0 0 -126.49298705905676 83.548764512495836 0 83.548764512495836 -105.95835570585768 0 0 0 0 -115.23107588899438 128.31404041582209 0 128.31404041582209 -124.29199763361976 0 0 0 0 -74.879536162014119 142.48601895646334 0 142.48601895646334 -15.920310470311051 0 0 0 0 -14.365960698333154 95.370802911070484 0 95.370802911070484 -75.686991984869991 0 0 0 0 -165.60087189241312 304.87256737714961 0 304.87256737714961 -152.31361981527516 0 0 0 0 -115.05216413855669 142.99299148615319 0 142.99299148615319 -165.74905840379506 0 0 0 0 -238.9635202162608 200.26736783777341 0 200.26736783777341 -162.67403666103201 0 0 0 0 -11.739326949423955 85.667814602180329 0 85.667814602180329 -78.836553510905688 0 0 0 0 -10.909804498520941 30.413767799996634 0 30.413767799996634 5.8148078322250996 0 0 0 0 -154.08063805347774 101.65477931785426 0 101.65477931785426 -233.55467266822234 0 0 0 0 -1244.2666344423487 -69.137850559085564 0 -69.137850559085564 36.612251110895158 0 0 0 0 -271.45175513753202 -2.2014091345295128 0 -2.2014091345295128 -156.20312255299268 0 0 0 0 -320.29425804456696 244.00632080697369 0 244.00632080697369 -172.80937097138758 0 0 0 0 -275.47153577964491 -256.61927456887952 0 -256.61927456887952 -66.885939383679215 0 0 0 0 -175.21971115531051 213.05309378664697 0 213.05309378664697 -65.363942383683025 0 0 0 0 -0.46852757389024191 -2.1063599906171362 0 -2.1063599906171362 -3.8169872881004601 0 0 0 0 -2364.7564898492128 556.51528476867134 0 556.51528476867134 -758.93796706081503 0 0 0 0 -1568.117350912551 711.68188172775717 0 711.68188172775717 -457.40385098216757 0 0 0 0 -2322.8632644370955 1133.7893070323698 0 1133.7893070323698 -669.26152746268781 0 0 0 0 -1479.344929325136 928.62997223046955 0 928.62997223046955 -273.9866717959012 0 0 0 0 -927.8726811154047 576.69195713707722 0 576.69195713707722 -65.512148421436905 0 0 0 0 -628.42491507403793 313.49115874277783 0 313.49115874277783 -23.136071713341153 0 0 0 0 -756.28365250552451 591.10271977668276 0 591.10271977668276 -110.55970540288399 0 0 0 0 -719.88559245999204 539.12209477971919 0 539.12209477971919 -73.958785374072249 0 0 0 0 -613.11787883419311 588.62927806369498 0 588.62927806369498 -73.654203784542915 0 0 0 0 -658.90928736138449 547.33453542361349 0 547.33453542361349 -53.578623319406688 0 0 0 0 -429.65128846719017 336.53300412359329 0 336.53300412359329 -87.044904446607688 0 0 0 0 -805.60899173794314 1087.1887154511678 0 1087.1887154511678 213.15470402794926 0 0 0 0 -334.74312033792376 720.24532712945938 0 720.24532712945938 -46.255904181596634 0 0 0 0 -1469.5859738127911 292.04604621616181 0 292.04604621616181 1062.4978971957389 0 0 0 0 -886.83906628700788 76.310147527050503 0 76.310147527050503 -267.79691602181924 0 0 0 0 -543.07110532550723 582.84624489202952 0 582.84624489202952 -633.63704646571205 0 0 0 0 29.289317991351709 97.923117120322786 0 97.923117120322786 182.54943566370275 0 0 0 0 17.300932888663624 27.063125928859932 0 27.063125928859932 39.144573494023717 0 0 0 0 -116.20454302200233 31.458360843511855 0 31.458360843511855 332.18130984614254 0 0 0 0 7.3902923461178602 2.8747914904012362 0 2.8747914904012362 5.7779150650421087 0 0 0 0 -157.33934363070875 102.2409185664128 0 102.2409185664128 204.08271164013786 0 0 0 0 -182.14375814714003 88.69321909637074 0 88.69321909637074 387.96428777320398 0 0 0 0 -104.43717910714622 -15.020634658846575 0 -15.020634658846575 43.129899006446067 0 0 0 0 -62.341992388071958 129.85028523554865 0 129.85028523554865 -193.9244562548738 0 0 0 0 -122.26653974573128 2.0830744744744152 0 2.0830744744744152 202.73656180419493 0 0 0 0 -891.42441149416845 345.67870661376764 0 345.67870661376764 -0.42306765697867377 0 0 0 0 -523.02629339407576 207.65398255134855 0 207.65398255134855 -178.33889440126768 0 0 0 0 8.5800176321547497 53.275503639576272 0 53.275503639576272 29.304546217783738 0 0 0 0 -241.06439193408005 382.75942653880975 0 382.75942653880975 -245.39386071491936 0 0 0 0 -156.67219418974128 243.73434730996814 0 243.73434730996814 -92.418491703414475 0 0 0 0 -84.383058669860475 239.48245621982642 0 239.48245621982642 -135.38872863449797 0 0 0 0 -22.969705441212795 35.281544567880715 0 35.281544567880715 -0.53288267655964727 0 0 0 0 -232.76174203545088 184.96439142167583 0 184.96439142167583 -75.904504741993151 0 0 0 0 -242.74523950438015 173.14423233609705 0 173.14423233609705 -89.862595654180041 0 0 0 0 -244.65693452459527 107.69796797737581 0 107.69796797737581 -129.28706272420823 0 0 0 0 -196.20107502676547 178.58958700134826 0 178.58958700134826 -97.685225777095184 0 0 0 0 -262.44259681378026 144.5185264698448 0 144.5185264698448 -113.79749231875758 0 0 0 0 -186.84944276425813 125.11759243810138 0 125.11759243810138 -135.71645318198716 0 0 0 0 -163.0639942199341 203.73170236416263 0 203.73170236416263 -71.185873237613123 0 0 0 0 -151.06936804577708 189.53389821776364 0 189.53389821776364 -55.565910267265281 0 0 0 0 -182.52138196141459 167.46726610420046 0 167.46726610420046 -57.232968608572264 0 0 0 0 -164.3566184413794 216.41027413004849 0 216.41027413004849 -38.78013027975976 0 0 0 0 -155.53686140064383 196.55966946242916 0 196.55966946242916 -28.645457583261305 0 0 0 0 -113.21509875514312 162.6448048218972 0 162.6448048218972 -16.763214746075391 0 0 0 0 -99.738354275934398 206.10909460826952 0 206.10909460826952 -51.240667818776274 0 0 0 0 -121.23198338324437 227.75652004241783 0 227.75652004241783 -63.017620124035602 0 0 0 0 -147.8272134711442 236.02910960774716 0 236.02910960774716 -47.773959120517247 0 0 0 0 -129.69204998985515 164.83216960729624 0 164.83216960729624 86.437828290532707 0 0 0 0 -78.29747085901181 107.09665639216655 0 107.09665639216655 10.838004754048598 0 0 0 0 -175.06710107094113 69.228928927061588 0 69.228928927061588 252.42842355534231 0 0 0 0 -120.5564439757145 211.40845294153587 0 211.40845294153587 203.57011373898058 0 0 0 0 -142.60942549111496 134.84626713448029 0 134.84626713448029 140.42774371932319 0 0 0 0 -83.004421415913384 191.72709007367848 0 191.72709007367848 34.668216191392276 0 0 0 0 -133.52187279057398 185.01058060835248 0 185.01058060835248 207.75350359361983 0 0 0 0 -44.79367371587432 204.56031585017718 0 204.56031585017718 105.04360554052801 0 0 0 0 -102.60366535821231 140.49316822220499 0 140.49316822220499 59.381335993060929 0 0 0 0 -82.839991765242303 187.10176065357155 0 187.10176065357155 28.238042445445899 0 0 0 0 -44.815308635385009 179.38227531915254 0 179.38227531915254 -29.582230451578653 0 0 0 0 -52.751604525314178 156.68746128108251 0 156.68746128108251 -64.281101943746762 0 0 0 0 -145.06676063901978 165.72614192268156 0 165.72614192268156 27.419950796607736 0 0 0 0 -128.48778280062834 181.06261528083996 0 181.06261528083996 -53.813253867236199 0 0 0 0 -141.17718549363781 153.10267063768697 0 153.10267063768697 -45.397685524232656 0 0 0 0 -93.506349383911584 182.8715554574519 0 182.8715554574519 -28.251491516315582 0 0 0 0 -107.60130637499969 148.68046554439934 0 148.68046554439934 -0.18397883783836733 0 0 0 0 -80.672693365777377 158.90158798339326 0 158.90158798339326 -126.49303551467892 0 0 0 0 -136.4375636279583 173.46926999618154 0 173.46926999618154 -58.086267289279931 0 0 0 0 -142.15057690249523 156.01627841244408 0 156.01627841244408 -106.1539856086747 0 0 0 0 -172.43137412483338 145.10811550010112 0 145.10811550010112 -108.36391085545438 0 0 0 0 -117.2069012002321 132.79611651855885 0 132.79611651855885 -178.00772356821108 0 0 0 0 -126.94383782608202 150.61712755926055 0 150.61712755926055 -152.25510654796381 0 0 0 0 -73.49446625780547 178.08945728463004 0 178.08945728463004 -169.00575679553003 0 0 0 0 -110.44437043351354 151.42522744979397 0 151.42522744979397 -127.58915970677481 0 0 0 0 -90.506521812174469 156.07378258096014 0 156.07378258096014 -64.126275404763874 0 0 0 0 -58.93024764751317 194.91582723578358 0 194.91582723578358 -122.1789168916639 0 0 0 0 -308.15042006675503 1084.5666309893663 0 1084.5666309893663 -574.32084118276362 0 0 0 0 -314.72269596814658 1168.631670660857 0 1168.631670660857 -346.10743862331765 0 0 0 0 -139.64381587250682 915.30678699196415 0 915.30678699196415 -572.14281832459392 0 0 0 0 -298.20013612143521 959.51019066846857 0 959.51019066846857 -556.46506787335056 0 0 0 0 -605.255451922887 1235.4380938372633 0 1235.4380938372633 -650.83934985065116 0 0 0 0 -733.97698699543253 1032.5062300029567 0 1032.5062300029567 -539.35456715484906 0 0 0 0 -315.63978330089958 874.14044254053306 0 874.14044254053306 -973.98664509082846 0 0 0 0 -1221.4090150425036 1482.4749788938225 0 1482.4749788938225 -953.40222866898921 0 0 0 0 -1140.3687894393515 916.05394552834741 0 916.05394552834741 -125.72985264028557 0 0 0 0 -639.12687765160808 1067.0802309748942 0 1067.0802309748942 -277.61859956050739 0 0 0 0 -668.13949750672327 1157.3003060162246 0 1157.3003060162246 -516.02909074245849 0 0 0 0 -347.59376284215978 1145.0970013769775 0 1145.0970013769775 -282.83873087215852 0 0 0 0 -564.19912037554604 758.1930859506258 0 758.1930859506258 -161.37731337281457 0 0 0 0 -632.07466295812628 789.19871871245596 0 789.19871871245596 -109.22253279648862 0 0 0 0 -801.4727581005136 669.25363677947144 0 669.25363677947144 -64.102414415756357 0 0 0 0 -529.60224434733391 586.16511635327288 0 586.16511635327288 -91.915654990018993 0 0 0 0 -642.50729525058341 627.96855276324709 0 627.96855276324709 -68.720617312799732 0 0 0 0 -550.01504657243277 727.7041323336922 0 727.7041323336922 -188.91091972349386 0 0 0 0 72.904130844079191 863.40335762383756 0 863.40335762383756 -365.5355312741699 0 0 0 0 -71.351570518017979 1252.3227065446326 0 1252.3227065446326 -58.893960379379962 0 0 0 0 -349.20931757526705 1071.1631893217623 0 1071.1631893217623 -109.37225557562806 0 0 0 0 -175.07835117338982 1127.3059438037667 0 1127.3059438037667 -338.0598042892093 0 0 0 0 -183.05265419887292 1274.7720903748141 0 1274.7720903748141 -214.99863126017408 0 0 0 0 -247.6041631581611 1212.230283107988 0 1212.230283107988 -3.6058144697331045 0 0 0 0 -323.09343858319335 1093.7068826486402 0 1093.7068826486402 -138.76956753890397 0 0 0 0 -195.18655352518545 1152.2787227716813 0 1152.2787227716813 -167.11881449791827 0 0 0 0 -233.93470459732634 1146.9928022958843 0 1146.9928022958843 -104.66100892559643 0 0 0 0 -128.626903607641 1060.050817627754 0 1060.050817627754 -85.436688871705883 0 0 0 0 -192.18102790431294 1158.41070588294 0 1158.41070588294 -145.11764608801082 0 0 0 0 -226.46731928225199 1183.8583123245151 0 1183.8583123245151 -151.23427495800388 0 0 0 0 -173.32877811123035 1151.5787588078852 0 1151.5787588078852 -184.62526046709172 0 0 0 0 -133.15484022173041 921.97555096132874 0 921.97555096132874 11.481618829688159 0 0 0 0 -82.32141012318607 851.06539688746625 0 851.06539688746625 95.063827268395471 0 0 0 0 -102.34120128567156 906.01376466056308 0 906.01376466056308 -174.63548514585187 0 0 0 0 -128.30948223461746 977.90185953766627 0 977.90185953766627 -343.89476934829872 0 0 0 0 -120.55686227650949 785.22599020100529 0 785.22599020100529 481.23879669593043 0 0 0 0 -70.296846945682773 779.73318609211583 0 779.73318609211583 476.87836409676356 0 0 0 0 -56.951723169855541 901.27746510476481 0 901.27746510476481 158.21398126497115 0 0 0 0 -122.3602141320298 843.57686386414935 0 843.57686386414935 350.07604814229262 0 0 0 0 -123.56857778137783 1083.9665970649298 0 1083.9665970649298 -42.266070585873194 0 0 0 0 -127.46900612182799 982.22513472150649 0 982.22513472150649 205.56576554811772 0 0 0 0 -115.93877827351389 1095.8401124370416 0 1095.8401124370416 371.59543630205462 0 0 0 0 -76.085072609886993 1091.8046044301177 0 1091.8046044301177 -94.141583376083872 0 0 0 0 -93.081414265681815 1060.2406954189823 0 1060.2406954189823 -275.57307243920741 0 0 0 0 73.35431215436256 1175.3443329812235 0 1175.3443329812235 -530.41122880825878 0 0 0 0 -99.011159635614604 1087.5566266858327 0 1087.5566266858327 -94.19756932948053 0 0 0 0 51.412674037797842 1245.9575089380473 0 1245.9575089380473 -151.44766848858876 0 0 0 0 33.778438627850846 1464.2013147138821 0 1464.2013147138821 -2.8390586144037115 0 0 0 0 177.53687453744351 1261.1300609812943 0 1261.1300609812943 -785.37795294482771 0 0 0 0 117.06095168416505 1254.2965639643753 0 1254.2965639643753 16.02157317702887 0 0 0 0 -72.830454155366169 1307.1743510664703 0 1307.1743510664703 564.4865729221201 0 0 0 0 -39.221169095573714 1205.8484702301494 0 1205.8484702301494 -148.85291533386973 0 0 0 0 3.7548099735577125 1240.5422949178326 0 1240.5422949178326 -408.51731436438121 0 0 0 0 157.07934220359311 1643.2116371405928 0 1643.2116371405928 -708.59575488650444 0 0 0 0 0.080246085693943314 1689.6797197079757 0 1689.6797197079757 109.19913406630849 0 0 0 0 156.681625688434 1001.609078154745 0 1001.609078154745 998.93268382974111 0 0 0 0 39.015237390314724 1542.0713095705555 0 1542.0713095705555 721.37757764745766 0 0 0 0 -165.66047919468838 979.60488171210818 0 979.60488171210818 1416.9146339802573 0 0 0 0 -51.510993792762747 767.17527519497253 0 767.17527519497253 1284.2784028350966 0 0 0 0 0.80346371624909807 1585.1179393212756 0 1585.1179393212756 1739.356020844667 0 0 0 0 -209.52567065769108 410.56113121531325 0 410.56113121531325 3997.174299992701 0 0 0 0 -202.63150191155728 936.46450138401406 0 936.46450138401406 286.03984055303226 0 0 0 0 -118.70761845077504 1091.3503759429605 0 1091.3503759429605 527.61623935687794 0 0 0 0 -142.28448084471165 467.04812272121762 0 467.04812272121762 654.50357682089452 0 0 0 0 -214.74247099609056 467.07080066391813 0 467.07080066391813 1897.6764119808558 0 0 0 0 -220.40235078854312 972.18934848949084 0 972.18934848949084 889.49589299131821 0 0 0 0 -108.92642181631527 39.216342656064626 0 39.216342656064626 2767.7823662714018 0 0 0 0 1.4828975837221492 3.1970655304962321 0 3.1970655304962321 3.0961163420849882 0 0 0 0 -91.147280316014076 689.1022964456638 0 689.1022964456638 170.60315054216153 0 0 0 0 3.842456387087168 5.7300879678747307 0 5.7300879678747307 5.3734329068574302 0 0 0 0 -121.10809679373051 -87.425401357044393 0 -87.425401357044393 2498.7382513314933 0 0 0 0 438.09952217095997 691.94357404836774 0 691.94357404836774 -727.64689234015623 0 0 0 0 22.675724094731947 20.10877733099845 0 20.10877733099845 8.0942230311754262 0 0 0 0 885.60948621458374 313.30388486028824 0 313.30388486028824 -576.18378323936304 0 0 0 0 8.2072154867696554 4.1378562715370464 0 4.1378562715370464 4.1191569007120599 0 0 0 0 2.7581736228079308 1.108078598024079 0 1.108078598024079 5.066591707251165 0 0 0 0 4.9857123980834768 1181.6028612056537 0 1181.6028612056537 1490.9653380987165 0 0 0 0 -638.79053165297955 -653.21333918795517 0 -653.21333918795517 3399.3603860466992 0 0 0 0 508.53525450045709 91.387562350313601 0 91.387562350313601 1711.0688478911497 0 0 0 0 60.476760876073968 -119.83806017026836 0 -119.83806017026836 -675.37272163717535 0 0 0 0 -294.91667193068133 -26.611745821601289 0 -26.611745821601289 224.54420483809008 0 0 0 0 -0.40020976284961179 127.75643140254283 0 127.75643140254283 31.381854280629341 0 0 0 0 -61.659907997149276 57.906531846767393 0 57.906531846767393 46.810275279559391 0 0 0 0 102.60238008323358 -158.74709837092087 0 -158.74709837092087 252.93145969526449 0 0 0 0 74.605919401568826 325.44272307205392 0 325.44272307205392 441.78048612545535 0 0 0 0 -68.540541798675804 226.32592182255314 0 226.32592182255314 413.38964899761049 0 0 0 0 227.29920644199592 259.93427968604374 0 259.93427968604374 118.89847268548328 0 0 0 0 0.022676216505813935 161.70340172162938 0 161.70340172162938 190.57909796545937 0 0 0 0 -720.22777915769257 -164.53915212985157 0 -164.53915212985157 992.03037323068565 0 0 0 0 6.7192312694025986 4.6953964419096295 0 4.6953964419096295 1.7789638805799433 0 0 0 0 -77.841788971310962 -62.466190288780922 0 -62.466190288780922 -56.784087628715497 0 0 0 0 130.65781212406 156.75827870056673 0 156.75827870056673 -190.04210589172362 0 0 0 0 17.130703617061954 -30.190091003412817 0 -30.190091003412817 908.03070623085659 0 0 0 0 110.68058118521003 232.86628218224723 0 232.86628218224723 654.20523757088813 0 0 0 0 739.39744457532652 483.83424261490291 0 483.83424261490291 716.41352890160852 0 0 0 0 374.70007008337416 520.26880431840254 0 520.26880431840254 78.590021410447662 0 0 0 0 647.76389238929551 757.29439056836782 0 757.29439056836782 283.88326906897419 0 0 0 0 -3.0592150694214411 5.4850938775765314 0 5.4850938775765314 -0.65149219064480235 0 0 0 0 73.814814444893273 175.00485821669281 0 175.00485821669281 336.49524082592256 0 0 0 0 173.75836804966457 19.526081196546556 0 19.526081196546556 20.764560295145202 0 0 0 0 462.84543793305056 153.80941193416447 0 153.80941193416447 -5.7505136449399288 0 0 0 0 357.16424533183454 426.64282958042168 0 426.64282958042168 332.89284640884944 0 0 0 0 -31.709579742280766 55.817740665361271 0 55.817740665361271 56.919568696753231 0 0 0 0 -35.908487995633322 18.334576150650634 0 18.334576150650634 21.080391765463929 0 0 0 0 -75.777809628256364 -38.211977712955559 0 -38.211977712955559 62.444593531346641 0 0 0 0 -56.858491614431841 70.829905908656656 0 70.829905908656656 55.63900966548681 0 0 0 0 -43.689802372238773 50.302462496675616 0 50.302462496675616 47.882927019672934 0 0 0 0 -73.763137511457899 40.8090114118977 0 40.8090114118977 143.29135637636136 0 0 0 0 -3.7748673300375231 -93.230881813418819 0 -93.230881813418819 215.30523530488335 0 0 0 0 -48.681353178678535 4.2806106420031185 0 4.2806106420031185 3.3232664463679287 0 0 0 0 -6.292868952837182 -1.8439474507220837 0 -1.8439474507220837 4.949257409701616 0 0 0 0 -295.68813824254903 -453.6980872743552 0 -453.6980872743552 -81.291465496375167 0 0 0 0 -91.973009163193638 84.489275068737697 0 84.489275068737697 85.082244371838897 0 0 0 0 -54.731962594767538 -61.572454160522511 0 -61.572454160522511 67.692871538140025 0 0 0 0 -54.010182433878072 -0.20878001075288921 0 -0.20878001075288921 9.728717034597139 0 0 0 0 -118.30133723987092 -105.42791334367712 0 -105.42791334367712 -3.5909590343035234 0 0 0 0 21.180812089587562 5.0097501449035917 0 5.0097501449035917 24.568499018847433 0 0 0 0 -59.473373556043953 46.419096236350015 0 46.419096236350015 162.89003041864407 0 0 0 0 -8.0390109303116333 266.59159550907498 0 266.59159550907498 84.51461789716268 0 0 0 0 -39.302822293888312 -40.718160768989037 0 -40.718160768989037 231.82079343245823 0 0 0 0 -115.57563094065699 -29.124482835295566 0 -29.124482835295566 199.58265890778057 0 0 0 0 -42.094543744862904 1.8944685831274626 0 1.8944685831274626 -0.44964014451769696 0 0 0 0 11.817492052293915 30.268895031109722 0 30.268895031109722 10.282846389771393 0 0 0 0 -38.46273940638639 216.46139652158399 0 216.46139652158399 157.6757513148732 0 0 0 0 48.198731806711294 187.63170993944777 0 187.63170993944777 -81.396325981208065 0 0 0 0 19.121005755150691 310.60270793341533 0 310.60270793341533 -601.14561378336566 0 0 0 0 -53.097412216797238 595.66530999493079 0 595.66530999493079 -367.16814099269556 0 0 0 0 -76.225049737535301 628.74699028483792 0 628.74699028483792 -162.14309518674781 0 0 0 0 -38.982039979164256 545.49601049079774 0 545.49601049079774 14.936533908926108 0 0 0 0 -64.449519494140986 626.5503300112041 0 626.5503300112041 295.43603403740235 0 0 0 0 -119.53558360517491 594.32091951841903 0 594.32091951841903 429.80962918666592 0 0 0 0 -142.39356975527335 586.89082531559802 0 586.89082531559802 1025.5139572164153 0 0 0 0 132.09479341548285 191.9963931375496 0 191.9963931375496 871.53800402163415 0 0 0 0 -65.463230041103088 145.35469625571659 0 145.35469625571659 964.27101414686422 0 0 0 0 25.490367418514097 29.540381728518476 0 29.540381728518476 10.345433553325597 0 0 0 0 752.40052061216556 531.18362210447958 0 531.18362210447958 -312.48998317649603 0 0 0 0 273.42817915946944 1119.9168030881538 0 1119.9168030881538 485.89099019701825 0 0 0 0 29.490836466371547 104.38479855287278 0 104.38479855287278 296.04347559011921 0 0 0 0 -78.671953459546785 72.544995768713989 0 72.544995768713989 66.007953476010016 0 0 0 0 -108.55522011707217 28.156690547287326 0 28.156690547287326 105.88557967253541 0 0 0 0 -181.9788600676693 43.69390492921616 0 43.69390492921616 147.26222768333514 0 0 0 0 -96.197842521870371 117.76651499939535 0 117.76651499939535 210.50893553007518 0 0 0 0 -112.01913613056513 25.585647795227828 0 25.585647795227828 138.86629774937455 0 0 0 0 -176.83545965424128 -111.44944054620737 0 -111.44944054620737 22.739829152195398 0 0 0 0 178.58284233482846 97.954093227401017 0 97.954093227401017 58.20192256255541 0 0 0 0 26.083204356899657 6.0317336364876155 0 6.0317336364876155 15.510012478666034 0 0 0 0 -120.71252121749421 151.35601540428934 0 151.35601540428934 160.41560965754252 0 0 0 0 275.35741510230582 389.03636972339064 0 389.03636972339064 -650.6499339666716 0 0 0 0 -6.0330877451809215 9.1776388342599091 0 9.1776388342599091 -4.1611858046251555 0 0 0 0 -2616.6880280750192 445.47244611684118 0 445.47244611684118 -2.7342959346588032 0 0 0 0 -1085.5976049778401 1090.8349579058286 0 1090.8349579058286 -412.16391038663005 0 0 0 0 -1805.9990088687846 649.65085148158505 0 649.65085148158505 244.67296515994531 0 0 0 0 -1510.9875633170559 165.56161110304311 0 165.56161110304311 -85.287263858488586 0 0 0 0 49.624533982212938 71.63123800161307 0 71.63123800161307 42.34470760051164 0 0 0 0 -528.87809708481655 284.76533413421748 0 284.76533413421748 163.49495410194868 0 0 0 0 16.270339795497421 79.271948991811769 0 79.271948991811769 -379.81042109719419 0 0 0 0 -983.8187628792366 522.06462584710243 0 522.06462584710243 91.945140272881872 0 0 0 0 -1105.3412541687794 533.7241170975758 0 533.7241170975758 285.88343360065846 0 0 0 0 33.764887093862725 22.727324020527945 0 22.727324020527945 11.990134259557294 0 0 0 0 -1303.5533890885308 446.08935506812441 0 446.08935506812441 306.00168981587922 0 0 0 0 -1242.5464771061088 639.10878548786786 0 639.10878548786786 244.72108092326641 0 0 0 0 -1120.8351153536569 521.26286235837324 0 521.26286235837324 217.73869104023106 0 0 0 0 -1110.1847465195242 678.69827842361701 0 678.69827842361701 204.92930880025233 0 0 0 0 -1601.9489268225552 980.27281750954262 0 980.27281750954262 -217.58965471218107 0 0 0 0 -1347.7259629382315 456.75490892437665 0 456.75490892437665 291.43680615834728 0 0 0 0 -805.37135062816378 143.82058420282556 0 143.82058420282556 342.78125744069257 0 0 0 0 -1964.1404504387901 331.61690085764349 0 331.61690085764349 485.48389118703199 0 0 0 0 -777.61350408448379 253.60902447202648 0 253.60902447202648 160.06192166158144 0 0 0 0 -38.944382826390211 173.19956584831016 0 173.19956584831016 33.471394120722834 0 0 0 0 54.69573177087895 85.046162607982509 0 85.046162607982509 93.283755273507097 0 0 0 0 -13.616024224334978 131.04119057614491 0 131.04119057614491 108.44262665897213 0 0 0 0 122.42585857838276 189.93649897918294 0 189.93649897918294 -3.4660653608007124 0 0 0 0 -44.222691707651393 190.05268624935502 0 190.05268624935502 141.12481557378158 0 0 0 0 -42.328681202368898 166.9866517534615 0 166.9866517534615 84.64419416653709 0 0 0 0 45.095857375130436 128.7003343110614 0 128.7003343110614 79.49794571843006 0 0 0 0 53.968013566926281 102.69735942370367 0 102.69735942370367 130.1449509272185 0 0 0 0 32.282644629354763 290.21988003503498 0 290.21988003503498 27.763873162113669 0 0 0 0 17.355023531403276 108.66453516089314 0 108.66453516089314 -88.74145427673875 0 0 0 0 -40.221231475709828 139.69184542800582 0 139.69184542800582 -120.91616518434876 0 0 0 0 68.259333698810224 359.93283588445138 0 359.93283588445138 -35.157343977321744 0 0 0 0 -45.966904369241092 229.63483685662874 0 229.63483685662874 106.46672567989566 0 0 0 0 -3.5802945773770496 13.92979967378049 0 13.92979967378049 28.124567975291569 0 0 0 0 -313.02232365656164 236.84194990974811 0 236.84194990974811 -197.91344554550778 0 0 0 0 -1.631112422052345 11.552615512339223 0 11.552615512339223 -18.962002363632273 0 0 0 0 -23.702247154311408 56.706545602793085 0 56.706545602793085 103.79749724224166 0 0 0 0 -312.65657099488817 244.26359253492319 0 244.26359253492319 -145.74905350869631 0 0 0 0 -1.19782012304902 2.2457694531075596 0 2.2457694531075596 13.078176564446096 0 0 0 0 202.66451410734771 331.48016971864945 0 331.48016971864945 -58.173448302384315 0 0 0 0 -126.59249915054352 111.12835821862643 0 111.12835821862643 69.569376854053644 0 0 0 0 -93.391938821215263 71.703115831096966 0 71.703115831096966 116.20225978679809 0 0 0 0 -741.41918182121299 613.56660653169001 0 613.56660653169001 239.9455864694487 0 0 0 0 -443.55163532404595 427.83349699953328 0 427.83349699953328 91.803971588916966 0 0 0 0 -773.64934519301096 694.08749882163738 0 694.08749882163738 -66.212652109786021 0 0 0 0 -457.96659248284016 171.14872517042585 0 171.14872517042585 567.44679259454324 0 0 0 0 -562.95655014326258 594.45778708813305 0 594.45778708813305 235.8929830481793 0 0 0 0 -74.740838151384878 -297.97509288501681 0 -297.97509288501681 659.91309692957202 0 0 0 0 -396.25109169541065 540.04810378596562 0 540.04810378596562 674.14969101814836 0 0 0 0 -382.46356550091332 437.67132384181207 0 437.67132384181207 -52.446059876994696 0 0 0 0 -661.23628677646411 381.136195938112 0 381.136195938112 -32.292916717825392 0 0 0 0 -730.09833550835629 890.7473596063362 0 890.7473596063362 -274.81386725189986 0 0 0 0 -520.53993096070189 553.01900979301104 0 553.01900979301104 -35.966819595799279 0 0 0 0 -928.17525149503126 668.43119653802842 0 668.43119653802842 10.279408677486117 0 0 0 0 -210.3620248692423 90.77346796763959 0 90.77346796763959 528.06509626019601 0 0 0 0 -51.319308338857809 411.88225074453919 0 411.88225074453919 348.36528478013793 0 0 0 0 310.72922248885334 243.70241318000194 0 243.70241318000194 -242.49066697537364 0 0 0 0 -31.537956870666676 -142.48975670296932 0 -142.48975670296932 235.76928837030619 0 0 0 0 -143.22057651792011 101.33371232604742 0 101.33371232604742 -117.70582211477358 0 0 0 0 -305.984132313999 109.0331513223382 0 109.0331513223382 -98.671733447471524 0 0 0 0 -293.26887609503319 248.38944922703013 0 248.38944922703013 -164.51910098048302 0 0 0 0 -237.82680099605932 422.58627349295216 0 422.58627349295216 -364.44422603342719 0 0 0 0 -147.54921771115187 245.80927924010075 0 245.80927924010075 -228.8944703586767 0 0 0 0 -228.4362289115561 441.80997520964229 0 441.80997520964229 -333.17442171342555 0 0 0 0 -157.59710352107504 381.94552994043806 0 381.94552994043806 -305.98124563894544 0 0 0 0 -326.18525712190967 567.87134444361618 0 567.87134444361618 -390.01881693541145 0 0 0 0 -668.68383943741355 325.3162542379614 0 325.3162542379614 -240.32438823418306 0 0 0 0 -255.5525790744905 109.33798641796557 0 109.33798641796557 -214.59216367219051 0 0 0 0 -436.61646554942126 10.330691989452134 0 10.330691989452134 -379.00436578017616 0 0 0 0 -368.68153392196473 134.40904768569453 0 134.40904768569453 -162.19729667589854 0 0 0 0 11.224337423329416 441.00174389975473 0 441.00174389975473 -324.46305211143044 0 0 0 0 -613.51679639707072 926.87746168316289 0 926.87746168316289 -246.7277851630688 0 0 0 0 -270.94296140813094 -446.0178463267348 0 -446.0178463267348 62.971818739742957 0 0 0 0 -256.26858568600073 -49.113404354722661 0 -49.113404354722661 256.4269346489873 0 0 0 0 -9.4165386097433981 0.17901347983968918 0 0.17901347983968918 1.7986586033953085 0 0 0 0 -1067.924988993178 717.56981824115155 0 717.56981824115155 -197.63250190107101 0 0 0 0 -374.42661800330825 591.5523021609697 0 591.5523021609697 -549.59054224557758 0 0 0 0 -279.84835163668322 172.07843327580213 0 172.07843327580213 -631.85755231620533 0 0 0 0 -226.25313533354461 398.35469200559618 0 398.35469200559618 -324.62379652353411 0 0 0 0 -361.68106422041819 411.21698217380799 0 411.21698217380799 -232.2609602973007 0 0 0 0 -224.51090410849793 250.1559714782743 0 250.1559714782743 -43.832292979874182 0 0 0 0 -371.20796329826408 173.46469559431534 0 173.46469559431534 106.02692333445884 0 0 0 0 -667.53682607668816 480.80065428648049 0 480.80065428648049 -206.79047681556403 0 0 0 0 -107.87518950480626 41.021922377271949 0 41.021922377271949 -59.366647555949385 0 0 0 0 -148.41601213354443 -62.305220260556325 0 -62.305220260556325 143.53652501549368 0 0 0 0 -552.32351997103979 9.0531490909197601 0 9.0531490909197601 257.59574503468139 0 0 0 0 -328.74847562435025 79.342218525899625 0 79.342218525899625 127.45319350243153 0 0 0 0 -263.77293285695487 176.2427796185666 0 176.2427796185666 17.478943907499342 0 0 0 0 -165.51273038667568 25.988122421813387 0 25.988122421813387 114.23360442195735 0 0 0 0 -210.09349241293239 39.762898943898108 0 39.762898943898108 125.94622360824815 0 0 0 0 -216.51828699883526 170.63673896578956 0 170.63673896578956 -93.517123755922512 0 0 0 0 -123.29454393408378 51.08952475859769 0 51.08952475859769 32.38981908149799 0 0 0 0 -81.079634885739935 9.1677835126099438 0 9.1677835126099438 68.638975702560543 0 0 0 0 -44.922443925080216 8.3787127954854448 0 8.3787127954854448 31.478182252925684 0 0 0 0 -143.33870114024467 135.04364435038497 0 135.04364435038497 147.65402068688127 0 0 0 0 -133.3456197475607 114.47058182767796 0 114.47058182767796 183.6166860799749 0 0 0 0 -0.26269603286664278 -2.3204162449223382 0 -2.3204162449223382 10.12792934365903 0 0 0 0 5.0813440297060879 -82.705796985116649 0 -82.705796985116649 72.235176678370408 0 0 0 0 -180.73807160499564 -10.765395154379803 0 -10.765395154379803 48.719473983575881 0 0 0 0 -253.43450897276489 -89.423111217397491 0 -89.423111217397491 -34.087674291669828 0 0 0 0 -184.26756239917086 324.05327604939748 0 324.05327604939748 -199.05219666550693 0 0 0 0 120.12278760316985 253.77518259816497 0 253.77518259816497 -473.94446449523093 0 0 0 0 -196.64016863359575 267.46680361002291 0 267.46680361002291 -194.96993388649935 0 0 0 0 -169.91638537992003 317.09071967211912 0 317.09071967211912 -402.19515262587811 0 0 0 0 -176.1477148479571 267.23385632349414 0 267.23385632349414 -784.9606247718184 0 0 0 0 -573.68369062358397 550.41157050408401 0 550.41157050408401 -406.04177535301096 0 0 0 0 117.75369479411165 260.14523116614328 0 260.14523116614328 -360.29319207930712 0 0 0 0 -126.79389196038755 25.81564463639188 0 25.81564463639188 229.29614647028211 0 0 0 0 -1018.7513371207515 -17.107505379758095 0 -17.107505379758095 -22.414833013310272 0 0 0 0 7.1324020401231394 2.2393986003576707 0 2.2393986003576707 -12.555515468813134 0 0 0 0 -257.12533730786527 164.20760795632668 0 164.20760795632668 -25.942841454987501 0 0 0 0 -311.50841377539473 -87.784314845681365 0 -87.784314845681365 -15.915886466522352 0 0 0 0 -173.63460133552871 -123.18105850653228 0 -123.18105850653228 207.43862720807556 0 0 0 0 -159.95805072012445 9.453317369276192 0 9.453317369276192 45.209239665367932 0 0 0 0 -116.06158723064632 26.324683698087505 0 26.324683698087505 55.177623886416086 0 0 0 0 -187.1024115461405 -27.765993484432329 0 -27.765993484432329 188.45515209128644 0 0 0 0 -106.0136958140647 -112.64153860119222 0 -112.64153860119222 85.633346234189048 0 0 0 0 -223.04225466724165 128.10107625382443 0 128.10107625382443 89.915182616858147 0 0 0 0 -221.20921370807628 150.45193195712091 0 150.45193195712091 120.78348671221829 0 0 0 0 -552.47586575402966 275.55860450482214 0 275.55860450482214 28.884490442378592 0 0 0 0 -244.0806802308507 187.11382686261231 0 187.11382686261231 76.990558530684211 0 0 0 0 -3.2065092383418232 37.979126995343904 0 37.979126995343904 53.613778919344327 0 0 0 0 7.5682274491118733 207.0256041351131 0 207.0256041351131 -128.66494833497563 0 0 0 0 -782.60892681245605 249.70279000175105 0 249.70279000175105 78.248298433049058 0 0 0 0 -85.033800159395469 -106.60061909279102 0 -106.60061909279102 -238.70279148951522 0 0 0 0 -43.153369727064273 272.75478614672193 0 272.75478614672193 -499.61087791083628 0 0 0 0 -28.032546996160818 82.561575470859964 0 82.561575470859964 125.37673943592017 0 0 0 0 -891.15804186820787 695.52322750514054 0 695.52322750514054 -160.97524514202087 0 0 0 0 385.82215699196968 64.063083081938203 0 64.063083081938203 -323.70740680134622 0 0 0 0 1.5013327290821366 -3.3997950918678868 0 -3.3997950918678868 -3.3942787682226694 0 0 0 0 -115.81313323851646 235.42738918738632 0 235.42738918738632 -753.98228372924405 0 0 0 0 175.67025391706557 361.48568938441986 0 361.48568938441986 -514.37720035634993 0 0 0 0 58.295120437454898 402.15075528448142 0 402.15075528448142 -521.63040143624949 0 0 0 0 155.23924961770535 300.75210926538057 0 300.75210926538057 1.4728598618639808 0 0 0 0 -466.65366630774588 151.02466157426898 0 151.02466157426898 74.841670807911214 0 0 0 0 -188.59644472045693 97.19361349149176 0 97.19361349149176 -34.830633412067982 0 0 0 0 95.68515034639131 103.09981733019958 0 103.09981733019958 -152.94824939289356 0 0 0 0 72.961679879825169 3.4333232701528686 0 3.4333232701528686 -12.319958441745257 0 0 0 0 166.90072184018209 -2.2400399535790712 0 -2.2400399535790712 -46.178189700116491 0 0 0 0 129.00265616564138 -25.372693845855338 0 -25.372693845855338 44.579563543840777 0 0 0 0 164.68715400929841 -6.4123915108174003 0 -6.4123915108174003 -33.451377122069971 0 0 0 0 106.37909421038785 19.521275438956764 0 19.521275438956764 98.312925777244345 0 0 0 0 -1.3458294829548691 -4.6487157258964089 0 -4.6487157258964089 0.69769993387907547 0 0 0 0 -335.1122358452194 13.965879168907122 0 13.965879168907122 -56.664864400735496 0 0 0 0 10.401411733545757 20.084774632345258 0 20.084774632345258 -17.198460925274528 0 0 0 0 -738.2866551455154 328.9764550174873 0 328.9764550174873 -22.412204851331353 0 0 0 0 -973.52371708679129 370.27481887141312 0 370.27481887141312 8.7692507121779499 0 0 0 0 -946.20734454744161 447.58683719330065 0 447.58683719330065 159.49940627268006 0 0 0 0 -1094.8011377212897 164.10497182087511 0 164.10497182087511 49.280548795208233 0 0 0 0 30.974435328492312 69.738029859374933 0 69.738029859374933 11.038371091997277 0 0 0 0 100.78913340380132 39.587708088894715 0 39.587708088894715 26.736868611040336 0 0 0 0 66.928732358996058 76.667194604698125 0 76.667194604698125 64.99657949435732 0 0 0 0 390.1982326609359 103.00886734049982 0 103.00886734049982 -111.72749994671631 0 0 0 0 -16.85296862474042 67.479273673251754 0 67.479273673251754 -45.171016201185061 0 0 0 0 302.18056585363956 -51.819834670986893 0 -51.819834670986893 -177.55686211292959 0 0 0 0 168.89445377341326 45.46749195196935 0 45.46749195196935 5.1135421077979117 0 0 0 0 -3.195542412051239 17.838647063708024 0 17.838647063708024 -7.4602398510231964 0 0 0 0 233.89747004416859 221.98956315002306 0 221.98956315002306 -137.70684757715344 0 0 0 0 -456.69945135504531 1297.2310599872303 0 1297.2310599872303 -105.69707662730343 0 0 0 0 -73.968382012353686 116.73841331873155 0 116.73841331873155 -34.27860426458119 0 0 0 0 -100.23508369899355 20.439236830457958 0 20.439236830457958 -49.051104614864755 0 0 0 0 -58.124104652932147 99.99442449223443 0 99.99442449223443 -105.19064946895969 0 0 0 0 21.525439733173698 133.51332764320591 0 133.51332764320591 -122.19933704521372 0 0 0 0 341.16647793926677 431.07571072097471 0 431.07571072097471 -288.23839201243027 0 0 0 0 -37.408274821679392 68.924177667543717 0 68.924177667543717 -57.090236972643858 0 0 0 0 5.9995313367658696 1.4296490506552288 0 1.4296490506552288 -14.43080743985943 0 0 0 0 -197.11719579203782 151.55825986270554 0 151.55825986270554 -81.451928957239033 0 0 0 0 -2207.2259850135233 1095.6377398463344 0 1095.6377398463344 475.5082546194908 0 0 0 0 719.99802477828052 -1327.2904892943025 0 -1327.2904892943025 -2010.7598641980212 0 0 0 0 -16.65304501592405 16.20739819108752 0 16.20739819108752 -15.882240549954858 0 0 0 0 -3488.2881007931137 -613.49575083363334 0 -613.49575083363334 283.15370910739421 0 0 0 0 -2522.5655601974431 1553.773889659863 0 1553.773889659863 401.15989100571392 0 0 0 0 828.57196589824161 544.77246198807279 0 544.77246198807279 -1495.5102089095658 0 0 0 0 692.10854980550357 -285.11483732469151 0 -285.11483732469151 -500.91084926006351 0 0 0 0 -153.89097500331263 688.14444616636592 0 688.14444616636592 -449.75772885590777 0 0 0 0 -31.061335897888057 378.86566208219847 0 378.86566208219847 -953.76525467117244 0 0 0 0 -352.70393193254131 1460.2826060392863 0 1460.2826060392863 -1362.4876502749153 0 0 0 0 -240.48721317343006 383.39377688830609 0 383.39377688830609 -381.45000550784334 0 0 0 0 -44.951532802829206 247.59932759033308 0 247.59932759033308 -289.02234828977817 0 0 0 0 -192.36017963708582 650.43643757587643 0 650.43643757587643 -487.04408079865607 0 0 0 0 -80.420751370795188 476.60133163018691 0 476.60133163018691 -381.61358756896152 0 0 0 0 -224.22243416999117 482.89806568066615 0 482.89806568066615 -350.27069663052589 0 0 0 0 -293.99416239776838 476.40909275397973 0 476.40909275397973 -179.62004301666457 0 0 0 0 -285.48190169770533 517.7978164736486 0 517.7978164736486 -295.97387376389088 0 0 0 0 -442.94812532856304 552.9834711450294 0 552.9834711450294 -237.97315747450193 0 0 0 0 -128.48232315390487 -322.82912267521988 0 -322.82912267521988 273.10713476127785 0 0 0 0 -667.71352811837278 206.28458488447359 0 206.28458488447359 -227.89469120166177 0 0 0 0 56.31093979004072 212.71131262218114 0 212.71131262218114 -652.09300356823235 0 0 0 0 -1203.1724160375525 85.172443513854887 0 85.172443513854887 478.51746857267062 0 0 0 0 -584.23094115620188 884.13821880054411 0 884.13821880054411 -691.76549579079801 0 0 0 0 4.038877127761225 4.6213767610380501 0 4.6213767610380501 -246.35895299947515 0 0 0 0 -212.35647159653308 488.85438088433693 0 488.85438088433693 -272.07715745931364 0 0 0 0 -260.22932460717129 448.22236763252295 0 448.22236763252295 -166.94481082962375 0 0 0 0 -114.26294238158152 148.06940016029466 0 148.06940016029466 69.276377840783425 0 0 0 0 19.115723962705232 35.995349257759699 0 35.995349257759699 44.527091005393274 0 0 0 0 0.57436343367999143 17.120358384516663 0 17.120358384516663 -2.9699231809087725 0 0 0 0 -4.3885266285392959 61.797739613722534 0 61.797739613722534 30.92240930257158 0 0 0 0 -23.839196629244555 61.847242729689128 0 61.847242729689128 63.006012369330676 0 0 0 0 -12.918402033625171 38.592470806551319 0 38.592470806551319 -68.589148294593542 0 0 0 0 -1555.4517353286356 -479.68650184674061 0 -479.68650184674061 1534.5143761933905 0 0 0 0 -39.493185828119749 624.78031618496425 0 624.78031618496425 -236.11469884904818 0 0 0 0 135.25011317033386 529.57728953550009 0 529.57728953550009 -425.02609939825925 0 0 0 0 2.0838191385699929 19.583103436700242 0 19.583103436700242 -8.3023880265739649 0 0 0 0 -38.653242850023645 66.14697635774553 0 66.14697635774553 -35.322201614855352 0 0 0 0 195.01135395321398 277.03240086039523 0 277.03240086039523 -393.65109893185945 0 0 0 0 -122.6091682194965 415.04948184278328 0 415.04948184278328 -436.83877301303437 0 0 0 0 -135.84532519601635 272.1238135735457 0 272.1238135735457 -399.38709746469613 0 0 0 0 -513.06695665765437 261.29793644279744 0 261.29793644279744 -194.20650632825527 0 0 0 0 -616.78845644136891 197.1355451485997 0 197.1355451485997 85.827604295136098 0 0 0 0 -91.236537148390198 102.40810735608193 0 102.40810735608193 -136.11555461384523 0 0 0 0 -844.66190035398176 471.30882873301607 0 471.30882873301607 -76.861518865664038 0 0 0 0 -689.57237274209911 370.18961892543211 0 370.18961892543211 -185.87133223400087 0 0 0 0 -605.9744634528106 441.49758404179374 0 441.49758404179374 -295.15937493993988 0 0 0 0 -1461.7947832718637 414.26338124304675 0 414.26338124304675 161.41239878238048 0 0 0 0 -1308.8676432999928 680.54431031330569 0 680.54431031330569 -108.02333038933284 0 0 0 0 -987.95216863356472 397.65836449567041 0 397.65836449567041 141.16678966445579 0 0 0 0 -1347.2473345826147 342.5389324049687 0 342.5389324049687 139.37759061421593 0 0 0 0 -1338.711296725196 -57.797525277770887 0 -57.797525277770887 155.2033458492856 0 0 0 0 -1245.8447262158443 514.76176874943758 0 514.76176874943758 408.53296657235933 0 0 0 0 -1919.4323770608316 477.13337218779725 0 477.13337218779725 406.74045701839572 0 0 0 0 -41.57886110716575 42.258017137719989 0 42.258017137719989 -40.292645634943064 0 0 0 0 1116.7419396811456 2244.1693223790685 0 2244.1693223790685 -1512.3107409774184 0 0 0 0 -630.35039211303229 339.53850836971742 0 339.53850836971742 50.749201808841406 0 0 0 0 -673.04540681096842 163.24129150775138 0 163.24129150775138 75.126210631038248 0 0 0 0 -84.954996104585007 136.72676394209702 0 136.72676394209702 -60.58748968110649 0 0 0 0 -39.979213948732649 145.85972571999901 0 145.85972571999901 -114.12331381373951 0 0 0 0 -22.016301910261973 114.07472941346259 0 114.07472941346259 -9.9011034907089197 0 0 0 0 -61.533684147507302 133.29978743452921 0 133.29978743452921 -1.6044141388301796 0 0 0 0 25.426599113969132 137.16051156321373 0 137.16051156321373 -63.473004375206983 0 0 0 0 32.911122872203123 188.39607255545798 0 188.39607255545798 26.666188374290869 0 0 0 0 -56.049524178139109 162.10084360996325 0 162.10084360996325 108.30095533792337 0 0 0 0 64.874763965926832 215.98712233361675 0 215.98712233361675 131.86527746040611 0 0 0 0 50.829883697180776 125.87031992028278 0 125.87031992028278 89.36284987158524 0 0 0 0 51.76275058407191 95.259302746924618 0 95.259302746924618 -7.4816687665515929 0 0 0 0 170.45049148765975 181.77229364081722 0 181.77229364081722 55.201794350937234 0 0 0 0 -26.644307705253595 114.51918067502993 0 114.51918067502993 57.952225516935869 0 0 0 0 -19.190697549810466 10.602785085753794 0 10.602785085753794 -0.49855472789096567 0 0 0 0 153.17369209561457 12.409541317973321 0 12.409541317973321 -33.273779320166796 0 0 0 0 101.51697101024911 83.688531972493365 0 83.688531972493365 -84.883866573394698 0 0 0 0 38.708242678141687 35.004110287933145 0 35.004110287933145 -28.162257747694412 0 0 0 0 -98.907486929638253 37.465945448963424 0 37.465945448963424 -136.90617958275925 0 0 0 0 7.8712492124385847 37.875366376396713 0 37.875366376396713 39.928994991431161 0 0 0 0 -18.73481045634253 212.25418606052375 0 212.25418606052375 -57.233343962786421 0 0 0 0 -497.54250324888562 309.01351999751387 0 309.01351999751387 -64.436660037998081 0 0 0 0 -9.3085010656831031 38.850200347452045 0 38.850200347452045 -58.039954470484489 0 0 0 0 -88.386844582913909 -10.825068612067753 0 -10.825068612067753 -29.466170300423983 0 0 0 0 -558.69231537294399 163.59289630578041 0 163.59289630578041 -92.755734098020184 0 0 0 0 -1182.4201908570831 204.97253856114912 0 204.97253856114912 -94.79191648189726 0 0 0 0 -25.607785935656551 43.461733318491156 0 43.461733318491156 -2.1443611042770172 0 0 0 0 -416.59910923101415 308.16308053075318 0 308.16308053075318 -95.137800197400793 0 0 0 0 -407.94671550189378 337.29367000333514 0 337.29367000333514 -83.782521541044844 0 0 0 0 -725.37492331321118 475.49627735398099 0 475.49627735398099 -135.757410455637 0 0 0 0 -719.46389160581748 477.02112228527403 0 477.02112228527403 -136.34623673565147 0 0 0 0 -342.49105451069772 574.85711688812626 0 574.85711688812626 -260.08647467839046 0 0 0 0 -572.3322463161021 739.0221025595738 0 739.0221025595738 -304.2197658322475 0 0 0 0 -386.09876195101242 564.24487566526477 0 564.24487566526477 -262.49720817229945 0 0 0 0 -172.33223873270617 443.18860034528007 0 443.18860034528007 -247.9024521351821 0 0 0 0 -205.16871528579213 194.66551656116826 0 194.66551656116826 -79.651447055582594 0 0 0 0 32.968921860883711 92.909111509127456 0 92.909111509127456 -108.16926281821713 0 0 0 0 -104.46669342120003 -97.38956122827733 0 -97.38956122827733 134.01264291875793 0 0 0 0 -182.4596395929475 88.586432497466205 0 88.586432497466205 151.71837003966084 0 0 0 0 -204.70716888051538 13.461163706184813 0 13.461163706184813 -277.40846962760611 0 0 0 0 -73.365656439142185 78.553568054812331 0 78.553568054812331 84.929433589623841 0 0 0 0 5.0369120237446623 244.7212416221052 0 244.7212416221052 -207.32354255535358 0 0 0 0 11.55111774377292 98.277614855050615 0 98.277614855050615 77.402491093665503 0 0 0 0 -39.101680479841889 81.059372899620939 0 81.059372899620939 28.711931477088001 0 0 0 0 -5.7790406964598446 47.633241355410412 0 47.633241355410412 56.503691663571985 0 0 0 0 115.06521804332442 -109.21501808572249 0 -109.21501808572249 84.901932288697935 0 0 0 0 29.218405163141171 46.111473096664952 0 46.111473096664952 39.013693753086841 0 0 0 0 2.5114658803850602 2.3016346849624796 0 2.3016346849624796 3.3682405509780713 0 0 0 0 29.783859757779283 114.23876385757467 0 114.23876385757467 -36.808472627442825 0 0 0 0 39.083727583987638 206.87250824983457 0 206.87250824983457 -298.32495254835737 0 0 0 0 30.25808590525844 95.739121027192226 0 95.739121027192226 29.225017611477032 0 0 0 0 119.98095582319365 237.97536204845707 0 237.97536204845707 -381.02130958542631 0 0 0 0 -74.658784831641242 -150.3335472217895 0 -150.3335472217895 433.99200806320312 0 0 0 0 -65.607383441732964 232.2756642531898 0 232.2756642531898 460.74505309107235 0 0 0 0 106.29016838452662 392.37881097496438 0 392.37881097496438 -5.8384505003518825 0 0 0 0 9.9879745530051878 142.40086378138403 0 142.40086378138403 -202.12777172999995 0 0 0 0 -8.4887238393421285 72.014614441788581 0 72.014614441788581 -76.514093960176979 0 0 0 0 -26.346345876751002 155.53201887151408 0 155.53201887151408 -109.10149690629351 0 0 0 0 -13.510900176911377 67.635520964413132 0 67.635520964413132 -44.71905087573375 0 0 0 0 -28.454334381298395 -129.64923303662746 0 -129.64923303662746 470.13857974026257 0 0 0 0 -7.6880695482286399 37.990258837096036 0 37.990258837096036 -20.930259848239274 0 0 0 0 -257.80227649994777 166.90341075382094 0 166.90341075382094 16.00687344625112 0 0 0 0 -107.6591346822388 132.43111320126991 0 132.43111320126991 21.83301168923208 0 0 0 0 6.5012889708279431 -0.32096545592131065 0 -0.32096545592131065 -7.0668081296244338 0 0 0 0 -25.391631814298819 79.392067361015521 0 79.392067361015521 38.770307142247326 0 0 0 0 -19.149146218493115 296.28816040024685 0 296.28816040024685 -259.66375111772504 0 0 0 0 -94.097362945729401 93.715733336983249 0 93.715733336983249 -146.06167904277572 0 0 0 0 30.762767931519193 137.95554997187901 0 137.95554997187901 -131.24811791119282 0 0 0 0 -134.00100835357443 191.50703541955045 0 191.50703541955045 -113.32766676954634 0 0 0 0 -764.03792299076304 1487.4125516371041 0 1487.4125516371041 610.96815788418462 0 0 0 0 -3.7821181288400112 4.0557010728829255 0 4.0557010728829255 -12.663986788985881 0 0 0 0 204.69058693089755 249.56093620345928 0 249.56093620345928 -351.3098852520634 0 0 0 0 -1658.7420253927703 13.272868851272506 0 13.272868851272506 326.24300144431254 0 0 0 0 -234.12880730125471 365.35171782936595 0 365.35171782936595 35.870835898487712 0 0 0 0 -203.12390023263833 155.76217700172151 0 155.76217700172151 -138.92109596408409 0 0 0 0 127.39658104789851 50.944886634377326 0 50.944886634377326 53.20965451932716 0 0 0 0 106.94743061373447 213.50522075176013 0 213.50522075176013 -25.283410816191463 0 0 0 0 747.75652256384637 176.96749726319376 0 176.96749726319376 -917.11525553944375 0 0 0 0 215.29643285323255 -71.710085128488572 0 -71.710085128488572 -573.11163923525601 0 0 0 0 30.886476163228508 243.69917094569246 0 243.69917094569246 -161.92357533124232 0 0 0 0 -133.99502316315193 449.1839808805089 0 449.1839808805089 -148.72317747951865 0 0 0 0 -138.0465339723014 124.57969619793766 0 124.57969619793766 -3.9597257036075462 0 0 0 0 -55.744711336155888 203.36439102148142 0 203.36439102148142 20.553888341382844 0 0 0 0 11.751403072048561 86.015482938664718 0 86.015482938664718 38.596878956024739 0 0 0 0 -7.3886203265428776 45.749594083867123 0 45.749594083867123 58.615743171503709 0 0 0 0 13.460431199965058 40.335384605590093 0 40.335384605590093 52.559991306971796 0 0 0 0 -160.29300564901496 153.38115531398762 0 153.38115531398762 46.844998303087777 0 0 0 0 12.070705367288809 25.719946412154798 0 25.719946412154798 0.067750137370182983 0 0 0 0 -526.48495694727171 126.44732542756537 0 126.44732542756537 46.359796182680952 0 0 0 0 153.52289274094801 140.74099289074729 0 140.74099289074729 46.623907099878124 0 0 0 0 45.565223580684687 143.97215314902496 0 143.97215314902496 68.352284490181773 0 0 0 0 -198.64620158528851 264.47252845369258 0 264.47252845369258 -676.31865253885917 0 0 0 0 -103.84490977475633 60.628199448465978 0 60.628199448465978 31.807992850614923 0 0 0 0 -606.43686353396333 623.93398723268183 0 623.93398723268183 -101.21624189190698 0 0 0 0 -662.87675583285454 -5.9625530315097421 0 -5.9625530315097421 -294.39602074473805 0 0 0 0 -985.99732345962548 196.02030734161599 0 196.02030734161599 -385.72939511100412 0 0 0 0 -688.02836686927185 1439.1697571042423 0 1439.1697571042423 680.35039463449357 0 0 0 0 -1962.4462080261001 -60.947272174944374 0 -60.947272174944374 174.85185051867302 0 0 0 0 -1.3802281223665887 3.4068868694950964 0 3.4068868694950964 -4.4094771625817373 0 0 0 0 -297.45833801466506 415.50153177829634 0 415.50153177829634 261.74224657168088 0 0 0 0 1198.7795437719906 1109.0621885553701 0 1109.0621885553701 -427.59080743156483 0 0 0 0 395.64269189379411 759.26844914640606 0 759.26844914640606 -524.55523706921667 0 0 0 0 1112.7868601296013 423.33011947015984 0 423.33011947015984 -839.07131852268503 0 0 0 0 -520.40844359699986 1515.6442397226601 0 1515.6442397226601 -532.73072804465482 0 0 0 0 83.138215060636867 476.7209680190208 0 476.7209680190208 -604.3430631951851 0 0 0 0 -1192.7491271742037 677.72937276076846 0 677.72937276076846 -634.56235470868342 0 0 0 0 -672.93711454544973 1200.5348576517681 0 1200.5348576517681 -14.706671204958184 0 0 0 0 -724.14043927108287 1415.8306871318346 0 1415.8306871318346 -504.48744407019694 0 0 0 0 -1430.5165516333363 1302.0521699868168 0 1302.0521699868168 -367.44138610608934 0 0 0 0 -1109.4106909205439 -646.21182451918139 0 -646.21182451918139 -904.22651343827602 0 0 0 0 -1008.3062403467775 1794.4711335741813 0 1794.4711335741813 -534.69916874179762 0 0 0 0 18.378524209108207 7.3613530060017069 0 7.3613530060017069 4.8105808838626132 0 0 0 0 -186.47070885909488 -65.848307060910884 0 -65.848307060910884 628.3651150665255 0 0 0 0 -0.77976101423726618 1.2625345410013722 0 1.2625345410013722 4.4010795885405862 0 0 0 0 85.049833697630675 172.59155977974478 0 172.59155977974478 212.85434008112134 0 0 0 0 -972.44502480476513 719.69218457975512 0 719.69218457975512 -852.97566494085549 0 0 0 0 -951.90446917698864 769.990077324803 0 769.990077324803 -899.84363194229445 0 0 0 0 -766.77347748063039 233.54279723715445 0 233.54279723715445 511.06239271724189 0 0 0 0 -850.0094041939301 518.76610456425988 0 518.76610456425988 96.832885807751154 0 0 0 0 -1394.1434085661749 941.82987618137668 0 941.82987618137668 -747.25612889258036 0 0 0 0 -876.79071002156707 552.20602198340748 0 552.20602198340748 -389.74587535066712 0 0 0 0 -1187.3659060106584 678.63646219713246 0 678.63646219713246 -438.4292879401728 0 0 0 0 -491.19345208765299 614.11740265504704 0 614.11740265504704 -876.86328928441981 0 0 0 0 -842.17677827447187 472.68132440270347 0 472.68132440270347 -252.8519265847699 0 0 0 0 -420.96591618636739 387.99023018529988 0 387.99023018529988 -345.13999791907008 0 0 0 0 -661.39953193668043 620.06279827778417 0 620.06279827778417 -564.53476358071202 0 0 0 0 -334.41234178651939 488.49462966600913 0 488.49462966600913 -735.07333119176474 0 0 0 0 -290.81528025987791 423.98231186227349 0 423.98231186227349 -702.75587529231416 0 0 0 0 -178.28748045470275 425.14387853070912 0 425.14387853070912 -738.55104513145488 0 0 0 0 -248.99520373533232 392.4121500957267 0 392.4121500957267 -688.91350411441817 0 0 0 0 -250.46216090186499 375.58637565454069 0 375.58637565454069 -679.30049894744297 0 0 0 0 -226.03373673588794 384.06402711840565 0 384.06402711840565 -688.53393178537954 0 0 0 0 -236.35043734771898 365.21264992158103 0 365.21264992158103 -671.99095229247177 0 0 0 0 -204.6359302054625 369.20537531827358 0 369.20537531827358 -683.30377900502936 0 0 0 0 -199.59346381842624 387.34526388263384 0 387.34526388263384 -658.17019694992632 0 0 0 0 -154.98017592614633 385.07377323210312 0 385.07377323210312 -658.38121883264103 0 0 0 0 -232.30549572786549 403.02370101109409 0 403.02370101109409 -647.32219770004303 0 0 0 0 -207.80605042492971 365.20342372436426 0 365.20342372436426 -588.95089330342307 0 0 0 0 -276.49855121594737 359.41285364456053 0 359.41285364456053 -578.33311824470729 0 0 0 0 -339.7310218946659 427.19453655887264 0 427.19453655887264 -643.51764068602824 0 0 0 0 -218.4513960708282 354.30396814818232 0 354.30396814818232 -580.46178654289361 0 0 0 0 -408.63460256301187 415.01474846729207 0 415.01474846729207 -470.63982314442546 0 0 0 0 -188.92504118036595 401.13381793851113 0 401.13381793851113 -509.88896109977213 0 0 0 0 -182.72664530313341 404.4999281358505 0 404.4999281358505 -575.5174449077258 0 0 0 0 -64.896903556946199 362.97415090830327 0 362.97415090830327 -505.65987710812988 0 0 0 0 35.002918698141002 59.59302489019683 0 59.59302489019683 43.230526250787079 0 0 0 0 -35.306853469053749 299.35066722118063 0 299.35066722118063 -687.25052721517386 0 0 0 0 -135.66341124963947 343.37977208655502 0 343.37977208655502 -568.68071684780443 0 0 0 0 -74.708488457079511 378.73062545221364 0 378.73062545221364 -671.15679154523241 0 0 0 0 -98.592464715169626 363.56671492425266 0 363.56671492425266 -468.55080423998152 0 0 0 0 -83.606520400498994 296.13104807205673 0 296.13104807205673 -592.00155245675705 0 0 0 0 20.032687233724573 499.93548079782613 0 499.93548079782613 -478.26439386840502 0 0 0 0 -52.686597130130394 390.87153627061889 0 390.87153627061889 -313.64058139614644 0 0 0 0 63.929703872894009 49.876743276875118 0 49.876743276875118 -1.2395251186466574 0 0 0 0 -33.44964020808402 505.01161330828563 0 505.01161330828563 -345.08206251741285 0 0 0 0 46.890691151260398 72.93121112537483 0 72.93121112537483 -0.39535299009730807 0 0 0 0 53.351828056445953 38.43400914672236 0 38.43400914672236 12.780174613113843 0 0 0 0 -96.331860796693945 398.62574156172923 0 398.62574156172923 -753.15948937199573 0 0 0 0 -119.21948641035124 237.78399499920488 0 237.78399499920488 -51.705734076385852 0 0 0 0 -78.677987332921475 129.8064986211316 0 129.8064986211316 -254.79342086716974 0 0 0 0 -27.559047662517827 51.262727818606592 0 51.262727818606592 27.449314933066688 0 0 0 0 -1.5311624102323549 3.3748420464689843 0 3.3748420464689843 82.525433039538257 0 0 0 0 -299.98032383008103 175.81959883165564 0 175.81959883165564 64.239802322452306 0 0 0 0 -45.444024233642267 60.764919772540452 0 60.764919772540452 -2.5816039305937011 0 0 0 0 -24.87141220666885 110.68175635764408 0 110.68175635764408 47.957365160550637 0 0 0 0 -24.483270117522721 79.60067575426541 0 79.60067575426541 15.812679155326848 0 0 0 0 -42.324001095674106 45.212582531229813 0 45.212582531229813 33.901544192983238 0 0 0 0 38.483907208981691 45.494777477890239 0 45.494777477890239 -60.768436375132296 0 0 0 0 -0.62598085828420835 13.656411573278078 0 13.656411573278078 18.033038889838608 0 0 0 0 -33.243178919743514 196.72261751130645 0 196.72261751130645 -96.505185280140722 0 0 0 0 -293.74834497491247 80.747562409298553 0 80.747562409298553 193.30756256878885 0 0 0 0 79.350162377784727 127.06185738646673 0 127.06185738646673 13.889639895003711 0 0 0 0 -43.729171620883562 21.01706911426129 0 21.01706911426129 18.437742635683236 0 0 0 0 38.792568378208671 77.844466419639502 0 77.844466419639502 81.503420876833843 0 0 0 0 163.34552878782688 202.86489797794644 0 202.86489797794644 24.12348453062441 0 0 0 0 161.33542546861941 171.24709417884742 0 171.24709417884742 47.385092200864165 0 0 0 0 -47.219513013866816 40.034599628363139 0 40.034599628363139 16.493418741545057 0 0 0 0 -8.5102452306600753 16.848985592105237 0 16.848985592105237 152.90191432849588 0 0 0 0 17.992466689437549 77.582370139514637 0 77.582370139514637 77.178680664497264 0 0 0 0 -38.208021135927993 147.14510697640981 0 147.14510697640981 110.91816719788221 0 0 0 0 -105.83655955524591 -21.363348178005253 0 -21.363348178005253 -64.520059599002707 0 0 0 0 -15.19115479305384 22.44302921972465 0 22.44302921972465 25.945702246493141 0 0 0 0 250.28002846653544 90.089176596511606 0 90.089176596511606 52.889508719206106 0 0 0 0 221.96577272938885 157.33271497016722 0 157.33271497016722 -52.498200572827045 0 0 0 0 175.18573410808312 183.37455004012554 0 183.37455004012554 34.091903851920506 0 0 0 0 306.91726630400717 102.2222254903395 0 102.2222254903395 -16.838260598939087 0 0 0 0 -66.944567663947964 497.51848780219916 0 497.51848780219916 -62.336665556133084 0 0 0 0 396.50571040742216 430.420787793606 0 430.420787793606 -92.184913045673056 0 0 0 0 -75.162835781069589 254.75306427930991 0 254.75306427930991 195.26848791568682 0 0 0 0 -91.983554446436756 295.47203487105071 0 295.47203487105071 121.46765647728898 0 0 0 0 -559.18336433843797 482.05631927087597 0 482.05631927087597 188.5552817934913 0 0 0 0 -497.26581844591419 281.00824026879309 0 281.00824026879309 149.39763925464831 0 0 0 0 -711.92181258412165 241.00826284916729 0 241.00826284916729 -111.98000785658223 0 0 0 0 -396.42401494948354 614.88965744106645 0 614.88965744106645 152.35695711820881 0 0 0 0 -867.61734542126214 252.35344798728693 0 252.35344798728693 132.10001391026162 0 0 0 0 -608.96191086837644 23.979231585468369 0 23.979231585468369 215.22857099515386 0 0 0 0 -168.74315374690923 153.68158785120977 0 153.68158785120977 681.78235639464674 0 0 0 0 -162.92257080505078 185.42709939513952 0 185.42709939513952 -39.497773076371232 0 0 0 0 526.92676864559326 873.36376496944104 0 873.36376496944104 386.49721144978685 0 0 0 0 -256.02750001805907 354.03729652685433 0 354.03729652685433 271.63336777583754 0 0 0 0 9.7498864704193693 7.6777131929570857 0 7.6777131929570857 3.8478197276750166 0 0 0 0 -230.28575236426332 269.5026909204098 0 269.5026909204098 228.83365796950238 0 0 0 0 1380.3021615353064 76.623449037509999 0 76.623449037509999 -71.193437049094427 0 0 0 0 -316.1722387995178 514.54830386739923 0 514.54830386739923 -452.10982096996668 0 0 0 0 -396.95607081681374 484.26269078539372 0 484.26269078539372 -282.75063084063004 0 0 0 0 -378.31458130397186 971.97919899540375 0 971.97919899540375 -341.65039863775019 0 0 0 0 688.73652956512342 213.76746035454016 0 213.76746035454016 -300.68186658482591 0 0 0 0 305.56021593072364 1236.8320556347862 0 1236.8320556347862 136.1418107015711 0 0 0 0 121.77899797772261 873.2455904300341 0 873.2455904300341 -585.24917553749401 0 0 0 0 -45.882809185204678 478.91657070235033 0 478.91657070235033 -420.5923871017585 0 0 0 0 -294.19098392601882 1014.6653253802142 0 1014.6653253802142 -260.60626495342115 0 0 0 0 -288.44810586942913 738.66212225160416 0 738.66212225160416 -255.95097895913204 0 0 0 0 -464.60460733731452 827.3972654889958 0 827.3972654889958 -466.35995032946084 0 0 0 0 -564.9799216540232 1023.7446603263616 0 1023.7446603263616 -439.70126055990113 0 0 0 0 -360.13926904596156 1035.2971311740694 0 1035.2971311740694 -580.33446188648668 0 0 0 0 -534.05105951338192 1002.0191484422503 0 1002.0191484422503 -737.82897364934615 0 0 0 0 -533.84407617755642 884.41366663114604 0 884.41366663114604 -711.38159725267178 0 0 0 0 -285.59321619063121 880.71971482139634 0 880.71971482139634 -758.12014817212184 0 0 0 0 -326.53575772594195 763.9293196015351 0 763.9293196015351 -584.8075582532183 0 0 0 0 -368.63354754705506 637.15879394340664 0 637.15879394340664 -543.95623739736402 0 0 0 0 -217.54600409101113 643.7148566827309 0 643.7148566827309 -567.57434951075993 0 0 0 0 -397.51557355160912 446.82451516933725 0 446.82451516933725 -324.21808474876889 0 0 0 0 -476.66068562062719 543.77859046445883 0 543.77859046445883 -442.13979268970434 0 0 0 0 -628.61055964062689 421.66228540339216 0 421.66228540339216 -151.1795681048734 0 0 0 0 -770.51250636619807 411.29656743765736 0 411.29656743765736 -148.87831609014574 0 0 0 0 -505.7265440860283 218.06994489649878 0 218.06994489649878 -11.312699459740543 0 0 0 0 -865.8915994719282 130.24093714718038 0 130.24093714718038 141.96887684944522 0 0 0 0 -566.71883179611177 276.80647384746226 0 276.80647384746226 11.082964958215598 0 0 0 0 -188.84692500658275 485.74641575284477 0 485.74641575284477 -319.46432700235164 0 0 0 0 -113.62472006920871 401.11426426649996 0 401.11426426649996 -359.44519602767832 0 0 0 0 -20.77083105793804 11.713081630415552 0 11.713081630415552 -3.5214906301246423 0 0 0 0 -229.6707311164937 728.64110852441809 0 728.64110852441809 -2165.2193852104465 0 0 0 0 -1416.7770410421654 1491.5823696346488 0 1491.5823696346488 -480.49630142506794 0 0 0 0 -1071.0062673218781 622.01605510882473 0 622.01605510882473 -878.80050944740651 0 0 0 0 -2033.4824384452659 1120.6028656028211 0 1120.6028656028211 -1128.9683947000885 0 0 0 0 -1003.133618062333 306.70857674692525 0 306.70857674692525 -1393.3536019451276 0 0 0 0 -140.90344385805656 -402.61108823722316 0 -402.61108823722316 -3187.3417887556534 0 0 0 0 -2720.1667498837596 281.09730557571902 0 281.09730557571902 -1393.4851894731546 0 0 0 0 -2806.3186050680233 1057.8068919721554 0 1057.8068919721554 -1085.3769038818791 0 0 0 0 -770.81987320666667 1724.3665205636607 0 1724.3665205636607 -3489.0649792151016 0 0 0 0 -1944.4483164267731 540.99980648796191 0 540.99980648796191 2441.7494237009851 0 0 0 0 -2550.4105459477869 2615.3194278355804 0 2615.3194278355804 -854.57748550780525 0 0 0 0 -851.16069349422469 499.58567981194574 0 499.58567981194574 -691.84734813740579 0 0 0 0 -762.73480004479643 938.07506358849787 0 938.07506358849787 -980.46425440007442 0 0 0 0 -791.45756496778631 811.14034489333426 0 811.14034489333426 -495.02013979387993 0 0 0 0 -804.79807291398174 900.37658382052905 0 900.37658382052905 -571.98331203370617 0 0 0 0 -895.30594642968572 163.20770348332644 0 163.20770348332644 -439.82196835117793 0 0 0 0 -932.66366451827344 552.21140968389682 0 552.21140968389682 -556.34963914373657 0 0 0 0 -122.76763653167342 55.017832038874779 0 55.017832038874779 20.456752211302927 0 0 0 0 -449.31925215657429 985.60746569377852 0 985.60746569377852 -1256.3450997770051 0 0 0 0 -916.1371674589318 513.91864415215605 0 513.91864415215605 -356.68156082856876 0 0 0 0 -835.65979583033186 716.41012841263 0 716.41012841263 -380.25610817270717 0 0 0 0 -703.34392706990184 829.72425184847816 0 829.72425184847816 -92.424612341468674 0 0 0 0 -756.81880850097514 808.70652504663303 0 808.70652504663303 -656.02698374921601 0 0 0 0 -803.01774171166471 920.60524590563728 0 920.60524590563728 -347.48296542523531 0 0 0 0 -736.0092450049342 724.75383535047149 0 724.75383535047149 -429.69713194845099 0 0 0 0 -664.37551078126126 872.85817255589427 0 872.85817255589427 -337.35916121845366 0 0 0 0 -708.10265852721932 991.78128853979797 0 991.78128853979797 -435.85701443690778 0 0 0 0 -786.14193250260723 948.22672156886256 0 948.22672156886256 -432.17844577076903 0 0 0 0 -894.78678652345843 976.50798562590353 0 976.50798562590353 -413.00934144504572 0 0 0 0 -716.90494358057913 906.28329054402275 0 906.28329054402275 -524.96086810646375 0 0 0 0 -696.07815416263475 1024.1030031274313 0 1024.1030031274313 -566.037108461358 0 0 0 0 -785.69213420849701 930.72650247652928 0 930.72650247652928 -653.50673194053525 0 0 0 0 -770.65463062355411 979.4004406680142 0 979.4004406680142 -716.03692683653207 0 0 0 0 -772.24385263692238 1004.6589465788456 0 1004.6589465788456 -491.17339176798123 0 0 0 0 -897.18732802591694 899.48999122375244 0 899.48999122375244 -578.42374529411609 0 0 0 0 -905.73634164210853 974.42378475384839 0 974.42378475384839 -532.26814681959513 0 0 0 0 -916.98763804871123 982.16363517908758 0 982.16363517908758 -762.06040410800051 0 0 0 0 -902.5201327856339 869.11551983381651 0 869.11551983381651 -681.4192831938999 0 0 0 0 -949.51818724290206 892.21598719810936 0 892.21598719810936 -473.7341289112228 0 0 0 0 -931.4040806395933 935.87513148898142 0 935.87513148898142 -462.27675824551989 0 0 0 0 -926.24913380845283 990.95457302142245 0 990.95457302142245 -457.90508891052741 0 0 0 0 -938.6543199789885 992.43801416661518 0 992.43801416661518 -345.14902024096227 0 0 0 0 -937.73606362761348 991.22813109795243 0 991.22813109795243 -401.58543224904861 0 0 0 0 -892.17264926404459 985.00169404552435 0 985.00169404552435 -431.33782114688074 0 0 0 0 -890.32558532108669 1038.2897324306614 0 1038.2897324306614 -509.14580424010273 0 0 0 0 -933.35110472996166 1043.596279674779 0 1043.596279674779 -361.04078197952185 0 0 0 0 -853.95111029407417 1078.4947249584329 0 1078.4947249584329 -529.66617912852962 0 0 0 0 -932.11688928031072 1043.0346187935793 0 1043.0346187935793 -402.66095019225031 0 0 0 0 -1799.7519474566507 36.784271579912456 0 36.784271579912456 1001.7700128810102 0 0 0 0 -124.69163528935749 55.700693018640933 0 55.700693018640933 23.340093647685165 0 0 0 0 -865.43907590468916 1107.2007827688712 0 1107.2007827688712 -312.99895135170664 0 0 0 0 -903.03311064134323 921.13580523042128 0 921.13580523042128 -186.90301597345388 0 0 0 0 -907.74513578361803 963.20159568329473 0 963.20159568329473 -425.15999554313748 0 0 0 0 -298.60837747409096 732.44892218915993 0 732.44892218915993 -602.54743290386614 0 0 0 0 -723.19617472032405 932.26759259117171 0 932.26759259117171 -816.80048380701919 0 0 0 0 -785.20960324451153 1085.0939738889065 0 1085.0939738889065 -852.94599025657953 0 0 0 0 -298.52529717738071 1151.6939389008621 0 1151.6939389008621 -897.87532686079612 0 0 0 0 -106.56138690106135 61.285473338158873 0 61.285473338158873 18.277643333721841 0 0 0 0 -1721.184554555628 -271.53561588707453 0 -271.53561588707453 2129.8466668591373 0 0 0 0 654.75077258315287 759.6466779534112 0 759.6466779534112 -1213.3913777147027 0 0 0 0 -12.370636504110081 46.280684917243541 0 46.280684917243541 -12.732886544615596 0 0 0 0 11.188534787885146 155.23533018240414 0 155.23533018240414 69.026337758281443 0 0 0 0 1242.9141704744543 -210.38287522341125 0 -210.38287522341125 -361.82242663741636 0 0 0 0 135.91329418867826 56.980402555138426 0 56.980402555138426 -17.28211805706087 0 0 0 0 69.230263736434637 46.370064067097189 0 46.370064067097189 14.574618290548699 0 0 0 0 -514.79563839898037 1062.912786996978 0 1062.912786996978 -839.05834610391867 0 0 0 0 47.395101578710808 71.571155330342947 0 71.571155330342947 28.543663830829303 0 0 0 0 -379.78041475491045 902.00848424558899 0 902.00848424558899 -1100.1186630420198 0 0 0 0 -637.61167028153432 1148.3140906464032 0 1148.3140906464032 -1309.1792210546482 0 0 0 0 -1004.1153016770404 1097.276629661792 0 1097.276629661792 -899.83869344702543 0 0 0 0 -1411.8171250480373 1462.8030916036805 0 1462.8030916036805 -1466.778821431777 0 0 0 0 -637.20187824169329 1012.0419213150806 0 1012.0419213150806 -1223.6489939797175 0 0 0 0 -331.89611425634939 1193.6732186633817 0 1193.6732186633817 -2697.5213705343631 0 0 0 0 10.827372643632401 21.836925092801408 0 21.836925092801408 12.972883856498328 0 0 0 0 -1635.6771709308669 1655.3084163350286 0 1655.3084163350286 -883.33565615920816 0 0 0 0 -214.5761141662224 629.2029318934583 0 629.2029318934583 -1331.0751630482102 0 0 0 0 -1156.3467109725898 1075.8197982490856 0 1075.8197982490856 -964.11818361642236 0 0 0 0 37.100312204022657 53.220818388609956 0 53.220818388609956 41.078263475233172 0 0 0 0 -907.88550378062064 1169.9526116723391 0 1169.9526116723391 -1350.1228474099426 0 0 0 0 -823.94630436859734 1098.2825907480001 0 1098.2825907480001 -1373.2444340052298 0 0 0 0 -817.44221470170305 1129.5917188847525 0 1129.5917188847525 -1285.9005123451934 0 0 0 0 -848.57868581190996 1217.4832271072446 0 1217.4832271072446 -1816.7479547536423 0 0 0 0 -909.89304922497831 1014.7408138508981 0 1014.7408138508981 -1176.9798324950316 0 0 0 0 -1196.617538907467 749.93037662266397 0 749.93037662266397 -1414.7803808326862 0 0 0 0 -961.53341955808901 813.20871550143374 0 813.20871550143374 -968.42866430536378 0 0 0 0 -848.33532930332149 848.34383517893366 0 848.34383517893366 -869.22432365898567 0 0 0 0 -886.30497878916503 867.28094313630299 0 867.28094313630299 -1124.7885150901566 0 0 0 0 -738.60970711117261 1016.5653727989775 0 1016.5653727989775 -1358.6975765048119 0 0 0 0 -682.68300116830505 979.43211577667171 0 979.43211577667171 -1131.3523758942029 0 0 0 0 -751.60377552214777 985.11812025756808 0 985.11812025756808 -1113.3277528663457 0 0 0 0 -833.47234880841279 1002.6272959277812 0 1002.6272959277812 -913.37543052537512 0 0 0 0 -637.32760791716282 1016.5456591209368 0 1016.5456591209368 -880.18030771405756 0 0 0 0 -628.78563100773317 899.34965492203628 0 899.34965492203628 -843.83287195417506 0 0 0 0 -699.17481899474296 953.76596695948865 0 953.76596695948865 -937.20398990555259 0 0 0 0 -574.71897999181238 1048.0692873785156 0 1048.0692873785156 -1160.9401341316552 0 0 0 0 -657.59725634594179 1018.7727753304143 0 1018.7727753304143 -1170.0292048795527 0 0 0 0 -750.31166048257001 1049.1657012030737 0 1049.1657012030737 -1290.9325946664321 0 0 0 0 -683.07211930162157 1105.5865716775079 0 1105.5865716775079 -1243.5999447221766 0 0 0 0 -752.40727641567355 1137.8827557242621 0 1137.8827557242621 -1330.3560408802659 0 0 0 0 -920.46036264696158 1019.8065955675338 0 1019.8065955675338 -1403.3262003510172 0 0 0 0 -679.17666984045354 1030.3379976487158 0 1030.3379976487158 -1415.2437255691038 0 0 0 0 -608.88091187481041 1139.2529930989549 0 1139.2529930989549 -1248.463121050765 0 0 0 0 -20.784184934411314 -1471.779101804088 0 -1471.779101804088 2230.3495054479426 0 0 0 0 13.116163648533529 18.491482490025106 0 18.491482490025106 21.193384361338474 0 0 0 0 -200.78443218579923 1492.6411361188293 0 1492.6411361188293 -1654.2493114674944 0 0 0 0 -316.33651557761186 1366.226482001206 0 1366.226482001206 -1556.837898285783 0 0 0 0 -529.17154066496732 1126.470188265499 0 1126.470188265499 -1569.3519257731532 0 0 0 0 -566.2684083438071 1143.9848846268869 0 1143.9848846268869 -1446.1351282750293 0 0 0 0 -717.81416734587401 958.50282125917875 0 958.50282125917875 -1670.4705118972051 0 0 0 0 -450.4298157349549 1170.721582821403 0 1170.721582821403 -1839.79819763251 0 0 0 0 -507.00454922278004 -1795.6904867087869 0 -1795.6904867087869 2177.7960007282818 0 0 0 0 -495.92287515953649 243.21954665002704 0 243.21954665002704 -22.515650821886084 0 0 0 0 5.1154246562463754 11.384336027403066 0 11.384336027403066 15.114453702471238 0 0 0 0 -129.50818314273783 134.60896803779178 0 134.60896803779178 -54.867834195820251 0 0 0 0 346.39551355919684 472.82361639686133 0 472.82361639686133 -439.29678924004838 0 0 0 0 -1.7627879738283809 240.77306630708335 0 240.77306630708335 -454.16212236027059 0 0 0 0 -182.095455641218 335.05015213052684 0 335.05015213052684 -185.60866372410601 0 0 0 0 125.98666766830138 190.28497906362827 0 190.28497906362827 -515.68712282741035 0 0 0 0 331.26621734192304 414.67533431508127 0 414.67533431508127 -219.76559070020448 0 0 0 0 894.89883836795343 758.49773238024136 0 758.49773238024136 893.47093054257857 0 0 0 0 -495.18428486105404 -188.47691730297083 0 -188.47691730297083 1152.1860481998592 0 0 0 0 -500.28251996384734 -136.87277850429018 0 -136.87277850429018 792.25671652227174 0 0 0 0 -517.4642848973599 255.05641074431333 0 255.05641074431333 1452.3695517027518 0 0 0 0 -555.41424311096853 48.240343009865683 0 48.240343009865683 575.37066123534169 0 0 0 0 -45.563606177907786 353.63143361042239 0 353.63143361042239 -240.45729150818079 0 0 0 0 12.131125100131612 356.26289770470612 0 356.26289770470612 -240.528016633579 0 0 0 0 43.272449510637671 687.8124014240384 0 687.8124014240384 665.39572930773284 0 0 0 0 40.258268069228507 84.223894888426003 0 84.223894888426003 37.829700540689373 0 0 0 0 724.80920326178602 398.45396545611948 0 398.45396545611948 151.00778537272345 0 0 0 0 -622.7525333755184 94.313903492338795 0 94.313903492338795 835.20146726256644 0 0 0 0 1.0076564458349964 2.7297946426553779 0 2.7297946426553779 10.932079580176662 0 0 0 0 -537.65614444686798 833.22759357664472 0 833.22759357664472 -743.88506626446906 0 0 0 0 -602.00771324710513 1029.0177462876381 0 1029.0177462876381 -898.38706648148218 0 0 0 0 -569.32441674645452 920.87991463272192 0 920.87991463272192 -855.81740537640871 0 0 0 0 -641.87939156200446 930.68134857285622 0 930.68134857285622 -709.19410932942992 0 0 0 0 -631.16923461935949 869.59062044690654 0 869.59062044690654 -651.40024693560554 0 0 0 0 -803.21741282570292 927.19273991054797 0 927.19273991054797 -569.00608974685019 0 0 0 0 -688.98554961533591 796.58465192202857 0 796.58465192202857 -532.57957830053056 0 0 0 0 -706.6425331976825 852.8775418538844 0 852.8775418538844 -633.36672342191741 0 0 0 0 -599.76099953074299 732.18097511937231 0 732.18097511937231 -527.4936864755291 0 0 0 0 -619.49219570332116 703.65098411764893 0 703.65098411764893 -550.68257597183401 0 0 0 0 -629.99167249878337 604.27037149063426 0 604.27037149063426 -381.53825251516537 0 0 0 0 -520.08299016489764 581.18423291591171 0 581.18423291591171 -415.55646171502303 0 0 0 0 -421.27206609067798 740.57424867353984 0 740.57424867353984 -682.13129206957092 0 0 0 0 -545.28897460461303 791.42481144009071 0 791.42481144009071 -648.2796011559476 0 0 0 0 -447.82509260144434 846.28358186962942 0 846.28358186962942 -752.43945279042237 0 0 0 0 -472.75519029839779 966.97174215584528 0 966.97174215584528 -864.77200657944923 0 0 0 0 -413.82376231536909 886.2188290206941 0 886.2188290206941 -850.76467598341696 0 0 0 0 -561.81477722440468 925.30850290305898 0 925.30850290305898 -926.99820090763387 0 0 0 0 -403.56870807073938 1006.8334056505564 0 1006.8334056505564 -933.14652373810532 0 0 0 0 -529.3057730942528 1012.3616932563818 0 1012.3616932563818 -752.99039300377626 0 0 0 0 -510.9616203642945 963.29084962956404 0 963.29084962956404 -948.20531319417933 0 0 0 0 -593.04966870696808 1052.8484209488306 0 1052.8484209488306 -953.85379556526641 0 0 0 0 -548.2797145688528 1134.081512587356 0 1134.081512587356 -1080.6580571821178 0 0 0 0 -539.45949373481562 1282.1849216819974 0 1282.1849216819974 -1239.9144453570916 0 0 0 0 -526.24250610916351 1114.4388848747622 0 1114.4388848747622 -1123.1894192694017 0 0 0 0 -523.4130263121624 1113.8093500669856 0 1113.8093500669856 -1350.8705955551122 0 0 0 0 -526.55633239020244 919.04539373965963 0 919.04539373965963 -814.24836868281272 0 0 0 0 -495.91878837650438 1051.5078448473359 0 1051.5078448473359 -1007.5155657716241 0 0 0 0 -587.44584835135902 1001.7099857205831 0 1001.7099857205831 -830.98430050251045 0 0 0 0 -684.34652938046202 1211.1036074790463 0 1211.1036074790463 -1013.9429154587001 0 0 0 0 -703.92121697601397 1027.3996814069505 0 1027.3996814069505 -874.74858102014696 0 0 0 0 -617.2158781256876 1133.4854624279105 0 1133.4854624279105 -956.42602601683757 0 0 0 0 -904.11463666294185 1499.529337396978 0 1499.529337396978 -905.37740266116452 0 0 0 0 -978.62224130010873 1153.4992417588437 0 1153.4992417588437 -916.83335127741157 0 0 0 0 -766.04654863006726 1070.3752223660558 0 1070.3752223660558 -941.97909756956506 0 0 0 0 -448.96784490277059 1259.8298643766902 0 1259.8298643766902 -1364.3962556609649 0 0 0 0 -479.10116418141115 1283.8892097463868 0 1283.8892097463868 -1336.9366052610421 0 0 0 0 -400.06828750812565 1454.2179423863272 0 1454.2179423863272 -1367.9995742049141 0 0 0 0 -558.80507345176011 1279.8722541719144 0 1279.8722541719144 -1116.4269900482177 0 0 0 0 -634.46768791024806 1458.0849636401035 0 1458.0849636401035 -1091.4414820316233 0 0 0 0 -901.12091559584951 1763.0842976200947 0 1763.0842976200947 -673.72505149310746 0 0 0 0 -890.03178136181668 2063.4456213480589 0 2063.4456213480589 -1232.1752502420859 0 0 0 0 -546.31133235779271 1550.615777994215 0 1550.615777994215 -1310.2016206808912 0 0 0 0 -320.33826313365716 1565.8858743201708 0 1565.8858743201708 -1562.9335095295173 0 0 0 0 -233.45681586331921 1779.4378054746921 0 1779.4378054746921 -1193.3916099978233 0 0 0 0 -377.86676464449556 1432.3462435188885 0 1432.3462435188885 -1448.3315678089566 0 0 0 0 -1424.2128688389275 -612.0441036514967 0 -612.0441036514967 783.13106873735887 0 0 0 0 1374.9174961841563 943.05036088881388 0 943.05036088881388 958.65797392694731 0 0 0 0 168.48058504806249 1795.50233520654 0 1795.50233520654 -1462.5083285335058 0 0 0 0 -2714.6545457821339 1670.3899518907274 0 1670.3899518907274 -346.8198617893504 0 0 0 0 358.37800192657596 2537.9604758464502 0 2537.9604758464502 -1117.0986093265819 0 0 0 0 -976.6555613240198 3234.1206813557728 0 3234.1206813557728 116.67126530484529 0 0 0 0 -846.63303329703922 938.87583268247545 0 938.87583268247545 -938.42985714347014 0 0 0 0 -709.86670591730217 956.76673177584598 0 956.76673177584598 -1059.2212922663166 0 0 0 0 -1025.5064797939413 1054.474130720555 0 1054.474130720555 -941.10870490921661 0 0 0 0 -1414.4772133664956 726.12862964382657 0 726.12862964382657 -967.21345495380228 0 0 0 0 -951.66810788611474 861.91881466987252 0 861.91881466987252 -993.37342738100779 0 0 0 0 -857.51099358811189 1016.6793164036681 0 1016.6793164036681 -991.13329534762306 0 0 0 0 -417.66328185233579 1022.2715228502129 0 1022.2715228502129 -1086.8598779126137 0 0 0 0 -643.89161363707535 895.34328674329663 0 895.34328674329663 -948.9479694248439 0 0 0 0 -541.20170061633689 1101.0374362629445 0 1101.0374362629445 -1030.2424699182593 0 0 0 0 -591.99410803895444 1044.7730641344097 0 1044.7730641344097 -1086.9985453528388 0 0 0 0 -673.76577674537839 1047.263834092726 0 1047.263834092726 -1013.3415034855134 0 0 0 0 -633.23603110187105 1035.2633794702488 0 1035.2633794702488 -1021.4249432024772 0 0 0 0 -777.68853645781564 1042.4137537160423 0 1042.4137537160423 -941.52133512693399 0 0 0 0 -634.64136813730875 1030.1309828195654 0 1030.1309828195654 -964.14395733470155 0 0 0 0 -603.94059102670872 1054.4119278549842 0 1054.4119278549842 -945.56716316044185 0 0 0 0 -663.1028972345448 1004.2559295211995 0 1004.2559295211995 -828.58838164607005 0 0 0 0 -631.24279981032305 1037.907588402908 0 1037.907588402908 -956.39388332702947 0 0 0 0 -683.22552843816811 952.49213938171306 0 952.49213938171306 -749.52945041500789 0 0 0 0 -726.16276208838099 1073.2885768592387 0 1073.2885768592387 -716.76853791277426 0 0 0 0 -606.97532765731194 1074.1445761935747 0 1074.1445761935747 -918.29776406544261 0 0 0 0 -764.67433855729178 1120.447056147892 0 1120.447056147892 -757.68650988359877 0 0 0 0 -712.14671642063331 1256.2819472203846 0 1256.2819472203846 -770.56402394673205 0 0 0 0 -533.83759684498 1146.2435882868576 0 1146.2435882868576 -946.89015111020126 0 0 0 0 -616.34834738673817 1258.2298592574989 0 1258.2298592574989 -1098.5562514259364 0 0 0 0 -339.07380073948298 1223.3474680707732 0 1223.3474680707732 -1094.3390698615349 0 0 0 0 -532.74323043663753 1512.0276999347552 0 1512.0276999347552 -1482.2641069747042 0 0 0 0 -674.7928969682398 1533.6182236435125 0 1533.6182236435125 -859.2726597866897 0 0 0 0 -842.24845142821141 1405.9691373519017 0 1405.9691373519017 -856.22901761382286 0 0 0 0 -1083.3518622890915 1286.7469392618877 0 1286.7469392618877 -497.88946236943593 0 0 0 0 -1182.7654425974615 1745.3041383806776 0 1745.3041383806776 -484.58198362609983 0 0 0 0 -1023.3275064853515 1959.4649120247341 0 1959.4649120247341 -1371.4219123657822 0 0 0 0 -1420.8543569763751 594.79653206553667 0 594.79653206553667 352.77548409257724 0 0 0 0 -3463.7529074030754 1423.1026173546634 0 1423.1026173546634 928.08916601145029 0 0 0 0 -1630.8385370978358 892.02393795832904 0 892.02393795832904 78.197406050283462 0 0 0 0 -1212.7913922845473 1426.3711928397388 0 1426.3711928397388 -527.69294892080416 0 0 0 0 -1647.5122564605481 1158.891796760654 0 1158.891796760654 -119.57246233327896 0 0 0 0 -1042.3460286081972 689.55607996768231 0 689.55607996768231 -111.6467213647411 0 0 0 0 -1007.5509375018009 473.70414952003193 0 473.70414952003193 213.28752170309599 0 0 0 0 -1094.1060251912713 763.83797819005122 0 763.83797819005122 75.473212040276849 0 0 0 0 -1178.0992746001139 980.44487474818015 0 980.44487474818015 -282.30120837338836 0 0 0 0 -917.14878834392584 1068.0196833301161 0 1068.0196833301161 -527.7257838905025 0 0 0 0 -794.20692676807812 897.68892523260001 0 897.68892523260001 -473.70143147373165 0 0 0 0 -934.95652457520919 1073.0310020697289 0 1073.0310020697289 -443.59641279633797 0 0 0 0 -2047.5006004695097 782.42045007448178 0 782.42045007448178 -823.88596211521508 0 0 0 0 0.61394855420232375 13.189675004280858 0 13.189675004280858 0.020663700814907315 0 0 0 0 -483.47020257078839 390.69482910508668 0 390.69482910508668 110.9774487391478 0 0 0 0 -14.379104132742242 35.370506149992423 0 35.370506149992423 -44.106375196820039 0 0 0 0 -1093.4339997919596 -154.45606168848644 0 -154.45606168848644 560.15395025729958 0 0 0 0 -922.58951633710376 298.55429230489062 0 298.55429230489062 581.87853315500251 0 0 0 0 -942.2578353863646 614.20606474678061 0 614.20606474678061 -26.096347797822091 0 0 0 0 4.6319239926873337 31.931080836577024 0 31.931080836577024 2.3830888591148494 0 0 0 0 -5269.6132107048034 -281.69385805748607 0 -281.69385805748607 -99.791891279957781 0 0 0 0 231.4787244883446 154.47659273908721 0 154.47659273908721 -60.623811553043197 0 0 0 0 834.34290922593573 511.39951059086525 0 511.39951059086525 -983.14325348914281 0 0 0 0 -9.3763500249561176 17.424176458579254 0 17.424176458579254 -16.193554763487214 0 0 0 0 -5696.2646818922367 -438.33777055913743 0 -438.33777055913743 3129.1123237239663 0 0 0 0 -99.243341294873971 -204.41988039075659 0 -204.41988039075659 120.94122059100118 0 0 0 0 -474.48522489246534 330.13351509769564 0 330.13351509769564 -366.75940831274784 0 0 0 0 -521.14167838411231 392.33627076850098 0 392.33627076850098 -368.0405824444606 0 0 0 0 -148.57242430000042 465.92415650437761 0 465.92415650437761 -813.60708850887022 0 0 0 0 -753.13575665146345 1156.6959329239107 0 1156.6959329239107 -1183.0582499697521 0 0 0 0 -581.29861800446815 789.99955266537654 0 789.99955266537654 -432.98454757489526 0 0 0 0 -991.89354925088992 1166.1520916256341 0 1166.1520916256341 -606.84657821081055 0 0 0 0 -355.07344777578328 1389.767669916082 0 1389.767669916082 -1572.6229294029472 0 0 0 0 -127.00113049846914 74.705993469595342 0 74.705993469595342 108.6373866315771 0 0 0 0 -2.7192484038485034 44.095766356144807 0 44.095766356144807 14.348943571235253 0 0 0 0 -3556.6282201295689 2754.3889020229581 0 2754.3889020229581 -4705.9225476029096 0 0 0 0 -1751.8880423438095 2263.8930646773661 0 2263.8930646773661 -1457.1223330065723 0 0 0 0 -68.081548577574722 34.890300900409784 0 34.890300900409784 25.04082305530028 0 0 0 0 -763.93555952547467 587.90566142577882 0 587.90566142577882 -273.77425369346565 0 0 0 0 -790.85985408078704 677.85372386634845 0 677.85372386634845 -384.34789391871891 0 0 0 0 -756.15657819827902 708.90383068685333 0 708.90383068685333 -356.94262781420548 0 0 0 0 -781.65966886049137 762.85481897609134 0 762.85481897609134 -452.12721371072621 0 0 0 0 -921.91920680927433 846.36770209325186 0 846.36770209325186 -415.81061806911021 0 0 0 0 -881.42435840495455 741.26453387454967 0 741.26453387454967 -199.91526604825413 0 0 0 0 -869.76444950050791 519.67700207792222 0 519.67700207792222 -28.825166716695094 0 0 0 0 -930.96326132719696 670.76326780831732 0 670.76326780831732 -296.66717566916486 0 0 0 0 -782.86581995385495 460.68812424122734 0 460.68812424122734 -279.23552541984827 0 0 0 0 -645.91363271331647 236.62374889668718 0 236.62374889668718 6.2804227650267421 0 0 0 0 -701.72308467516268 476.77894751713029 0 476.77894751713029 -283.81152049860611 0 0 0 0 -744.5412928253354 559.9404989117993 0 559.9404989117993 -376.51667912647827 0 0 0 0 -657.24481319290135 644.39848258509119 0 644.39848258509119 -365.09405924844032 0 0 0 0 -660.76547939817829 677.50948781443731 0 677.50948781443731 -579.98184350735391 0 0 0 0 -554.69756749139196 472.61440860715265 0 472.61440860715265 -492.55679471450276 0 0 0 0 -733.37315707001108 619.87823000320714 0 619.87823000320714 -255.27117212254961 0 0 0 0 -735.2404753107985 619.94495972193545 0 619.94495972193545 -333.48058532316645 0 0 0 0 -697.49539480402018 679.365351593573 0 679.365351593573 -463.96321722550874 0 0 0 0 -722.88855408785457 620.17457070033561 0 620.17457070033561 -334.41956927089996 0 0 0 0 -723.37310314914794 611.4916133215047 0 611.4916133215047 -299.88348960356234 0 0 0 0 -704.3011826176371 522.33184820585302 0 522.33184820585302 -261.29346265248023 0 0 0 0 -882.90860707155298 586.05259774173373 0 586.05259774173373 77.743430895992788 0 0 0 0 -861.10800683088019 528.33617281280021 0 528.33617281280021 -77.499365907693573 0 0 0 0 -770.50713537522813 396.06535220050063 0 396.06535220050063 23.372215422059526 0 0 0 0 -1102.5704012588321 588.41006925780857 0 588.41006925780857 90.587480122048873 0 0 0 0 -983.60428861867695 415.43422056687996 0 415.43422056687996 197.68762441308354 0 0 0 0 -1120.891814517483 326.95165114451083 0 326.95165114451083 226.29043727293356 0 0 0 0 -1393.8335022500396 433.10039496641548 0 433.10039496641548 452.30919151044964 0 0 0 0 -1093.4336993468896 707.31185909673513 0 707.31185909673513 464.5960012816272 0 0 0 0 -1128.1726371791156 834.06682557307067 0 834.06682557307067 135.64639850360982 0 0 0 0 -852.27491431547969 762.24920869281777 0 762.24920869281777 -200.83801374893301 0 0 0 0 -835.06794100114348 838.26843967750392 0 838.26843967750392 131.96551345346961 0 0 0 0 -860.53882195909682 1088.8408688058917 0 1088.8408688058917 -501.5910978561169 0 0 0 0 -1042.157294295961 1042.2306808524481 0 1042.2306808524481 171.80747785155836 0 0 0 0 -1292.0477601066523 1491.7593355107965 0 1491.7593355107965 -636.47799031864724 0 0 0 0 -2486.0727621694168 856.52980241833211 0 856.52980241833211 854.24923289407161 0 0 0 0 -4.5016293252402875 3.1030071921131537 0 3.1030071921131537 1.5843294096085714 0 0 0 0 -1325.7163942297775 145.65968977413286 0 145.65968977413286 1125.9670663459983 0 0 0 0 -943.89583874124219 1026.9971415092805 0 1026.9971415092805 159.15959256757924 0 0 0 0 -3676.6785646471981 1946.3423904005394 0 1946.3423904005394 258.83872547721694 0 0 0 0 600.91436358301144 -699.57002179071651 0 -699.57002179071651 -538.29879675922712 0 0 0 0 427.64510780529417 460.02723427953151 0 460.02723427953151 458.68047217313142 0 0 0 0 -8.0517774422062018 5.4222196062875696 0 5.4222196062875696 13.001014639513812 0 0 0 0 -1142.0526999477588 900.51916687583434 0 900.51916687583434 807.37634449191683 0 0 0 0 -902.71945872002107 822.60409620864084 0 822.60409620864084 1172.7018504644948 0 0 0 0 -892.57143018378702 679.89843797468711 0 679.89843797468711 523.10695026519898 0 0 0 0 -405.92604182404466 97.586522114845138 0 97.586522114845138 -28.106428448086263 0 0 0 0 -1091.4603158511309 402.93217709592864 0 402.93217709592864 879.51313606858457 0 0 0 0 -403.77612121663697 -250.79416307285283 0 -250.79416307285283 1174.1810541281216 0 0 0 0 -677.81024920002528 378.45533846786202 0 378.45533846786202 -100.79532425812795 0 0 0 0 40.612885208026391 83.520934019837526 0 83.520934019837526 164.5183140193426 0 0 0 0 138.91364084440283 175.05775072368942 0 175.05775072368942 238.34418815777826 0 0 0 0 -501.35743279993767 670.08879926781083 0 670.08879926781083 463.95707309293357 0 0 0 0 826.73196543959784 1574.9258039323468 0 1574.9258039323468 990.0087674422939 0 0 0 0 10.924995472357992 29.703403487181198 0 29.703403487181198 40.900722432508324 0 0 0 0 22.892619198670218 150.67475191768699 0 150.67475191768699 71.922776826930203 0 0 0 0 -475.7997498517434 488.6437533059252 0 488.6437533059252 -747.54314273057389 0 0 0 0 -94.790740932767221 209.1003490221392 0 209.1003490221392 283.60834822582547 0 0 0 0 14.032028091551183 114.96426864791192 0 114.96426864791192 -743.29149665538716 0 0 0 0 -32.649769567095575 24.564169896492288 0 24.564169896492288 49.976038463913035 0 0 0 0 -8.965221493126478 -7.6452315132515452 0 -7.6452315132515452 -0.45238084395493949 0 0 0 0 -909.11372316658526 -422.11522100261573 0 -422.11522100261573 608.59053970256355 0 0 0 0 -1191.0122701402579 1288.1053402032194 0 1288.1053402032194 -1587.0448549136199 0 0 0 0 -2375.2210102477256 576.62654218464559 0 576.62654218464559 -8.4970356045960216 0 0 0 0 -1305.0380105911172 89.924917305168492 0 89.924917305168492 -863.56587994236907 0 0 0 0 -1033.8775154785035 560.25236862475867 0 560.25236862475867 -83.269793445950199 0 0 0 0 -1533.3335540450717 315.1459656845891 0 315.1459656845891 277.06738196486549 0 0 0 0 -1122.3783944644238 11.308416726082214 0 11.308416726082214 -31.50691800000186 0 0 0 0 -1163.6167424925807 312.87004500283001 0 312.87004500283001 275.92004006986099 0 0 0 0 -1134.9420811701202 566.20478205696418 0 566.20478205696418 305.44672018483107 0 0 0 0 -1611.5551750401501 551.78061123916996 0 551.78061123916996 339.86790926191316 0 0 0 0 -1376.4612290177465 334.02514518809039 0 334.02514518809039 -18.358113713576813 0 0 0 0 -682.80843754609668 -324.84464955377189 0 -324.84464955377189 1402.0749988996067 0 0 0 0 -372.15844355101763 -551.39961649311408 0 -551.39961649311408 357.35974029595673 0 0 0 0 -6.6211713713301972 11.939208249436586 0 11.939208249436586 18.642298040280529 0 0 0 0 -25.019424304520953 26.133477486270294 0 26.133477486270294 43.953795141405863 0 0 0 0 -283.52120121868575 -76.689573739962725 0 -76.689573739962725 231.52535973684644 0 0 0 0 -316.30495475052157 28.464297210969562 0 28.464297210969562 455.13376965861426 0 0 0 0 -590.71299750289108 294.75341651720191 0 294.75341651720191 -193.63110753682668 0 0 0 0 -2150.3648874615528 1214.4310213261738 0 1214.4310213261738 -25.191613596702837 0 0 0 0 -478.52298333675571 197.58208518211541 0 197.58208518211541 -198.08868042736685 0 0 0 0 -197.14894287437892 272.33085614975926 0 272.33085614975926 -452.64489162119389 0 0 0 0 -334.37550477374862 391.1220157202838 0 391.1220157202838 -514.41084329495425 0 0 0 0 -1.4251578459501104 6.7863372508732409 0 6.7863372508732409 2.1054952664705944 0 0 0 0 -21.86746452798252 80.585887159139929 0 80.585887159139929 -242.90519991566134 0 0 0 0 3.8166804362303708 7.3310923194936475 0 7.3310923194936475 -0.32092415126599638 0 0 0 0 -3.3562915942602558 131.17884609216071 0 131.17884609216071 -113.17506906418384 0 0 0 0 46.073615042761958 206.78046889890993 0 206.78046889890993 353.91267865683676 0 0 0 0 116.28620058858178 230.58899690554517 0 230.58899690554517 145.88340092422368 0 0 0 0 -14.219055072433548 286.47537485791236 0 286.47537485791236 250.35550252094799 0 0 0 0 -180.09854680960052 124.64993965760186 0 124.64993965760186 943.17072879845819 0 0 0 0 -383.00868789777269 577.0291291891217 0 577.0291291891217 287.16063181620848 0 0 0 0 125.54060091920746 88.911121531948197 0 88.911121531948197 -572.78652706889625 0 0 0 0 133.32107602875476 167.11008611479156 0 167.11008611479156 210.2254599649259 0 0 0 0 36.4653310921925 100.84826369295284 0 100.84826369295284 187.94878902554629 0 0 0 0 -96.424569077447813 100.37422326734668 0 100.37422326734668 105.15798534961505 0 0 0 0 -64.097375568036682 -3.0926521793875139 0 -3.0926521793875139 42.443285769298086 0 0 0 0 -618.32008960047824 16.548125464762961 0 16.548125464762961 388.19212003065695 0 0 0 0 282.04730296881826 -126.59374507621214 0 -126.59374507621214 -111.07481928082052 0 0 0 0 7.0020225413281878 160.9929242147482 0 160.9929242147482 380.03564927328989 0 0 0 0 -526.56897686103912 -329.3889213153825 0 -329.3889213153825 -44.975759491469944 0 0 0 0 -69.15677665354815 366.25253467010043 0 366.25253467010043 392.23247301299489 0 0 0 0 -745.13071130435856 352.70085456970446 0 352.70085456970446 475.99095037976895 0 0 0 0 -261.3030727635014 252.16010991071289 0 252.16010991071289 -215.23088516711141 0 0 0 0 -48.422209713338816 -335.50554733645458 0 -335.50554733645458 -725.32338774765594 0 0 0 0 -6.8384722483582436 10.148270250357676 0 10.148270250357676 3.6687006757707916 0 0 0 0 290.63447613288372 411.04377274104763 0 411.04377274104763 459.96201191971704 0 0 0 0 2.7333655359069144 -2.9124311075857428 0 -2.9124311075857428 0.33969047681171105 0 0 0 0 13.405449922312032 23.281614042439394 0 23.281614042439394 -3.2381120925753351 0 0 0 0 94.285008679016755 305.56267267398653 0 305.56267267398653 452.32364927571507 0 0 0 0 -74.098334071995851 315.96866804421006 0 315.96866804421006 349.36623700100972 0 0 0 0 13.444584645573741 421.12770361585353 0 421.12770361585353 466.02582205431827 0 0 0 0 103.05324224798369 317.61373306861606 0 317.61373306861606 166.58980134144076 0 0 0 0 -31.366061998067835 266.00655580118814 0 266.00655580118814 156.07261387660401 0 0 0 0 -150.17767320254643 231.53161199236274 0 231.53161199236274 246.37218667534762 0 0 0 0 40.942128435209753 118.77780572802462 0 118.77780572802462 94.224796277667082 0 0 0 0 -5.462462389499251 359.64573971673599 0 359.64573971673599 143.45619282322878 0 0 0 0 38.104150405473774 161.75038946886343 0 161.75038946886343 85.094204192938832 0 0 0 0 15.157057766751677 157.93586019305803 0 157.93586019305803 85.682318461223531 0 0 0 0 6.3262347230811429 117.04488998520537 0 117.04488998520537 16.698069170997769 0 0 0 0 -20.567229708070016 68.074056217020939 0 68.074056217020939 36.328012099672492 0 0 0 0 5.8939480297490778 77.342766726709655 0 77.342766726709655 -63.651366811853563 0 0 0 0 51.34982979317283 120.55197802690964 0 120.55197802690964 -39.575696395506384 0 0 0 0 1.8378167011669184 119.27104219429452 0 119.27104219429452 -20.228344105326144 0 0 0 0 -22.084923329310641 223.22866882568815 0 223.22866882568815 -14.393961954904171 0 0 0 0 7.5855587501624449 12.182985632313482 0 12.182985632313482 -11.755477320863946 0 0 0 0 -31.953116115706507 103.72583155348548 0 103.72583155348548 -42.965913213934982 0 0 0 0 28.611055160414253 93.281367964977107 0 93.281367964977107 29.963174524775241 0 0 0 0 40.893554218259951 82.452582121643388 0 82.452582121643388 61.864100766550507 0 0 0 0 6.1423463636238012 114.13388585173016 0 114.13388585173016 74.784435697954905 0 0 0 0 -92.040016014587309 160.01139332506864 0 160.01139332506864 30.48779341671252 0 0 0 0 -2.335838399750287 92.609410205329837 0 92.609410205329837 137.70512859132185 0 0 0 0 -177.27450538129051 -9.5425843939192418 0 -9.5425843939192418 508.76053932365357 0 0 0 0 1.5080877556101768 166.70935296763128 0 166.70935296763128 85.685454600625235 0 0 0 0 -16.40813043036178 115.58146919500359 0 115.58146919500359 121.85466270312463 0 0 0 0 39.569705227510255 89.572901682761128 0 89.572901682761128 97.502182797482646 0 0 0 0 5.516971932584056 122.1327880735771 0 122.1327880735771 43.154768288375635 0 0 0 0 39.821432049735449 137.36359496862133 0 137.36359496862133 64.254874529386143 0 0 0 0 41.692807030631229 85.240631550594117 0 85.240631550594117 -10.211572941101622 0 0 0 0 62.081290857619024 172.15781670502201 0 172.15781670502201 158.68965793857205 0 0 0 0 -1.2023321616069893 15.390427251239288 0 15.390427251239288 15.007514768645976 0 0 0 0 -100.9309388405818 655.18201985229098 0 655.18201985229098 -469.69522861222504 0 0 0 0 102.62006432950147 170.15310516423051 0 170.15310516423051 -432.5371440780691 0 0 0 0 -22.36328756740113 122.78799327078741 0 122.78799327078741 -24.65847611563504 0 0 0 0 -9.0849315020015098 97.276841707874723 0 97.276841707874723 -3.9072030620467046 0 0 0 0 -11.965642553084763 293.54218331089214 0 293.54218331089214 -40.524235300166765 0 0 0 0 50.503214513808501 75.757092782935189 0 75.757092782935189 1.0192408965186814 0 0 0 0 -86.123422102340555 215.37932817229739 0 215.37932817229739 -108.23331868739479 0 0 0 0 842.17047649626329 -151.02353319853137 0 -151.02353319853137 -184.8983657317076 0 0 0 0 110.39848489449651 380.38864584520343 0 380.38864584520343 -239.36824022169458 0 0 0 0 20.481267296505393 143.26539439868066 0 143.26539439868066 9.6543421633614344 0 0 0 0 -597.0838645563781 -217.98100384030113 0 -217.98100384030113 1017.4000874453632 0 0 0 0 30.50697697204123 85.58513344390667 0 85.58513344390667 36.568619039520854 0 0 0 0 43.921037980690016 113.42647242681414 0 113.42647242681414 -18.791723922047822 0 0 0 0 -48.274584257459537 146.27834489486122 0 146.27834489486122 -32.954184201071257 0 0 0 0 46.419948659592379 74.554929854903506 0 74.554929854903506 14.517304621281937 0 0 0 0 -89.826123452727188 97.238617460156092 0 97.238617460156092 -53.374594884946418 0 0 0 0 -7.5811586243676672 14.796762115911136 0 14.796762115911136 -28.142306367743913 0 0 0 0 -55.257298593195635 103.21720601774368 0 103.21720601774368 80.663145819006374 0 0 0 0 35.88123317539015 51.289358301889123 0 51.289358301889123 -31.760041472625979 0 0 0 0 28.183625043860957 118.22897789080525 0 118.22897789080525 5.5496571802796097 0 0 0 0 -0.8523210846906295 150.55467880724245 0 150.55467880724245 147.38492503151792 0 0 0 0 -64.720188879990019 146.06123522517737 0 146.06123522517737 -26.562672094878508 0 0 0 0 -15.114228823286993 5.2621756243211379 0 5.2621756243211379 32.606515112689976 0 0 0 0 60.637377823863062 151.69866947201081 0 151.69866947201081 -132.99676011265547 0 0 0 0 29.521514154250326 126.4755857335258 0 126.4755857335258 -31.900819642731221 0 0 0 0 31.257289990586287 105.02206805041351 0 105.02206805041351 -10.740697958593955 0 0 0 0 -7.1151892166599282 119.20950140835339 0 119.20950140835339 -12.862608874660509 0 0 0 0 -24.084041443009482 137.99025890736084 0 137.99025890736084 -8.906849548307946 0 0 0 0 17.73499762362917 107.75365141222574 0 107.75365141222574 -9.0977095526250196 0 0 0 0 34.654502665768632 108.6310558764726 0 108.6310558764726 -20.982366934826132 0 0 0 0 20.509914991136611 115.89921373896414 0 115.89921373896414 -20.865047623970895 0 0 0 0 -12.776510040210269 132.00275648173556 0 132.00275648173556 -23.229016925384713 0 0 0 0 33.814952548949805 109.28026733779552 0 109.28026733779552 30.692176034790464 0 0 0 0 41.563724285304488 93.92702552517585 0 93.92702552517585 -37.878853660120512 0 0 0 0 23.403228668767042 132.34867416128691 0 132.34867416128691 -80.469382038732874 0 0 0 0 46.659376577721559 98.202354969878797 0 98.202354969878797 -15.231409146788792 0 0 0 0 43.011165540959048 83.098928896342542 0 83.098928896342542 15.911289689012278 0 0 0 0 -270.39605005508929 233.34147389534337 0 233.34147389534337 22.771873711652006 0 0 0 0 -4.28214462216296 16.670694646570524 0 16.670694646570524 -14.948144731013713 0 0 0 0 -735.85446107475946 545.05637264770485 0 545.05637264770485 -117.42177865520352 0 0 0 0 85.95888670405111 68.711621617978381 0 68.711621617978381 -67.052387321440619 0 0 0 0 21.226082492461629 49.722013758494285 0 49.722013758494285 -31.31736037105216 0 0 0 0 71.94833606739121 65.697488243793487 0 65.697488243793487 -65.692706350731896 0 0 0 0 63.691212417059432 78.956066529681266 0 78.956066529681266 -61.291970176855102 0 0 0 0 147.13717925550736 34.767011174881191 0 34.767011174881191 -32.478191435191547 0 0 0 0 79.053111036304472 79.563949010345823 0 79.563949010345823 -61.902619019616395 0 0 0 0 -53.388635989318573 -114.99721561753904 0 -114.99721561753904 -271.48503629078914 0 0 0 0 -1335.4543182890193 730.41484721028974 0 730.41484721028974 -161.61652596943804 0 0 0 0 1.5577969368434097 -0.56449065697479739 0 -0.56449065697479739 -9.6942143301761234 0 0 0 0 -2071.474325650066 1306.5064782843983 0 1306.5064782843983 -516.90438919184271 0 0 0 0 330.61484062681484 29.491186079878389 0 29.491186079878389 -76.834076787810773 0 0 0 0 -345.37054669899953 276.12241118857492 0 276.12241118857492 -763.61896369309397 0 0 0 0 -2898.3835111105655 3565.5211625655138 0 3565.5211625655138 -2795.5193494266423 0 0 0 0 -1234.3334424126369 2288.3653336726347 0 2288.3653336726347 -1823.6850591561015 0 0 0 0 -807.7303187475427 1744.7237418332825 0 1744.7237418332825 -2295.5976124063163 0 0 0 0 -1263.9916282681006 2480.908634480933 0 2480.908634480933 -1470.3604300001753 0 0 0 0 37.593955962453038 251.80560049962514 0 251.80560049962514 -908.00653518140462 0 0 0 0 -33.081328616038945 12.547234034681992 0 12.547234034681992 -8.8003318825305001 0 0 0 0 -222.73971910622367 1608.2146003250264 0 1608.2146003250264 -5144.4180310494557 0 0 0 0 -2200.5805131333545 -172.96601485247083 0 -172.96601485247083 386.23941295839177 0 0 0 0 -183.41005918493465 402.94657464675583 0 402.94657464675583 -58.572605380511959 0 0 0 0 -74.455199863005589 49.837026451447883 0 49.837026451447883 -12.044316509283604 0 0 0 0 -137.38911529870529 238.35291660451912 0 238.35291660451912 3.1241641994492966 0 0 0 0 -114.74432412855094 146.35071236038857 0 146.35071236038857 -11.13843367419031 0 0 0 0 193.01259468574062 410.40337401244687 0 410.40337401244687 -60.651576717020362 0 0 0 0 618.86124535159615 262.27833888877285 0 262.27833888877285 -159.86266901297495 0 0 0 0 -1018.8629160409982 -44.664369408186758 0 -44.664369408186758 123.66127546907228 0 0 0 0 -3592.9269385553989 558.49101256132326 0 558.49101256132326 1499.9230028033926 0 0 0 0 -8990.8833183803581 3574.6964761790987 0 3574.6964761790987 28.722834156258614 0 0 0 0 -2601.7947278512293 377.53681853781018 0 377.53681853781018 1422.7372838923111 0 0 0 0 -7796.9948425392649 2659.9827423155366 0 2659.9827423155366 -4696.3398500955082 0 0 0 0 828.68263061860853 1339.8329047306288 0 1339.8329047306288 -3265.5642296492733 0 0 0 0 -11.596934660807406 22.37226099530082 0 22.37226099530082 -26.08319532439873 0 0 0 0 -2819.8879091206181 2347.5802304611207 0 2347.5802304611207 -2173.78236127118 0 0 0 0 -525.48258803053977 3442.0502413157374 0 3442.0502413157374 -5654.310738509681 0 0 0 0 -261.19430211682811 1600.7942835480435 0 1600.7942835480435 -1842.4578104761604 0 0 0 0 -559.28071987698786 1687.6489647038543 0 1687.6489647038543 -1803.2742785051742 0 0 0 0 -479.58538521875744 1896.3730503869374 0 1896.3730503869374 -2211.2845107625981 0 0 0 0 -2259.1383984060449 2935.4924354585346 0 2935.4924354585346 -1770.4662028494349 0 0 0 0 -1319.2785721949622 4219.1058233967997 0 4219.1058233967997 -6396.9166352919565 0 0 0 0 218.93782644248859 975.90010234418878 0 975.90010234418878 -5090.7537727332019 0 0 0 0 -56.123925085732481 -101.20931159461907 0 -101.20931159461907 -1761.5899067294959 0 0 0 0 -863.47545313494993 2264.4195539254752 0 2264.4195539254752 -2551.4926522169553 0 0 0 0 130.36346067239356 784.34941608094232 0 784.34941608094232 -3751.8506053471647 0 0 0 0 10.397408884820834 553.77719694176994 0 553.77719694176994 -1343.212665899322 0 0 0 0 152.47874791650611 -84.642118026930802 0 -84.642118026930802 -577.60146964630985 0 0 0 0 163.31131596275372 970.12414047831408 0 970.12414047831408 -2225.4467635086912 0 0 0 0 71.328746514584054 307.07005815523735 0 307.07005815523735 -1553.7419088997194 0 0 0 0 -252.08660704824433 -364.98145794260199 0 -364.98145794260199 -524.56464231809514 0 0 0 0 81.314273231138941 25.1987743025893 0 25.1987743025893 -300.78988014722563 0 0 0 0 -90.097544221618591 -117.46349442098472 0 -117.46349442098472 -1766.5950043037737 0 0 0 0 -360.43779517873918 -502.07729476126769 0 -502.07729476126769 204.45447221916402 0 0 0 0 177.99342431146215 473.04953178364303 0 473.04953178364303 119.99373055172327 0 0 0 0 -6.0294219560300704 42.059047982570434 0 42.059047982570434 -88.586413471943416 0 0 0 0 -314.46189633560243 377.07102343930455 0 377.07102343930455 603.95591054996476 0 0 0 0 -353.63939485448009 22.699560541306255 0 22.699560541306255 107.84731830366945 0 0 0 0 -55.910515657858923 198.36056588043721 0 198.36056588043721 197.06010929247714 0 0 0 0 -74.624165180335694 83.410880565439584 0 83.410880565439584 110.01270711113466 0 0 0 0 -3895.1627063818305 4289.1671225474856 0 4289.1671225474856 -4891.6079064838996 0 0 0 0 -3071.2345823591459 1956.5577067583217 0 1956.5577067583217 -3726.9536207575729 0 0 0 0 464.34786216011707 -240.82767728884573 0 -240.82767728884573 -2564.2630686498087 0 0 0 0 -7665.1455397348582 5135.1192673127416 0 5135.1192673127416 -4558.0545219521155 0 0 0 0 -5714.4390018700797 955.61957188128144 0 955.61957188128144 1504.9129185824859 0 0 0 0 -9.5102016458932184 17.330775590748488 0 17.330775590748488 -43.913569111922669 0 0 0 0 -7120.9518333280284 3634.707218784235 0 3634.707218784235 -484.75377548269171 0 0 0 0 -2185.0581541696665 -1162.9380298930992 0 -1162.9380298930992 387.86537148333809 0 0 0 0 -2237.6597405833891 1662.1407898992693 0 1662.1407898992693 -1368.1711864972094 0 0 0 0 -3669.2372592966476 1382.6588396844309 0 1382.6588396844309 -1238.8124556164548 0 0 0 0 -1493.3796193990347 655.26131350416836 0 655.26131350416836 -191.48263373273949 0 0 0 0 -1302.6473975016243 621.84231567102142 0 621.84231567102142 -311.57884396573354 0 0 0 0 104.54278101771342 63.929918933383306 0 63.929918933383306 -403.26961184087122 0 0 0 0 -1116.0486016803152 -394.43696841608426 0 -394.43696841608426 -162.0597280185757 0 0 0 0 3.9703102676565152 8.843269245563647 0 8.843269245563647 -6.3308967810277892 0 0 0 0 -392.7004642087968 -125.41415742900153 0 -125.41415742900153 34.328440511933877 0 0 0 0 -488.87076175251423 -258.59040806799021 0 -258.59040806799021 -150.08173845014244 0 0 0 0 -817.14076229416241 388.32122955672821 0 388.32122955672821 389.48407271853648 0 0 0 0 -688.5691511805926 231.58776695367123 0 231.58776695367123 -111.90390034824668 0 0 0 0 198.550257602903 30.185890136373928 0 30.185890136373928 -313.93529464649328 0 0 0 0 -146.38388585207576 69.183972799917683 0 69.183972799917683 98.476225169055397 0 0 0 0 480.14463163074106 102.80944215363706 0 102.80944215363706 -46.699995410024712 0 0 0 0 44.312329859145393 277.74133156499374 0 277.74133156499374 -109.68046606261487 0 0 0 0 -43.062833729853992 81.212677718554914 0 81.212677718554914 146.48098763774033 0 0 0 0 -13.745702281711505 29.894162539020797 0 29.894162539020797 58.182188426374978 0 0 0 0 -4.0525664639252739 78.271901398747119 0 78.271901398747119 -38.61457142213488 0 0 0 0 -72.46215013298206 24.683569531247485 0 24.683569531247485 73.574205490974464 0 0 0 0 -15.508991019050882 48.815311964033754 0 48.815311964033754 74.120567104924703 0 0 0 0 -487.57566760294867 52.019740993233427 0 52.019740993233427 314.03439854185854 0 0 0 0 -6.864683331015776 20.018170581450747 0 20.018170581450747 52.063106378756231 0 0 0 0 -322.88667874450721 91.968298178317582 0 91.968298178317582 108.41774507577065 0 0 0 0 -105.9032512420963 41.390513666206971 0 41.390513666206971 68.847683136395062 0 0 0 0 -164.53541340836091 442.48779325901705 0 442.48779325901705 319.69074681142229 0 0 0 0 -0.12567717027559411 545.57547758613509 0 545.57547758613509 348.72373093709757 0 0 0 0 -389.39009426307894 800.92005635910755 0 800.92005635910755 436.64622921132832 0 0 0 0 -491.53051146126063 822.70575355502933 0 822.70575355502933 580.40746898727957 0 0 0 0 -506.71820202535855 406.18841932915393 0 406.18841932915393 312.4497310759034 0 0 0 0 -156.83152597853041 -23.992636190523626 0 -23.992636190523626 -2.1477004809494247 0 0 0 0 -252.72709365207993 -39.845533279747542 0 -39.845533279747542 278.89040479515097 0 0 0 0 16.598195348204172 167.10629160907411 0 167.10629160907411 350.80497400523745 0 0 0 0 329.30290876342042 -89.747971923206933 0 -89.747971923206933 453.30626481334912 0 0 0 0 -364.02026364664198 150.9322655305441 0 150.9322655305441 234.53367861965671 0 0 0 0 -249.79838561075303 -20.511667142811348 0 -20.511667142811348 485.26234409032622 0 0 0 0 -243.80161567468895 203.99210650913301 0 203.99210650913301 443.27161546507705 0 0 0 0 -257.77982964419061 155.26001429773169 0 155.26001429773169 404.57124063873198 0 0 0 0 -332.21920536494872 171.12283120413485 0 171.12283120413485 443.96643986130948 0 0 0 0 -75.530970620471635 33.999166085646721 0 33.999166085646721 691.15517817615182 0 0 0 0 -187.22109197129612 210.5610648902657 0 210.5610648902657 413.94406535138842 0 0 0 0 190.63832757525961 827.21273546755765 0 827.21273546755765 394.77891801355872 0 0 0 0 272.28655857901867 405.93291687672354 0 405.93291687672354 -304.57944495412812 0 0 0 0 -45.497372589039216 39.915471901053621 0 39.915471901053621 -31.691581949099088 0 0 0 0 130.24347021587164 758.60089680706733 0 758.60089680706733 348.24412765478337 0 0 0 0 -5.9538432315102341 16.388559715205972 0 16.388559715205972 -22.057744111319067 0 0 0 0 381.01782382834062 -11.314743435475975 0 -11.314743435475975 610.78197766881203 0 0 0 0 200.93376894074026 172.7378677589586 0 172.7378677589586 498.19065896666143 0 0 0 0 624.75194344995543 -88.873629764828365 0 -88.873629764828365 425.11252770712599 0 0 0 0 595.85196701502718 393.23740460892441 0 393.23740460892441 224.52098942585872 0 0 0 0 107.35066208205535 300.99913365050452 0 300.99913365050452 662.92351348290686 0 0 0 0 206.05748233180202 192.03899742622161 0 192.03899742622161 104.51497344864765 0 0 0 0 93.937558222380176 460.3699518351641 0 460.3699518351641 342.50355281366501 0 0 0 0 67.323381958587561 351.74377503857249 0 351.74377503857249 -98.901794855017215 0 0 0 0 95.029579356538306 574.68910563660029 0 574.68910563660029 117.21922012552386 0 0 0 0 138.03217294804199 433.50177843827987 0 433.50177843827987 -526.78982248707325 0 0 0 0 63.177814552109339 75.956834743759828 0 75.956834743759828 -671.10139761929167 0 0 0 0 160.19384842849831 289.2298763449362 0 289.2298763449362 -314.53865626844345 0 0 0 0 499.77763269140178 441.55050804258008 0 441.55050804258008 -1040.9361432448204 0 0 0 0 468.55490007770504 771.23087073733768 0 771.23087073733768 -255.04061438597273 0 0 0 0 204.92162501656276 836.21607302813209 0 836.21607302813209 -211.55711217672797 0 0 0 0 194.54233420624223 816.99185272291652 0 816.99185272291652 -113.99672511404788 0 0 0 0 -283.94227318072808 872.86144149725442 0 872.86144149725442 480.31296622153604 0 0 0 0 -145.63453905383358 1163.7550922608643 0 1163.7550922608643 950.51200876990333 0 0 0 0 -50.287070182395851 52.997472334906959 0 52.997472334906959 -44.425220952212385 0 0 0 0 557.31858346843364 1056.8103078047716 0 1056.8103078047716 135.08636860823026 0 0 0 0 318.48914565311134 1103.9232034481538 0 1103.9232034481538 129.51967467993381 0 0 0 0 -188.690553433079 1622.5847824660186 0 1622.5847824660186 1295.9639036090375 0 0 0 0 1238.200528618112 2197.23405728543 0 2197.23405728543 636.69034534204548 0 0 0 0 -50.900371518315794 48.170833248341438 0 48.170833248341438 -37.16064479869658 0 0 0 0 -301.64995586736768 830.52969461951579 0 830.52969461951579 442.69757537468104 0 0 0 0 -325.05119277590711 813.52941118486342 0 813.52941118486342 561.7515681234363 0 0 0 0 -488.23227158042937 -258.71226976710022 0 -258.71226976710022 1256.2644036143902 0 0 0 0 2108.7891406598137 1188.1214148979925 0 1188.1214148979925 -857.21425703867135 0 0 0 0 430.94030065485276 373.4891514856572 0 373.4891514856572 -505.38907531233417 0 0 0 0 -204.28334124048342 -456.2052841339173 0 -456.2052841339173 -1352.3369979449089 0 0 0 0 138.04379634971701 1021.9660392350124 0 1021.9660392350124 -1832.4558855834184 0 0 0 0 898.07273071096643 984.60579608849366 0 984.60579608849366 -657.36741534699104 0 0 0 0 171.11916489134819 3.2228392114120652 0 3.2228392114120652 -811.46929645285127 0 0 0 0 0.31880195809347356 3.9345237602395855 0 3.9345237602395855 -5.333013869639359 0 0 0 0 -2231.2291958645947 2843.4186164542625 0 2843.4186164542625 -2728.588137373772 0 0 0 0 -285.05363682364987 191.09263966140134 0 191.09263966140134 -4250.9063914569306 0 0 0 0 65.369864750478882 1866.5064259287465 0 1866.5064259287465 413.06310082365235 0 0 0 0 -4818.1691099106247 1874.5908371393161 0 1874.5908371393161 45.857625474978704 0 0 0 0 -3184.7170666146412 371.20236639049836 0 371.20236639049836 -5889.8961468904454 0 0 0 0 -8185.5719544092208 -867.38848812208744 0 -867.38848812208744 -1978.8435816882702 0 0 0 0 -438.73023739851487 3185.8251819625584 0 3185.8251819625584 -3011.179622183874 0 0 0 0 -3202.3450039598283 4473.6292066164096 0 4473.6292066164096 -5796.7050946740783 0 0 0 0 -2848.3981530659366 3363.7349994841643 0 3363.7349994841643 -1658.0772723887171 0 0 0 0 -2626.3425952907201 2623.3855013443099 0 2623.3855013443099 -1638.0119415565277 0 0 0 0 -3166.4350009943155 3072.5380078825474 0 3072.5380078825474 -355.23866592947161 0 0 0 0 -3463.2984170567288 2822.4976161319282 0 2822.4976161319282 572.21815534643247 0 0 0 0 -1443.0532636943244 858.4070835038001 0 858.4070835038001 -87.692880207119742 0 0 0 0 -1753.1220926467213 1711.9286806447926 0 1711.9286806447926 -1666.6372522813035 0 0 0 0 -2713.1006873247388 2132.793417095636 0 2132.793417095636 698.71908277072362 0 0 0 0 -3195.124520729456 2888.5138456050772 0 2888.5138456050772 -428.66960064131126 0 0 0 0 -2730.6186379671635 1890.1191551460215 0 1890.1191551460215 -257.25704999927621 0 0 0 0 -3102.8283304867109 4223.9085287011985 0 4223.9085287011985 -1801.6457004413387 0 0 0 0 -4773.0249139034277 3764.7728230722714 0 3764.7728230722714 272.79977583848449 0 0 0 0 -2264.4955268209087 2202.8473048242558 0 2202.8473048242558 -487.3145733808924 0 0 0 0 -1612.5600632753703 1528.3978126768488 0 1528.3978126768488 196.01221641607117 0 0 0 0 -1968.9167460144381 3021.3216167889041 0 3021.3216167889041 -535.34665094456432 0 0 0 0 2.5727436247689184 1781.8642877454258 0 1781.8642877454258 -1303.9295526292699 0 0 0 0 1.3946998899247731 1.163176399744529 0 1.163176399744529 -6.5673454706110306 0 0 0 0 -186.24149577904609 2081.3899523575601 0 2081.3899523575601 753.77441862365231 0 0 0 0 -693.51461525416198 492.34086008591839 0 492.34086008591839 -1560.388881636085 0 0 0 0 -1557.7924474760293 2183.1469342226992 0 2183.1469342226992 323.58383257217065 0 0 0 0 -1416.5924449407175 1657.1975010152855 0 1657.1975010152855 -3338.1486812375078 0 0 0 0 -3126.1737139053657 467.71346304327017 0 467.71346304327017 -1053.9685858611629 0 0 0 0 -451.90004148150183 3110.4142215600659 0 3110.4142215600659 -3136.1516787441069 0 0 0 0 -3055.0372911981453 3408.9558798107196 0 3408.9558798107196 -1950.1908890976629 0 0 0 0 -1629.1021355859484 2240.0952496712489 0 2240.0952496712489 -1764.898671913681 0 0 0 0 -408.71711097442312 1146.6757144821167 0 1146.6757144821167 -811.43315421305306 0 0 0 0 -283.88727758949972 937.66985932874377 0 937.66985932874377 -857.92605233725044 0 0 0 0 -955.69549595938952 545.59933767658003 0 545.59933767658003 578.93379519082373 0 0 0 0 -292.55814316816395 76.53903620915662 0 76.53903620915662 1166.5081579084062 0 0 0 0 -3925.2887670905584 1651.5421426600515 0 1651.5421426600515 1665.057125988591 0 0 0 0 1064.887958994128 1227.3794069435316 0 1227.3794069435316 -2819.9521615001868 0 0 0 0 -25.951283504329041 21.695200699122381 0 21.695200699122381 -15.837449920616365 0 0 0 0 -17.7868350585195 59.040582623092632 0 59.040582623092632 -82.269776078770519 0 0 0 0 -8.7895995631843107 85.962524790171301 0 85.962524790171301 -222.74888592687785 0 0 0 0 -10.198979175416753 69.558644093311159 0 69.558644093311159 -74.578728629865509 0 0 0 0 -6.6271464571764227 -2.2809285278617608 0 -2.2809285278617608 -2.8704790988122113 0 0 0 0 -142.85541792598087 75.684403005994682 0 75.684403005994682 9.466421097357852 0 0 0 0 -42.347862496346352 5.3170188668518676 0 5.3170188668518676 42.59739456018724 0 0 0 0 -36.91651098861621 39.664926898636622 0 39.664926898636622 -4.3981741312891245 0 0 0 0 -10.27369294851087 11.807737081566302 0 11.807737081566302 -27.910175580080249 0 0 0 0 1.883959224782302 -23.613666197670682 0 -23.613666197670682 0.76593123553902842 0 0 0 0 -29.866940058134787 49.971210269948642 0 49.971210269948642 -60.983317682119377 0 0 0 0 -21.390214464081907 12.081189392117267 0 12.081189392117267 3.1032605891823266 0 0 0 0 14.593702163554553 25.450246703661833 0 25.450246703661833 27.865904254635097 0 0 0 0 -44.557267620613857 19.535935683707066 0 19.535935683707066 93.775425623818592 0 0 0 0 31.30845378828235 79.421852443167154 0 79.421852443167154 73.426136915943061 0 0 0 0 -216.35347709174675 279.4104353101211 0 279.4104353101211 -238.2042989098918 0 0 0 0 -1.6188479449333357 12.063859661104516 0 12.063859661104516 25.253510556047587 0 0 0 0 -8.1827175033175195 10.27800325772666 0 10.27800325772666 5.7845616128198998 0 0 0 0 -66.554838342912262 123.16962099257216 0 123.16962099257216 -218.15167877804197 0 0 0 0 -4.6015454383989152 7.4704392803108703 0 7.4704392803108703 29.922309085784946 0 0 0 0 -9.921113327909552 0.7301815197133692 0 0.7301815197133692 40.379161970271525 0 0 0 0 -34.63282984858597 6.7995031317968824 0 6.7995031317968824 34.434863095870242 0 0 0 0 -6.9706719951791456 3.3427122776847682 0 3.3427122776847682 23.199560834000295 0 0 0 0 -21.096495872661762 -23.111346232264623 0 -23.111346232264623 -10.771824450086569 0 0 0 0 -73.958329558896367 10.605881912386394 0 10.605881912386394 22.224750984023558 0 0 0 0 111.28552636416862 72.944149057460891 0 72.944149057460891 -1204.2278341211058 0 0 0 0 -2.381812470794415 3.4018742941052977 0 3.4018742941052977 -2.1670474318195261 0 0 0 0 25.425717933147098 32.20667444299761 0 32.20667444299761 -431.09601557681162 0 0 0 0 160.25534180919931 -12.619266671532387 0 -12.619266671532387 -223.572842665184 0 0 0 0 -487.90571364373318 652.51795950542146 0 652.51795950542146 -575.77019160977579 0 0 0 0 -244.62729547661729 -29.495995375633356 0 -29.495995375633356 -864.34670885551895 0 0 0 0 -292.34708389616571 549.86142769566504 0 549.86142769566504 -817.64896642895474 0 0 0 0 -176.31796764514729 81.626660619600443 0 81.626660619600443 80.41129481329699 0 0 0 0 67.923237724637147 120.52677697080071 0 120.52677697080071 67.165384582587649 0 0 0 0 -3.0609050221036114 5.8884503800206147 0 5.8884503800206147 -9.7621288295868283 0 0 0 0 236.65751816212651 85.127667808557817 0 85.127667808557817 41.476784957660129 0 0 0 0 209.23949082165927 280.39680983500512 0 280.39680983500512 41.095835578002152 0 0 0 0 -15.840645750678959 46.337603027339355 0 46.337603027339355 46.58684279908266 0 0 0 0 -30.182319048035424 6.8538268994052487 0 6.8538268994052487 30.834881788250641 0 0 0 0 -0.70171113499912963 4.9362393181445725 0 4.9362393181445725 24.874271023648987 0 0 0 0 260.33351237807074 133.90131947179179 0 133.90131947179179 13.271140241864487 0 0 0 0 -2.7617622545055269 9.0921506180615808 0 9.0921506180615808 -8.9905156548401521 0 0 0 0 232.33296501009318 82.701993404945824 0 82.701993404945824 41.921929890399042 0 0 0 0 241.82458934717579 80.248248511183192 0 80.248248511183192 -34.713263035757336 0 0 0 0 109.84801900360617 174.72867878752731 0 174.72867878752731 -13.502212057095676 0 0 0 0 -197.28871999730472 259.92459096772654 0 259.92459096772654 -96.679010568623426 0 0 0 0 -38.849241894175066 51.028149469522759 0 51.028149469522759 -89.767274688532552 0 0 0 0 -189.49054832306865 226.19802817868731 0 226.19802817868731 -219.84673651978665 0 0 0 0 -381.37441774579202 163.69916049902531 0 163.69916049902531 -31.820869007839065 0 0 0 0 -180.45540584651462 271.33427166602632 0 271.33427166602632 3.6653763479062036 0 0 0 0 36.789715393977531 81.527080195304734 0 81.527080195304734 -34.075955449530738 0 0 0 0 -352.3444787866465 298.35648452141322 0 298.35648452141322 144.63271448913292 0 0 0 0 106.6386324588857 104.7922571104391 0 104.7922571104391 56.094443618538207 0 0 0 0 -561.19865283655236 -143.45572915531375 0 -143.45572915531375 -481.69825118692825 0 0 0 0 -595.11148522434814 422.83221731662343 0 422.83221731662343 81.797567270034051 0 0 0 0 -1.495068018081497 2.5954277623721396 0 2.5954277623721396 -4.1326609199396671 0 0 0 0 24.650970097736405 28.335383542510868 0 28.335383542510868 21.033873064771072 0 0 0 0 161.0551827791416 113.46500619531108 0 113.46500619531108 -834.23170213677804 0 0 0 0 378.02349996931571 211.23763332016051 0 211.23763332016051 -820.96310666440695 0 0 0 0 4.3727804205932017 -2.5419806917830954 0 -2.5419806917830954 -20.300158558903689 0 0 0 0 -835.81273245141347 907.61404427810703 0 907.61404427810703 -885.5919266447745 0 0 0 0 -333.11967651932355 644.76901354906659 0 644.76901354906659 -176.20458455242624 0 0 0 0 -217.3137307465804 561.71525578710862 0 561.71525578710862 -116.71032890590141 0 0 0 0 13.253016274702972 10.717203801050516 0 10.717203801050516 -2.4064542386964547 0 0 0 0 -118.25844901335222 437.15015913253774 0 437.15015913253774 -135.43765724651166 0 0 0 0 39.322131985281885 4.6193929888067942 0 4.6193929888067942 -48.529347680974752 0 0 0 0 -3.6959674330719281 67.801205907209805 0 67.801205907209805 21.921014754261705 0 0 0 0 3.9741187988705633 2.2377655060111294 0 2.2377655060111294 0.16548366154113126 0 0 0 0 -455.61249928719917 1097.6301714040601 0 1097.6301714040601 -1226.419036377978 0 0 0 0 -435.81467554446135 658.93438743730076 0 658.93438743730076 -786.94491994107375 0 0 0 0 8.0405382266995957 9.0570132223604674 0 9.0570132223604674 0.8708845831650649 0 0 0 0 -430.83747245538643 789.1187978609654 0 789.1187978609654 -1162.7587846272509 0 0 0 0 -38.589453083506669 913.09197669108107 0 913.09197669108107 -1197.003340644631 0 0 0 0 -173.23312817849546 1248.0649810410832 0 1248.0649810410832 -1365.3191420826042 0 0 0 0 -228.99528345673752 1175.1229935134397 0 1175.1229935134397 -1459.8863913071109 0 0 0 0 -21.07851440077502 999.89455233025546 0 999.89455233025546 -811.89876378100598 0 0 0 0 405.05628732140758 916.28745697740669 0 916.28745697740669 -1473.8086834347837 0 0 0 0 112.56406798846729 522.37599688886985 0 522.37599688886985 -1036.3070155457426 0 0 0 0 449.5121658531607 105.58313300619557 0 105.58313300619557 -480.85792622053123 0 0 0 0 -468.50870610317543 378.20991912255431 0 378.20991912255431 -212.66868564156175 0 0 0 0 5.08485504489704 5.8269951350557392 0 5.8269951350557392 1.4706580646768543 0 0 0 0 414.7914764791567 94.782156880984985 0 94.782156880984985 -1.7104285245259234 0 0 0 0 -342.18991185669438 113.18945293170691 0 113.18945293170691 -123.52833832605756 0 0 0 0 407.40444599563489 -218.01032100582597 0 -218.01032100582597 49.773898139595985 0 0 0 0 -44.903486230126873 -88.725707967600101 0 -88.725707967600101 58.456197960229474 0 0 0 0 2.1511802693080142 2.126505368819295 0 2.126505368819295 0.027190096267986519 0 0 0 0 -622.28264353483974 456.13670139503301 0 456.13670139503301 -98.382203317625681 0 0 0 0 834.4082954407786 -226.14846749692515 0 -226.14846749692515 -124.78158030121267 0 0 0 0 -239.35053605229041 347.4462871368487 0 347.4462871368487 -159.76692094661666 0 0 0 0 -12.084389787838944 77.451916555583125 0 77.451916555583125 -35.162550244548477 0 0 0 0 2.0471676662564278 201.20204900413228 0 201.20204900413228 -72.020759581573657 0 0 0 0 -31.965671945312351 165.33378126153548 0 165.33378126153548 207.83949007368574 0 0 0 0 -88.367442114133155 108.68353635049425 0 108.68353635049425 75.486617559210572 0 0 0 0 -56.79111108592042 116.10216817211312 0 116.10216817211312 73.879120985031477 0 0 0 0 -0.36984437318730556 1.1296223784363804 0 1.1296223784363804 0.028380298706956353 0 0 0 0 -156.24702073961816 179.31987807514815 0 179.31987807514815 512.29860206165631 0 0 0 0 76.917829218069528 149.2227309165828 0 149.2227309165828 -323.03546825895319 0 0 0 0 -101.05487103218911 76.540051007556031 0 76.540051007556031 139.0822534599356 0 0 0 0 -41.916958929949033 171.0549223384769 0 171.0549223384769 129.03132795068086 0 0 0 0 -1.2089951985474841 2.7621445319435338 0 2.7621445319435338 -0.10271632160782929 0 0 0 0 66.509887381376757 118.04136571882555 0 118.04136571882555 236.44725280666808 0 0 0 0 25.864979923302599 109.56544829370978 0 109.56544829370978 -66.047156834451016 0 0 0 0 -166.49370485054533 7.5447761152972816 0 7.5447761152972816 118.96237190334068 0 0 0 0 -114.18520948153309 -19.609274342925346 0 -19.609274342925346 28.430014794321323 0 0 0 0 -15.520792423810917 79.891667285094954 0 79.891667285094954 -36.503902313970983 0 0 0 0 22.305103118043917 -15.156066967168954 0 -15.156066967168954 -46.069482870676438 0 0 0 0 -249.82842890596294 188.27645202547683 0 188.27645202547683 -103.35309089357179 0 0 0 0 78.812573104398325 72.689081637276104 0 72.689081637276104 26.284387125830108 0 0 0 0 -11.839864482950361 118.91254692565053 0 118.91254692565053 65.889344425675517 0 0 0 0 -58.340982239347795 70.730949550303194 0 70.730949550303194 -54.375717585804523 0 0 0 0 551.63066242136847 70.864059879142587 0 70.864059879142587 -47.974410418704792 0 0 0 0 -0.27981904856926576 2.5119314923606737 0 2.5119314923606737 4.8876035429152296 0 0 0 0 1.261018341371539 2.410278634233407 0 2.410278634233407 1.5507049851344448 0 0 0 0 -141.57441661201301 164.80093253192899 0 164.80093253192899 168.41631577779845 0 0 0 0 -99.835611761744076 298.48878965965196 0 298.48878965965196 186.26464595099969 0 0 0 0 -33.63438892638078 213.65923502852092 0 213.65923502852092 149.36446985478688 0 0 0 0 236.04027718010911 292.30769967081142 0 292.30769967081142 77.515841328815441 0 0 0 0 46.081536890109419 137.78313331332174 0 137.78313331332174 46.372157370191417 0 0 0 0 388.5517738862327 -68.527676801135385 0 -68.527676801135385 -223.18550662729831 0 0 0 0 -17.812207940339448 81.462024174363989 0 81.462024174363989 -37.439405143292532 0 0 0 0 25.619886012369534 81.925404589841492 0 81.925404589841492 142.09962375355826 0 0 0 0 -49.084355822487851 170.55112323783396 0 170.55112323783396 260.88821833771362 0 0 0 0 -1.8895019305026892 2.9651053789945081 0 2.9651053789945081 -0.039542607855995726 0 0 0 0 -63.827276024538151 101.24727751164755 0 101.24727751164755 93.687903962205382 0 0 0 0 -41.551117330804118 118.57511077144591 0 118.57511077144591 -153.35262320545735 0 0 0 0 -31.014355748833623 233.83821827512293 0 233.83821827512293 160.7428807678516 0 0 0 0 -26.469103819655999 83.82881946433568 0 83.82881946433568 -36.832079821231908 0 0 0 0 -47.212117458169814 258.62299991217151 0 258.62299991217151 58.807000424090802 0 0 0 0 -1.0416134600297653 1.3973984487473103 0 1.3973984487473103 -0.097570108475373729 0 0 0 0 -16.213774212810677 296.54722464332008 0 296.54722464332008 64.392227605494554 0 0 0 0 24.112957339923014 283.2756301217014 0 283.2756301217014 -504.04815318386136 0 0 0 0 -69.677157357370106 8.8410905179152905 0 8.8410905179152905 496.28132785922207 0 0 0 0 -94.872333972976776 195.79554571205517 0 195.79554571205517 -62.88187692865904 0 0 0 0 -63.080262336254236 85.032371468598285 0 85.032371468598285 265.27795594165218 0 0 0 0 43.571195552758581 153.45503577827549 0 153.45503577827549 51.203243361640489 0 0 0 0 -65.295433004584993 223.15045637577941 0 223.15045637577941 21.228264378398308 0 0 0 0 -69.877925542139565 151.96287816023687 0 151.96287816023687 -77.635468729582499 0 0 0 0 -124.16667831936502 244.82908775418764 0 244.82908775418764 68.06711408495903 0 0 0 0 -68.96964210945589 212.04153540967673 0 212.04153540967673 86.240868635111838 0 0 0 0 -48.033087587959017 146.50492958596078 0 146.50492958596078 -125.74370617367094 0 0 0 0 -157.42811848963902 81.257629442610778 0 81.257629442610778 -57.849555759763462 0 0 0 0 -31.932759045696002 159.66764677547326 0 159.66764677547326 -83.970560251742427 0 0 0 0 -36.837022473053366 191.21846575314339 0 191.21846575314339 -185.2957492962596 0 0 0 0 -38.94498890095565 133.51854535806706 0 133.51854535806706 -136.27398239249305 0 0 0 0 -50.289746040893078 79.313030117053131 0 79.313030117053131 17.166595304406655 0 0 0 0 15.20721509401119 431.01902019188128 0 431.01902019188128 449.67459268202947 0 0 0 0 2.5038453386801365 13.027790115649594 0 13.027790115649594 16.842447444987215 0 0 0 0 33.223493666155264 95.454664601238619 0 95.454664601238619 9.0055884489411255 0 0 0 0 -21.324202083807904 44.634374169661896 0 44.634374169661896 -21.421603660404799 0 0 0 0 -26.153274384733777 54.891991618491375 0 54.891991618491375 38.444279410614399 0 0 0 0 -26.749869023245992 49.370192549162311 0 49.370192549162311 -11.649175624057534 0 0 0 0 -73.485630323968508 -32.525264926913223 0 -32.525264926913223 174.192529552005 0 0 0 0 2.9211458364516005 3.6939985527936017 0 3.6939985527936017 6.7205262135533417 0 0 0 0 -111.00770784419001 212.82060892276786 0 212.82060892276786 401.47006913978839 0 0 0 0 -66.415687097847695 217.94069581758231 0 217.94069581758231 -87.93383862664632 0 0 0 0 378.52772209464274 448.11139238438045 0 448.11139238438045 30.736507446461474 0 0 0 0 -113.68448696432824 468.51568723809942 0 468.51568723809942 -130.23216526411125 0 0 0 0 -180.33351421638508 263.76384699284972 0 263.76384699284972 91.566231046730536 0 0 0 0 -126.53406680986882 236.23445256615742 0 236.23445256615742 -41.403086549442378 0 0 0 0 -88.659798660351953 181.16491773822781 0 181.16491773822781 29.686357308637525 0 0 0 0 -159.42297581815001 222.38436469017688 0 222.38436469017688 69.110126072599087 0 0 0 0 -138.57217375225446 252.27600779424392 0 252.27600779424392 -5.6791686668584589 0 0 0 0 -37.545666973478546 71.665728470928116 0 71.665728470928116 -20.62417674207245 0 0 0 0 -160.37970966182183 305.55089682198923 0 305.55089682198923 -94.042779439216247 0 0 0 0 50.981427683131187 258.98118486499516 0 258.98118486499516 107.45922788033204 0 0 0 0 32.938380227667949 37.046310691286635 0 37.046310691286635 48.035238469557953 0 0 0 0 -39.7148243956035 109.44365466344607 0 109.44365466344607 -138.97257121052826 0 0 0 0 -114.58206509509182 23.636915193375899 0 23.636915193375899 30.312593969225418 0 0 0 0 -215.45478162051222 251.70304161921013 0 251.70304161921013 -57.368819836556213 0 0 0 0 1.0778803186913137 209.60966575665952 0 209.60966575665952 -78.365997273125686 0 0 0 0 114.48004614858655 92.195868446317036 0 92.195868446317036 -8.9319286124336941 0 0 0 0 1.347571752981807 -2.0266908619660313 0 -2.0266908619660313 -3.4331157507378407 0 0 0 0 -423.68689917918527 69.487572087091394 0 69.487572087091394 37.772607834573137 0 0 0 0 28.509145899501164 40.100823122702423 0 40.100823122702423 -166.69249798397504 0 0 0 0 -4.3830832351272591 17.968277607398107 0 17.968277607398107 6.4021852569547946 0 0 0 0 -82.931442629691446 86.014380022057594 0 86.014380022057594 103.026648820829 0 0 0 0 -9.2897061114985888 73.014331406772925 0 73.014331406772925 -44.5492368273908 0 0 0 0 12.335915765113896 132.6134955243615 0 132.6134955243615 -91.136671916872729 0 0 0 0 -27.947692804345593 79.272526757485423 0 79.272526757485423 -35.933129774456106 0 0 0 0 -27.711587741949188 160.59026672175241 0 160.59026672175241 66.975705960488995 0 0 0 0 -83.64383143082523 135.94066908569948 0 135.94066908569948 71.256590031982341 0 0 0 0 -46.263182989485045 85.353458984261522 0 85.353458984261522 -32.764413855730311 0 0 0 0 -6.8641472411400173 90.284066909109242 0 90.284066909109242 -117.94138241653854 0 0 0 0 36.357347501725599 155.43042113717092 0 155.43042113717092 -36.097319273940229 0 0 0 0 -11.232238719283487 95.332294625135546 0 95.332294625135546 -110.63830783330195 0 0 0 0 206.14501873124027 32.91052530498564 0 32.91052530498564 -96.122297285692184 0 0 0 0 -223.92398298560875 148.7274749488497 0 148.7274749488497 124.04780479559849 0 0 0 0 63.555754365534085 154.74089402455866 0 154.74089402455866 123.91039245130378 0 0 0 0 0.632429303368923 -0.78203433380153342 0 -0.78203433380153342 4.0577576202917953 0 0 0 0 -54.32878842689388 140.12590596754308 0 140.12590596754308 -111.04000104839497 0 0 0 0 -142.29374867705337 22.366522027954488 0 22.366522027954488 39.545825225868612 0 0 0 0 -154.00820905034925 97.091793937623152 0 97.091793937623152 102.8949627773618 0 0 0 0 -194.52222797973809 109.67706213846395 0 109.67706213846395 -53.546508326406183 0 0 0 0 -175.4652543748889 16.928395866314531 0 16.928395866314531 -18.749818847165443 0 0 0 0 -67.945015069534691 75.405896585721507 0 75.405896585721507 -28.899434875061274 0 0 0 0 -7.3880467382576853 19.809132293457139 0 19.809132293457139 -21.297347965188862 0 0 0 0 -219.68672861296363 201.71917740075878 0 201.71917740075878 -110.33408936584817 0 0 0 0 -162.36659545475413 97.430761555966455 0 97.430761555966455 -119.90323185143643 0 0 0 0 -69.637996638612094 96.154273267537064 0 96.154273267537064 183.0661721547076 0 0 0 0 -6.6419051650650545 34.237570641118225 0 34.237570641118225 -12.821698100145113 0 0 0 0 -244.46732513425377 271.65232105694304 0 271.65232105694304 -104.10507745476934 0 0 0 0 -170.85908790354915 134.69409539285698 0 134.69409539285698 -54.33863896355615 0 0 0 0 -276.56562671805295 274.13150331797078 0 274.13150331797078 -196.40495740699407 0 0 0 0 -88.78556288947766 -202.5659812154372 0 -202.5659812154372 888.27449487813283 0 0 0 0 -299.67857600121351 557.5056919560011 0 557.5056919560011 537.78425032924861 0 0 0 0 -1.2536180640343844 3.1507609549762208 0 3.1507609549762208 9.7682442854360829 0 0 0 0 -373.75861337414244 199.02716470144514 0 199.02716470144514 -215.77118427078312 0 0 0 0 -181.56421103457251 252.2738567081542 0 252.2738567081542 308.31928110144509 0 0 0 0 -188.45682273292095 137.03316369838103 0 137.03316369838103 169.00218262660201 0 0 0 0 -223.45952623712947 397.17681942717172 0 397.17681942717172 119.93820726327249 0 0 0 0 -435.69832585265249 146.35346028897038 0 146.35346028897038 -9.6364696396267391 0 0 0 0 -776.10512262516932 112.65437632893008 0 112.65437632893008 31.286839703985606 0 0 0 0 -276.703851193216 125.38588247946973 0 125.38588247946973 -158.91267716392758 0 0 0 0 -471.72135532627181 196.38816921848775 0 196.38816921848775 -33.29092415382911 0 0 0 0 -1240.1501082886971 -39.191719986782118 0 -39.191719986782118 13.049058491611504 0 0 0 0 -520.40520455524529 352.09461558342446 0 352.09461558342446 -0.31924017496002233 0 0 0 0 -204.45118160004131 416.16333647312058 0 416.16333647312058 93.398394592048135 0 0 0 0 -312.21157301907078 112.60028007126675 0 112.60028007126675 5.1571644728101091 0 0 0 0 68.358492908744665 349.64948917465517 0 349.64948917465517 0.11564431295846589 0 0 0 0 227.21631555208478 57.918865807223483 0 57.918865807223483 249.56219618095201 0 0 0 0 418.187866848064 521.75737005427072 0 521.75737005427072 133.75473331243847 0 0 0 0 55.130389519421442 288.66368169447378 0 288.66368169447378 8.3669062560657039 0 0 0 0 80.876832086236391 320.67682703377795 0 320.67682703377795 13.951623285305686 0 0 0 0 16.484214297197468 358.49569323379546 0 358.49569323379546 46.383490587744745 0 0 0 0 -38.967308438332111 265.26441211134079 0 265.26441211134079 51.34841450874228 0 0 0 0 -155.67366012861021 326.07446398664615 0 326.07446398664615 68.70768531280919 0 0 0 0 85.499743798536656 202.77423736441051 0 202.77423736441051 -103.28880309764645 0 0 0 0 50.909486214070057 289.58006630804448 0 289.58006630804448 8.3245431517425459 0 0 0 0 58.161335384749691 174.83653883829538 0 174.83653883829538 -56.573467097608955 0 0 0 0 17.921191716148314 34.09158030578692 0 34.09158030578692 -121.89413121461985 0 0 0 0 42.081749457138358 91.833535600933828 0 91.833535600933828 -84.197441485492163 0 0 0 0 -16.151253789148541 53.363358123959188 0 53.363358123959188 -122.98467305969098 0 0 0 0 34.396703588674427 44.940752145368606 0 44.940752145368606 -132.29888565083093 0 0 0 0 7.3853209744556807 39.381797898211516 0 39.381797898211516 -27.694243388861651 0 0 0 0 0.10398695562616922 35.900083309883485 0 35.900083309883485 -129.47748215563479 0 0 0 0 -0.88495917379918865 5.5953664622309702 0 5.5953664622309702 -13.403635594885159 0 0 0 0 6.0413196638401132 24.818397185299546 0 24.818397185299546 10.441095401147322 0 0 0 0 22.224532254374935 45.601914097380359 0 45.601914097380359 -47.243352812540252 0 0 0 0 4.6513644242651822 9.368269311669394 0 9.368269311669394 1.7922497748944011 0 0 0 0 31.547210152639309 54.536063558247406 0 54.536063558247406 -38.711936794599751 0 0 0 0 42.218715079608955 49.288590919939452 0 49.288590919939452 -88.275992662383942 0 0 0 0 258.33377188526356 29.428240560839185 0 29.428240560839185 -131.19532592699397 0 0 0 0 284.4934972152987 304.84254538320238 0 304.84254538320238 -52.590896530411555 0 0 0 0 489.44382317947156 -34.678211758705402 0 -34.678211758705402 -89.765536903694738 0 0 0 0 0.60869055548414508 4.0818757272212451 0 4.0818757272212451 3.5817835669609508 0 0 0 0 64.8847951732605 212.23754288865894 0 212.23754288865894 490.1190257583512 0 0 0 0 330.707131843963 211.59790017153136 0 211.59790017153136 -0.059843568989890628 0 0 0 0 562.74353192889248 344.66849816557806 0 344.66849816557806 73.807879261759808 0 0 0 0 227.56692113914323 327.00083886430366 0 327.00083886430366 169.99800459266407 0 0 0 0 132.18057351725292 179.60826834972249 0 179.60826834972249 -8.0681171158503275 0 0 0 0 32.001406435965691 53.278268982101508 0 53.278268982101508 23.362691448186524 0 0 0 0 21.301077736425214 108.97658813546877 0 108.97658813546877 177.91819859168118 0 0 0 0 -6.7046418445679592 35.977135148074012 0 35.977135148074012 87.793728588410886 0 0 0 0 47.541533262250596 49.652324729438988 0 49.652324729438988 13.274001585203223 0 0 0 0 -118.26111132282676 65.152912271005334 0 65.152912271005334 -14.210771244572243 0 0 0 0 23.741219213727163 14.066234183905181 0 14.066234183905181 1.6317488831700757 0 0 0 0 4.0064339292423341 0.76548005251675733 0 0.76548005251675733 -1.0553328561130115 0 0 0 0 6.2126105014322093 35.641561001786613 0 35.641561001786613 34.213508701242972 0 0 0 0 33.875254749109445 39.739986199463601 0 39.739986199463601 -8.8347525721692364 0 0 0 0 0.53946165158413351 132.47594506290625 0 132.47594506290625 -79.067055272855214 0 0 0 0 -119.75298076443869 178.65182433159498 0 178.65182433159498 38.861481803440256 0 0 0 0 1.3981806656665867 110.19829865993233 0 110.19829865993233 113.86282700038282 0 0 0 0 15.028112338928622 148.77644801681163 0 148.77644801681163 0.098573169481824152 0 0 0 0 -95.769833010897855 161.00444547411462 0 161.00444547411462 0.0042615630954969674 0 0 0 0 -103.59262995983045 127.28961104359405 0 127.28961104359405 -52.668166512070457 0 0 0 0 -68.155022245278815 137.81024947803235 0 137.81024947803235 -74.728312429535436 0 0 0 0 -55.785135046317009 145.37404925574083 0 145.37404925574083 -70.105235466638987 0 0 0 0 -42.673191033667536 92.645217219062033 0 92.645217219062033 -44.424145482174936 0 0 0 0 -38.594875833154219 108.35791852620241 0 108.35791852620241 -53.221007023414131 0 0 0 0 3.9628572103681847 15.657889233901187 0 15.657889233901187 13.939011730895388 0 0 0 0 -23.11636404292949 102.25375183450524 0 102.25375183450524 -61.738043596822536 0 0 0 0 16.361262679376523 -19.021608745373669 0 -19.021608745373669 36.668357664166251 0 0 0 0 -23.0361491786025 15.615628369880142 0 15.615628369880142 -42.661224163828592 0 0 0 0 1.5079081638488674 2.6922913856929824 0 2.6922913856929824 -2.6339238157793829 0 0 0 0 3.8643714135396294 6.3944619112880901 0 6.3944619112880901 12.311663640663028 0 0 0 0 -2.4866243466967717 21.255366362282075 0 21.255366362282075 -5.8059325125650503 0 0 0 0 7.7377286367321574 15.650120572449111 0 15.650120572449111 -24.195879889391506 0 0 0 0 1.7680920314749642 11.830561230484534 0 11.830561230484534 0.66158325916518379 0 0 0 0 12.310632003949848 25.516180850772848 0 25.516180850772848 1.517740338964586 0 0 0 0 -183.59367412039137 0.2259311739471741 0 0.2259311739471741 -111.7147252970517 0 0 0 0 6.1869658116764583 21.690597360058746 0 21.690597360058746 -5.5438313036044633 0 0 0 0 0.78371019678888842 16.437349510146305 0 16.437349510146305 -19.62028728669975 0 0 0 0 -0.22360932061212679 45.196697174901431 0 45.196697174901431 1.7148402782921899 0 0 0 0 2.102002036444901 29.538678915319906 0 29.538678915319906 -204.36868121736916 0 0 0 0 8.4774160907444269 17.494433064223898 0 17.494433064223898 -56.079013190260923 0 0 0 0 -23.23690044567411 33.856798249766143 0 33.856798249766143 -118.2831186990079 0 0 0 0 1.9624526709002765 26.396968895557691 0 26.396968895557691 -62.81741524495402 0 0 0 0 19.993319960980443 34.425959072057594 0 34.425959072057594 -33.450345892924815 0 0 0 0 1.0663325959509109 25.408053090096132 0 25.408053090096132 -32.586961028946504 0 0 0 0 -133.68746388418367 137.08344886128907 0 137.08344886128907 6.8257579222190543 0 0 0 0 400.966307488241 177.58523180357588 0 177.58523180357588 -811.38931853849499 0 0 0 0 17.541442706543279 54.891624171975536 0 54.891624171975536 31.663523996516489 0 0 0 0 0.75225609385395842 5.6806379944673608 0 5.6806379944673608 0.51481685309829572 0 0 0 0 -438.03086960653309 -614.72442011436215 0 -614.72442011436215 -70.263557629863499 0 0 0 0 710.64387604594231 -424.25531799308374 0 -424.25531799308374 -586.92981933505507 0 0 0 0 -474.88002931849041 -268.64557219926792 0 -268.64557219926792 -475.56595288016251 0 0 0 0 -170.6561673085962 80.909281199885299 0 80.909281199885299 -260.04531239363132 0 0 0 0 167.06452473856007 242.61444859134645 0 242.61444859134645 466.36206872889306 0 0 0 0 -41.796725738709029 166.63966709485976 0 166.63966709485976 724.62508040832472 0 0 0 0 -14.994068807361998 20.291598201120422 0 20.291598201120422 14.477038457106687 0 0 0 0 27.421828623238071 23.567665088188733 0 23.567665088188733 258.6696822118829 0 0 0 0 -334.08989931144606 256.07772201394255 0 256.07772201394255 907.39914940010931 0 0 0 0 -7.3341165788481533 5.380955071866083 0 5.380955071866083 4.3467567126496078 0 0 0 0 0.11049801652859514 0.83063923757816838 0 0.83063923757816838 5.3137869698613258 0 0 0 0 78.370064921709854 52.879583150395774 0 52.879583150395774 43.670219280749734 0 0 0 0 38.456143733077624 494.74063111887153 0 494.74063111887153 378.31379270364414 0 0 0 0 -45.577779000670489 411.22716663775645 0 411.22716663775645 1088.5803156049515 0 0 0 0 79.110044043656671 378.5836145147041 0 378.5836145147041 700.32955998726175 0 0 0 0 -120.94180540366779 456.39703829532664 0 456.39703829532664 1661.4567444541899 0 0 0 0 -85.768489458532713 7.3706076192465844 0 7.3706076192465844 1063.0592501411884 0 0 0 0 66.666337438629853 368.22645605637808 0 368.22645605637808 1775.6955192818568 0 0 0 0 480.94587616468198 1657.0621182561154 0 1657.0621182561154 2166.8823934997054 0 0 0 0 -132.01535221851736 -76.997949643642642 0 -76.997949643642642 2852.5539663082745 0 0 0 0 -817.1763452223895 180.60178749641636 0 180.60178749641636 140.30278073341469 0 0 0 0 -1401.7452365571771 -231.71829072391847 0 -231.71829072391847 182.33806697424734 0 0 0 0 -13.513843103377084 19.157742534456418 0 19.157742534456418 13.318412656449766 0 0 0 0 65.018688459331315 -10.84866963251261 0 -10.84866963251261 56.87969694397907 0 0 0 0 25.916033455410798 185.66056105810276 0 185.66056105810276 -204.87978111831762 0 0 0 0 -2763.8967818374949 -448.36758720580838 0 -448.36758720580838 83.680055925127817 0 0 0 0 -460.96824956082492 -171.71075348206068 0 -171.71075348206068 -101.57546354283113 0 0 0 0 -615.74868428768968 1889.718452390538 0 1889.718452390538 14.220951727213105 0 0 0 0 -4810.4184682936975 -149.36544875925756 0 -149.36544875925756 46.404768662032438 0 0 0 0 -6.8887197434302863 0.039109566166871446 0 0.039109566166871446 3.0681483863987182 0 0 0 0 783.42862959812555 15.887615584331797 0 15.887615584331797 683.94727508552023 0 0 0 0 486.1582940608132 53.522315107467875 0 53.522315107467875 1134.123509947196 0 0 0 0 -3.182332948075782 -357.74062070342188 0 -357.74062070342188 -897.38985937534017 0 0 0 0 3.9358223893502924 11.16551606701907 0 11.16551606701907 -13.78247473514395 0 0 0 0 316.50290472826782 295.32399764367437 0 295.32399764367437 864.78058130061254 0 0 0 0 -7.3786925147920357 -6.1796654262328445 0 -6.1796654262328445 16.454552323137193 0 0 0 0 214.79851567513106 317.33346415206324 0 317.33346415206324 1111.0573985507363 0 0 0 0 136.66347178967771 486.4206605587533 0 486.4206605587533 981.75271207088372 0 0 0 0 125.54342278936747 519.57049392595945 0 519.57049392595945 937.67518362986448 0 0 0 0 66.165925523707983 465.15223894075825 0 465.15223894075825 981.05641320953146 0 0 0 0 98.454763215675484 467.37524816583027 0 467.37524816583027 1068.9865236029291 0 0 0 0 71.028092087042751 515.97482478164602 0 515.97482478164602 1004.3842675678898 0 0 0 0 60.972737847449025 69.133491588581819 0 69.133491588581819 -532.12530133742257 0 0 0 0 -174.71531911546481 113.64944508374901 0 113.64944508374901 -338.64596554433228 0 0 0 0 -355.09309234110697 -175.78548949366086 0 -175.78548949366086 -291.0349617661559 0 0 0 0 -36.031647440106099 182.83666467502189 0 182.83666467502189 27.706331721215975 0 0 0 0 32.977330217181589 0.42631062630971428 0 0.42631062630971428 -530.88529535415 0 0 0 0 107.18141556589399 167.28058298872202 0 167.28058298872202 -199.90038768408704 0 0 0 0 118.92745239514625 65.627186387893744 0 65.627186387893744 154.00143633478729 0 0 0 0 263.94976925025549 193.60319739108672 0 193.60319739108672 0.12374633899889886 0 0 0 0 379.28650322469184 77.308078912668861 0 77.308078912668861 -170.96146996634343 0 0 0 0 215.29848806885275 -64.918243963751593 0 -64.918243963751593 -426.30411075858865 0 0 0 0 -51.514722387415532 -27.886961645519477 0 -27.886961645519477 -176.09168100898387 0 0 0 0 183.40461228463755 27.604084401831642 0 27.604084401831642 -163.60770276997937 0 0 0 0 173.20691719364549 41.244149355683476 0 41.244149355683476 -178.64556802879088 0 0 0 0 236.6630832310766 126.36294742155587 0 126.36294742155587 -109.89675476483535 0 0 0 0 261.57294663561333 -27.433420233428478 0 -27.433420233428478 -303.33066694827721 0 0 0 0 175.34366304628929 38.045972940453794 0 38.045972940453794 -132.62942812929396 0 0 0 0 288.98289242885949 -18.067139220365789 0 -18.067139220365789 -156.09511022927472 0 0 0 0 326.55788005099748 128.08231624116888 0 128.08231624116888 -126.45532987290062 0 0 0 0 258.75981990872242 112.38504196610302 0 112.38504196610302 -64.672690218198113 0 0 0 0 279.88111197716353 174.51309991307789 0 174.51309991307789 -49.822624551248737 0 0 0 0 174.1637338486762 146.49200203112559 0 146.49200203112559 -53.682356482138857 0 0 0 0 355.8791818284808 242.07954728099867 0 242.07954728099867 -44.921481312485412 0 0 0 0 392.57433481971384 242.95164539129473 0 242.95164539129473 -2.2202238191384822 0 0 0 0 419.46222805543221 244.16540748567786 0 244.16540748567786 -36.348772211800679 0 0 0 0 478.30632779633743 380.30226108428906 0 380.30226108428906 32.84604239219334 0 0 0 0 594.42935515000136 268.71365408675047 0 268.71365408675047 -15.411677328345831 0 0 0 0 402.48529221444915 102.40011872583273 0 102.40011872583273 -82.207411609357223 0 0 0 0 350.32816462997289 154.8306790975621 0 154.8306790975621 6.8657889726455323 0 0 0 0 558.86234079813585 123.67442756908713 0 123.67442756908713 3.0502947769127786 0 0 0 0 527.30891386156145 57.485058047750499 0 57.485058047750499 207.3175700965221 0 0 0 0 323.5405905077132 80.452049257437466 0 80.452049257437466 205.89785994269187 0 0 0 0 851.99480774302356 157.15840972863953 0 157.15840972863953 111.38594898709562 0 0 0 0 506.24208984897268 257.32036408729618 0 257.32036408729618 78.781754216179252 0 0 0 0 700.78892141443794 333.90155634845723 0 333.90155634845723 14.515762618044391 0 0 0 0 545.21565339545486 230.50682910456089 0 230.50682910456089 96.375086860614829 0 0 0 0 344.72541197246755 539.09692625986645 0 539.09692625986645 229.77380475902464 0 0 0 0 -6.430158346553327 5.052316987987453 0 5.052316987987453 -2.7521019447929973 0 0 0 0 644.16805304263835 411.50970452660113 0 411.50970452660113 75.156499335484114 0 0 0 0 -49.298503410107841 49.986509015915388 0 49.986509015915388 -50.760910662783772 0 0 0 0 758.72048947965959 825.0111886318773 0 825.0111886318773 -1142.0759514057718 0 0 0 0 -185.44706465238414 338.92504993600596 0 338.92504993600596 500.81000483137905 0 0 0 0 -38.407218448494859 -195.67065326280135 0 -195.67065326280135 634.23894353440846 0 0 0 0 360.35395378984686 501.27843821850547 0 501.27843821850547 124.34378932148684 0 0 0 0 482.61562788073206 487.59771167355939 0 487.59771167355939 79.453352668322623 0 0 0 0 436.65193184049713 372.55065016610752 0 372.55065016610752 38.36180194071494 0 0 0 0 489.81843408173881 369.58132213237695 0 369.58132213237695 21.461205882369541 0 0 0 0 -188.20694522692065 409.43978383879585 0 409.43978383879585 278.22036887969443 0 0 0 0 94.048637847110513 469.65904719009995 0 469.65904719009995 447.72133004757052 0 0 0 0 29.704733106686035 233.64842179790139 0 233.64842179790139 540.4013507036143 0 0 0 0 93.275929864714271 243.19604859294486 0 243.19604859294486 155.31077236286364 0 0 0 0 155.86534267506795 270.8269243859686 0 270.8269243859686 61.621222994013806 0 0 0 0 269.52546864369651 293.4881596416817 0 293.4881596416817 20.857265962244128 0 0 0 0 329.36283890779305 356.86458104176563 0 356.86458104176563 42.908971145516261 0 0 0 0 196.52075562541722 450.4370452692383 0 450.4370452692383 193.58616944099776 0 0 0 0 224.32679742966866 435.35259434959153 0 435.35259434959153 175.56057283352129 0 0 0 0 205.12794571138511 402.27495270379586 0 402.27495270379586 131.64866842451738 0 0 0 0 143.49709064175113 357.86417755964794 0 357.86417755964794 187.83538557658903 0 0 0 0 111.85799444867007 292.82312946923776 0 292.82312946923776 111.86247509915847 0 0 0 0 101.06535397659172 358.67075958533678 0 358.67075958533678 323.94307728653075 0 0 0 0 105.89339683292201 280.76898375921883 0 280.76898375921883 133.33116282674018 0 0 0 0 61.873431843559956 204.54227129509673 0 204.54227129509673 74.636139877329697 0 0 0 0 125.24645410924859 176.51117987078032 0 176.51117987078032 -30.182245248695835 0 0 0 0 191.55026246471243 296.10484881707816 0 296.10484881707816 57.836291502811946 0 0 0 0 243.74233080928389 217.70689383620629 0 217.70689383620629 -26.800628149998374 0 0 0 0 67.618828653590754 134.01267781347269 0 134.01267781347269 -14.838038855559716 0 0 0 0 4.8137090922828065 23.690549973064691 0 23.690549973064691 -16.838770390185005 0 0 0 0 38.98380791839736 75.896617597929435 0 75.896617597929435 -116.41906151699368 0 0 0 0 25.241011804551817 145.33149666013196 0 145.33149666013196 694.56674513651524 0 0 0 0 176.2309860879468 17.043717469554394 0 17.043717469554394 -486.09889684266091 0 0 0 0 -6.0594613505527377 73.525216282025212 0 73.525216282025212 -28.393132318393327 0 0 0 0 44.848289873101749 135.32823560904944 0 135.32823560904944 43.753418899694225 0 0 0 0 69.082891732272401 228.31534716746683 0 228.31534716746683 172.2435740896035 0 0 0 0 77.076985640116618 157.54384855329408 0 157.54384855329408 -65.548445137217641 0 0 0 0 64.827716593704281 156.81803201701041 0 156.81803201701041 -93.18948952894425 0 0 0 0 58.855177658429966 70.105372188932961 0 70.105372188932961 -216.57401920726988 0 0 0 0 -315.18120639792323 20.22946337464964 0 20.22946337464964 -153.82086882053409 0 0 0 0 -27.523281955709535 -24.129907516711683 0 -24.129907516711683 -182.44966374954674 0 0 0 0 -67.201851951205754 109.47086384077556 0 109.47086384077556 -54.404373376062722 0 0 0 0 213.04402840383409 39.308906904581818 0 39.308906904581818 53.082920918706805 0 0 0 0 136.21049790435791 22.818405714526307 0 22.818405714526307 323.15405508736148 0 0 0 0 145.0911675591633 81.118148134148214 0 81.118148134148214 -40.826158284791745 0 0 0 0 142.70091263404174 146.28914596201503 0 146.28914596201503 83.856873312324751 0 0 0 0 177.16170799985412 119.25888869763003 0 119.25888869763003 -185.53186751055182 0 0 0 0 135.43816687099752 13.392278379265917 0 13.392278379265917 -256.24230522828293 0 0 0 0 250.8170584800464 74.71622998235398 0 74.71622998235398 -161.40520742698573 0 0 0 0 93.272068983955251 -51.342009028041502 0 -51.342009028041502 -331.77052250906127 0 0 0 0 52.245587736171728 152.94533224878251 0 152.94533224878251 -429.06126807400142 0 0 0 0 -164.90294648239069 171.03764019571827 0 171.03764019571827 -262.09594143484719 0 0 0 0 333.48220508976374 653.94199455832131 0 653.94199455832131 1291.9929899291892 0 0 0 0 -1.8480246444278094 0.14092847367362538 0 0.14092847367362538 7.5247286748024749 0 0 0 0 4.2097042198400914 18.772664480367212 0 18.772664480367212 -14.595798741581433 0 0 0 0 103.90962260043307 737.97602505216491 0 737.97602505216491 1741.6051242041867 0 0 0 0 71.719766560185235 -305.4577875060786 0 -305.4577875060786 -523.21688834382803 0 0 0 0 1.7000375532178964 -1.0865395171863952 0 -1.0865395171863952 -7.809581210696166 0 0 0 0 427.2749094903993 547.43331003043568 0 547.43331003043568 600.3608650751994 0 0 0 0 271.27806530649832 401.62322288256837 0 401.62322288256837 1143.4563710326911 0 0 0 0 282.88747095491271 313.61446094297571 0 313.61446094297571 796.47965504130116 0 0 0 0 340.83891958267759 873.14926943383398 0 873.14926943383398 1122.2915948330192 0 0 0 0 185.86721139964357 -154.20900031417841 0 -154.20900031417841 -584.30500890225085 0 0 0 0 147.44580905097246 -121.12432820796676 0 -121.12432820796676 -321.02848654310219 0 0 0 0 -226.36764320972725 -248.8122193137242 0 -248.8122193137242 -237.08972014463507 0 0 0 0 68.079638131224783 -148.52379725995706 0 -148.52379725995706 -280.86385851607338 0 0 0 0 -32.61837840527005 -37.0133810605912 0 -37.0133810605912 -113.18957585323369 0 0 0 0 -118.78783625323194 15.064790158670803 0 15.064790158670803 51.521356543627917 0 0 0 0 -181.32471393149945 351.89189635092953 0 351.89189635092953 -77.005818372563226 0 0 0 0 26.865880735595056 -849.8275881867994 0 -849.8275881867994 -1270.0444495149713 0 0 0 0 -42.071653422722463 57.411125503113681 0 57.411125503113681 -43.134213274211305 0 0 0 0 -24.09029219113798 30.066505430177131 0 30.066505430177131 49.987342443054786 0 0 0 0 -151.79299032513882 80.987060272989766 0 80.987060272989766 315.75023891100136 0 0 0 0 6.9999260034310282 209.02158361850888 0 209.02158361850888 25.056102196278516 0 0 0 0 184.42116966854314 249.24455286565444 0 249.24455286565444 -62.072297716484172 0 0 0 0 -148.63186018741544 35.358571744945948 0 35.358571744945948 3.7242284184612799 0 0 0 0 -176.18807621421001 45.03913268877659 0 45.03913268877659 35.907127976679476 0 0 0 0 -66.633557170257745 78.86524003023635 0 78.86524003023635 -20.132867364460338 0 0 0 0 -290.79240159149595 186.66729117538489 0 186.66729117538489 30.032843866152689 0 0 0 0 -13.213608205516177 32.806033233656564 0 32.806033233656564 55.994243864858902 0 0 0 0 -347.94367517004139 250.51119483128423 0 250.51119483128423 171.61780820676358 0 0 0 0 -162.56675655728031 34.638135303815943 0 34.638135303815943 -82.116452916729031 0 0 0 0 -186.243813447305 37.100067201594356 0 37.100067201594356 16.345581502129789 0 0 0 0 -39.038421519701501 67.979265629872501 0 67.979265629872501 13.920315713280331 0 0 0 0 30.105625490628881 105.72412124223774 0 105.72412124223774 57.115903210476972 0 0 0 0 -74.716944305426097 95.467167503891119 0 95.467167503891119 47.517417221384846 0 0 0 0 20.320276942498566 80.380446471515484 0 80.380446471515484 -60.472164447671034 0 0 0 0 -62.933096892971662 17.163129211839987 0 17.163129211839987 121.57878461638757 0 0 0 0 7.5554423239122741 40.645264512377821 0 40.645264512377821 -5.1479085054049136 0 0 0 0 70.299668852705508 64.444973200765162 0 64.444973200765162 26.233977204392431 0 0 0 0 227.36850892821894 229.56211938978231 0 229.56211938978231 158.01404073146841 0 0 0 0 295.2951141321264 345.74696429120377 0 345.74696429120377 313.3774038698466 0 0 0 0 395.63217945950964 386.2627236332919 0 386.2627236332919 211.17650881527516 0 0 0 0 -191.31034695623384 157.26514250967011 0 157.26514250967011 -308.14731655670766 0 0 0 0 370.00048413418335 620.90737900690146 0 620.90737900690146 153.05392725070124 0 0 0 0 -70.581712323910324 778.34965097192617 0 778.34965097192617 590.31825534155359 0 0 0 0 338.16131459265307 471.18242680610274 0 471.18242680610274 806.06340999132954 0 0 0 0 218.01396715452211 640.15820266761875 0 640.15820266761875 1046.3911339048063 0 0 0 0 265.18372865899437 509.55295165706775 0 509.55295165706775 490.55436732107773 0 0 0 0 165.48341475546476 392.61263148215949 0 392.61263148215949 973.11932465800783 0 0 0 0 325.53753634181703 690.03399114451895 0 690.03399114451895 660.06538438220741 0 0 0 0 188.59776686767145 512.71926082935533 0 512.71926082935533 649.02380520117003 0 0 0 0 165.45137967729534 429.48891166489921 0 429.48891166489921 598.25917407726229 0 0 0 0 122.27586847735984 411.35853930872327 0 411.35853930872327 502.98654805225669 0 0 0 0 290.18206761479814 514.39074692287249 0 514.39074692287249 347.27383335751074 0 0 0 0 309.58770456323691 564.47457384197332 0 564.47457384197332 475.98526276913981 0 0 0 0 458.85289099693546 602.34950001755351 0 602.34950001755351 381.00575730151832 0 0 0 0 225.50397212627468 598.48263609363494 0 598.48263609363494 766.78503238943813 0 0 0 0 -38.294790642383305 242.19002783417818 0 242.19002783417818 291.11789106251308 0 0 0 0 -434.54763331652794 424.05132591331494 0 424.05132591331494 951.07994244078873 0 0 0 0 -180.0809946298159 701.37135750746893 0 701.37135750746893 1324.9487894683843 0 0 0 0 -98.228068643262304 683.38361353018263 0 683.38361353018263 749.21577716995671 0 0 0 0 -221.1923493231825 1341.9338446533984 0 1341.9338446533984 1321.2688431619026 0 0 0 0 513.11276168819677 1090.7921930514203 0 1090.7921930514203 991.67073960279231 0 0 0 0 132.7747644410847 1165.0652954816178 0 1165.0652954816178 980.5409125166334 0 0 0 0 -266.4839142134806 582.71865010511829 0 582.71865010511829 1466.876703993541 0 0 0 0 -987.18375865963026 903.97189187492768 0 903.97189187492768 1664.6949220879178 0 0 0 0 -6.6665989307918956 17.333483786587767 0 17.333483786587767 45.566506295736303 0 0 0 0 -1251.7439342123689 69.868025802687043 0 69.868025802687043 1255.4086841002572 0 0 0 0 -378.35391462446569 85.950663041498046 0 85.950663041498046 -279.92697660498379 0 0 0 0 1078.6571594861016 702.98274147872144 0 702.98274147872144 357.98427887203434 0 0 0 0 710.39718740538683 789.84255008301625 0 789.84255008301625 384.43500726536149 0 0 0 0 2606.8715617304297 1101.0669253177839 0 1101.0669253177839 299.0655908978224 0 0 0 0 -3.5692849260193 13.634640989070714 0 13.634640989070714 29.066976519897651 0 0 0 0 -1132.0721649415791 -423.73720922011125 0 -423.73720922011125 -137.17062243253167 0 0 0 0 31.601273280481109 197.85385871184553 0 197.85385871184553 -686.9330536487978 0 0 0 0 1511.9784415989707 1290.5834468818648 0 1290.5834468818648 568.72998777913745 0 0 0 0 1251.4519597694216 1805.0992726715813 0 1805.0992726715813 362.84242627568892 0 0 0 0 1198.5561109648315 1212.4791588875742 0 1212.4791588875742 958.5939164403535 0 0 0 0 4830.865127649131 1285.8781241101133 0 1285.8781241101133 -67.576130230096169 0 0 0 0 2.1430814159636924 4.1784967823945571 0 4.1784967823945571 8.1213286984635147 0 0 0 0 2230.3980139099367 2304.5907310857147 0 2304.5907310857147 0.23984743951587006 0 0 0 0 -399.2566586873254 567.16803106742736 0 567.16803106742736 892.32886260744999 0 0 0 0 -2116.5898017310792 1838.1258665642818 0 1838.1258665642818 1191.406379798791 0 0 0 0 926.36623043945656 1670.3584615374712 0 1670.3584615374712 422.64338371119811 0 0 0 0 -1767.7372592727515 2901.2614477781462 0 2901.2614477781462 1.6921049557422521 0 0 0 0 -2411.1754329344849 -253.04378653865479 0 -253.04378653865479 636.1521723393671 0 0 0 0 -11.061598596886029 7.553638203343553 0 7.553638203343553 -6.1539377438677434 0 0 0 0 -7.4365593799011549 29.238065285113407 0 29.238065285113407 0.028752596959571986 0 0 0 0 -27.312785863674435 19.427122690511169 0 19.427122690511169 6.8962529934069607 0 0 0 0 -32.01234188045828 28.872961643235612 0 28.872961643235612 -7.2439701938419603 0 0 0 0 -47.830357728174022 29.061008246484562 0 29.061008246484562 -0.02053222429822199 0 0 0 0 1210.9690808717642 1143.2398724392697 0 1143.2398724392697 572.95227593791788 0 0 0 0 -37.103305339016515 34.792597282168572 0 34.792597282168572 6.8962529933982077 0 0 0 0 -12.183354056094753 12.957022144347889 0 12.957022144347889 0.67976493771442392 0 0 0 0 -41.802861355802634 44.238436234882101 0 44.238436234882101 -7.2439701938710641 0 0 0 0 -10.52837574398707 13.750636312537608 0 13.750636312537608 -2.424891824195754 0 0 0 0 75.803776221266162 149.01205023787043 0 149.01205023787043 272.88058447006915 0 0 0 0 -31.215451302236332 24.947133288590237 0 24.947133288590237 -13.797558908839505 0 0 0 0 -160.18390343769352 880.60313979443163 0 880.60313979443163 1298.1765787566546 0 0 0 0 -313.59026155426545 678.76914613286499 0 678.76914613286499 1245.1635526775644 0 0 0 0 424.02316393917863 125.11086684126349 0 125.11086684126349 1705.9142378038596 0 0 0 0 -283.79090821905993 958.01178700798482 0 958.01178700798482 2387.8711138966319 0 0 0 0 20.946657838348983 686.89642971126887 0 686.89642971126887 2449.3883101454558 0 0 0 0 602.9242161285365 1035.6115560446633 0 1035.6115560446633 1548.879171093693 0 0 0 0 46.907541857111937 694.53906487095082 0 694.53906487095082 1400.4230114798702 0 0 0 0 166.21435683492018 718.03343681810657 0 718.03343681810657 1107.9566425280909 0 0 0 0 -69.473015753319487 499.29918111984443 0 499.29918111984443 932.29008791784145 0 0 0 0 -71.153303311486525 346.96664032098488 0 346.96664032098488 1346.1881697642966 0 0 0 0 -266.15752311640699 584.73894294888578 0 584.73894294888578 1458.1659894298355 0 0 0 0 389.62491335354571 1274.5728761043888 0 1274.5728761043888 1892.6284239454981 0 0 0 0 -51.580769169283954 47.655284676269986 0 47.655284676269986 -36.409991684322222 0 0 0 0 217.68522156571635 978.99753233545198 0 978.99753233545198 1569.7451655826608 0 0 0 0 358.67580204616206 880.25471171471145 0 880.25471171471145 1600.6553766690049 0 0 0 0 119.3325472226943 651.53684740200333 0 651.53684740200333 1481.9370351971156 0 0 0 0 -45.20353239036632 40.104551143034911 0 40.104551143034911 -27.252049265410733 0 0 0 0 214.85675637829246 111.07352259983963 0 111.07352259983963 -121.40880619134987 0 0 0 0 312.72343959250702 218.48901006707456 0 218.48901006707456 58.343953567091376 0 0 0 0 328.12229191569509 268.81420846031688 0 268.81420846031688 -223.45722849866434 0 0 0 0 998.44334600929051 -65.529391922362265 0 -65.529391922362265 -93.421381875399675 0 0 0 0 -2.358984564739206 0.77901530536541941 0 0.77901530536541941 5.0440212180783419 0 0 0 0 119.69412662417903 620.07718330777789 0 620.07718330777789 -0.062155364314094186 0 0 0 0 -0.20094106237758491 -1.9108947468115893 0 -1.9108947468115893 -0.27626620952838721 0 0 0 0 -608.97029940638731 696.93635110722244 0 696.93635110722244 0.65380348918552045 0 0 0 0 -1401.9944563058098 317.60748809170036 0 317.60748809170036 394.29566089452419 0 0 0 0 227.5579644569375 365.14032460266026 0 365.14032460266026 -145.50006785195728 0 0 0 0 -806.27067734410127 205.65698036409594 0 205.65698036409594 149.19320352339128 0 0 0 0 -797.78220041919485 752.12425422264641 0 752.12425422264641 -93.821753637399524 0 0 0 0 -922.43734558023061 715.32694510303554 0 715.32694510303554 0.0098846823384519666 0 0 0 0 -676.52662330206977 565.25298910302809 0 565.25298910302809 28.991338070569327 0 0 0 0 -1060.9822014918827 693.3049911744165 0 693.3049911744165 131.81719781174615 0 0 0 0 -974.63984079412398 974.59386533253746 0 974.59386533253746 -266.07106422517973 0 0 0 0 -567.86850569560556 813.42906661481538 0 813.42906661481538 -389.29650604100607 0 0 0 0 -1521.6003132658836 757.85947556461906 0 757.85947556461906 -344.43466592719778 0 0 0 0 -1046.0227449382933 935.59452305098966 0 935.59452305098966 -289.98243784873921 0 0 0 0 -1005.6818234768061 1372.6543847294379 0 1372.6543847294379 -1092.7043633171997 0 0 0 0 -823.53836360086734 1646.1586219159653 0 1646.1586219159653 -2725.974820634714 0 0 0 0 -11.213247835500738 12.069689417251141 0 12.069689417251141 -0.79279830414084884 0 0 0 0 -193.9499403962709 549.54089852413745 0 549.54089852413745 -1460.6221212538949 0 0 0 0 -135.06840260978515 204.50663749844443 0 204.50663749844443 -556.33091495800181 0 0 0 0 -0.97242859975275442 -0.40979837872157177 0 -0.40979837872157177 0.018731809331825389 0 0 0 0 181.45402646838625 638.69361120932444 0 638.69361120932444 291.12127639889513 0 0 0 0 -1324.0711703883305 574.64465573892812 0 574.64465573892812 -387.56823744421126 0 0 0 0 -1834.5074845286881 1251.8296257066831 0 1251.8296257066831 -613.58657454614877 0 0 0 0 -1467.3751460703672 419.4485731714085 0 419.4485731714085 -449.51575436352869 0 0 0 0 -2832.2101186738428 1481.8873445712379 0 1481.8873445712379 -340.49795013625408 0 0 0 0 -2084.0427292777522 574.68920674331457 0 574.68920674331457 -18.88601521027158 0 0 0 0 -115.6951583310688 -246.25684255889792 0 -246.25684255889792 1168.7137751633418 0 0 0 0 -290.93499408370917 234.62154529855616 0 234.62154529855616 5913.299534516409 0 0 0 0 -7.1046861491912878 10.403225729132544 0 10.403225729132544 7.8484914736355478 0 0 0 0 262.79435466184896 1980.7537974216284 0 1980.7537974216284 4810.8412991758523 0 0 0 0 -1828.2349093768426 1255.3521970433067 0 1255.3521970433067 -123.62197220185772 0 0 0 0 -1417.4075333719702 3667.9694095582381 0 3667.9694095582381 -1626.4171310434467 0 0 0 0 -1558.3492895679628 1634.5316301580751 0 1634.5316301580751 -909.6188834849163 0 0 0 0 595.31449078221885 2723.1893547886575 0 2723.1893547886575 1181.5606376086507 0 0 0 0 -1471.7723391144427 2302.558427569762 0 2302.558427569762 1662.0380994892184 0 0 0 0 -1245.4612324258669 2361.6564195121391 0 2361.6564195121391 171.18580869624566 0 0 0 0 -1884.962226973862 1688.138429273371 0 1688.138429273371 -200.97130737340194 0 0 0 0 -50.791859792922935 55.155446903343801 0 55.155446903343801 -43.639494029598268 0 0 0 0 -377.21441637355383 2954.0269770440354 0 2954.0269770440354 3330.9314519451 0 0 0 0 -1765.6366532693173 1940.4079005893436 0 1940.4079005893436 -654.13095239340328 0 0 0 0 -1485.9289971118305 2861.3505946046498 0 2861.3505946046498 3329.5394685336505 0 0 0 0 -1906.6616170469479 1441.7588839746604 0 1441.7588839746604 2538.1895322152814 0 0 0 0 -753.02717289169777 -717.4710761509632 0 -717.4710761509632 822.5485225260345 0 0 0 0 -122.79650292527595 1438.7636432660292 0 1438.7636432660292 276.84822572598932 0 0 0 0 -34.841667024128448 61.050906843736811 0 61.050906843736811 -60.215998848433259 0 0 0 0 -329.84422091511078 2520.2158466709225 0 2520.2158466709225 2748.8944674723853 0 0 0 0 151.34904477735836 4030.8644988234155 0 4030.8644988234155 2758.745841009717 0 0 0 0 825.17402674303594 1705.8312517103477 0 1705.8312517103477 1036.3360854500497 0 0 0 0 -83.79160665463678 2020.3995568341779 0 2020.3995568341779 934.71325570624322 0 0 0 0 -20.822141190734328 2136.378425402414 0 2136.378425402414 -532.52461670065532 0 0 0 0 1445.599231842519 2509.8651737239561 0 2509.8651737239561 768.61751166157774 0 0 0 0 1122.5416960689295 2982.3250314250636 0 2982.3250314250636 1924.4232924214157 0 0 0 0 1138.0982709278796 2130.8282447333768 0 2130.8282447333768 116.43048798514064 0 0 0 0 394.95775621243047 1863.9389924897987 0 1863.9389924897987 909.76591657880999 0 0 0 0 684.75525410801652 1412.9439240340798 0 1412.9439240340798 -1124.0114359175495 0 0 0 0 130.01763201185827 1248.5952433723869 0 1248.5952433723869 122.66596897686179 0 0 0 0 -345.54772799554848 1617.7678912962292 0 1617.7678912962292 -379.28704243057291 0 0 0 0 592.40452402350002 1734.4164552463481 0 1734.4164552463481 -506.67879788260325 0 0 0 0 208.43736436550898 1586.0157892809511 0 1586.0157892809511 -349.41511234313657 0 0 0 0 389.69967445836301 1012.8253417013038 0 1012.8253417013038 -1016.5184174229798 0 0 0 0 248.40511104194138 1405.3157382254976 0 1405.3157382254976 -1389.5772422626615 0 0 0 0 88.581443413713714 1225.2256492685701 0 1225.2256492685701 -1258.6234432997881 0 0 0 0 -417.04337181715528 1552.6393547330226 0 1552.6393547330226 -1508.9015723054545 0 0 0 0 -431.15564258233644 1949.9763474994397 0 1949.9763474994397 -1618.8785456079058 0 0 0 0 58.507966654753545 1403.1874388951692 0 1403.1874388951692 -2256.2026766415802 0 0 0 0 -588.95465650982806 2021.4257435214531 0 2021.4257435214531 -2644.0063074878417 0 0 0 0 -1087.8997796925469 1878.2701635946869 0 1878.2701635946869 -658.60960800110479 0 0 0 0 -2858.3286025957605 2158.5829655533453 0 2158.5829655533453 -304.36986921884818 0 0 0 0 -1262.5532904504907 2307.3004614920574 0 2307.3004614920574 -1696.4319680141634 0 0 0 0 -1484.6230845790487 2036.3091342216358 0 2036.3091342216358 -1573.523403115425 0 0 0 0 -1901.821492825773 2715.8462675534829 0 2715.8462675534829 -2679.6075520922896 0 0 0 0 -4189.355208281253 2945.6621210812882 0 2945.6621210812882 -2426.0369203783048 0 0 0 0 -2341.4124119669577 1955.8947375739008 0 1955.8947375739008 -1896.0479292228119 0 0 0 0 -4429.7705853282314 2825.1707033146085 0 2825.1707033146085 -1560.7242272561125 0 0 0 0 -4107.1155132442655 2143.2302972291072 0 2143.2302972291072 -2313.3749648100056 0 0 0 0 -4262.175389407188 2448.0366748279339 0 2448.0366748279339 -805.36112700005469 0 0 0 0 -2487.2772103654788 1677.2522034861613 0 1677.2522034861613 -477.69625091816124 0 0 0 0 -2492.6781143391581 2185.8795275545017 0 2185.8795275545017 273.10023312602425 0 0 0 0 -2808.5916857441189 1419.3921179263853 0 1419.3921179263853 551.97553977146163 0 0 0 0 -3715.142066616696 1962.6675084309827 0 1962.6675084309827 245.29703564444208 0 0 0 0 -2085.8221783989538 1542.3533100264904 0 1542.3533100264904 544.18838851395412 0 0 0 0 -2359.582107310116 1883.8955735509589 0 1883.8955735509589 788.64256228829618 0 0 0 0 -1640.9544952603464 1693.0918261632614 0 1693.0918261632614 550.34981344653352 0 0 0 0 -1138.1100442641 2197.7524775885686 0 2197.7524775885686 131.26349631644553 0 0 0 0 -102.12337677102732 2263.8064945133447 0 2263.8064945133447 560.66849872990861 0 0 0 0 -1218.4348535855534 2183.5077650260646 0 2183.5077650260646 790.61801713738532 0 0 0 0 -877.30106427835562 2230.5355576199072 0 2230.5355576199072 -759.36805686679872 0 0 0 0 -508.6364226531623 1651.4605557483737 0 1651.4605557483737 65.3009427835932 0 0 0 0 -1784.0711308177124 1983.3634405250923 0 1983.3634405250923 223.50290639087325 0 0 0 0 -1707.6315059987246 1883.8639180195751 0 1883.8639180195751 -252.89399366051657 0 0 0 0 96.295791066742822 669.17292950836418 0 669.17292950836418 1060.24316610393 0 0 0 0 261.14291623551981 442.63256653324061 0 442.63256653324061 976.19798511039698 0 0 0 0 24.029396850443575 19.418343082712227 0 19.418343082712227 -10.931532595245372 0 0 0 0 408.26018105540425 691.60600507946219 0 691.60600507946219 272.87846826019813 0 0 0 0 112.10290798142523 688.85936802731885 0 688.85936802731885 728.9448534999101 0 0 0 0 155.40643567506049 517.78951878934458 0 517.78951878934458 518.84153546634479 0 0 0 0 202.39609738003537 194.04448642251737 0 194.04448642251737 1005.5557615294238 0 0 0 0 -240.15226257611357 694.25708664440026 0 694.25708664440026 814.25887990344199 0 0 0 0 283.32622678848566 753.88943138011382 0 753.88943138011382 782.37008190099732 0 0 0 0 60.220400094156503 -17.64694180796505 0 -17.64694180796505 -236.00744289509021 0 0 0 0 63.138536396669224 126.31820866731869 0 126.31820866731869 -61.762279574089916 0 0 0 0 49.926005150322453 22.19289669682621 0 22.19289669682621 -92.110620760126039 0 0 0 0 5.5026915362839475 20.157772080359592 0 20.157772080359592 -37.069739247425048 0 0 0 0 2167.380910746906 1105.4236280139303 0 1105.4236280139303 -814.77088813434239 0 0 0 0 2259.6100595305325 1835.9126565249462 0 1835.9126565249462 -186.74338676934713 0 0 0 0 5.2548416757037231 40.38861966037355 0 40.38861966037355 -12.599389092182946 0 0 0 0 2132.7866110509985 1774.0463712262572 0 1774.0463712262572 207.80517488629266 0 0 0 0 1848.0085784407383 1905.4380804040993 0 1905.4380804040993 153.23977631195885 0 0 0 0 1104.2316518872676 1725.3290175613802 0 1725.3290175613802 1559.3878975402913 0 0 0 0 -11.452797710785905 66.368557164836602 0 66.368557164836602 -77.760415472712481 0 0 0 0 -315.99075010180604 173.79515212625847 0 173.79515212625847 -5.7471062295662705 0 0 0 0 9.3226256789081532 4.3716436452998977 0 4.3716436452998977 0.78205634429082238 0 0 0 0 -1.2549419887819795 45.769767947692202 0 45.769767947692202 -45.937169535157977 0 0 0 0 23.111062531344942 50.38203557181987 0 50.38203557181987 -6.3066880514961667 0 0 0 0 866.36147146705844 703.75434794293687 0 703.75434794293687 207.70166123032686 0 0 0 0 15.568748202102853 42.638549744064903 0 42.638549744064903 -52.119671266416759 0 0 0 0 594.44948424264294 399.02622745026019 0 399.02622745026019 666.70972789492225 0 0 0 0 386.71153513614263 1050.8133866111166 0 1050.8133866111166 -42.227767216128996 0 0 0 0 503.46130390789767 1125.9888108562009 0 1125.9888108562009 0.72166542508057319 0 0 0 0 757.54415934322606 630.22793883919076 0 630.22793883919076 -499.87633315146377 0 0 0 0 -139.14619421257521 992.22566418814677 0 992.22566418814677 344.26037974224892 0 0 0 0 -17.060609985688643 389.07058781933301 0 389.07058781933301 -374.32585310316063 0 0 0 0 271.05026832140356 -25.696168197391671 0 -25.696168197391671 -1250.3522429022414 0 0 0 0 360.06739654269768 846.48325423947244 0 846.48325423947244 -1061.8677121815635 0 0 0 0 270.20368935391798 955.629379983744 0 955.629379983744 407.54952952510212 0 0 0 0 -81.510104706840139 887.91301586195186 0 887.91301586195186 1309.8857766539149 0 0 0 0 -16.590006993113448 25.395629391823547 0 25.395629391823547 -2.6591086578783525 0 0 0 0 1073.2240531078241 628.68163847493997 0 628.68163847493997 522.49690302521776 0 0 0 0 -258.74631010580924 181.10135529266699 0 181.10135529266699 -362.32866274489788 0 0 0 0 -5.1140092314650865 7.1976538040800975 0 7.1976538040800975 -0.25336313919069653 0 0 0 0 -551.54438490283428 513.44211243592144 0 513.44211243592144 112.52457361909183 0 0 0 0 193.3266606718862 352.3538745359765 0 352.3538745359765 -969.09375274484046 0 0 0 0 -28.135923707646725 567.16955933810095 0 567.16955933810095 -506.38782216148684 0 0 0 0 -2.5400681401901437 32.225550791776413 0 32.225550791776413 -2.7917648719217425 0 0 0 0 218.47977601709135 656.68474034191604 0 656.68474034191604 -338.21406852587825 0 0 0 0 48.877270914599649 586.85848055583483 0 586.85848055583483 -107.26750303833978 0 0 0 0 296.65993486821208 672.34236950063132 0 672.34236950063132 -348.92424688953906 0 0 0 0 188.48120596060107 446.0067156314326 0 446.0067156314326 -438.79389705945505 0 0 0 0 389.02747512307235 591.44251355219149 0 591.44251355219149 217.80340276443167 0 0 0 0 224.86181280621531 841.23897179524647 0 841.23897179524647 -66.946596983565541 0 0 0 0 135.94741375897138 472.64547784782189 0 472.64547784782189 -59.496537695842562 0 0 0 0 -4.9765511283476371 740.63927697570762 0 740.63927697570762 358.73084557810216 0 0 0 0 -183.28630691685976 928.14175189765228 0 928.14175189765228 -426.44617893865507 0 0 0 0 -33.517493803046818 110.63202966928657 0 110.63202966928657 -1058.0451781014854 0 0 0 0 175.00080419552978 517.80625454540132 0 517.80625454540132 -1913.0390557709325 0 0 0 0 11.950913381471622 28.880839945713404 0 28.880839945713404 -3.2348224238288843 0 0 0 0 -3.0407155608845642 45.135056077677291 0 45.135056077677291 -13.35708239782798 0 0 0 0 -1.1967638410278596 44.294761649427528 0 44.294761649427528 -30.070824910566444 0 0 0 0 21.734394512328436 32.137107561793528 0 32.137107561793528 -37.94568902879837 0 0 0 0 24.823557182213335 13.951737070077797 0 13.951737070077797 -0.72310401918366551 0 0 0 0 46.266458680860524 39.730707308481215 0 39.730707308481215 -36.402637531078653 0 0 0 0 123.87324198857095 0.5998462845600443 0 0.5998462845600443 -34.998538974527037 0 0 0 0 -1.2486564896844818 -1.769306341042558 0 -1.769306341042558 -1.2196638232235841 0 0 0 0 11.271025374822784 49.507635626046977 0 49.507635626046977 -9.4772879955999088 0 0 0 0 12.896892281111832 53.046365559552214 0 53.046365559552214 -40.587339097459335 0 0 0 0 -283.13249232676026 266.85474759277713 0 266.85474759277713 -286.9789661802497 0 0 0 0 -29.192605489593916 143.37654135931371 0 143.37654135931371 -361.20713428384624 0 0 0 0 12.680326390487608 34.156852577085374 0 34.156852577085374 -30.872840312425978 0 0 0 0 -2.7155080826351536 4.9677396032687042 0 4.9677396032687042 -6.5098833867564281 0 0 0 0 -419.1512797146388 437.31788481412514 0 437.31788481412514 -214.52932911123571 0 0 0 0 -501.97529928655604 760.5969528046262 0 760.5969528046262 -675.53440799520286 0 0 0 0 -801.39670646882223 538.10555188524086 0 538.10555188524086 -203.19191850461357 0 0 0 0 -492.04387213617883 471.04217040244112 0 471.04217040244112 -225.67158809609828 0 0 0 0 -732.81478236952626 656.22455850197002 0 656.22455850197002 -0.21910259053402115 0 0 0 0 69.757335860307649 55.615134848274465 0 55.615134848274465 -39.632141978800064 0 0 0 0 -2.6182719730421908 -2.1075388152909369 0 -2.1075388152909369 0.98596095986448518 0 0 0 0 -903.16510600115726 516.20143848740554 0 516.20143848740554 -0.28508660425723065 0 0 0 0 46.051308851152498 120.10104239391148 0 120.10104239391148 0.078959486636449583 0 0 0 0 214.22631254637236 -25.177996459293354 0 -25.177996459293354 -19.15486255974065 0 0 0 0 -34.00685985560267 30.418949213515589 0 30.418949213515589 -26.54094115816406 0 0 0 0 -94.910995025100419 113.60388941928977 0 113.60388941928977 -9.1128928770285711 0 0 0 0 1.0742772083896739 1.2933934648641738 0 1.2933934648641738 6.3675189677691151 0 0 0 0 -141.21106889561634 105.58400459201948 0 105.58400459201948 -0.039887119361083023 0 0 0 0 1785.8378893043955 -142.89482018988929 0 -142.89482018988929 -242.83653017738834 0 0 0 0 278.80210515371436 798.72436855689011 0 798.72436855689011 0.72279115060722177 0 0 0 0 -323.86480921259135 226.9342468687646 0 226.9342468687646 -198.52094114362262 0 0 0 0 -475.11465254116047 832.38334418528757 0 832.38334418528757 -266.88231598548009 0 0 0 0 317.92293247184716 365.14128274151881 0 365.14128274151881 -226.33306562950065 0 0 0 0 207.07820976043149 238.06336046172146 0 238.06336046172146 -354.93679974637053 0 0 0 0 410.21088178448554 409.20926651213085 0 409.20926651213085 -496.36543776438339 0 0 0 0 2.1945627455531707 -0.51652922277258995 0 -0.51652922277258995 -8.9695822862989871 0 0 0 0 -294.8521403351051 -459.45449254277446 0 -459.45449254277446 -726.79984518737183 0 0 0 0 422.48631572424347 394.63819906111166 0 394.63819906111166 -508.45509406989004 0 0 0 0 420.68491917409847 401.00696833663096 0 401.00696833663096 -521.63864122735686 0 0 0 0 403.50095609177879 420.77855202697538 0 420.77855202697538 -516.14485747853178 0 0 0 0 635.96911321151129 326.81843557291722 0 326.81843557291722 -922.73696170316543 0 0 0 0 -156.37651411988918 652.87149383464566 0 652.87149383464566 -357.79308723058057 0 0 0 0 -24.967023803092161 78.033489201112388 0 78.033489201112388 -24.900084528955631 0 0 0 0 -308.56829943238699 835.45728415309713 0 835.45728415309713 -564.14636533969315 0 0 0 0 -202.79931738979212 23.66000181970594 0 23.66000181970594 28.949347438290715 0 0 0 0 7.5569109746898846 17.345483562111895 0 17.345483562111895 24.086903796072761 0 0 0 0 276.20491618131564 351.04698296956485 0 351.04698296956485 -166.05206903508224 0 0 0 0 751.69738880132354 175.59911069747614 0 175.59911069747614 -263.39444452665339 0 0 0 0 5.6958273969349875 8.5281667425259897 0 8.5281667425259897 14.53860325607576 0 0 0 0 325.845758823285 534.78303034229975 0 534.78303034229975 31.390085443475982 0 0 0 0 324.06220349017894 529.88547512050354 0 529.88547512050354 20.661105900871917 0 0 0 0 575.25029141147024 215.9453552498162 0 215.9453552498162 -101.08616889599944 0 0 0 0 -98.614731267967727 183.45937249423878 0 183.45937249423878 -75.519551116180082 0 0 0 0 -2.044810309249641 0.39594019283452297 0 0.39594019283452297 2.7580621184558822 0 0 0 0 -979.29439128795639 685.46390772794257 0 685.46390772794257 -20.009658843711009 0 0 0 0 -70.882220925559523 113.07015871055773 0 113.07015871055773 66.844393428502372 0 0 0 0 0.83130222156131595 1.4462620848618997 0 1.4462620848618997 -1.9600812874927556 0 0 0 0 -299.17614590867015 210.93050869695435 0 210.93050869695435 150.91074741340708 0 0 0 0 -557.37108109660039 578.60121377045289 0 578.60121377045289 -206.33239840909664 0 0 0 0 -163.2921175789379 439.2681737643652 0 439.2681737643652 -237.40737749109394 0 0 0 0 -3.2830615163402399 240.932011256431 0 240.932011256431 -285.86256305458301 0 0 0 0 90.806371011029114 241.51827112736646 0 241.51827112736646 -90.886675311325234 0 0 0 0 175.7282211538768 449.66309486938553 0 449.66309486938553 -130.12629784843011 0 0 0 0 128.53111246528715 174.39871039604623 0 174.39871039604623 -190.41396390802765 0 0 0 0 194.03001839667559 402.96110860550107 0 402.96110860550107 -33.762129435152019 0 0 0 0 176.93564708093436 259.70190636103143 0 259.70190636103143 -80.710955396658392 0 0 0 0 55.149458565869281 72.91821273702044 0 72.91821273702044 -47.441369937834679 0 0 0 0 117.01011470617959 264.92947194367298 0 264.92947194367298 -484.44233276759041 0 0 0 0 43.156945267561241 30.780773673737713 0 30.780773673737713 -135.72123973538692 0 0 0 0 -10.559588622112642 -88.339105299994117 0 -88.339105299994117 -232.89816938173317 0 0 0 0 -13.523890703679172 -148.63430817318385 0 -148.63430817318385 -973.12985933411983 0 0 0 0 -3.7914572110449569 6.6179034158640206 0 6.6179034158640206 -10.261488998717425 0 0 0 0 -68.244532734417589 486.94451810393366 0 486.94451810393366 -995.57454845390748 0 0 0 0 -546.78142955427029 -10.284146517886256 0 -10.284146517886256 -124.00271151599009 0 0 0 0 -5.6053691223605711 -15.245858736135233 0 -15.245858736135233 -136.55874314092216 0 0 0 0 91.649609455354948 -212.7849902689195 0 -212.7849902689195 214.68904264738376 0 0 0 0 2338.7690695809652 -261.6636811241915 0 -261.6636811241915 181.07946505004293 0 0 0 0 -239.65700821089558 225.49697630402807 0 225.49697630402807 247.22326804952172 0 0 0 0 -215.7913708271517 44.505051043015555 0 44.505051043015555 318.169720379723 0 0 0 0 -63.298226887260171 -236.05406199910431 0 -236.05406199910431 44.086766706575872 0 0 0 0 -18.122470758511156 18.391113517534393 0 18.391113517534393 -24.84507403259579 0 0 0 0 -183.5141593162607 134.42062667830396 0 134.42062667830396 8.1250872482196428 0 0 0 0 -197.53166518300714 306.37276057507552 0 306.37276057507552 -78.784794702980435 0 0 0 0 -16.779748037442374 44.571009238534884 0 44.571009238534884 -25.128544120635468 0 0 0 0 48.683948733545549 82.160593536027591 0 82.160593536027591 -41.358753860593424 0 0 0 0 445.26966221613111 142.25000333468779 0 142.25000333468779 -335.53606619291531 0 0 0 0 890.62284080015525 227.2872319921662 0 227.2872319921662 -444.68946271216555 0 0 0 0 -334.21935281137758 115.59291685689277 0 115.59291685689277 -164.92733948133537 0 0 0 0 248.48333643624937 415.269553055914 0 415.269553055914 -74.951869221949892 0 0 0 0 -519.4224697737227 982.57587545218121 0 982.57587545218121 -1045.9339918123587 0 0 0 0 206.15573499052198 116.94203418073766 0 116.94203418073766 -2919.8817039529968 0 0 0 0 -6.1931550616778281 10.616392707947398 0 10.616392707947398 6.6061426212096634 0 0 0 0 -182.82252543622599 -293.96724109478419 0 -293.96724109478419 -612.50133598331013 0 0 0 0 382.14372261686367 654.65233748548781 0 654.65233748548781 -1335.6195531755511 0 0 0 0 1355.5919925936469 -633.37157876174024 0 -633.37157876174024 -492.43657623499894 0 0 0 0 605.36451400302212 103.49246344513449 0 103.49246344513449 -145.80914145387942 0 0 0 0 -208.54302642030234 831.70681660808623 0 831.70681660808623 -596.32831167374025 0 0 0 0 -382.11599283987744 976.95634860263817 0 976.95634860263817 -580.4326967614179 0 0 0 0 0.35971870753419921 -1.2731847920941846 0 -1.2731847920941846 -4.970111117950978 0 0 0 0 133.33034460003546 592.02369454145082 0 592.02369454145082 525.69095847658173 0 0 0 0 59.573457786429572 963.10275764528342 0 963.10275764528342 1191.5894085787586 0 0 0 0 887.72412133143371 748.04626902131713 0 748.04626902131713 -623.31081065385843 0 0 0 0 594.44150875844571 1637.1109734882848 0 1637.1109734882848 1948.3176886389556 0 0 0 0 218.29112266514858 914.71942115969432 0 914.71942115969432 920.27505214352277 0 0 0 0 28.894236032865592 366.70110871785437 0 366.70110871785437 -996.33566349610919 0 0 0 0 -206.85634350230248 470.68747918406734 0 470.68747918406734 2585.2918953760818 0 0 0 0 2.3484898560908221 8.1543026570549273 0 8.1543026570549273 -1.8398435966759763 0 0 0 0 441.97920799795247 505.46846323026693 0 505.46846323026693 801.30773070365103 0 0 0 0 -136.30612326218397 747.36385745805455 0 747.36385745805455 1946.5017813159066 0 0 0 0 20.03772166599083 517.87287583530997 0 517.87287583530997 808.38015362314763 0 0 0 0 8.9869289871479339 15.378806887637438 0 15.378806887637438 -4.0775352308039601 0 0 0 0 -69.939084276050835 176.07840452797154 0 176.07840452797154 12.262873448518803 0 0 0 0 -379.43196567446745 -110.23152303165409 0 -110.23152303165409 -137.79664731147932 0 0 0 0 -285.72022229186405 28.304633492894936 0 28.304633492894936 63.707817350667028 0 0 0 0 -304.35765966209146 461.63222065764421 0 461.63222065764421 -59.291226862405892 0 0 0 0 -43.182584797347431 60.797935125531865 0 60.797935125531865 -43.318143798601966 0 0 0 0 -241.38619215397921 235.92911151034059 0 235.92911151034059 102.12414594442453 0 0 0 0 -350.66418269502174 202.20478739228565 0 202.20478739228565 96.148477570073737 0 0 0 0 -79.412861011411223 113.30247655638414 0 113.30247655638414 -309.68822618742706 0 0 0 0 -337.59041634613823 774.3605594803812 0 774.3605594803812 -172.04568528843811 0 0 0 0 -334.59671337004374 848.39910544411032 0 848.39910544411032 1466.5606430929038 0 0 0 0 -139.21919139863166 -152.57574373335228 0 -152.57574373335228 405.99513090527034 0 0 0 0 -130.466213750522 53.474603816124727 0 53.474603816124727 -70.671514891786501 0 0 0 0 -294.51695499058042 92.829737185042177 0 92.829737185042177 271.97453998727724 0 0 0 0 3240.4447046365967 1503.809333007448 0 1503.809333007448 -922.50339616922429 0 0 0 0 -112.05818398269184 89.471643655881053 0 89.471643655881053 1542.445694534068 0 0 0 0 3543.5791728995209 1441.9006831132792 0 1441.9006831132792 -2830.4406553506851 0 0 0 0 14.92812583234354 15.109163865071352 0 15.109163865071352 18.733425705384548 0 0 0 0 -989.43976934399689 -3175.5905215003295 0 -3175.5905215003295 955.78833013572148 0 0 0 0 207.75086356018437 -225.06741806829814 0 -225.06741806829814 86.969929653350846 0 0 0 0 4180.9045741466471 -51.028175982944958 0 -51.028175982944958 -145.62048964563292 0 0 0 0 2083.2888896656732 1980.472982670748 0 1980.472982670748 1828.2457485444902 0 0 0 0 -1736.5370979104609 763.86644772314503 0 763.86644772314503 717.00403614054085 0 0 0 0 -245.76184465941333 267.24560944702534 0 267.24560944702534 -97.803222988975904 0 0 0 0 10.930366452353226 44.681492456603053 0 44.681492456603053 30.059387625514432 0 0 0 0 424.93759595013398 -652.70619631132649 0 -652.70619631132649 -760.14551985461731 0 0 0 0 -1176.3514775704389 872.98581012767681 0 872.98581012767681 -236.35143336214242 0 0 0 0 -17.315885960169965 36.037535605891151 0 36.037535605891151 -25.79879229123776 0 0 0 0 417.63545730775513 -243.53319485207612 0 -243.53319485207612 -358.21584087457632 0 0 0 0 136.95176695883856 271.92515721058589 0 271.92515721058589 -293.05987162332167 0 0 0 0 760.91008956019505 573.07581129106984 0 573.07581129106984 144.52375582623063 0 0 0 0 160.59066824259935 -57.710436756591662 0 -57.710436756591662 124.24970893627324 0 0 0 0 1000.6338559868891 1047.5650574315659 0 1047.5650574315659 542.72005285837804 0 0 0 0 1823.9510096912636 -62.549869021408085 0 -62.549869021408085 -185.16031508459128 0 0 0 0 435.25298936338368 -470.05427742167376 0 -470.05427742167376 -492.15072262578178 0 0 0 0 902.22257303649531 55.39612248307094 0 55.39612248307094 -822.73194132349454 0 0 0 0 1514.4604709369014 -147.02674955235852 0 -147.02674955235852 -887.65769849109347 0 0 0 0 4.365875047044689 14.491882885907188 0 14.491882885907188 -13.66963197285736 0 0 0 0 -2935.7691051731454 1189.6853067835182 0 1189.6853067835182 907.42273170815315 0 0 0 0 990.08048889532802 802.61296417539415 0 802.61296417539415 -2129.0108016932209 0 0 0 0 -56.59479042525345 174.69430953303527 0 174.69430953303527 -941.8705861006747 0 0 0 0 896.62553789839694 887.97360631321135 0 887.97360631321135 9.17971707705874 0 0 0 0 -39.794681516647884 34.43183856854381 0 34.43183856854381 -24.37660956953124 0 0 0 0 -57.707234293393412 188.45008216398128 0 188.45008216398128 -488.0289433785656 0 0 0 0 2.6085574406417749 6.5047589364573497 0 6.5047589364573497 -7.8521271157292176 0 0 0 0 -468.33339103558683 174.63589291369135 0 174.63589291369135 -58.245240451044083 0 0 0 0 -467.60364915355842 367.34127238168514 0 367.34127238168514 -123.29709919897141 0 0 0 0 -344.9898607185969 352.92263948651089 0 352.92263948651089 -159.05506801226875 0 0 0 0 -390.61836649662547 590.17183441300904 0 590.17183441300904 -237.38021932792617 0 0 0 0 -898.05059176711802 196.18544006359298 0 196.18544006359298 -37.778755454775819 0 0 0 0 2.0344592509980686 3.3244783559377424 0 3.3244783559377424 -4.8232302708128714 0 0 0 0 -211.74797751902952 202.14288416644558 0 202.14288416644558 -580.54813502362231 0 0 0 0 -584.99823622329131 522.00456723425305 0 522.00456723425305 -261.63998738041846 0 0 0 0 -3.020896405359963 59.154760332923615 0 59.154760332923615 -166.55322787279147 0 0 0 0 11.824183314928504 33.681428285571258 0 33.681428285571258 -14.402903776629728 0 0 0 0 446.07169914952192 -468.14564742591756 0 -468.14564742591756 101.10068154215696 0 0 0 0 -27.055349025562464 223.40964042923588 0 223.40964042923588 -643.76408145821188 0 0 0 0 -373.03827330911736 426.34211104939459 0 426.34211104939459 -270.36813257340691 0 0 0 0 -281.88803402592021 515.16728755307122 0 515.16728755307122 -251.67995137683465 0 0 0 0 -172.8594940272742 159.21218748469983 0 159.21218748469983 -116.9222462241305 0 0 0 0 -172.8594940272742 159.21218748475076 0 159.21218748475076 -116.9222462240723 0 0 0 0 -172.85949402724509 159.212187484678 0 159.212187484678 -116.92224622395588 0 0 0 0 -285.02790907585586 203.27550988827716 0 203.27550988827716 101.62557243817719 0 0 0 0 97.581546209064527 54.055438110964786 0 54.055438110964786 9.3741185072124722 0 0 0 0 -262.5333068948421 425.50117789280739 0 425.50117789280739 8.1108649604720995 0 0 0 0 -82.50902498808864 421.50563840438554 0 421.50563840438554 -277.75041642447468 0 0 0 0 -70.903896685173095 211.06833947380801 0 211.06833947380801 461.70640073680261 0 0 0 0 -600.45169833391265 804.71444085922849 0 804.71444085922849 -514.15943681937642 0 0 0 0 -28.893291861044418 179.0206762025191 0 179.0206762025191 291.68816159942071 0 0 0 0 70.119040565970124 39.077416060309162 0 39.077416060309162 18.074126369194317 0 0 0 0 -1137.6515269101728 -209.94748449559847 0 -209.94748449559847 1691.2297626590444 0 0 0 0 192.57164798252052 618.72648095840123 0 618.72648095840123 2834.6096900497214 0 0 0 0 462.08779174166557 1035.3368857474998 0 1035.3368857474998 1010.6756906444862 0 0 0 0 -46.721706388343591 -94.438539434006088 0 -94.438539434006088 1238.9833357643802 0 0 0 0 29.047125196721368 15.833241604457527 0 15.833241604457527 6.2387273237816601 0 0 0 0 637.26520753905061 631.88223531462427 0 631.88223531462427 896.7757686649129 0 0 0 0 387.6411026110145 1079.4198953947434 0 1079.4198953947434 166.04138228754164 0 0 0 0 517.11139171045215 631.93403970368672 0 631.93403970368672 223.68979479715927 0 0 0 0 -3.0420614919862317 11.4728637314617 0 11.4728637314617 -17.438669355971911 0 0 0 0 265.69905373033544 877.32143304479541 0 877.32143304479541 178.45150984527208 0 0 0 0 752.1303459960327 -590.49191298414371 0 -590.49191298414371 -2343.1876840467739 0 0 0 0 169.34928699421289 795.59930946289387 0 795.59930946289387 -154.18885446442437 0 0 0 0 -70.56472487312567 1488.7077566458029 0 1488.7077566458029 -481.16379741513083 0 0 0 0 -83.646956544915156 897.06920153842657 0 897.06920153842657 78.675539286341518 0 0 0 0 76.069433231619769 595.53390492759354 0 595.53390492759354 627.43167062770226 0 0 0 0 74.815573175690133 652.27505974988094 0 652.27505974988094 -98.021939391823253 0 0 0 0 -93.388853558519259 782.52740050358989 0 782.52740050358989 -711.13189227736439 0 0 0 0 283.83677426684881 950.49998519434303 0 950.49998519434303 -680.69682597948668 0 0 0 0 -3.3070497689171248 5.1385124698505535 0 5.1385124698505535 10.368186013781099 0 0 0 0 -532.147973590123 450.82537029228843 0 450.82537029228843 -65.564782297646161 0 0 0 0 -715.85890404555539 709.59555603463377 0 709.59555603463377 -215.36686371109681 0 0 0 0 -200.56111138229153 450.53913275698073 0 450.53913275698073 -49.086759684083518 0 0 0 0 -516.94524026580075 582.82364165440958 0 582.82364165440958 -8.0487599441257771 0 0 0 0 148.29970170139131 1093.9633093753218 0 1093.9633093753218 -710.23843529695296 0 0 0 0 -283.31320726449485 265.86435605600127 0 265.86435605600127 -318.26270232588286 0 0 0 0 -236.98554403647722 134.30770485558605 0 134.30770485558605 945.48978890299168 0 0 0 0 -97.156755742093083 -159.68500996466901 0 -159.68500996466901 -700.13367756898515 0 0 0 0 486.25544311838166 394.97747993204393 0 394.97747993204393 -384.74816642483347 0 0 0 0 -27.473465021725531 12.166866514004141 0 12.166866514004141 -7.1462065016703917 0 0 0 0 -137.31285497747012 349.14887461723993 0 349.14887461723993 -1511.7685774502024 0 0 0 0 2779.7084323099116 975.06473836526857 0 975.06473836526857 2763.2862965177192 0 0 0 0 2.9249307262402624 13.782637558734848 0 13.782637558734848 0.99173155377120992 0 0 0 0 -874.31641714079888 5341.6463679645094 0 5341.6463679645094 5448.4392359892081 0 0 0 0 -396.18832066195318 207.16732712328667 0 207.16732712328667 -1395.1463188758062 0 0 0 0 -105.75794240100367 -58.666619111136242 0 -58.666619111136242 -1170.5658438426326 0 0 0 0 -296.23989675084158 369.39953541470459 0 369.39953541470459 -1136.6678353087045 0 0 0 0 11.570214285176917 728.60813230895292 0 728.60813230895292 -1507.4492119668284 0 0 0 0 -735.66057442508463 192.75766499586462 0 192.75766499586462 -1039.9662389082077 0 0 0 0 -192.3990564114938 1563.3844854757117 0 1563.3844854757117 -1604.4436292885221 0 0 0 0 -1114.8946484607586 718.70629644613655 0 718.70629644613655 -1062.2011383674326 0 0 0 0 -225.30699344276218 479.27534673485206 0 479.27534673485206 -999.17532647386543 0 0 0 0 903.49188828183833 1283.2826068865033 0 1283.2826068865033 -1754.8799394850794 0 0 0 0 -313.32728532512556 648.02725439483766 0 648.02725439483766 2838.1848698378017 0 0 0 0 34.375988951520412 591.6199490087165 0 591.6199490087165 -1368.488926101476 0 0 0 0 637.32001056626905 1134.7561940816231 0 1134.7561940816231 1857.6323539322475 0 0 0 0 -210.94498161667434 317.07363627791347 0 317.07363627791347 2374.7678730758635 0 0 0 0 97.025026243427419 121.93773284762574 0 121.93773284762574 -154.52924614743461 0 0 0 0 -222.82954250647072 -39.59693395027989 0 -39.59693395027989 -93.707958394385059 0 0 0 0 -0.64363388572573399 73.068220134470721 0 73.068220134470721 -63.17296836510809 0 0 0 0 -356.07269707046362 311.26742927804298 0 311.26742927804298 79.742552900181181 0 0 0 0 -84.8757705839962 83.15548962774119 0 83.15548962774119 -205.17220187010389 0 0 0 0 49.979592110074734 121.57340817554248 0 121.57340817554248 99.369270052693651 0 0 0 0 103.98508557319292 928.10036525715986 0 928.10036525715986 1007.1101228104671 0 0 0 0 -408.34962763988005 391.04036522304523 0 391.04036522304523 2671.2087403092373 0 0 0 0 2885.5294100814936 1798.5188607533782 0 1798.5188607533782 362.72292917972663 0 0 0 0 17.222283273937904 44.880496888353782 0 44.880496888353782 6.2583025155295218 0 0 0 0 -1077.809731856888 485.25601384892707 0 485.25601384892707 1730.0270627913997 0 0 0 0 354.32615728529345 276.42057894612662 0 276.42057894612662 215.61828306835741 0 0 0 0 1391.3225776052204 814.17359367119207 0 814.17359367119207 385.34102682440425 0 0 0 0 78.29122322623806 71.154501125218417 0 71.154501125218417 -146.63264263278657 0 0 0 0 374.00410297659801 456.03434596900115 0 456.03434596900115 155.37927354537533 0 0 0 0 -29.986831294132571 539.72083712126187 0 539.72083712126187 154.58178100894293 0 0 0 0 35.151250565271766 360.87208731190913 0 360.87208731190913 129.01578560546477 0 0 0 0 12.941144203039585 47.397798163452535 0 47.397798163452535 566.51911229267716 0 0 0 0 51.528857973076811 438.85207599557179 0 438.85207599557179 595.93572994998249 0 0 0 0 -1544.9543352702894 455.57070238712186 0 455.57070238712186 20.050919870285725 0 0 0 0 0.70655679957061324 10.495046267503945 0 10.495046267503945 7.3877502005036604 0 0 0 0 -897.12565992631789 -215.90010991610325 0 -215.90010991610325 -17.403962481577764 0 0 0 0 1055.5238527004331 0.57998739009781275 0 0.57998739009781275 -549.98405756012653 0 0 0 0 159.94337202204042 293.07618520637334 0 293.07618520637334 -178.11371082565165 0 0 0 0 -330.1326591436009 571.20313257703674 0 571.20313257703674 -167.19099630104029 0 0 0 0 -266.01499351604366 822.29205676005131 0 822.29205676005131 -170.86749290724401 0 0 0 0 -290.49510107868673 243.15568372314374 0 243.15568372314374 -434.31656852760352 0 0 0 0 -402.36395118996006 313.80489993623632 0 313.80489993623632 -450.28555345676796 0 0 0 0 -258.65600011859351 538.81281804006721 0 538.81281804006721 -436.81896515612607 0 0 0 0 217.32878807836823 557.61762617493514 0 557.61762617493514 -736.54740502900677 0 0 0 0 -876.48879915423277 -355.48586145063382 0 -355.48586145063382 -172.1318966474646 0 0 0 0 0.82907186182637815 933.03831575376535 0 933.03831575376535 -435.32987967625195 0 0 0 0 -37.274361161945045 61.54385984688389 0 61.54385984688389 -41.36048946302617 0 0 0 0 470.96297925850376 1539.9369016263663 0 1539.9369016263663 437.43168552775751 0 0 0 0 1058.1240596184725 -642.88634176283813 0 -642.88634176283813 -552.37875819194596 0 0 0 0 61.923114778736931 12.260042185124519 0 12.260042185124519 -61.018524086517914 0 0 0 0 -66.020440419713651 126.80256567215181 0 126.80256567215181 -32.1180561599013 0 0 0 0 422.84621817350853 46.559065919413115 0 46.559065919413115 -279.85776255759993 0 0 0 0 1183.1091543998573 1844.5649674862907 0 1844.5649674862907 -291.31641475185461 0 0 0 0 -995.8758745176774 -142.37334047136028 0 -142.37334047136028 214.27937977801776 0 0 0 0 -222.50439084953905 233.2069462594518 0 233.2069462594518 -219.97976019409543 0 0 0 0 -196.59805298611354 80.336611301136145 0 80.336611301136145 442.05847030374571 0 0 0 0 359.81063896937121 424.11675477565586 0 424.11675477565586 -125.62874222875689 0 0 0 0 -62.909222380194478 122.66573703969728 0 122.66573703969728 -23.896531283147851 0 0 0 0 -614.77975073874313 46.754864594346145 0 46.754864594346145 66.422919813659973 0 0 0 0 -150.37241172839276 403.86466427248979 0 403.86466427248979 113.99833573473734 0 0 0 0 -70.528698693218757 162.2278915208808 0 162.2278915208808 -126.74121772367653 0 0 0 0 -59.733388984366684 141.55071030326508 0 141.55071030326508 -264.09152898937464 0 0 0 0 222.19309767162849 337.25085569654766 0 337.25085569654766 -180.24755178549094 0 0 0 0 -933.63215027638034 286.80240022751241 0 286.80240022751241 962.27342658661655 0 0 0 0 1.7659538404096473 19.869504446181853 0 19.869504446181853 19.101094628091914 0 0 0 0 653.9443510218407 608.13603028834041 0 608.13603028834041 -364.95040845528274 0 0 0 0 155.79335993841232 -162.60028855418204 0 -162.60028855418204 -564.81091829088109 0 0 0 0 1167.051586989699 449.71029390371405 0 449.71029390371405 -87.135178491240367 0 0 0 0 279.81019117998949 762.12271934722958 0 762.12271934722958 91.726297489876742 0 0 0 0 617.75307126079997 948.23641917938949 0 948.23641917938949 352.89359018261894 0 0 0 0 891.98215808226814 -291.08699076425182 0 -291.08699076425182 228.53432036841696 0 0 0 0 2135.5535960128836 328.09184237514273 0 328.09184237514273 371.79328885576979 0 0 0 0 1844.5106935941076 1361.4030333354603 0 1361.4030333354603 854.67534695483482 0 0 0 0 2221.4496250636876 698.13593793442851 0 698.13593793442851 1965.9880468023766 0 0 0 0 1753.6521291968602 3181.948158092564 0 3181.948158092564 3636.2879767060513 0 0 0 0 3817.353556556016 1407.0349935316626 0 1407.0349935316626 723.08291716439999 0 0 0 0 -28.588138189756137 126.63140395810478 0 126.63140395810478 27.609194838209078 0 0 0 0 1760.0565979997991 1784.0792939972016 0 1784.0792939972016 1371.4471603253696 0 0 0 0 -42.342628469258557 50.50399161074921 0 50.50399161074921 -9.8275154911416962 0 0 0 0 27.023540299055639 135.68593732504087 0 135.68593732504087 -26.218981023092056 0 0 0 0 1965.4383917999439 1512.5328747574968 0 1512.5328747574968 1308.2282082194724 0 0 0 0 1721.6624476955985 1353.452669352002 0 1353.452669352002 837.64161343345768 0 0 0 0 74.190789256124845 161.83178363206389 0 161.83178363206389 112.11829172354192 0 0 0 0 113.60065905270858 119.45256201162556 0 119.45256201162556 26.281529419327853 0 0 0 0 128.13809549198777 135.24781434223405 0 135.24781434223405 7.0774308211730386 0 0 0 0 18.300118512568588 155.79877055826364 0 155.79877055826364 9.9510580683709122 0 0 0 0 151.68358078732854 235.9240104368655 0 235.9240104368655 34.492207548872102 0 0 0 0 -20.553521387932282 4.5649579647594862 0 4.5649579647594862 14.438392140400026 0 0 0 0 -6.2666889485187767 19.969814153159177 0 19.969814153159177 -20.595566560957764 0 0 0 0 150.68371706462858 202.98146953132527 0 202.98146953132527 97.514316312102892 0 0 0 0 2001.2964848245365 1582.4143250900634 0 1582.4143250900634 402.3911401310761 0 0 0 0 2093.5892128858459 1470.7311605911964 0 1470.7311605911964 477.94555708116968 0 0 0 0 61.68423076041654 87.627217005880084 0 87.627217005880084 47.05257858207915 0 0 0 0 -44.349684553572999 34.450311765511572 0 34.450311765511572 -10.697859801730431 0 0 0 0 1587.7065472222166 1295.0349781661498 0 1295.0349781661498 285.85478727561713 0 0 0 0 2368.5890769158723 1612.4875496389868 0 1612.4875496389868 123.79671045506257 0 0 0 0 2109.4725392162363 1414.361049330415 0 1414.361049330415 25.930256646679481 0 0 0 0 1530.5434906112714 1432.9909784717165 0 1432.9909784717165 11.456911017769016 0 0 0 0 1450.4016728920033 900.40296882406983 0 900.40296882406983 -175.97849428759218 0 0 0 0 770.48499083552633 1198.0331523159548 0 1198.0331523159548 -131.00576777366223 0 0 0 0 1449.4634891914434 1256.9132811137179 0 1256.9132811137179 269.07263052352937 0 0 0 0 2361.8103587645965 1142.1529595723805 0 1142.1529595723805 208.15341390762478 0 0 0 0 2130.5819332950414 1456.7445208063655 0 1456.7445208063655 119.84811591064499 0 0 0 0 3365.1406845915444 2307.249932649007 0 2307.249932649007 1248.8819323664648 0 0 0 0 3558.624226091415 1083.8107139956046 0 1083.8107139956046 -271.52344693064515 0 0 0 0 1199.2797924442493 464.86379286038573 0 464.86379286038573 -295.34559469021042 0 0 0 0 5.6359364523316913 1.7275063872350671 0 1.7275063872350671 -3.9495391320108411 0 0 0 0 -326.77185896641458 323.66264348672121 0 323.66264348672121 -229.223475149367 0 0 0 0 1239.0568477680281 1206.3546405647357 0 1206.3546405647357 414.02410447415605 0 0 0 0 946.74476420246719 216.72986566615509 0 216.72986566615509 -870.25660952425096 0 0 0 0 -178.22871634600415 594.04828787485894 0 594.04828787485894 -319.92204470971365 0 0 0 0 -40.048999639381606 56.297196135013252 0 56.297196135013252 -52.283583327762813 0 0 0 0 -442.62674184172647 -959.11988195017329 0 -959.11988195017329 -278.4497104050497 0 0 0 0 9.3252017610732167 -2.6641134877827142 0 -2.6641134877827142 1.9547310973735534 0 0 0 0 -38.033281177798543 45.329155549407659 0 45.329155549407659 -43.365224135411211 0 0 0 0 155.11267593888942 149.1376889049443 0 149.1376889049443 -94.579352942586411 0 0 0 0 1867.3124302587239 435.24877440997807 0 435.24877440997807 -697.45840687696 0 0 0 0 58.40340190765437 -213.70440020658498 0 -213.70440020658498 -272.96859268051048 0 0 0 0 -568.65519407634929 412.84368719140184 0 412.84368719140184 130.98616255969682 0 0 0 0 -2.932604150701664 3.9574638044258847 0 3.9574638044258847 -4.8730215584167809 0 0 0 0 -146.0621876662517 53.310136533604236 0 53.310136533604236 268.69206189244869 0 0 0 0 290.57387511890556 116.50702245412685 0 116.50702245412685 -5.6563400677696336 0 0 0 0 189.576428844779 111.4463715962047 0 111.4463715962047 25.769390997098526 0 0 0 0 24.669113746584117 33.968326276066364 0 33.968326276066364 50.420742127986159 0 0 0 0 -95.505084553327833 138.58898456137103 0 138.58898456137103 49.505833094153786 0 0 0 0 53.208119727547455 54.871332983660977 0 54.871332983660977 17.578813678890583 0 0 0 0 -9.4086497262598243 10.965740228560861 0 10.965740228560861 -12.197085663170355 0 0 0 0 243.36103052692852 278.11469097927693 0 278.11469097927693 138.06811960568302 0 0 0 0 134.61854507998942 131.80140833066253 0 131.80140833066253 168.47854264793932 0 0 0 0 184.95448482541224 100.29472979421371 0 100.29472979421371 68.593296157516306 0 0 0 0 195.56279366786839 147.23273196391528 0 147.23273196391528 57.830964164342731 0 0 0 0 132.22775140913654 156.58771940645238 0 156.58771940645238 67.247222748643253 0 0 0 0 112.33010414327509 101.07900502030679 0 101.07900502030679 72.933595705122571 0 0 0 0 135.28952385828961 101.17867146843491 0 101.17867146843491 12.523922110820422 0 0 0 0 75.0884750394398 139.90213076413784 0 139.90213076413784 16.084625399802462 0 0 0 0 46.685145511220071 86.028110703458879 0 86.028110703458879 5.6591888189141173 0 0 0 0 9.9927191110564308 74.497177894270862 0 74.497177894270862 26.254940105216519 0 0 0 0 58.671368471419555 55.779625643233885 0 55.779625643233885 49.688507871644106 0 0 0 0 -54.034780657779265 153.39705739764031 0 153.39705739764031 0.29254940727696521 0 0 0 0 -30.931238528624817 162.316020052167 0 162.316020052167 2.1990679258306045 0 0 0 0 -75.790198389193392 120.20744392894994 0 120.20744392894994 -56.908570249623153 0 0 0 0 -160.29597178893709 231.77674509122153 0 231.77674509122153 -43.980412160992273 0 0 0 0 -23.324581744644092 160.18499715618964 0 160.18499715618964 -43.813880535824865 0 0 0 0 28.431267758773203 71.528240076706567 0 71.528240076706567 -41.04082465290189 0 0 0 0 -25.901853031041497 95.489965139782242 0 95.489965139782242 -52.035406197498943 0 0 0 0 -55.242115218428808 163.29657298859092 0 163.29657298859092 -59.877874863894249 0 0 0 0 20.811091784272435 175.54728730747411 0 175.54728730747411 3.8252948657100205 0 0 0 0 -38.663220275093408 153.05846950830892 0 153.05846950830892 -72.700492501273402 0 0 0 0 70.083239736665917 87.929720481775803 0 87.929720481775803 -29.545598564523061 0 0 0 0 89.558112188149607 147.82733786899553 0 147.82733786899553 -83.915505298937205 0 0 0 0 97.9266956989959 123.75151484209346 0 123.75151484209346 -15.006118630495621 0 0 0 0 -21.207320572957542 104.83427171269977 0 104.83427171269977 -7.1924086260551121 0 0 0 0 168.87681684818381 106.91041889307962 0 106.91041889307962 -119.26514536834293 0 0 0 0 -89.872451281626127 278.82306931522908 0 278.82306931522908 -18.594145776383812 0 0 0 0 68.37162534159701 73.490413409669472 0 73.490413409669472 -18.796856778377673 0 0 0 0 25.554265103754005 147.24717442670226 0 147.24717442670226 -18.822045665699989 0 0 0 0 318.1297090622611 165.85202357332309 0 165.85202357332309 -93.109530711779371 0 0 0 0 271.55221796226397 -21.529852562649467 0 -21.529852562649467 91.661700664408272 0 0 0 0 398.60782034019849 7.3925410552838002 0 7.3925410552838002 -86.045716963970335 0 0 0 0 -333.27593753654128 511.11100881554739 0 511.11100881554739 -255.53816900063248 0 0 0 0 -534.47897596525036 637.06642177692265 0 637.06642177692265 -13.585212835037964 0 0 0 0 0.84977558565002909 -1.4387900693094622 0 -1.4387900693094622 -1.0919943349493906 0 0 0 0 120.7551493309511 241.85781253852474 0 241.85781253852474 -154.9018911719977 0 0 0 0 47.744430072079922 105.08010439682766 0 105.08010439682766 -66.926103430858348 0 0 0 0 125.40311467829542 68.812430344489258 0 68.812430344489258 -55.973984607378952 0 0 0 0 -440.59009795594648 -342.72808705208445 0 -342.72808705208445 -114.1224499026921 0 0 0 0 -14.268438739091632 17.696255463217476 0 17.696255463217476 -12.465902819867665 0 0 0 0 100.57685444782874 61.404677262362384 0 61.404677262362384 -16.053511619451456 0 0 0 0 -642.38996851937191 832.30037006063503 0 832.30037006063503 -359.80524826113833 0 0 0 0 107.95008531678559 65.111411951504124 0 65.111411951504124 -71.260071944459924 0 0 0 0 100.59896447100618 68.784993533055967 0 68.784993533055967 -55.123250252610887 0 0 0 0 12.326113559363876 25.497122722270433 0 25.497122722270433 -76.122932156198658 0 0 0 0 103.1033683350206 67.621619222911249 0 67.621619222911249 -55.851414081713301 0 0 0 0 -225.73382302436949 205.63546521588432 0 205.63546521588432 -50.89146132375754 0 0 0 0 61.756682089257581 79.107891375627219 0 79.107891375627219 -28.087183291145607 0 0 0 0 -120.75506891509576 149.91223280550912 0 149.91223280550912 -113.5729570267722 0 0 0 0 258.91500356226879 51.789526855129225 0 51.789526855129225 4.6840836241608486 0 0 0 0 -100.08271738961048 210.56317595849396 0 210.56317595849396 77.448559177457355 0 0 0 0 9.8115993527502106 15.917172129701072 0 15.917172129701072 -15.181532364716304 0 0 0 0 46.886242550167246 33.470424712728885 0 33.470424712728885 -64.55670096172588 0 0 0 0 -139.35950430570119 36.021452392524225 0 36.021452392524225 50.611268321896205 0 0 0 0 58.545280602313142 208.37716390925925 0 208.37716390925925 14.359447106949119 0 0 0 0 -22.860773640209874 27.697748418188922 0 27.697748418188922 3.9479855434905176 0 0 0 0 951.70104047848145 -113.13021701111575 0 -113.13021701111575 -186.73352403307217 0 0 0 0 523.11700557502627 413.34045809691452 0 413.34045809691452 -183.88236619596137 0 0 0 0 219.60188702695086 75.838843524077674 0 75.838843524077674 -69.788233296392718 0 0 0 0 66.192657370615052 204.8417625299553 0 204.8417625299553 47.033852164211567 0 0 0 0 -145.83910448176903 81.46864567695593 0 81.46864567695593 -25.857197291625198 0 0 0 0 12.772566662159079 212.92237153173483 0 212.92237153173483 -78.208175688763731 0 0 0 0 56.84526058098254 158.3202595636576 0 158.3202595636576 -147.88542850862723 0 0 0 0 -114.00331506304792 171.57003796420759 0 171.57003796420759 -78.279088528965076 0 0 0 0 21.76904617537032 35.367850863165017 0 35.367850863165017 1.2153249862473388 0 0 0 0 -22.140291462579626 175.99161547861877 0 175.99161547861877 -100.14323760214029 0 0 0 0 25.542548471719783 407.11045480359462 0 407.11045480359462 -183.78951651869716 0 0 0 0 -1927.0724661654676 976.72167053283192 0 976.72167053283192 -251.2463618124857 0 0 0 0 12.132384905113952 6.7210392389737592 0 6.7210392389737592 3.094269677884256 0 0 0 0 -417.94101532171771 -461.06117257158621 0 -461.06117257158621 -1382.5944489583198 0 0 0 0 -795.09488152743143 595.19013031505165 0 595.19013031505165 -291.54461761299171 0 0 0 0 -272.5950462713954 28.281081354602065 0 28.281081354602065 25.86377424064267 0 0 0 0 7.9241716006317802 11.224147918327191 0 11.224147918327191 -14.176013613965239 0 0 0 0 -3053.2891664860508 -551.29143287069382 0 -551.29143287069382 207.17072390572866 0 0 0 0 -3867.3574526835218 100.25903599965386 0 100.25903599965386 -42.951992860391329 0 0 0 0 -56.214833653562081 43.013996294073735 0 43.013996294073735 -19.907247381942398 0 0 0 0 -5804.3625436989241 2641.7561432943767 0 2641.7561432943767 -965.21796689150869 0 0 0 0 -1167.4381672531308 1469.3731960463192 0 1469.3731960463192 -790.26503984169904 0 0 0 0 -257.77048070191358 -1341.1354672245179 0 -1341.1354672245179 -1929.2067311436986 0 0 0 0 9.6810197057493497 109.61260122433305 0 109.61260122433305 -98.113983724964783 0 0 0 0 -34.204580222285543 61.950574998087589 0 61.950574998087589 27.919150313135503 0 0 0 0 -28.016820157194161 44.717074438958662 0 44.717074438958662 -0.036550083139445633 0 0 0 0 -64.081784955919915 74.617094570672265 0 74.617094570672265 4.4464917755414319 0 0 0 0 -31.650540404136322 72.74454929339791 0 72.74454929339791 -21.918594433425255 0 0 0 0 502.50447970222012 -369.30776343683829 0 -369.30776343683829 968.09546175249852 0 0 0 0 -505.75885775664574 -1141.530083919788 0 -1141.530083919788 2632.9794682476204 0 0 0 0 -259.01320437633694 -1476.2386895322998 0 -1476.2386895322998 728.70438044937328 0 0 0 0 595.55370802317339 -962.58720433167764 0 -962.58720433167764 -1603.2129100149032 0 0 0 0 487.65790883430736 -536.14366168000561 0 -536.14366168000561 -788.04818175098626 0 0 0 0 540.04532444471988 -26.053289398259949 0 -26.053289398259949 -1782.6190823185025 0 0 0 0 457.04911958393495 -422.53375082177809 0 -422.53375082177809 -2482.2782338491525 0 0 0 0 356.84825675107095 835.20532897109661 0 835.20532897109661 -2814.8588209463051 0 0 0 0 -53.754987933869415 659.6777399807761 0 659.6777399807761 -2755.6515385377861 0 0 0 0 560.96939625985397 299.99713002345379 0 299.99713002345379 -2147.1857104327064 0 0 0 0 98.003463642073257 1041.0859486604604 0 1041.0859486604604 -2058.4718132737908 0 0 0 0 -67.948659265470269 1491.0449586320537 0 1491.0449586320537 -2925.8825381714269 0 0 0 0 -564.97069122381799 1447.129165764607 0 1447.129165764607 -2465.9080787601124 0 0 0 0 -783.085428127044 1990.8441587678608 0 1990.8441587678608 -3617.5217509649228 0 0 0 0 -1759.7388543907146 1991.2969061873737 0 1991.2969061873737 -2522.968717769334 0 0 0 0 -736.89022087340709 1269.8134718586225 0 1269.8134718586225 -3188.7440176139935 0 0 0 0 -591.5798012771811 719.96692134776822 0 719.96692134776822 -4385.5611352357082 0 0 0 0 -618.82622452289797 732.43881385796703 0 732.43881385796703 -3249.1147286113701 0 0 0 0 -149.85881543828145 1094.3508349133481 0 1094.3508349133481 -3905.8007516463986 0 0 0 0 125.54289539683668 230.80119185644435 0 230.80119185644435 -3645.7440776514122 0 0 0 0 -785.24579120825365 -10.301607080313261 0 -10.301607080313261 -4535.7639948337164 0 0 0 0 -1798.5126844621773 2025.7504964044929 0 2025.7504964044929 -5798.2165725162777 0 0 0 0 -3656.1058429394761 3790.6787249582194 0 3790.6787249582194 -5671.4207475440635 0 0 0 0 -1205.5471221214393 2155.2736678630317 0 2155.2736678630317 -4801.699434854032 0 0 0 0 -2260.8675054176565 2036.8056004535611 0 2036.8056004535611 -3721.7760905271862 0 0 0 0 -2068.6978198117395 2680.5972509026324 0 2680.5972509026324 -3985.3947238352848 0 0 0 0 -7971.5960434055596 3655.9555339228828 0 3655.9555339228828 -2858.5269177836599 0 0 0 0 92.197832854398854 42.2195065245009 0 42.2195065245009 -12.892074445645704 0 0 0 0 307.15761137125992 83.821423793182475 0 83.821423793182475 -204.77544288930949 0 0 0 0 -33.944262560486095 360.73090057248191 0 360.73090057248191 -370.13043676645611 0 0 0 0 -1.9716873920770013 73.10089624619286 0 73.10089624619286 8.9548742134211352 0 0 0 0 -23.059926636715382 62.650301857990129 0 62.650301857990129 -51.164830565987984 0 0 0 0 79.343221938306669 272.95030446491 0 272.95030446491 -317.18910905427765 0 0 0 0 21.39537313602068 263.52354642881255 0 263.52354642881255 -130.69987160121673 0 0 0 0 6.9521092996574225 221.97425974637736 0 221.97425974637736 -205.56328461652447 0 0 0 0 -109.27768012638262 124.76072326354915 0 124.76072326354915 -18.59071021444106 0 0 0 0 -67.55707571934181 217.17395728643169 0 217.17395728643169 -53.630221150175203 0 0 0 0 -30.381851235337976 74.583896371716165 0 74.583896371716165 -30.382730237331629 0 0 0 0 -26.140164588581676 44.711219848499923 0 44.711219848499923 0.21710488484200141 0 0 0 0 -11.913371273421944 65.705224073579302 0 65.705224073579302 -54.680603500630241 0 0 0 0 -10.184230569966729 59.604195648538223 0 59.604195648538223 -4.7431363017099955 0 0 0 0 389.78141634084386 -753.2741891539772 0 -753.2741891539772 -73.139762590639293 0 0 0 0 803.94500000829248 -483.04156661704474 0 -483.04156661704474 -779.71697889006464 0 0 0 0 -139.91831707154233 -4.6444258156989235 0 -4.6444258156989235 26.00139908932033 0 0 0 0 47.248386368989244 46.177457664497894 0 46.177457664497894 -33.837417681672548 0 0 0 0 -496.66046748279246 474.52003435535516 0 474.52003435535516 -1353.76151445508 0 0 0 0 834.10105315208784 1049.9691874402342 0 1049.9691874402342 -669.59659224166535 0 0 0 0 -372.3755489470168 -291.31789928305079 0 -291.31789928305079 -1778.5456367769511 0 0 0 0 0.30261131289847043 1.8577306481273013 0 1.8577306481273013 1.7688139234376195 0 0 0 0 -24.798712661260652 295.66196367648081 0 295.66196367648081 -1586.0228633857332 0 0 0 0 545.71452283598603 -237.4746249236332 0 -237.4746249236332 -886.75630839192308 0 0 0 0 548.81726399993204 -57.677033948159078 0 -57.677033948159078 -1774.590767415124 0 0 0 0 136.27659702172969 48.7165118160774 0 48.7165118160774 288.51737014728133 0 0 0 0 507.66758150632086 365.7990914832917 0 365.7990914832917 -1565.2473040908226 0 0 0 0 402.55276108248654 -80.821041525399778 0 -80.821041525399778 -1356.5031190405716 0 0 0 0 243.80005403731775 321.25922405094025 0 321.25922405094025 -1590.4618019429763 0 0 0 0 492.93066321674269 241.39783316254034 0 241.39783316254034 -1715.3845202418743 0 0 0 0 442.63962122718658 411.65908911742736 0 411.65908911742736 -1686.7000512669765 0 0 0 0 382.11105463602871 904.53982619690942 0 904.53982619690942 -2453.1689717613917 0 0 0 0 336.61807217932801 453.99425468564732 0 453.99425468564732 -1921.515593914577 0 0 0 0 406.52401362715318 680.2651824769564 0 680.2651824769564 -1699.8509654358786 0 0 0 0 243.44769942870789 857.15460263243949 0 857.15460263243949 -1827.7449120770907 0 0 0 0 -93.281286569136682 687.59202516625373 0 687.59202516625373 -1369.2282907482586 0 0 0 0 319.58765506506325 1138.7255972386556 0 1138.7255972386556 -1181.1537911014166 0 0 0 0 35.748300416945199 1150.6550755066928 0 1150.6550755066928 -1157.053706195933 0 0 0 0 283.03241772472575 -81.465117438405287 0 -81.465117438405287 -37.935708021948813 0 0 0 0 -9.1367736619916506 0.83951621032650792 0 0.83951621032650792 -3.9079040561213105 0 0 0 0 437.31234630827294 16.856129422616505 0 16.856129422616505 -174.64285740116611 0 0 0 0 34.328544148386484 12.945427521551409 0 12.945427521551409 6.1992051768249041 0 0 0 0 1446.3587451571993 2325.826990729016 0 2325.826990729016 84.105769467307255 0 0 0 0 1102.1725325267907 2028.2450403086768 0 2028.2450403086768 3307.7638917925942 0 0 0 0 3288.0743983097054 -135.95369103125995 0 -135.95369103125995 -381.78457950731718 0 0 0 0 2263.9667427714048 2593.0457288641774 0 2593.0457288641774 1192.4274236448691 0 0 0 0 4064.4305816038104 3113.6609797447163 0 3113.6609797447163 1336.4606923510728 0 0 0 0 -127.71143783862772 493.99185941331962 0 493.99185941331962 1394.4795220614105 0 0 0 0 -26.557723856320081 -88.042224678400089 0 -88.042224678400089 -377.70399412667985 0 0 0 0 -372.41095006194882 199.49905672128807 0 199.49905672128807 -59.076582118417718 0 0 0 0 5.1261965028785639 2.6916625570222124 0 2.6916625570222124 -1.8832221799260083 0 0 0 0 4713.0254609324802 672.64296151034796 0 672.64296151034796 -726.13092199005769 0 0 0 0 4435.8467496656549 2424.1256708780747 0 2424.1256708780747 -0.43314732422004454 0 0 0 0 1972.991775113529 2011.6104722235032 0 2011.6104722235032 210.92633730303351 0 0 0 0 5427.9562124691438 405.49325216727448 0 405.49325216727448 -961.66193875920726 0 0 0 0 2880.4540325732232 -1618.5286276738225 0 -1618.5286276738225 1795.3841659873142 0 0 0 0 182.99623113118651 -478.48491218216077 0 -478.48491218216077 1894.7314203890564 0 0 0 0 5587.2729849557472 1752.3110920221952 0 1752.3110920221952 272.18977757776156 0 0 0 0 3297.201023484613 1203.0024083397439 0 1203.0024083397439 166.03309550270205 0 0 0 0 112.06508505333113 11.106531827237632 0 11.106531827237632 -70.260132139694178 0 0 0 0 -10.374427819740298 29.791529912702742 0 29.791529912702742 -37.461026007796761 0 0 0 0 -29.461551194225521 36.015623525374508 0 36.015623525374508 -36.754386674535112 0 0 0 0 -53.555891700178108 -0.62465056167638977 0 -0.62465056167638977 36.599454016191885 0 0 0 0 -60.442754617652099 18.432914121076465 0 18.432914121076465 51.963687522962573 0 0 0 0 250.09961450465562 73.799690612053382 0 73.799690612053382 -74.813208773397491 0 0 0 0 -7.7011991196016396 17.502318047775589 0 17.502318047775589 -13.095441684418915 0 0 0 0 1545.3925449706585 1217.1377912406242 0 1217.1377912406242 247.60401422818541 0 0 0 0 -223.25136122936965 -24.488805798013345 0 -24.488805798013345 79.51279830103158 0 0 0 0 95.65155375986069 -134.56640169364255 0 -134.56640169364255 -167.11839850823162 0 0 0 0 -292.20001641998169 388.96715515884716 0 388.96715515884716 -133.90484927207581 0 0 0 0 -2.6785057190902464 9.3746874468770613 0 9.3746874468770613 -3.9415231460703808 0 0 0 0 -359.32904947217321 332.83389500816702 0 332.83389500816702 9.9627281231732923 0 0 0 0 2604.1534735529458 1452.3392718275427 0 1452.3392718275427 208.73564516362967 0 0 0 0 2916.2831221990891 986.91615401065064 0 986.91615401065064 269.79546097236016 0 0 0 0 2873.8092922441992 932.51913437037365 0 932.51913437037365 231.5754359914572 0 0 0 0 1123.8144688288958 743.7939922932128 0 743.7939922932128 615.2580211997265 0 0 0 0 1645.4408108700081 1278.1181828588306 0 1278.1181828588306 786.0301018073078 0 0 0 0 1214.6915067508867 416.98392823823997 0 416.98392823823997 129.0109860561206 0 0 0 0 35.27262851321187 0.99400518241245095 0 0.99400518241245095 -16.402526060957143 0 0 0 0 24.656509243695254 73.124712631837383 0 73.124712631837383 -39.233891052359411 0 0 0 0 1317.2888639665216 661.03162856709969 0 661.03162856709969 262.26530549685413 0 0 0 0 -43.513895347321522 34.149879371718271 0 34.149879371718271 16.628373322819243 0 0 0 0 -25.010897772615863 62.381899230473209 0 62.381899230473209 54.519729276405997 0 0 0 0 3.0951217454936781 15.464967888281492 0 15.464967888281492 -11.849048484750938 0 0 0 0 3662.2286928950798 599.90029644239985 0 599.90029644239985 -224.13153362328012 0 0 0 0 1642.8230692015604 560.89210586108675 0 560.89210586108675 -100.17177334030566 0 0 0 0 2297.2054809037945 893.44061571356724 0 893.44061571356724 43.743052900128532 0 0 0 0 0.40636161103611812 521.14848172262282 0 521.14848172262282 357.98022749553638 0 0 0 0 304.42408326177974 428.33916218682862 0 428.33916218682862 297.41564535002544 0 0 0 0 321.77557378428173 330.71144162977726 0 330.71144162977726 228.83182896492508 0 0 0 0 127.95564862826723 237.11032809872995 0 237.11032809872995 289.97139210102614 0 0 0 0 257.61010144793909 146.5519085606611 0 146.5519085606611 110.58348367545113 0 0 0 0 307.11331600000267 282.12568619336525 0 282.12568619336525 209.7236200729385 0 0 0 0 139.94772083385396 108.40683043701665 0 108.40683043701665 203.86297693097731 0 0 0 0 -3.3620485112450638 0.055998437726486827 0 0.055998437726486827 3.6721391273738391 0 0 0 0 538.82614833771368 317.95497332201194 0 317.95497332201194 91.749648987970431 0 0 0 0 782.86283551917586 344.09678943274776 0 344.09678943274776 77.025193302859407 0 0 0 0 447.89060002876795 118.95379415523348 0 118.95379415523348 134.17279197760217 0 0 0 0 28.57185599161653 24.462457187908967 0 24.462457187908967 25.877040904608407 0 0 0 0 692.43816181349393 226.24076408152905 0 226.24076408152905 169.61569977317413 0 0 0 0 38.842933521186978 76.924391490850127 0 76.924391490850127 113.38460884449461 0 0 0 0 420.65128264960367 713.40157256165912 0 713.40157256165912 251.03827559552155 0 0 0 0 1381.4515011014446 988.91943286418973 0 988.91943286418973 292.39189946494662 0 0 0 0 1770.2636279774451 985.67604346543521 0 985.67604346543521 107.1615739490735 0 0 0 0 3.774048073569344 2367.4020516352525 0 2367.4020516352525 1340.4733555542625 0 0 0 0 3834.2108919644234 4491.7880499665735 0 4491.7880499665735 -3.1036013660777826 0 0 0 0 -809.50390881328349 574.01268262878148 0 574.01268262878148 -107.33435068692779 0 0 0 0 -734.37644872999226 454.64869091517903 0 454.64869091517903 -0.71396011711265817 0 0 0 0 17.204814199262216 18.066096016407982 0 18.066096016407982 20.002436120075515 0 0 0 0 7517.2170416491354 -105.14615228538969 0 -105.14615228538969 -191.37931262844359 0 0 0 0 -936.25212704981095 636.67927904646785 0 636.67927904646785 -132.67912941457507 0 0 0 0 -648.66421269661805 467.36838187460671 0 467.36838187460671 -122.92318884782435 0 0 0 0 -180.3930366082277 394.9123504650197 0 394.9123504650197 -430.23485490275198 0 0 0 0 31.600529566007594 49.562191411554821 0 49.562191411554821 65.232523252427939 0 0 0 0 2437.0819781321406 251.38952583108767 0 251.38952583108767 17.591530989608145 0 0 0 0 1799.9795617331474 912.86126791131755 0 912.86126791131755 -354.72108212766761 0 0 0 0 870.67675892891566 158.15657516893043 0 158.15657516893043 29.997771870723227 0 0 0 0 355.4064021846134 746.08010638343694 0 746.08010638343694 -939.20229755545006 0 0 0 0 -226.85259748197859 32.387343203641649 0 32.387343203641649 101.9088017512986 0 0 0 0 -3398.2777907132695 271.60071276925009 0 271.60071276925009 292.71574629255338 0 0 0 0 -5.576515781109407 5.5141979179868486 0 5.5141979179868486 -13.193024574101059 0 0 0 0 -1733.9329833520169 1447.7229338527104 0 1447.7229338527104 -534.03545700514951 0 0 0 0 -2181.8835426295154 434.46770759574792 0 434.46770759574792 138.40835671931563 0 0 0 0 -711.05854435631045 850.16644532810642 0 850.16644532810642 -279.2884921770019 0 0 0 0 -970.06968110316666 624.43105619362905 0 624.43105619362905 14.772934244276257 0 0 0 0 -1454.0440774499857 333.69812104349967 0 333.69812104349967 123.59004445724713 0 0 0 0 -1578.7802464604756 913.45222868588462 0 913.45222868588462 -72.632283490689588 0 0 0 0 -1243.3936266905948 512.54974713882257 0 512.54974713882257 -0.13191201888548676 0 0 0 0 -1038.6730142596352 351.87081191781908 0 351.87081191781908 54.171784492238658 0 0 0 0 -1130.6229149468563 605.90970780318457 0 605.90970780318457 12.939057941606734 0 0 0 0 -982.93702088081045 522.37151686643483 0 522.37151686643483 0.22323733734633555 0 0 0 0 -1050.2404111924843 524.5027176118092 0 524.5027176118092 0.17072374762160419 0 0 0 0 -4.7145928271924049 -2.6181100124987893 0 -2.6181100124987893 2.2589620689421963 0 0 0 0 -331.6651835131488 131.08575180035041 0 131.08575180035041 -132.63206507412542 0 0 0 0 213.42905809023068 109.30112683243351 0 109.30112683243351 -224.31522484415837 0 0 0 0 -829.09598232549979 517.04095281702394 0 517.04095281702394 -46.646143531921552 0 0 0 0 -940.97162100728019 -48.963501130660006 0 -48.963501130660006 -697.12000105601328 0 0 0 0 -3.5779806020634339 -1.6230683990678187 0 -1.6230683990678187 1.4462340489828307 0 0 0 0 -1576.3456221378001 1157.1325192243967 0 1157.1325192243967 -610.10578839157643 0 0 0 0 -894.09305393790419 510.73828076802238 0 510.73828076802238 -22.88713973981794 0 0 0 0 -2.1408763534696362 -0.54615130086772012 0 -0.54615130086772012 0.64414442701479402 0 0 0 0 -384.57067193385956 760.77373111467023 0 760.77373111467023 3.1899913000524975 0 0 0 0 -925.36279867454869 1162.7695405060294 0 1162.7695405060294 808.08564190482139 0 0 0 0 -422.84633673039207 546.26947122959973 0 546.26947122959973 307.63620926611475 0 0 0 0 -1293.7728632106955 452.19800981922162 0 452.19800981922162 -552.745998515049 0 0 0 0 -2038.8303261113761 736.54838642897084 0 736.54838642897084 583.85650529663326 0 0 0 0 -1615.2269563857262 916.65559800233314 0 916.65559800233314 390.09626745645073 0 0 0 0 -1864.2439791781071 693.82678666498396 0 693.82678666498396 565.32948605858837 0 0 0 0 -800.92008767705738 576.51172276989928 0 576.51172276989928 125.82866593590006 0 0 0 0 -1389.7671795345086 339.25563483721635 0 339.25563483721635 293.01489520586171 0 0 0 0 -858.24122237256961 267.49250174691406 0 267.49250174691406 107.55325866950443 0 0 0 0 18.218384404195035 46.937663478319678 0 46.937663478319678 -7.6317711600889879 0 0 0 0 35.486489778195391 196.37335662989062 0 196.37335662989062 199.32859020697651 0 0 0 0 93.633162110229023 105.07844334281981 0 105.07844334281981 141.81931987527059 0 0 0 0 156.35775892079982 192.72872817850293 0 192.72872817850293 117.21577063889708 0 0 0 0 50.272238473809523 107.91450473042137 0 107.91450473042137 109.49611188077137 0 0 0 0 33.273695911164396 18.828777362461551 0 18.828777362461551 18.671650941236294 0 0 0 0 -205.94479599709302 717.88549745437194 0 717.88549745437194 -426.74233997700503 0 0 0 0 -1547.7068088048618 1150.6367968029372 0 1150.6367968029372 250.91388222904061 0 0 0 0 -1004.3949570156401 607.75222932334873 0 607.75222932334873 122.18410449515795 0 0 0 0 5.9144899583506003 24.13419545090602 0 24.13419545090602 9.4115559191668581 0 0 0 0 -202.34792582156297 660.4217670976941 0 660.4217670976941 -563.937037988886 0 0 0 0 13.088568687700899 25.367767940442718 0 25.367767940442718 162.45378508795693 0 0 0 0 12.768467733643149 61.668607110276525 0 61.668607110276525 100.33427779532349 0 0 0 0 35.880616261376417 78.823635653869133 0 78.823635653869133 128.58763747508056 0 0 0 0 -35.596910670729869 43.292407297302361 0 43.292407297302361 49.099262175132537 0 0 0 0 19.580237803027387 22.009136240863654 0 22.009136240863654 21.548881722610076 0 0 0 0 -13.646682648308342 26.569956684405042 0 26.569956684405042 137.08549922699967 0 0 0 0 33.649548438013881 110.71200644104101 0 110.71200644104101 94.946660008019535 0 0 0 0 -1434.5713873546338 376.01082768751075 0 376.01082768751075 106.65961916759443 0 0 0 0 -50.683885968785034 122.78086593004991 0 122.78086593004991 34.402726533047826 0 0 0 0 189.94822440722783 1142.029484694518 0 1142.029484694518 -360.81994446908357 0 0 0 0 -53.758300736735691 1618.9100102599768 0 1618.9100102599768 -232.92709256814851 0 0 0 0 -579.67876533161325 1276.5252962657105 0 1276.5252962657105 -345.37911688907479 0 0 0 0 -818.31860469000821 1493.7181278992794 0 1493.7181278992794 -234.99015525667346 0 0 0 0 2322.2916599434975 1829.6119685331505 0 1829.6119685331505 -1187.4094614033966 0 0 0 0 268.26120601904404 2384.7634468188189 0 2384.7634468188189 1842.2927609236795 0 0 0 0 -28.383832601393806 1481.3880539334787 0 1481.3880539334787 3.6569963009314961 0 0 0 0 611.77903725949 2148.6182337206992 0 2148.6182337206992 -609.19625233828265 0 0 0 0 181.05446131434292 1251.5687875983858 0 1251.5687875983858 -1659.6638408093131 0 0 0 0 -1401.5381002082286 59.967991862285999 0 59.967991862285999 -1667.3775058471583 0 0 0 0 862.55109591054224 577.98830634897422 0 577.98830634897422 -2106.1337350246322 0 0 0 0 720.9469463659043 -636.20343611486896 0 -636.20343611486896 -2721.0801765527754 0 0 0 0 -849.90216311946278 -378.0878844987601 0 -378.0878844987601 -1209.6986609696178 0 0 0 0 342.42020681900613 -252.58876536070602 0 -252.58876536070602 -1439.0414577501069 0 0 0 0 68.069307155891636 57.514783209327476 0 57.514783209327476 24.250144995658673 0 0 0 0 662.67481252983634 139.56587041911553 0 139.56587041911553 -3133.9241131146846 0 0 0 0 6.297286626064249 17.283209668359518 0 17.283209668359518 -0.037019723818332295 0 0 0 0 -519.28081365226535 -1265.9743770455098 0 -1265.9743770455098 -2700.7903588251779 0 0 0 0 698.64097331700032 -176.77179222863924 0 -176.77179222863924 83.150945888948627 0 0 0 0 27.286072789129946 11.728515120113514 0 11.728515120113514 4.9363965631033864 0 0 0 0 709.58404541825439 1394.3853272370106 0 1394.3853272370106 2500.6538519431633 0 0 0 0 7.9464122077878869 4.4907297099783818 0 4.4907297099783818 14.454906549483951 0 0 0 0 507.03334945331153 808.96444536954186 0 808.96444536954186 995.40767602446431 0 0 0 0 869.23948483647837 1064.1608121690297 0 1064.1608121690297 1041.2105347651523 0 0 0 0 2258.7943177442503 1408.9889059053094 0 1408.9889059053094 543.93629395608696 0 0 0 0 1023.5114395223318 -143.25690657330051 0 -143.25690657330051 1514.3732389588986 0 0 0 0 -46.891019958973629 976.79980049937149 0 976.79980049937149 419.23293438729161 0 0 0 0 207.62930405532825 113.99010908599303 0 113.99010908599303 569.30268725247879 0 0 0 0 885.23248881129257 758.68552603297576 0 758.68552603297576 434.15150793737303 0 0 0 0 1067.0054062107447 759.95324231475024 0 759.95324231475024 -80.899010155408178 0 0 0 0 198.76918515253055 510.48002380227263 0 510.48002380227263 86.647091569691838 0 0 0 0 841.46464103876497 578.22403273080272 0 578.22403273080272 -198.85979880836385 0 0 0 0 360.76791475972277 362.26908949084827 0 362.26908949084827 -98.46826705984131 0 0 0 0 22.013063725269603 604.40106189080325 0 604.40106189080325 -0.26863190840231255 0 0 0 0 699.42710682426696 665.55090335253772 0 665.55090335253772 -0.12126817776879761 0 0 0 0 822.76564658396819 589.59879817568435 0 589.59879817568435 -47.881517352027004 0 0 0 0 979.98993193704518 659.37166002663434 0 659.37166002663434 109.96893894352252 0 0 0 0 732.17668234585653 752.09343967660607 0 752.09343967660607 82.209095331782009 0 0 0 0 1155.0885399163235 1131.7435057463736 0 1131.7435057463736 420.30458406181424 0 0 0 0 1100.7206072777335 1165.589696614159 0 1165.589696614159 680.37591479911134 0 0 0 0 564.17993784462192 624.77781461621908 0 624.77781461621908 122.43465451567317 0 0 0 0 564.97223422713432 639.94459520788223 0 639.94459520788223 224.85815222492965 0 0 0 0 787.92739380710373 1019.7368050971727 0 1019.7368050971727 707.46393748634728 0 0 0 0 693.65417980231723 781.53630726834672 0 781.53630726834672 166.94718732045658 0 0 0 0 622.63465735877799 615.81948691278558 0 615.81948691278558 0.050551624750369228 0 0 0 0 877.25927370231329 688.94314934963222 0 688.94314934963222 -0.062814488192088902 0 0 0 0 325.63054382274277 540.64712606149442 0 540.64712606149442 0.17273704508261289 0 0 0 0 409.58672142319119 673.31062827563437 0 673.31062827563437 156.40163697367825 0 0 0 0 388.00335679135605 569.68239013889252 0 569.68239013889252 -0.77456397382775322 0 0 0 0 244.41434844015748 446.1204270809103 0 446.1204270809103 12.556274642352946 0 0 0 0 243.10390979969088 522.69123664270955 0 522.69123664270955 133.57589358251425 0 0 0 0 273.21276055004273 641.2635971134514 0 641.2635971134514 295.36596307087166 0 0 0 0 97.132232870586449 402.63496565577225 0 402.63496565577225 304.40697068834606 0 0 0 0 116.23036851297366 224.82253437887994 0 224.82253437887994 15.959458743158621 0 0 0 0 99.123692084962386 98.696187290501257 0 98.696187290501257 -134.58662861744597 0 0 0 0 -65.781872341183771 216.95366602972354 0 216.95366602972354 115.2842231978284 0 0 0 0 145.81362847504352 182.03327657415502 0 182.03327657415502 -2.7806168490351411 0 0 0 0 -136.9427970579527 58.182791694751359 0 58.182791694751359 76.036169271857943 0 0 0 0 41.564930323940644 70.657773990977148 0 70.657773990977148 55.842366395838326 0 0 0 0 48.827856600626546 85.619756809915998 0 85.619756809915998 66.84100651742483 0 0 0 0 1.7581834637874749 -1.4182256083258835 0 -1.4182256083258835 -0.45166406994064801 0 0 0 0 60.664461775770178 111.10261845173954 0 111.10261845173954 -3.7626065623335307 0 0 0 0 -212.85605589568877 878.79978168902744 0 878.79978168902744 -878.04239300059271 0 0 0 0 1786.4157470923674 -328.84317741006089 0 -328.84317741006089 -2940.3207826415892 0 0 0 0 79.336292508144311 70.836081689868081 0 70.836081689868081 33.777606041207605 0 0 0 0 616.48916330141947 1643.4553791137223 0 1643.4553791137223 -2676.6350699078357 0 0 0 0 63.039180767213111 104.86736748991098 0 104.86736748991098 -30.703263404691825 0 0 0 0 -465.8810552736395 1201.5891344066476 0 1201.5891344066476 -1092.6696216782075 0 0 0 0 65.949603035401196 80.709474684021814 0 80.709474684021814 39.178842449877493 0 0 0 0 65.408294369830401 111.91580319472268 0 111.91580319472268 -46.457953326884308 0 0 0 0 -3.4434509983783528 4.5461056718215715 0 4.5461056718215715 9.8490059873469136 0 0 0 0 -791.24534411686182 577.5154251306958 0 577.5154251306958 -271.96374435158214 0 0 0 0 -636.19774637383671 714.1202155943065 0 714.1202155943065 -341.88481360781589 0 0 0 0 -227.74586297673159 446.35631731937247 0 446.35631731937247 -560.78051326403511 0 0 0 0 -936.13712248427328 1267.1408410625809 0 1267.1408410625809 108.98944290337386 0 0 0 0 -740.29720958181497 397.78583448605605 0 397.78583448605605 361.08582922698406 0 0 0 0 2704.8199456155417 2427.7763832301425 0 2427.7763832301425 -71.692733016010607 0 0 0 0 4212.8820347990259 492.19651998819609 0 492.19651998819609 -493.88146683390369 0 0 0 0 17.902558760110537 23.806512382961806 0 23.806512382961806 32.861021954605064 0 0 0 0 -166.16319268861844 487.78856430332962 0 487.78856430332962 1613.1295877732991 0 0 0 0 -160.12955620096909 748.25143563179154 0 748.25143563179154 -419.63937535004516 0 0 0 0 1712.2921191050118 478.93543380184565 0 478.93543380184565 -178.63247383273847 0 0 0 0 326.46720340029424 521.54726373512676 0 521.54726373512676 112.76401170593454 0 0 0 0 320.7381798426286 514.63606172043364 0 514.63606172043364 189.42626769500202 0 0 0 0 347.56593245860131 36.320744502998423 0 36.320744502998423 -116.95516409996344 0 0 0 0 42.246180272819259 63.869046596179061 0 63.869046596179061 104.83964908123488 0 0 0 0 -426.40078598228138 121.24423406949063 0 121.24423406949063 253.59631677213474 0 0 0 0 -489.77759286320361 100.00376146053895 0 100.00376146053895 62.349157202581409 0 0 0 0 -536.67613586611697 771.03901500225766 0 771.03901500225766 -366.21881406888133 0 0 0 0 -1.096779192270759 9.4614474747748787 0 9.4614474747748787 15.174014900048746 0 0 0 0 -680.27100540719402 800.99057185484708 0 800.99057185484708 -457.93338150190539 0 0 0 0 -229.28494473180035 141.83716700859077 0 141.83716700859077 -367.50224119630354 0 0 0 0 -613.91723919997821 277.82129532611725 0 277.82129532611725 134.38520264285035 0 0 0 0 -186.09113606147093 117.71348569186966 0 117.71348569186966 124.80626541771926 0 0 0 0 43.102283464800422 111.54807795070531 0 111.54807795070531 169.6521212477316 0 0 0 0 175.8465538964665 -59.078994590468938 0 -59.078994590468938 142.76519634856959 0 0 0 0 -308.87184670694842 181.38842011440283 0 181.38842011440283 454.11254235418164 0 0 0 0 -132.81706052619847 299.54723503489731 0 299.54723503489731 469.68771173742425 0 0 0 0 -87.127158146148304 41.410715730356685 0 41.410715730356685 55.185840886052333 0 0 0 0 -360.11150476383045 259.11630969568796 0 259.11630969568796 500.70778964328929 0 0 0 0 80.165244060765019 162.09779360025072 0 162.09779360025072 239.70581059513358 0 0 0 0 -17.734417284744268 269.95620096238054 0 269.95620096238054 120.26921549213148 0 0 0 0 -56.286833042031503 313.9266764674976 0 313.9266764674976 124.32383463560154 0 0 0 0 -135.84197547510803 311.45971581014919 0 311.45971581014919 246.9129776628979 0 0 0 0 88.733379984920717 163.25512895942501 0 163.25512895942501 214.16688248351019 0 0 0 0 7.8018395296167 253.85897341214877 0 253.85897341214877 2.0109098288230598 0 0 0 0 -18.115880452329293 313.94207877936788 0 313.94207877936788 -138.81559380764156 0 0 0 0 4.6633770106709562 428.25484067084835 0 428.25484067084835 53.958945858536026 0 0 0 0 -12.909803616046702 327.24645731664623 0 327.24645731664623 236.49331541146967 0 0 0 0 -28.674792109388363 379.34711218730536 0 379.34711218730536 259.02837300689134 0 0 0 0 10.922266138855775 260.14731396523166 0 260.14731396523166 69.143623726522492 0 0 0 0 -9.7980691173142986 203.97720696390024 0 203.97720696390024 -65.102614144478139 0 0 0 0 52.966129336455197 233.33752232916413 0 233.33752232916413 -458.93096599483397 0 0 0 0 12.26423010611478 25.515221990865967 0 25.515221990865967 -8.3744090197672367 0 0 0 0 93.896510763268452 182.42535711993878 0 182.42535711993878 526.70382822859392 0 0 0 0 -215.99138386933191 195.22927003709628 0 195.22927003709628 343.46148680732676 0 0 0 0 -31.995881229425322 54.08553034571554 0 54.08553034571554 52.857942955288522 0 0 0 0 -9.6171429705646005 17.47154432345269 0 17.47154432345269 290.39991342955909 0 0 0 0 -52.151755521452287 198.19655856287864 0 198.19655856287864 750.76501834634655 0 0 0 0 598.67431023099925 854.2506942846594 0 854.2506942846594 597.44799362803133 0 0 0 0 451.52227993152337 1061.3901052395522 0 1061.3901052395522 935.41462576297636 0 0 0 0 308.30599094508216 1278.4574170686974 0 1278.4574170686974 1665.030646217856 0 0 0 0 1502.9120857023518 1357.1684384740984 0 1357.1684384740984 592.52238010719884 0 0 0 0 54.592262799178798 25.733888978054011 0 25.733888978054011 -1.6123554625611973 0 0 0 0 245.23624150059186 -45.126868705359811 0 -45.126868705359811 511.82450854276976 0 0 0 0 -107.19458481075708 649.3690170732807 0 649.3690170732807 -1619.265686253857 0 0 0 0 -24.802656212530565 582.75618765138643 0 582.75618765138643 1708.7844435647276 0 0 0 0 -56.317644369017216 237.70137393102414 0 237.70137393102414 -636.99843875561783 0 0 0 0 -25.65746038229554 357.42752663875581 0 357.42752663875581 -178.52540543087525 0 0 0 0 66.495025703159627 250.22495217973483 0 250.22495217973483 -1257.8888491314865 0 0 0 0 -372.54006854342879 829.47241680965089 0 829.47241680965089 -635.74898771438893 0 0 0 0 -228.23750836692034 410.2270237297962 0 410.2270237297962 -254.30400169418135 0 0 0 0 -315.39802041338407 700.99097238347167 0 700.99097238347167 36.875820322369691 0 0 0 0 -265.78961744025582 387.89129299141496 0 387.89129299141496 371.97040463627491 0 0 0 0 -300.72331602600752 504.33236026890518 0 504.33236026890518 444.75459518191929 0 0 0 0 -150.078618097461 485.49150903553618 0 485.49150903553618 313.89669757262163 0 0 0 0 -121.98397122946335 422.85104127307568 0 422.85104127307568 45.373601576535293 0 0 0 0 -245.56006987643468 612.54413731610111 0 612.54413731610111 -64.45230697261286 0 0 0 0 798.05179750840762 535.54818357723707 0 535.54818357723707 -78.509498501050984 0 0 0 0 385.12418733630329 731.71123644933687 0 731.71123644933687 480.57995725755063 0 0 0 0 1616.6770080576389 746.21382927158629 0 746.21382927158629 295.89446065173252 0 0 0 0 1392.413338274695 1111.6971695792745 0 1111.6971695792745 477.50293519953266 0 0 0 0 1291.2278880682134 1073.8564812901022 0 1073.8564812901022 1142.2287588681502 0 0 0 0 556.23228643892799 566.29423443856649 0 566.29423443856649 792.72514062498522 0 0 0 0 536.91350487520685 484.00879479115247 0 484.00879479115247 448.7048677738785 0 0 0 0 120.11464384772989 711.63893328790436 0 711.63893328790436 762.29952956836496 0 0 0 0 -443.24364876656182 516.83478841783472 0 516.83478841783472 517.10557001123379 0 0 0 0 -228.58908793903538 310.74242939742544 0 310.74242939742544 541.56147085979046 0 0 0 0 -156.66937420723843 520.68256676413876 0 520.68256676413876 -16.953669677561265 0 0 0 0 -231.09046976169338 466.30111136069172 0 466.30111136069172 595.57449480627838 0 0 0 0 333.81605068371573 536.68410056860012 0 536.68410056860012 -122.19156453432515 0 0 0 0 70.946514900482725 644.36268683627713 0 644.36268683627713 -102.87475176413864 0 0 0 0 -1.1757014612958301 390.22400849469705 0 390.22400849469705 -772.26432461742661 0 0 0 0 -716.38465351931518 266.65058484974725 0 266.65058484974725 -758.60132883364713 0 0 0 0 -307.9371350085712 404.43805353307744 0 404.43805353307744 -731.27235170218046 0 0 0 0 -437.15182090527378 745.97875624030712 0 745.97875624030712 -55.591414463324327 0 0 0 0 -265.79285686748335 731.28629889336298 0 731.28629889336298 -1095.5778522959008 0 0 0 0 -1297.5615437030792 250.79488819274411 0 250.79488819274411 -1157.0676364181581 0 0 0 0 642.86362992317299 191.84508317591826 0 191.84508317591826 -2296.3453678641526 0 0 0 0 -243.71055989369052 -800.24235833287821 0 -800.24235833287821 -2612.9571497405741 0 0 0 0 958.52617960766656 788.86581726041186 0 788.86581726041186 -1193.91622143719 0 0 0 0 759.74080002328265 430.81223513306031 0 430.81223513306031 -1220.3318027788191 0 0 0 0 1047.4094440763001 982.01115693971224 0 982.01115693971224 -170.52060293322575 0 0 0 0 1800.5865101584932 1187.189720108945 0 1187.189720108945 -14.959970908123069 0 0 0 0 1554.1946278905962 713.33899781113723 0 713.33899781113723 -916.66186313790968 0 0 0 0 2108.9436787819141 1446.4854264893511 0 1446.4854264893511 -1133.942108379073 0 0 0 0 2696.9457953103993 1896.9465592665365 0 1896.9465592665365 -3177.3883169979745 0 0 0 0 1451.4175373839244 501.752596874343 0 501.752596874343 -2251.1010899608664 0 0 0 0 36.927058770869792 13.335256807233833 0 13.335256807233833 0.64665780873341738 0 0 0 0 4711.8690119047242 3283.294921509063 0 3283.294921509063 6681.3136098041869 0 0 0 0 -861.02203924188507 3126.8230058210393 0 3126.8230058210393 7074.2988178196174 0 0 0 0 -1163.1585188050522 -343.6995482868806 0 -343.6995482868806 3419.7421808206345 0 0 0 0 2355.6431750072516 4656.0562502121029 0 4656.0562502121029 2676.8454510775482 0 0 0 0 2006.4713982684771 409.07232129054319 0 409.07232129054319 -4185.6132736306463 0 0 0 0 116.24219985859236 539.4578606995783 0 539.4578606995783 3920.1474520967386 0 0 0 0 2403.8408963883412 -72.445770551406895 0 -72.445770551406895 -1417.7820393574948 0 0 0 0 -8.8383419970324866 13.207162528601657 0 13.207162528601657 40.151645793879084 0 0 0 0 -2084.5015896457189 5173.2431791535637 0 5173.2431791535637 9268.3251385637996 0 0 0 0 7240.496543046931 5546.7610076748097 0 5546.7610076748097 2915.1616083397385 0 0 0 0 -1514.4203111072711 -627.78797600435792 0 -627.78797600435792 3715.8647496041085 0 0 0 0 8957.4933564275561 2121.9912292758381 0 2121.9912292758381 527.07687105343211 0 0 0 0 2474.6244733885687 1331.7073762278014 0 1331.7073762278014 1366.8149221714702 0 0 0 0 1402.5203782223398 2240.2651586852153 0 2240.2651586852153 2462.6927218892597 0 0 0 0 -15.299238300504555 5.389611000515373 0 5.389611000515373 14.492913578527663 0 0 0 0 3691.5273358448321 383.43971866795619 0 383.43971866795619 -784.13357788074063 0 0 0 0 1527.0579225666006 1531.1372872430511 0 1531.1372872430511 1328.725136850062 0 0 0 0 186.97868312856008 581.70088069627673 0 581.70088069627673 -658.62094530642207 0 0 0 0 -335.38436079068924 -680.6558426925676 0 -680.6558426925676 169.91604701646429 0 0 0 0 165.0125515757536 -255.67300326554687 0 -255.67300326554687 331.33052911682171 0 0 0 0 -31.074300584992159 29.720782006304589 0 29.720782006304589 63.215021880883995 0 0 0 0 7.4785647032840643 101.66048701196269 0 101.66048701196269 -55.668253781361273 0 0 0 0 -87.11195336288074 101.35523300829664 0 101.35523300829664 8.0935414432315156 0 0 0 0 -6.8249762544695756 20.099685222494031 0 20.099685222494031 13.789413906329855 0 0 0 0 -33.604627219232498 79.977860418803175 0 79.977860418803175 16.633807158999844 0 0 0 0 -5.6061073969794961 40.937408226465777 0 40.937408226465777 41.99148608717951 0 0 0 0 -0.62222845331416465 73.080272756269551 0 73.080272756269551 12.806210623501102 0 0 0 0 -31.20103251436376 95.606643612474727 0 95.606643612474727 54.401387229037937 0 0 0 0 31.150607124291128 66.025205760452081 0 66.025205760452081 68.193349812427186 0 0 0 0 38.439094870613189 57.064121772666113 0 57.064121772666113 80.5620230572531 0 0 0 0 0.042766461525388877 24.463227526624735 0 24.463227526624735 5.1800424818452484 0 0 0 0 9.7291536180346156 96.554014938821638 0 96.554014938821638 113.59281780020683 0 0 0 0 -36.382941648014821 176.96324694905343 0 176.96324694905343 610.97476212841138 0 0 0 0 23.295739543857053 70.636248086084379 0 70.636248086084379 69.284263373883732 0 0 0 0 -4.3295195166115832 42.436980421469826 0 42.436980421469826 57.78932799767216 0 0 0 0 1503.9596405015218 939.99281916262771 0 939.99281916262771 474.74033193060313 0 0 0 0 1331.4890318369435 608.22162646903598 0 608.22162646903598 -146.05020048019651 0 0 0 0 -47.200215016870061 68.380433040685602 0 68.380433040685602 23.904541893658461 0 0 0 0 -4.8927892988149075 46.431919392637951 0 46.431919392637951 23.922927433790846 0 0 0 0 589.64102413454384 1009.2443720640877 0 1009.2443720640877 632.48429701870191 0 0 0 0 401.55161348707043 1513.5446905899007 0 1513.5446905899007 392.9192109756259 0 0 0 0 914.01782451175677 1259.3615492902863 0 1259.3615492902863 602.62938839534763 0 0 0 0 444.86602898640558 1055.975807718256 0 1055.975807718256 931.08145127176249 0 0 0 0 1293.7400219961492 1909.5410026282116 0 1909.5410026282116 -152.16873353623669 0 0 0 0 283.98817234736634 590.86011016795237 0 590.86011016795237 1135.3488006637708 0 0 0 0 -5.2145371252096311 -1.3658117134659733 0 -1.3658117134659733 8.0912101581347429 0 0 0 0 -55.339119919182849 2098.9746971886925 0 2098.9746971886925 -51.47682236257242 0 0 0 0 -1348.7770300485354 915.92443602191634 0 915.92443602191634 -530.62545958012925 0 0 0 0 258.78604786777578 1186.2945530581637 0 1186.2945530581637 520.34330530523584 0 0 0 0 2256.6281335891035 2767.5613632740169 0 2767.5613632740169 1040.123906883935 0 0 0 0 286.84546160171158 -98.700789669645019 0 -98.700789669645019 2276.0070850050943 0 0 0 0 2766.8061956711726 -992.86473521565574 0 -992.86473521565574 -1227.8493435332202 0 0 0 0 290.91459334305546 -14.025437795021389 0 -14.025437795021389 -1502.7559900697088 0 0 0 0 -1116.6016765128879 -205.74187504404108 0 -205.74187504404108 -361.44561843798147 0 0 0 0 -818.95744084163744 -358.53541200643667 0 -358.53541200643667 -1979.7303284917725 0 0 0 0 -70.28209891016013 -440.72308518334466 0 -440.72308518334466 -1024.5107257124328 0 0 0 0 -1655.8985413622358 982.6726535641792 0 982.6726535641792 -1912.705155740201 0 0 0 0 422.45332424878143 699.01881819302071 0 699.01881819302071 -2775.1332197083684 0 0 0 0 418.10802228500688 602.80954644821031 0 602.80954644821031 -1075.2885779560893 0 0 0 0 -99.242997391829704 -137.73073678318906 0 -137.73073678318906 -332.36412712330639 0 0 0 0 27.09733805799624 78.378395560721401 0 78.378395560721401 35.76708863566455 0 0 0 0 40.641094529549662 56.165962976621358 0 56.165962976621358 19.617244065060504 0 0 0 0 46.824528427467158 197.50600004786975 0 197.50600004786975 82.057419837103225 0 0 0 0 24.856513359283099 47.135851814436833 0 47.135851814436833 14.044389375366464 0 0 0 0 -1650.6485501048592 1331.1580587169519 0 1331.1580587169519 -1036.1505311985093 0 0 0 0 1.6265795146111799 11.669672814131758 0 11.669672814131758 -11.674198832618515 0 0 0 0 -2.0441394317313097 38.161350785405375 0 38.161350785405375 27.817558828741312 0 0 0 0 11.312520322693501 41.890045064525054 0 41.890045064525054 7.4331289948513017 0 0 0 0 -7.2971862030692662 39.683549238877646 0 39.683549238877646 25.196112344994106 0 0 0 0 -68.504900619678665 -18.603165211156011 0 -18.603165211156011 -10.578910109994467 0 0 0 0 -2.8289635140531573 5.1211346333977872 0 5.1211346333977872 3.4465019092103546 0 0 0 0 177.06694049018552 115.94004336664511 0 115.94004336664511 -41.736586048340541 0 0 0 0 15.076367528221454 66.286675588613434 0 66.286675588613434 47.862127915810561 0 0 0 0 65.096003025607558 63.983851599336361 0 63.983851599336361 38.153250577635674 0 0 0 0 72.343207301913935 678.5015804018476 0 678.5015804018476 -731.75066460765083 0 0 0 0 179.07192615971144 592.57080073805992 0 592.57080073805992 -843.74772636097623 0 0 0 0 -290.80551957751231 306.32217686151853 0 306.32217686151853 -20.916527597291861 0 0 0 0 -26.566786113922717 565.36066654742899 0 565.36066654742899 -125.17768788678222 0 0 0 0 32.354991745410388 70.268197892315001 0 70.268197892315001 102.63227733714911 0 0 0 0 -292.35996436880669 172.90609543575556 0 172.90609543575556 64.24641818087548 0 0 0 0 584.11770661856281 -17.269133905036142 0 -17.269133905036142 -412.83969582089048 0 0 0 0 -9.763882048453695 13.587293913109221 0 13.587293913109221 14.608230007743671 0 0 0 0 2.6197579340528137 26.861616790980008 0 26.861616790980008 6.7672735429405861 0 0 0 0 966.23518017293827 96.703874009959691 0 96.703874009959691 -96.216696575531387 0 0 0 0 87.205454259961698 -25.955768585402438 0 -25.955768585402438 -89.449087790038902 0 0 0 0 152.47308538405923 322.30988169410557 0 322.30988169410557 505.41320549929515 0 0 0 0 -47.097027481999248 356.87839293224533 0 356.87839293224533 503.40273983489897 0 0 0 0 637.67202656414884 236.5800433436234 0 236.5800433436234 41.194397611121531 0 0 0 0 140.35475304035936 -343.08710510859964 0 -343.08710510859964 925.80569279124029 0 0 0 0 19.083325213810895 -100.08126543858089 0 -100.08126543858089 983.82563260673487 0 0 0 0 4.5729136803914798 2.08561524002873 0 2.08561524002873 -5.6196923017841414 0 0 0 0 5.3541658504400402 33.619807347335154 0 33.619807347335154 -90.742259773047408 0 0 0 0 19.208618789915874 7.900982132145387 0 7.900982132145387 -9.6343194020193437 0 0 0 0 -73.298751149923191 101.55864102676423 0 101.55864102676423 -13.596812239426072 0 0 0 0 -843.1565327111457 117.05135028684163 0 117.05135028684163 683.48316997427901 0 0 0 0 -1095.5666758578736 1021.4373968040454 0 1021.4373968040454 -799.22482384330942 0 0 0 0 301.13328395248391 -313.98332539820694 0 -313.98332539820694 -208.46383213589434 0 0 0 0 -0.61509209271923737 2.501908649107861 0 2.501908649107861 7.9338948658036088 0 0 0 0 14.29535571926408 29.741625100831619 0 29.741625100831619 30.980728970972621 0 0 0 0 33.229778603321392 71.361197356312914 0 71.361197356312914 -10.167290384313674 0 0 0 0 35.822896189376479 46.050565489742439 0 46.050565489742439 -5.4540630899864482 0 0 0 0 3.3523050751585401 15.374527831521277 0 15.374527831521277 -27.046783342676633 0 0 0 0 297.74715814646333 261.64633115127799 0 261.64633115127799 52.491142677812604 0 0 0 0 47.834289058780996 67.597938723258267 0 67.597938723258267 44.380226728026173 0 0 0 0 57.42179926999961 79.151822204003111 0 79.151822204003111 35.589681981829926 0 0 0 0 59.852464001945918 78.691375428752508 0 78.691375428752508 23.299067278669099 0 0 0 0 47.512129238108173 71.696705048270815 0 71.696705048270815 69.883272235660115 0 0 0 0 12.628112246718956 51.422325839128462 0 51.422325839128462 39.441100510841352 0 0 0 0 35.386964462435571 93.335825251655478 0 93.335825251655478 77.128086420583713 0 0 0 0 35.540547549840994 79.400147191576252 0 79.400147191576252 15.075724781709141 0 0 0 0 -6.4145541618961488 31.503532214142581 0 31.503532214142581 -4.0652175954618031 0 0 0 0 4.478240284279309 85.517154799960736 0 85.517154799960736 38.699139791991911 0 0 0 0 24.842553497979566 45.692324620520409 0 45.692324620520409 32.655749633950052 0 0 0 0 12.499551766668446 68.708587523244205 0 68.708587523244205 58.907708839915358 0 0 0 0 -5.8656290683429688 80.860519185021985 0 80.860519185021985 57.431487398804165 0 0 0 0 5.2844746068149107 71.206541588799155 0 71.206541588799155 62.320723663011449 0 0 0 0 19.531426763045602 83.345650315081002 0 83.345650315081002 66.345701702230144 0 0 0 0 -11.776089293679945 38.898323063208579 0 38.898323063208579 -2.8616041603869178 0 0 0 0 23.48480213660514 119.72648074617609 0 119.72648074617609 28.947763007337926 0 0 0 0 36.114700145059032 70.823242004094936 0 70.823242004094936 23.017276235535974 0 0 0 0 9.3304245389590506 118.98227965684782 0 118.98227965684782 29.00196815218078 0 0 0 0 45.956881007786762 60.185415261842202 0 60.185415261842202 24.638606930930337 0 0 0 0 -15.206272952925275 38.246792474160856 0 38.246792474160856 -1.7045959435219515 0 0 0 0 22.648590345939738 85.568585537243052 0 85.568585537243052 14.164737830094964 0 0 0 0 44.949856927429209 94.133176798131899 0 94.133176798131899 -17.932842010784952 0 0 0 0 33.820376517542172 70.610847871721489 0 70.610847871721489 6.5562095769855659 0 0 0 0 70.04866052106081 100.4307184701247 0 100.4307184701247 -43.697887730231741 0 0 0 0 178.74248447889113 109.33220981599879 0 109.33220981599879 -44.581100873459945 0 0 0 0 39.654474167160515 100.82705948015428 0 100.82705948015428 18.266330490936525 0 0 0 0 -139.56980261697026 54.382121221409761 0 54.382121221409761 41.714749493285126 0 0 0 0 1502.6272327956976 2357.0016766799454 0 2357.0016766799454 5326.9042075414327 0 0 0 0 4290.6229844826739 3740.328015671068 0 3740.328015671068 -927.46480431015334 0 0 0 0 1495.3894418624798 1561.1037664880287 0 1561.1037664880287 1226.8835001421685 0 0 0 0 2301.6919079112267 1190.4094350579689 0 1190.4094350579689 -1392.5795131036139 0 0 0 0 2888.3070583028602 2595.8414687295444 0 2595.8414687295444 -1359.3698859540455 0 0 0 0 -13.633819207510086 42.707480446168006 0 42.707480446168006 7.1118576652109482 0 0 0 0 2672.0992436064407 1626.052302283686 0 1626.052302283686 -906.31661486602388 0 0 0 0 2033.205453805509 929.71540796736372 0 929.71540796736372 -186.79810775307124 0 0 0 0 2663.8864458992739 1428.6828209815301 0 1428.6828209815301 26.070180854061618 0 0 0 0 3115.1955559818307 710.35355166447698 0 710.35355166447698 139.60562844929882 0 0 0 0 -986.93736119376263 218.47515724700497 0 218.47515724700497 82.841144930086557 0 0 0 0 -33.170289348410734 216.81070443748467 0 216.81070443748467 121.19009548796748 0 0 0 0 3.3534643066101921 58.970918650022178 0 58.970918650022178 36.943459357218842 0 0 0 0 805.72835898090852 233.42072103123064 0 233.42072103123064 -51.439847623900278 0 0 0 0 -856.68032082074205 704.27894661103346 0 704.27894661103346 22.089894613760407 0 0 0 0 -709.65754991856375 212.56733698862354 0 212.56733698862354 153.63609834066301 0 0 0 0 -132.5239335494698 388.57995866228885 0 388.57995866228885 -101.45435612277652 0 0 0 0 -23.20275211302031 16.193468906984293 0 16.193468906984293 72.487262396730557 0 0 0 0 4316.9376266393119 1829.5692204772149 0 1829.5692204772149 349.7480618636182 0 0 0 0 3622.402176569798 1593.2940649028169 0 1593.2940649028169 562.38374049280537 0 0 0 0 2286.1853648888646 1182.5723145507072 0 1182.5723145507072 964.75588454781973 0 0 0 0 1920.8538999658485 729.24100577536592 0 729.24100577536592 603.07900929593598 0 0 0 0 2480.9479741053219 937.26226936157036 0 937.26226936157036 246.5417476760631 0 0 0 0 2263.0778838245897 1187.6339595186291 0 1187.6339595186291 592.74053097365322 0 0 0 0 2101.9065023895819 1228.087101549987 0 1228.087101549987 -35.142666198575171 0 0 0 0 2413.239951738331 1004.1125176961068 0 1004.1125176961068 -196.96734361992276 0 0 0 0 3036.2353733151685 1205.16091054352 0 1205.16091054352 191.09056022699224 0 0 0 0 2445.3489196883747 1140.4968416341508 0 1140.4968416341508 366.89539075124776 0 0 0 0 3732.5074233508203 720.98569386824965 0 720.98569386824965 -5.9062508595525287 0 0 0 0 4101.0913353257201 995.28241393646385 0 995.28241393646385 -150.05191365315113 0 0 0 0 568.72926101033227 -72.618274369364372 0 -72.618274369364372 -534.6271790669125 0 0 0 0 394.03881907725008 219.94945633367024 0 219.94945633367024 516.92226289172686 0 0 0 0 -174.85632300183352 -149.80062119808827 0 -149.80062119808827 -80.424878611273016 0 0 0 0 692.64389127571485 177.35609416988154 0 177.35609416988154 -272.60582372213912 0 0 0 0 2.6976245076215264 2.251516830792724 0 2.251516830792724 -7.0000491104521814 0 0 0 0 591.65865931872395 479.73611204024928 0 479.73611204024928 -134.8613537952333 0 0 0 0 1.3613963685031649 5.5083810200129193 0 5.5083810200129193 -0.60355188115923397 0 0 0 0 365.52440971162287 45.138099448893627 0 45.138099448893627 -285.67021351345647 0 0 0 0 -466.87375297173276 -65.999914343272394 0 -65.999914343272394 242.87511384138998 0 0 0 0 261.81303462674259 398.48922418738948 0 398.48922418738948 -61.862437108913582 0 0 0 0 91.26401214156067 -0.50257232126023155 0 -0.50257232126023155 150.47612743106583 0 0 0 0 6.2261086630757347 30.099618212339635 0 30.099618212339635 -68.312372015212475 0 0 0 0 35.223602707311784 70.401803948270839 0 70.401803948270839 21.120037799819848 0 0 0 0 239.52967030733998 175.27748451640582 0 175.27748451640582 -403.65213889559163 0 0 0 0 2.8341766351277755 20.432067688623874 0 20.432067688623874 -35.728231258937171 0 0 0 0 30.989770601125201 16.818700701744092 0 16.818700701744092 -93.257385266551864 0 0 0 0 -13.394620733699412 22.507716011801676 0 22.507716011801676 -12.129197029666102 0 0 0 0 25.958376787123939 66.168364781093516 0 66.168364781093516 28.198880944581674 0 0 0 0 33.3658519142773 18.75879822333809 0 18.75879822333809 -29.820759065183665 0 0 0 0 105.13680405821651 20.326983916413155 0 20.326983916413155 -31.80796929592907 0 0 0 0 100.78079569571855 43.522121513637103 0 43.522121513637103 -42.877214449079474 0 0 0 0 -13.246079549548881 19.326154418430917 0 19.326154418430917 -24.376819205457991 0 0 0 0 37.967593466950348 50.248749757120095 0 50.248749757120095 -28.683125064511842 0 0 0 0 18.701255911495537 79.412498199148104 0 79.412498199148104 95.963027446297929 0 0 0 0 26.3450535806478 41.813077143203373 0 41.813077143203373 -32.292748196210596 0 0 0 0 2.0602406979714942 -0.37469006900670365 0 -0.37469006900670365 -5.7733888793467827 0 0 0 0 92.669733663089573 110.82981870853109 0 110.82981870853109 97.185759740066715 0 0 0 0 -2.5213815080848718 3.6591575902205022 0 3.6591575902205022 2.047133869565414 0 0 0 0 65.606373491275008 128.45189764987299 0 128.45189764987299 133.1150184023063 0 0 0 0 38.728838986222399 48.317351366771618 0 48.317351366771618 23.48662271903595 0 0 0 0 101.52332569585997 105.46667106264795 0 105.46667106264795 34.345754040681641 0 0 0 0 77.294180490687722 89.487945360528101 0 89.487945360528101 129.67681222881947 0 0 0 0 44.123615400661947 78.93328642880806 0 78.93328642880806 10.412964599887346 0 0 0 0 12.298677017632031 24.26711798767974 0 24.26711798767974 -19.072312923462675 0 0 0 0 1737.3130124676682 686.09257115914079 0 686.09257115914079 -1147.4032240741071 0 0 0 0 62.692209296352303 39.638156589374233 0 39.638156589374233 10.709510023898261 0 0 0 0 313.68485742392659 499.95775051726378 0 499.95775051726378 -163.18668836081633 0 0 0 0 8.4331188915241455 0.52906109409144619 0 0.52906109409144619 -1.1904098134297385 0 0 0 0 -1600.9505823671934 -388.08260791643988 0 -388.08260791643988 -805.62307473373949 0 0 0 0 -96.430268228636123 -189.37010134806042 0 -189.37010134806042 209.19898387067224 0 0 0 0 -22.197439770010533 39.626684887312877 0 39.626684887312877 18.582095452424255 0 0 0 0 47.013018288674402 41.02791258096633 0 41.02791258096633 12.966026089308002 0 0 0 0 -35.153686423262116 234.20136149243626 0 234.20136149243626 -19.642994986432313 0 0 0 0 99.315942173605436 70.581513188903045 0 70.581513188903045 -76.399515818891814 0 0 0 0 19.82731768018914 19.451686043116197 0 19.451686043116197 -12.308772870196606 0 0 0 0 -105.25260076342965 170.78217793831573 0 170.78217793831573 -160.7901463971175 0 0 0 0 -423.12395153359103 181.56950741522087 0 181.56950741522087 -47.330968886635674 0 0 0 0 9.0615984964897507 528.54470935313657 0 528.54470935313657 -87.929827962550917 0 0 0 0 -242.72157080829493 904.03467933145294 0 904.03467933145294 -609.69578462447498 0 0 0 0 -252.09861833857212 935.86099315885485 0 935.86099315885485 268.70496993188863 0 0 0 0 -472.57922462853094 752.33479412250563 0 752.33479412250563 512.12533473880467 0 0 0 0 -562.03653781110188 481.41571698809275 0 481.41571698809275 -89.193089230393525 0 0 0 0 -438.19491466719774 311.72429767367066 0 311.72429767367066 572.18341057705402 0 0 0 0 -606.92424732231302 634.57233922396699 0 634.57233922396699 94.452819302518037 0 0 0 0 -754.52427415816419 116.98574864556849 0 116.98574864556849 -52.702846707106801 0 0 0 0 -333.20741202739009 314.26346709695281 0 314.26346709695281 31.971156158426311 0 0 0 0 -6.7889516403989205 5.9070228608417779 0 5.9070228608417779 -2.3078811372435837 0 0 0 0 0.12435799241939094 361.98198686027536 0 361.98198686027536 580.17204735546329 0 0 0 0 654.47133522114018 32.591302964552597 0 32.591302964552597 -282.66258936604572 0 0 0 0 421.15220653242432 -58.285449962182611 0 -58.285449962182611 -939.09906425526424 0 0 0 0 187.94891417509643 1066.694578846771 0 1066.694578846771 -1168.6288870284334 0 0 0 0 -6.7415120013349679 5.9992936640079506 0 5.9992936640079506 -2.1526484040786045 0 0 0 0 0.59054516887408681 410.5381427162647 0 410.5381427162647 -796.19766199305013 0 0 0 0 65.420051313107251 -72.511256077716098 0 -72.511256077716098 315.65516717136779 0 0 0 0 259.60230412398232 703.79576154046663 0 703.79576154046663 -1335.1179604240169 0 0 0 0 311.47903281537583 572.93415449841632 0 572.93415449841632 -1030.161546528805 0 0 0 0 -512.68163463077508 717.81518069738377 0 717.81518069738377 -372.38892492097148 0 0 0 0 -223.42760162695777 -560.42816303362997 0 -560.42816303362997 -355.84614643228997 0 0 0 0 12.700532285838506 20.901000482801805 0 20.901000482801805 10.943551113161789 0 0 0 0 71.307346660981636 53.185529456512398 0 53.185529456512398 24.105902186772298 0 0 0 0 102.11494075713563 103.51776738790795 0 103.51776738790795 65.036341343795357 0 0 0 0 -119.13976703453227 111.70199385671003 0 111.70199385671003 -125.19954868665445 0 0 0 0 285.17278942023404 206.15354012035823 0 206.15354012035823 -1203.6842127867967 0 0 0 0 11.177589689746128 18.382387821986072 0 18.382387821986072 16.501890411021634 0 0 0 0 0.049352437577908859 36.909108313804609 0 36.909108313804609 55.194397469953401 0 0 0 0 -7.8639629219744052 5.2570382433934952 0 5.2570382433934952 35.656370812540757 0 0 0 0 -41.107901074334791 16.304358366822271 0 16.304358366822271 64.290959792527815 0 0 0 0 0.17983432658957318 252.66857387054185 0 252.66857387054185 273.06339089579706 0 0 0 0 109.56890876755642 142.21968811588158 0 142.21968811588158 190.60385317246255 0 0 0 0 88.185542497565621 143.6606314358105 0 143.6606314358105 207.2831347014253 0 0 0 0 -49.543710554249486 20.572557732041503 0 20.572557732041503 51.351734628176075 0 0 0 0 100.42636593950374 18.311118743284169 0 18.311118743284169 190.22760292151361 0 0 0 0 123.14544238924282 67.691265462359297 0 67.691265462359297 87.753270070999861 0 0 0 0 37.734777079647756 79.950233320021653 0 79.950233320021653 131.60383965898654 0 0 0 0 155.60651033796603 164.69522520052124 0 164.69522520052124 178.78423078577907 0 0 0 0 124.61748022979009 321.51172101139673 0 321.51172101139673 141.85004953620955 0 0 0 0 -0.0086159950330397805 11.524812745477448 0 11.524812745477448 -32.512631088331034 0 0 0 0 54.235580114703225 41.15441052889264 0 41.15441052889264 22.061939868915942 0 0 0 0 127.9132761687215 271.19588203205058 0 271.19588203205058 -35.569288877464714 0 0 0 0 230.46753629331943 124.31542815238936 0 124.31542815238936 174.30462622623054 0 0 0 0 81.919435345567763 335.48280957242241 0 335.48280957242241 -235.40846672511543 0 0 0 0 -84.863908988510957 31.243044487200677 0 31.243044487200677 210.89234303182457 0 0 0 0 -163.16640843692585 228.57225222016859 0 228.57225222016859 184.81218816737237 0 0 0 0 362.86916408927937 188.27709352318197 0 188.27709352318197 95.212241665372858 0 0 0 0 -66.249430176671012 -189.89084285437912 0 -189.89084285437912 293.59224719497433 0 0 0 0 325.70102696340837 327.75736916892674 0 327.75736916892674 231.05364121962339 0 0 0 0 -6.456748733498614 0.37675869069965984 0 0.37675869069965984 -3.6793211878093075 0 0 0 0 -87.37270336371148 -12.000501943162817 0 -12.000501943162817 108.24717345973841 0 0 0 0 90.477149460668443 183.5822602436092 0 183.5822602436092 -33.515134425397264 0 0 0 0 -55.179790831192179 23.542492761355675 0 23.542492761355675 42.607774423555668 0 0 0 0 154.03674007157679 384.11307666994253 0 384.11307666994253 287.25766612248844 0 0 0 0 180.44046926546434 256.78905657294308 0 256.78905657294308 183.58235018538835 0 0 0 0 237.37365019031859 252.00969849820467 0 252.00969849820467 182.19860583280388 0 0 0 0 -384.69601618102752 173.82669331190482 0 173.82669331190482 193.19054785522212 0 0 0 0 -5.6596890722285025 150.17469802244523 0 150.17469802244523 191.36948964033218 0 0 0 0 -12.918691504106391 -321.24270281062491 0 -321.24270281062491 656.91694581198408 0 0 0 0 -1.1422958761395421 945.61217825783024 0 945.61217825783024 319.82003989527766 0 0 0 0 -7.6891514248068233 11.997107671402006 0 11.997107671402006 -13.897217866362766 0 0 0 0 -2.7400618682149798 25.331227305403445 0 25.331227305403445 -44.635871146936552 0 0 0 0 -0.080611852705806133 31.9879283758169 0 31.9879283758169 -28.832351940858644 0 0 0 0 2.3936580412794228 7.6876418825521569 0 7.6876418825521569 -8.2371439083411531 0 0 0 0 1.5047206382229206 -1.3052594202332308 0 -1.3052594202332308 -13.114906367946681 0 0 0 0 -0.028089552053280196 21.797275399338837 0 21.797275399338837 -38.263392416003626 0 0 0 0 0.096937573369359598 92.393045765918941 0 92.393045765918941 -163.77643453728524 0 0 0 0 -5.4044781933771446 32.911063009145437 0 32.911063009145437 -156.86914505730965 0 0 0 0 -0.74616676683439209 -3.5265653180363046 0 -3.5265653180363046 -10.346419919314446 0 0 0 0 19.094929042097647 45.584921904432122 0 45.584921904432122 -300.37380217097962 0 0 0 0 8.3665177720628208 -3.3422836606448634 0 -3.3422836606448634 -27.325122785167348 0 0 0 0 0.34322105313185602 13.937795205565635 0 13.937795205565635 -53.645570357793986 0 0 0 0 4.585044416715391 47.262432111645467 0 47.262432111645467 -166.59854147589431 0 0 0 0 -2.7733252402057929 18.105833980350155 0 18.105833980350155 -26.675573246771442 0 0 0 0 -219.37249312073254 123.21250461997261 0 123.21250461997261 467.48175818484742 0 0 0 0 -9.741447801789036 39.933202727721437 0 39.933202727721437 -107.93264923876995 0 0 0 0 5.4974044939883129 1.4977258378169154 0 1.4977258378169154 -50.469481411940386 0 0 0 0 -17.93203319463538 32.192505907722477 0 32.192505907722477 -10.708639297796488 0 0 0 0 -13.878814568859525 30.12155981527394 0 30.12155981527394 -99.561810480357963 0 0 0 0 -22.944147104863077 57.283905912809132 0 57.283905912809132 -67.579340627400597 0 0 0 0 -26.527549599297345 87.841138871927797 0 87.841138871927797 -212.42657078904813 0 0 0 0 -19.062389329285793 59.18413541554267 0 59.18413541554267 -77.188774875454499 0 0 0 0 -71.092806417407701 215.20492760353955 0 215.20492760353955 280.61669096100286 0 0 0 0 -26.560224737999476 40.851099234741071 0 40.851099234741071 -18.324384054867831 0 0 0 0 -62.774693468818441 168.82545082354682 0 168.82545082354682 -51.199597102362304 0 0 0 0 -66.853724427153395 82.007886816016281 0 82.007886816016281 -28.125589700715913 0 0 0 0 -65.629808366007637 123.11846202207198 0 123.11846202207198 -195.24568701505996 0 0 0 0 -37.890430054190801 174.94702184685502 0 174.94702184685502 -208.66326268155717 0 0 0 0 38.013646057806909 194.92450271600501 0 194.92450271600501 -171.34228345319571 0 0 0 0 -50.363399804802611 97.383795260381703 0 97.383795260381703 -127.58576300448658 0 0 0 0 -140.4415046054055 18.461504018596315 0 18.461504018596315 156.43177000802825 0 0 0 0 -106.59336605967837 30.939234232486342 0 30.939234232486342 106.76864021817892 0 0 0 0 283.53772283728176 332.82878954222542 0 332.82878954222542 9.662273621528584 0 0 0 0 -19.016890499051499 17.701177302075962 0 17.701177302075962 12.454703359579725 0 0 0 0 8.9470604578326629 20.022667133346417 0 20.022667133346417 1.8203463249595018 0 0 0 0 -118.69014234829228 543.28228929927718 0 543.28228929927718 -100.41144558797532 0 0 0 0 457.59569275914691 129.29317076894222 0 129.29317076894222 -613.39675633276056 0 0 0 0 -360.98840126747382 667.46223438279048 0 667.46223438279048 2584.7675268096136 0 0 0 0 -291.57828639942454 -37.825722361620137 0 -37.825722361620137 81.757373653228569 0 0 0 0 47.918068450249848 559.29921914233046 0 559.29921914233046 1673.5433561799073 0 0 0 0 152.64604537951527 728.78657348948764 0 728.78657348948764 1640.4753682434821 0 0 0 0 112.03234016266651 61.224489958181948 0 61.224489958181948 2942.5727922745791 0 0 0 0 245.71569834088587 261.29517468333142 0 261.29517468333142 -1233.9779066953597 0 0 0 0 2.3600546620889986 6.5848255689246571 0 6.5848255689246571 4.0173464274297075 0 0 0 0 -588.2900195782131 477.10620012242725 0 477.10620012242725 4531.0482442913308 0 0 0 0 0.98019287406350486 1162.7058577885327 0 1162.7058577885327 2912.5006534919157 0 0 0 0 -0.68810586011386476 1244.4656427075242 0 1244.4656427075242 771.58328741471269 0 0 0 0 114.47589726427395 420.12098963521203 0 420.12098963521203 1779.4315628705335 0 0 0 0 38.115317046605924 1026.6242366013562 0 1026.6242366013562 1549.4139019058493 0 0 0 0 21.964751652063569 545.79999648062949 0 545.79999648062949 638.35710132564418 0 0 0 0 33.563452839560341 1087.1134826081052 0 1087.1134826081052 395.04031401851535 0 0 0 0 292.78216747276747 746.7474900872694 0 746.7474900872694 -231.67448322952987 0 0 0 0 2.2598480241431389 1465.680785221426 0 1465.680785221426 -1188.28621533158 0 0 0 0 189.2667775710288 939.86555293251149 0 939.86555293251149 -289.86630417426932 0 0 0 0 194.08947789817967 1069.5719504154613 0 1069.5719504154613 -878.29132063261932 0 0 0 0 69.920909110835055 651.53340890857362 0 651.53340890857362 -903.33426607050933 0 0 0 0 719.30876164800702 552.24236095823926 0 552.24236095823926 -1341.4898137767959 0 0 0 0 -2246.4501998386986 421.07594265260923 0 421.07594265260923 74.289415108221874 0 0 0 0 -646.39506297558546 -157.44602401633347 0 -157.44602401633347 488.37218640503124 0 0 0 0 -5.5335400376581276 5.209360401931292 0 5.209360401931292 -22.775447371110971 0 0 0 0 -1221.4249917690177 -42.864609275311523 0 -42.864609275311523 -9.6663527729670022 0 0 0 0 -1018.7274362955941 786.32668413192732 0 786.32668413192732 -575.93582961906213 0 0 0 0 -216.01437509231619 844.10967018850351 0 844.10967018850351 -999.09221143888135 0 0 0 0 -280.77483044977998 612.27980347038829 0 612.27980347038829 -670.56781954722646 0 0 0 0 -316.49724415619858 140.51363875184325 0 140.51363875184325 5.4967006551069062 0 0 0 0 -1093.1048978188919 1309.6681653180094 0 1309.6681653180094 -743.90957051677105 0 0 0 0 -1469.5843743848964 401.72432057581682 0 401.72432057581682 -616.90542771818082 0 0 0 0 -1746.6466453668054 2278.4890592346837 0 2278.4890592346837 -18.306886877384386 0 0 0 0 -2.3725791023849183 5.623624244439327 0 5.623624244439327 -3.9744821477713117 0 0 0 0 -569.86997989662632 1315.1545380150965 0 1315.1545380150965 225.34863770644733 0 0 0 0 -305.3202639251831 581.21069584890574 0 581.21069584890574 -274.05011915446812 0 0 0 0 -353.54906452790601 622.21481913360549 0 622.21481913360549 475.54578685932938 0 0 0 0 -390.1743511770037 852.31622631353093 0 852.31622631353093 1871.7420862049839 0 0 0 0 -5.1336684822526877 1998.5167937085407 0 1998.5167937085407 330.88892298168503 0 0 0 0 -833.34313829049643 1234.3483303813009 0 1234.3483303813009 1403.1382862481023 0 0 0 0 918.50641154505138 1158.0512387895687 0 1158.0512387895687 793.48088970482058 0 0 0 0 -7.5052749611855205 28.69386088968443 0 28.69386088968443 34.885346003480834 0 0 0 0 1812.7916462328722 1106.76865330695 0 1106.76865330695 206.82903329938563 0 0 0 0 825.91960823647969 606.10069133438083 0 606.10069133438083 227.17100006290275 0 0 0 0 1917.737736244897 698.92608984072103 0 698.92608984072103 481.80489599769498 0 0 0 0 1112.1491476658994 1446.0020905994079 0 1446.0020905994079 1074.0972763788013 0 0 0 0 1056.504168090556 1220.2590770744901 0 1220.2590770744901 159.82383380789179 0 0 0 0 1808.7363785721827 1639.7248555681581 0 1639.7248555681581 930.42610978486482 0 0 0 0 1289.2861734167673 -874.64665936531674 0 -874.64665936531674 155.00571360598292 0 0 0 0 2393.7440202456783 904.54828319927765 0 904.54828319927765 893.26896903420675 0 0 0 0 5142.1778385768412 2359.745780476147 0 2359.745780476147 603.5989461154677 0 0 0 0 3099.7369367885258 832.6615672522712 0 832.6615672522712 441.51493561793905 0 0 0 0 790.21487268400961 660.77020584417187 0 660.77020584417187 1517.9603669924181 0 0 0 0 993.73164720019849 3022.4453373018787 0 3022.4453373018787 2929.8553621408646 0 0 0 0 -964.88873600430088 228.1872438872233 0 228.1872438872233 206.59540842784918 0 0 0 0 1197.5386379147239 1033.5618529393214 0 1033.5618529393214 378.32111086400982 0 0 0 0 -1.5348454178044904 8.0062792204934965 0 8.0062792204934965 -9.3702556985981005 0 0 0 0 910.02414840547135 963.01281755667151 0 963.01281755667151 68.040572755868197 0 0 0 0 1769.5430944220861 2312.1623841493711 0 2312.1623841493711 3398.0984125022951 0 0 0 0 1256.9283419357635 476.18212398624019 0 476.18212398624019 1571.0187901355239 0 0 0 0 1368.0244152246014 1296.0334078461674 0 1296.0334078461674 2041.0987629256852 0 0 0 0 2851.7617516424798 1177.8503018166375 0 1177.8503018166375 859.73438116794568 0 0 0 0 3008.5090830461486 1611.6502947312329 0 1611.6502947312329 1753.2325168586394 0 0 0 0 4588.2006117889832 1384.032883447544 0 1384.032883447544 1315.005860587713 0 0 0 0 6186.8167292067737 4195.6766297013874 0 4195.6766297013874 1600.8194788822439 0 0 0 0 -2.406305853120017 4.2981417687728083 0 4.2981417687728083 21.222135459402125 0 0 0 0 -7757.5457053654827 1368.3764938499517 0 1368.3764938499517 782.57876925037999 0 0 0 0 -683.94393168090028 12.542440837351023 0 12.542440837351023 -179.93105449133145 0 0 0 0 -3342.8561703388114 -1204.3055173078319 0 -1204.3055173078319 505.95450295176852 0 0 0 0 -1829.9520488233829 1270.4672618513578 0 1270.4672618513578 3617.9123265185335 0 0 0 0 -2.8849244594985208 9.7232596627373482 0 9.7232596627373482 16.537433957821264 0 0 0 0 -4085.4419690062641 -1433.6692590275015 0 -1433.6692590275015 592.91461772740149 0 0 0 0 1137.2187508267816 3305.5279404394096 0 3305.5279404394096 4754.0178071111368 0 0 0 0 -7404.6060630100437 3768.1224742751856 0 3768.1224742751856 6218.6187919631775 0 0 0 0 281.15810414950829 226.03689834394754 0 226.03689834394754 2071.5493588170793 0 0 0 0 112.7590011304128 458.3328089974566 0 458.3328089974566 2135.9597837400361 0 0 0 0 940.64389286858204 0.30494124917095178 0 0.30494124917095178 493.04271593403246 0 0 0 0 -165.61877928795002 -173.82325448224219 0 -173.82325448224219 -188.35898062312117 0 0 0 0 521.94309829354461 288.65134306081472 0 288.65134306081472 -1351.1988818021273 0 0 0 0 40.267214121035067 953.58609830642672 0 953.58609830642672 -54.214659033736098 0 0 0 0 350.7361939111579 727.34374488641333 0 727.34374488641333 -1626.3803333901815 0 0 0 0 -553.00113911503286 738.73919035128984 0 738.73919035128984 -778.71441414757282 0 0 0 0 -162.53473436835338 68.39932683996085 0 68.39932683996085 78.979163730225991 0 0 0 0 -25.983941347989457 137.82841191889565 0 137.82841191889565 -1253.3253700097703 0 0 0 0 -244.1074242024697 249.71186367724295 0 249.71186367724295 332.16458018514822 0 0 0 0 168.86116140327067 279.5806476116777 0 279.5806476116777 186.7748014971512 0 0 0 0 -2.0310120748533791 19.846167161037485 0 19.846167161037485 17.99902825789782 0 0 0 0 28.77211161624291 62.941876734737889 0 62.941876734737889 37.982938671819284 0 0 0 0 -28.533088118361775 97.274747203089646 0 97.274747203089646 236.52014219886223 0 0 0 0 -59.309300365071977 -19.423634131155268 0 -19.423634131155268 47.030061500130614 0 0 0 0 366.94845782876655 501.50766178938647 0 501.50766178938647 629.32956021410064 0 0 0 0 -2.7510378262701636 35.312707863683386 0 35.312707863683386 37.591902873152549 0 0 0 0 26.03470024984199 731.12897818527654 0 731.12897818527654 611.05723111588304 0 0 0 0 15.020175423219939 34.891601356352439 0 34.891601356352439 18.194985570298119 0 0 0 0 314.86894506808312 522.23697827887736 0 522.23697827887736 761.99888543887937 0 0 0 0 -52.705797368253116 175.95322366485925 0 175.95322366485925 -37.893346260421367 0 0 0 0 21.447690935485298 101.00006055648919 0 101.00006055648919 28.947225649153552 0 0 0 0 12.17381279748588 107.51688702581851 0 107.51688702581851 190.34309331307304 0 0 0 0 -15.054079437932671 55.979727772203489 0 55.979727772203489 101.66909082451585 0 0 0 0 -83.651432761180331 141.53963606073194 0 141.53963606073194 153.96685583514773 0 0 0 0 -240.34437381877797 145.08707430639333 0 145.08707430639333 81.252680672027054 0 0 0 0 -53.851791561872233 132.436600564728 0 132.436600564728 81.627406175669648 0 0 0 0 -154.4007230172283 196.6910001482662 0 196.6910001482662 339.83290367208838 0 0 0 0 -47.963855879213497 89.479692418151188 0 89.479692418151188 20.013451840730788 0 0 0 0 71.188424132124055 67.050090875485694 0 67.050090875485694 -102.79403264110897 0 0 0 0 -1.0404576667366996 4.9202926365004451 0 4.9202926365004451 27.906008785256688 0 0 0 0 -26.230626001110068 366.30209761424885 0 366.30209761424885 -381.43570666841333 0 0 0 0 -109.50959575046727 333.19155649899881 0 333.19155649899881 -310.9994542434797 0 0 0 0 -41.17061020975234 468.91171611633399 0 468.91171611633399 -213.03313221203098 0 0 0 0 -30.056507349829189 456.50089970282716 0 456.50089970282716 -596.99117720485447 0 0 0 0 28.531033190200105 183.07843381594466 0 183.07843381594466 -212.64897291402758 0 0 0 0 2.5241465228409652 86.623353352567392 0 86.623353352567392 82.468129949480499 0 0 0 0 3.6844420321758662 35.114451354207574 0 35.114451354207574 55.881543482932102 0 0 0 0 -10.608817730448209 96.435271583804933 0 96.435271583804933 405.59252579807071 0 0 0 0 -16.955820726322557 70.639989639026453 0 70.639989639026453 141.95744297477026 0 0 0 0 -174.51276758895256 323.21931403514463 0 323.21931403514463 -297.49736623360695 0 0 0 0 -33.812840029131621 32.163975779729299 0 32.163975779729299 88.844906887901743 0 0 0 0 4.6418257527711972 44.914651643972348 0 44.914651643972348 50.118673074029672 0 0 0 0 0.33922130637989767 6.5219172974958468 0 6.5219172974958468 4.5057995578625247 0 0 0 0 -599.73557814070955 304.55885538000257 0 304.55885538000257 -307.12738053719647 0 0 0 0 -50.704432233294938 108.0314346637806 0 108.0314346637806 -205.68906195519787 0 0 0 0 -26.864067835820606 104.09601080842549 0 104.09601080842549 101.81391864507168 0 0 0 0 8.0575185450078379 36.137197368860178 0 36.137197368860178 -0.39643520829405288 0 0 0 0 6.865235903149653 52.573512283233875 0 52.573512283233875 22.305882774086786 0 0 0 0 9.9999321227660403 23.802295777082691 0 23.802295777082691 50.596308506791047 0 0 0 0 12.431732290197658 38.188404247885842 0 38.188404247885842 0.6522674439628442 0 0 0 0 3.1513436010638429 51.343675285450459 0 51.343675285450459 -6.4033041498492089 0 0 0 0 4.5183487463627898 58.173182588539873 0 58.173182588539873 16.519337602350788 0 0 0 0 5.5164481739047915 42.004837178505113 0 42.004837178505113 10.726907514965205 0 0 0 0 77.579763507514144 106.74039870647903 0 106.74039870647903 -52.701716855826817 0 0 0 0 17.031175659270957 38.093316250568023 0 38.093316250568023 107.16618304040242 0 0 0 0 -4.2425349818504969 5.1283676043072859 0 5.1283676043072859 -1.9989328333559797 0 0 0 0 -20.488220747065498 44.278803255921957 0 44.278803255921957 138.87121485511307 0 0 0 0 10.688892080435664 70.802364686678686 0 70.802364686678686 -3.226550979807925 0 0 0 0 155.21084774745395 126.94319795097545 0 126.94319795097545 22.554888381921046 0 0 0 0 91.597409747540951 130.8073379030393 0 130.8073379030393 147.7850689378738 0 0 0 0 -46.821029561018804 187.02744509303011 0 187.02744509303011 150.0366184978775 0 0 0 0 21.724656033711653 79.48144682444584 0 79.48144682444584 4.7801427696011416 0 0 0 0 -61.40511718003836 125.34780758454872 0 125.34780758454872 215.08849590620957 0 0 0 0 -10.167740521486849 122.97757387150341 0 122.97757387150341 181.37693186947581 0 0 0 0 -17.283384578191601 32.24356568381242 0 32.24356568381242 -2.584374986864816 0 0 0 0 -9.2796736360760406 65.874780467718665 0 65.874780467718665 29.876466413774324 0 0 0 0 19.392203367649927 108.19097910913661 0 108.19097910913661 -50.728612551778497 0 0 0 0 4.7195204692467314 61.027828906161631 0 61.027828906161631 -21.30578380804668 0 0 0 0 17.245611282647587 87.076414742929046 0 87.076414742929046 19.812630031759909 0 0 0 0 -5.0280777609980216 66.849180262883181 0 66.849180262883181 40.717355222514797 0 0 0 0 -53.842031877022237 23.025754674788914 0 23.025754674788914 211.88663073086354 0 0 0 0 12.917715477977936 41.911150810296292 0 41.911150810296292 5.2446254191591919 0 0 0 0 10.244938110234216 34.099698882241682 0 34.099698882241682 5.6215488791458625 0 0 0 0 120.86029281490482 98.490992826649745 0 98.490992826649745 -29.86664341299678 0 0 0 0 1.0948220209684223 50.976542957792844 0 50.976542957792844 -6.1459479440381983 0 0 0 0 6.3433273368282244 40.036268784664571 0 40.036268784664571 -21.964544064583606 0 0 0 0 -14.810141980007757 48.388593981020676 0 48.388593981020676 -75.170635336449777 0 0 0 0 4.8724412786832545 73.224491503431636 0 73.224491503431636 13.716771464096382 0 0 0 0 21.560993932172668 50.648831382898692 0 50.648831382898692 -42.734406168632148 0 0 0 0 12.956174441464441 49.886893558642321 0 49.886893558642321 -11.499294672040193 0 0 0 0 6.9577875539571323 46.795291702100599 0 46.795291702100599 -3.2212476290296763 0 0 0 0 6.3742836671190162 65.22866880989659 0 65.22866880989659 45.680218674810021 0 0 0 0 3.8199052070200148 83.943392807067539 0 83.943392807067539 12.869523966086842 0 0 0 0 9.7538827006978863 30.258424938254237 0 30.258424938254237 -21.054612230017998 0 0 0 0 0.79635021540718753 49.828187027437281 0 49.828187027437281 64.93531089557932 0 0 0 0 -3.0435590804241883 9.8121920688597584 0 9.8121920688597584 8.9346233634343477 0 0 0 0 1.6062655661371537 35.330149770881235 0 35.330149770881235 5.5688084186258493 0 0 0 0 3.0869746661535373 32.057278544317541 0 32.057278544317541 9.5762853299345423 0 0 0 0 7.8269511943515795 33.557172141261105 0 33.557172141261105 -20.315973888509525 0 0 0 0 -1.2856171861931216 22.379586547751387 0 22.379586547751387 7.0932155376067385 0 0 0 0 16.378673614193701 49.654347994983198 0 49.654347994983198 36.537193655654029 0 0 0 0 25.241177233314374 59.542500061783358 0 59.542500061783358 -61.853592622515862 0 0 0 0 -114.08530813490506 27.172153109815554 0 27.172153109815554 170.48753383456642 0 0 0 0 72.649555783893447 80.37640073554212 0 80.37640073554212 -45.400454244121647 0 0 0 0 -0.16156836098781469 5.6672483049364821 0 5.6672483049364821 15.242688291944653 0 0 0 0 19.115558400834004 46.427084544106108 0 46.427084544106108 -39.816023393831337 0 0 0 0 9.4510224026162177 80.799207711152121 0 80.799207711152121 -23.065409363603976 0 0 0 0 4.7013344484439585 93.73392922698531 0 93.73392922698531 -45.824988331005443 0 0 0 0 -4.1026419543715633 60.46122389839033 0 60.46122389839033 -13.404858640725791 0 0 0 0 33.046637406318041 106.25132819213195 0 106.25132819213195 -50.4846215520447 0 0 0 0 45.723809892020654 80.650400881382666 0 80.650400881382666 -42.571065495987568 0 0 0 0 17.783996783036855 106.42275022042668 0 106.42275022042668 -39.679076884738606 0 0 0 0 7.3103399553281179 50.023914908822029 0 50.023914908822029 12.199481868038282 0 0 0 0 14.095545456963009 101.1511068411055 0 101.1511068411055 -46.193814650701825 0 0 0 0 3.1001162337488495 45.828834661120709 0 45.828834661120709 -61.133442203026789 0 0 0 0 42.678310642921133 62.323713402842259 0 62.323713402842259 -130.87737850312624 0 0 0 0 2.2107170505752265 48.200850119775254 0 48.200850119775254 -19.023338577919546 0 0 0 0 8.6994695271132514 41.463606612433068 0 41.463606612433068 -52.059297113248832 0 0 0 0 23.217688113947645 77.913625538253868 0 77.913625538253868 -24.888286676728551 0 0 0 0 -0.87218553248385433 82.338538514470201 0 82.338538514470201 -5.6953305797360372 0 0 0 0 21.998461536408286 103.7026568519068 0 103.7026568519068 -56.701124415993036 0 0 0 0 28.874054160594767 74.643837863934124 0 74.643837863934124 -29.927653879098614 0 0 0 0 -15.411450837098528 116.71914521481813 0 116.71914521481813 69.360877085392531 0 0 0 0 45.382421472502756 159.77112203665456 0 159.77112203665456 -74.660163273088983 0 0 0 0 527.80282371149951 377.62351696711448 0 377.62351696711448 -17.909350261106738 0 0 0 0 78.858804127139592 110.08440990646341 0 110.08440990646341 -72.582684691893519 0 0 0 0 -658.72687951193075 -297.18101052878046 0 -297.18101052878046 248.64469321717479 0 0 0 0 -5.2068545726948514 5.4395952952066011 0 5.4395952952066011 -11.460051730045961 0 0 0 0 -1080.2586820330762 582.44008032268903 0 582.44008032268903 1684.0639477133518 0 0 0 0 314.98257831746014 223.63867627293803 0 223.63867627293803 -297.65002336263569 0 0 0 0 -432.7413142620353 -1666.395156733226 0 -1666.395156733226 -1162.2419339456537 0 0 0 0 166.99786448763916 273.07299042654631 0 273.07299042654631 -313.51557910167321 0 0 0 0 207.43504178826697 406.93488552525378 0 406.93488552525378 -607.3653075244365 0 0 0 0 -196.93428307032445 433.09660719647945 0 433.09660719647945 -231.21812287306602 0 0 0 0 210.51044216399532 72.315671114205543 0 72.315671114205543 -9.4985871395765571 0 0 0 0 -112.76519954201649 148.96827592184854 0 148.96827592184854 126.24956428662895 0 0 0 0 -109.45493554104178 103.83340545778628 0 103.83340545778628 215.3611749932752 0 0 0 0 21.446546028746525 186.02030370420835 0 186.02030370420835 185.83339860003616 0 0 0 0 -49.482448558366741 73.306743858887785 0 73.306743858887785 126.70382639234595 0 0 0 0 -94.904436997050652 63.586056135416584 0 63.586056135416584 138.96845798604045 0 0 0 0 306.57224547893566 207.87984401253561 0 207.87984401253561 53.399046828380961 0 0 0 0 1.8321747522552041 11.701426960837267 0 11.701426960837267 7.8656508718319174 0 0 0 0 -108.13109645919758 752.70228622049763 0 752.70228622049763 -647.69020102870491 0 0 0 0 210.84150458910153 -79.578262613889819 0 -79.578262613889819 -1848.1433469774893 0 0 0 0 -14.992245072388926 7.3742935994206675 0 7.3742935994206675 -3.4034438383622216 0 0 0 0 -35.220944410684751 -124.59174947716383 0 -124.59174947716383 615.83257269121532 0 0 0 0 -343.97075843017592 17.433310913742389 0 17.433310913742389 972.3681415416213 0 0 0 0 350.10157235551742 114.30889705450682 0 114.30889705450682 968.61752211847715 0 0 0 0 -97.834564140328439 66.322380413996143 0 66.322380413996143 905.60820716018861 0 0 0 0 -89.584760618832661 50.349006677086436 0 50.349006677086436 917.39091880283377 0 0 0 0 -294.55948958316003 122.92369698754919 0 122.92369698754919 1085.5387811002365 0 0 0 0 -218.2528519378975 443.84522106240911 0 443.84522106240911 899.07661415112671 0 0 0 0 -90.085534782556351 225.92384064138605 0 225.92384064138605 955.30589799525842 0 0 0 0 322.05547035732889 619.03094248488196 0 619.03094248488196 1304.2707807782281 0 0 0 0 -77.292712557937193 -31.053951614178004 0 -31.053951614178004 1373.1805596194754 0 0 0 0 613.03244615232688 379.53141613469779 0 379.53141613469779 1194.062956687636 0 0 0 0 -42.776238892649417 415.45929737392362 0 415.45929737392362 313.52886929787928 0 0 0 0 -187.64835014090932 301.07967072359315 0 301.07967072359315 677.79166381539835 0 0 0 0 -172.18940257461509 334.04021451696462 0 334.04021451696462 517.1057489377672 0 0 0 0 -366.06113400562026 461.65224093049619 0 461.65224093049619 690.16590589869884 0 0 0 0 -223.35264765127795 232.74276900733821 0 232.74276900733821 773.54187822819222 0 0 0 0 -293.6146420394507 282.1713300322408 0 282.1713300322408 801.41475767802331 0 0 0 0 -184.52003558785418 147.08401894861208 0 147.08401894861208 879.35129436162242 0 0 0 0 -95.20138060793397 206.16480393626262 0 206.16480393626262 912.16283587284852 0 0 0 0 -202.12900208648352 208.74085124375415 0 208.74085124375415 1027.8262698629296 0 0 0 0 -49.596602713383618 105.77796094032965 0 105.77796094032965 887.28165379021812 0 0 0 0 -169.42593765052152 297.1208154172491 0 297.1208154172491 676.69615352461915 0 0 0 0 470.90848619201279 50.374780215861392 0 50.374780215861392 -1471.9083467312594 0 0 0 0 -292.01556948017242 348.77029543178651 0 348.77029543178651 -847.25745435843419 0 0 0 0 -47.695141377741777 21.518915317388547 0 21.518915317388547 -6.6825285632707789 0 0 0 0 479.84340734413126 438.33248566894326 0 438.33248566894326 -840.12752351205199 0 0 0 0 383.93513778035413 224.66677308922226 0 224.66677308922226 -648.21008423672902 0 0 0 0 74.082033973492798 255.65836991535798 0 255.65836991535798 -580.65866990645009 0 0 0 0 -1125.9612359748571 937.95376396974461 0 937.95376396974461 -469.86321253182541 0 0 0 0 1096.6102636170544 -569.08016723545734 0 -569.08016723545734 -1014.8547603069455 0 0 0 0 -0.84048671701975763 -5.3484709380230129 0 -5.3484709380230129 -4.6166695505586119 0 0 0 0 926.91210007040354 215.07275279724854 0 215.07275279724854 -816.738859104109 0 0 0 0 541.80074825062184 57.134817261481658 0 57.134817261481658 -488.56288788747042 0 0 0 0 377.66798723211832 210.36167451778238 0 210.36167451778238 -601.05493306517019 0 0 0 0 -760.55698980520538 330.033515556579 0 330.033515556579 -251.70198456589424 0 0 0 0 -102.27912131894846 522.44561950453499 0 522.44561950453499 -686.19943011148644 0 0 0 0 -210.22292557902983 348.57968605131464 0 348.57968605131464 -590.51823450297525 0 0 0 0 -37.983269263771945 325.7669337307525 0 325.7669337307525 -513.19147359788622 0 0 0 0 195.44823342088785 345.09876464994886 0 345.09876464994886 -607.60542190122942 0 0 0 0 94.200830697925994 377.98356449690982 0 377.98356449690982 -258.55629458304975 0 0 0 0 46.476989745511673 216.15589310892392 0 216.15589310892392 -386.34992667526967 0 0 0 0 -176.30110855777457 245.39670512641896 0 245.39670512641896 256.9337961641213 0 0 0 0 -220.07849804946454 978.1545479489796 0 978.1545479489796 -1276.1225078479329 0 0 0 0 67.581149340723641 370.53299444506411 0 370.53299444506411 -705.16516825485451 0 0 0 0 -10.502164377103327 -216.25927198216959 0 -216.25927198216959 -210.62534944846993 0 0 0 0 86.450674686246202 335.36315154718432 0 335.36315154718432 570.95664374066109 0 0 0 0 -115.28995969088282 387.2926007284841 0 387.2926007284841 772.54676932963775 0 0 0 0 -75.185136118991466 29.05991117221825 0 29.05991117221825 -8.0479413248338574 0 0 0 0 -90.818088954431005 240.74565865856857 0 240.74565865856857 626.47635938527674 0 0 0 0 -53.578386327419139 241.39118466818582 0 241.39118466818582 330.61268909517094 0 0 0 0 -104.8649429003126 328.91134930233238 0 328.91134930233238 571.50664283634796 0 0 0 0 -51.008714942479855 438.47336639216519 0 438.47336639216519 349.63522519861726 0 0 0 0 -135.5225093111012 305.51610896155012 0 305.51610896155012 183.15264833587571 0 0 0 0 -153.95397794002201 229.55414252619084 0 229.55414252619084 305.6034646203334 0 0 0 0 -44.934250611077687 85.694139735396533 0 85.694139735396533 29.30319187063489 0 0 0 0 -194.95438575965818 132.72277526832477 0 132.72277526832477 81.680579698280781 0 0 0 0 -88.911350702823256 288.11187811904529 0 288.11187811904529 288.8610032867582 0 0 0 0 -99.972167979402002 258.73970533901593 0 258.73970533901593 223.39800957632542 0 0 0 0 -135.22620360046858 272.5620511897796 0 272.5620511897796 333.5770388459714 0 0 0 0 -423.99813804434962 27.042006255229353 0 27.042006255229353 609.31278008762092 0 0 0 0 -88.086209356495715 37.603941880408627 0 37.603941880408627 -9.0395796397511532 0 0 0 0 -158.39130104141077 582.92535175233206 0 582.92535175233206 831.78258581232512 0 0 0 0 -204.22874194665928 907.98056323552737 0 907.98056323552737 1157.6043536595389 0 0 0 0 -13.620952585477369 -3.8640191334544909 0 -3.8640191334544909 16.492073923172356 0 0 0 0 5.6740182970563637 14.355257825853187 0 14.355257825853187 -12.542056704440782 0 0 0 0 -50.834173293773347 147.58446121856014 0 147.58446121856014 1308.0222594355 0 0 0 0 -1477.0703049615986 321.62349152442039 0 321.62349152442039 1317.518322093907 0 0 0 0 -199.74979621606326 1067.6981289060041 0 1067.6981289060041 -697.50295934488531 0 0 0 0 -1236.4661355817516 1000.3161160733798 0 1000.3161160733798 1213.6134537717408 0 0 0 0 105.58452339619907 309.55083298915906 0 309.55083298915906 -248.00553782528732 0 0 0 0 285.00268065714499 574.80754688539855 0 574.80754688539855 -1211.6453494252492 0 0 0 0 286.01260325996554 534.91450022939534 0 534.91450022939534 -415.53272685712727 0 0 0 0 233.83406593523978 117.33917821712748 0 117.33917821712748 -527.29398743424099 0 0 0 0 193.7978894319765 273.86947103924115 0 273.86947103924115 -715.2306627392536 0 0 0 0 268.08303999286727 82.232806285006518 0 82.232806285006518 -1031.6103247426399 0 0 0 0 351.49145274923649 -238.54345142374586 0 -238.54345142374586 -205.19715424033348 0 0 0 0 65.259626119463064 201.57388140583862 0 201.57388140583862 -241.24097375904967 0 0 0 0 45.649969295162009 182.27948282678699 0 182.27948282678699 -192.02419733570423 0 0 0 0 22.609926135541173 229.33205255797657 0 229.33205255797657 -121.1279793123831 0 0 0 0 78.213845314370701 218.66092621663847 0 218.66092621663847 -316.97361177646962 0 0 0 0 51.382150295059546 228.74987031688943 0 228.74987031688943 -319.16096211322292 0 0 0 0 23.469179299769166 302.60362777793307 0 302.60362777793307 -504.54594204899331 0 0 0 0 -226.77065595674503 309.49018236486882 0 309.49018236486882 -232.55261961543874 0 0 0 0 -196.76393115145038 122.93788758334267 0 122.93788758334267 -178.25445674423099 0 0 0 0 -138.71853619793546 235.89018978557215 0 235.89018978557215 -12.142993500245211 0 0 0 0 4.3511367701474342 27.833084681562411 0 27.833084681562411 -18.281212338262009 0 0 0 0 -102.16388774877123 190.22788829987257 0 190.22788829987257 -130.55743572405845 0 0 0 0 -119.98904346445488 151.82606261100591 0 151.82606261100591 117.5075535957003 0 0 0 0 -49.387450266600354 270.97915916208876 0 270.97915916208876 -190.27257902547717 0 0 0 0 -29.337377905554604 184.11834621055459 0 184.11834621055459 -157.597639168569 0 0 0 0 76.730295954330359 162.47686236716254 0 162.47686236716254 -140.89896805021272 0 0 0 0 4.3069309687633677 134.55643221472698 0 134.55643221472698 -41.470877992106104 0 0 0 0 -89.282940999299171 52.271033408342191 0 52.271033408342191 -312.57782689157148 0 0 0 0 32.759806371890591 91.710428649307687 0 91.710428649307687 -83.867645879119664 0 0 0 0 20.945708771650075 34.719965578638835 0 34.719965578638835 -124.70167723904187 0 0 0 0 -4.6625412412977312 60.57128389519039 0 60.57128389519039 -181.45690940478744 0 0 0 0 -10.91166878510839 32.850231632691077 0 32.850231632691077 -19.986833285482071 0 0 0 0 10.931319902534597 35.920662856873605 0 35.920662856873605 -15.968322567727171 0 0 0 0 42.244818763036164 56.627144585494534 0 56.627144585494534 -359.63454871701833 0 0 0 0 26.375460443058444 15.501354618841617 0 15.501354618841617 -34.170652575452515 0 0 0 0 4.6644069451506311 25.393981997613352 0 25.393981997613352 -7.7040424000134529 0 0 0 0 3.6578853551039288 1.3818730237988461 0 1.3818730237988461 -2.3109365305355141 0 0 0 0 -64.85368154552998 161.2343866589963 0 161.2343866589963 -314.64289639390336 0 0 0 0 17.073523682367522 185.04548514398994 0 185.04548514398994 -312.70037120082998 0 0 0 0 3.60658478433254 2.2560627669931002 0 2.2560627669931002 -2.6864970143677285 0 0 0 0 -228.67390209561017 1075.9926496641597 0 1075.9926496641597 2481.6517186605633 0 0 0 0 -204.91748433353496 823.06385982311713 0 823.06385982311713 810.67703644670473 0 0 0 0 160.78293662135547 694.22356199602109 0 694.22356199602109 769.63712487512566 0 0 0 0 -219.76225688848172 -182.19982900306309 0 -182.19982900306309 -64.298397506991023 0 0 0 0 -159.60926147526243 333.30366928379073 0 333.30366928379073 559.93161349641741 0 0 0 0 16.434233683741525 133.48280928190337 0 133.48280928190337 -25.894163514420804 0 0 0 0 -93.68395872030851 77.218624400150418 0 77.218624400150418 -202.31841057985366 0 0 0 0 117.98350962344557 -120.05574306528433 0 -120.05574306528433 -687.05950948560849 0 0 0 0 1033.0350566685374 891.75095032747413 0 891.75095032747413 -60.595425461717241 0 0 0 0 1062.9453509796003 606.12292411431372 0 606.12292411431372 -25.828850864722199 0 0 0 0 1004.8030380669516 764.30923480261299 0 764.30923480261299 -431.06147951626644 0 0 0 0 756.24411864561262 1176.4615239818813 0 1176.4615239818813 -318.79678951550432 0 0 0 0 625.01897794001127 1293.2751211357668 0 1293.2751211357668 -449.85455315799481 0 0 0 0 624.83327968995332 1342.4557538750933 0 1342.4557538750933 310.32315994526653 0 0 0 0 437.82674771192251 2225.5083139546659 0 2225.5083139546659 773.40075195817917 0 0 0 0 372.28891277243383 986.1389945718538 0 986.1389945718538 678.28615603778962 0 0 0 0 387.50272141979076 603.06047051561836 0 603.06047051561836 754.61439859781922 0 0 0 0 423.76382133451625 839.93039167938696 0 839.93039167938696 307.4855351628139 0 0 0 0 792.84783451340627 943.87630679350707 0 943.87630679350707 302.25031538922121 0 0 0 0 -2.0063558658690539 16.885303822063634 0 16.885303822063634 23.39677779092122 0 0 0 0 208.54722057975596 241.72284308279995 0 241.72284308279995 196.94327158541273 0 0 0 0 377.34685047261883 260.38679517015771 0 260.38679517015771 202.49414570215959 0 0 0 0 310.25411686912412 186.65249762639723 0 186.65249762639723 122.62727084417929 0 0 0 0 -18.332677435799269 -133.28324971079655 0 -133.28324971079655 -108.02384067481762 0 0 0 0 1041.1826816975954 518.61088183158608 0 518.61088183158608 21.871260579977388 0 0 0 0 424.38049867746304 496.38697391582537 0 496.38697391582537 365.08326577338084 0 0 0 0 -52.132195215504908 167.81867541444444 0 167.81867541444444 -36.259146919233899 0 0 0 0 -3.7370827927254027 28.218406580997083 0 28.218406580997083 -32.847929715153107 0 0 0 0 34.839274025478517 33.303669267626901 0 33.303669267626901 -34.965466387817287 0 0 0 0 3.3157731903775129 49.463444710360818 0 49.463444710360818 -36.498327815994344 0 0 0 0 5.0699104694504058 19.986722077102854 0 19.986722077102854 -32.35121691911354 0 0 0 0 74.538772943342337 85.463079471667697 0 85.463079471667697 88.518618484064064 0 0 0 0 -2.4941798902242454 4.8740033663123512 0 4.8740033663123512 -6.887918487555261 0 0 0 0 -47.796927515417337 -107.12004896918006 0 -107.12004896918006 16.792857869069394 0 0 0 0 2324.1516628332029 244.42986250879858 0 244.42986250879858 -164.95776375830621 0 0 0 0 2.1071069415336012 2.1550130088170647 0 2.1550130088170647 10.530864771499232 0 0 0 0 659.31800247321371 229.35031863147742 0 229.35031863147742 -163.01651907381165 0 0 0 0 -180.33194551758788 -44.602424532557961 0 -44.602424532557961 440.72960324422456 0 0 0 0 296.59132415012573 758.88431656436478 0 758.88431656436478 698.36780640656161 0 0 0 0 60.860967736625753 90.645065715631517 0 90.645065715631517 362.96243307458644 0 0 0 0 -177.08854994355352 18.967497600551724 0 18.967497600551724 550.60685695340908 0 0 0 0 -2.45262994983932 291.62723614972947 0 291.62723614972947 -3.9727601999766193 0 0 0 0 529.14061210593354 323.5164067988303 0 323.5164067988303 -85.222299184613803 0 0 0 0 189.50973945908481 981.30262702263144 0 981.30262702263144 -244.4538581677225 0 0 0 0 -158.69178109418135 629.1699921800373 0 629.1699921800373 -550.41518339395043 0 0 0 0 1466.6884334599163 317.52590050822073 0 317.52590050822073 590.98228012902837 0 0 0 0 1337.2295008571091 792.36887485988336 0 792.36887485988336 -125.40459845575424 0 0 0 0 1457.0871693719091 256.53209328738194 0 256.53209328738194 306.09809829460664 0 0 0 0 11.691072294250262 11.33990905981733 0 11.33990905981733 -28.217046124104449 0 0 0 0 375.2444389391967 -576.55288102950703 0 -576.55288102950703 -1118.7124398968081 0 0 0 0 744.62344634110923 800.32124694371396 0 800.32124694371396 709.81038522666313 0 0 0 0 1589.3255077266367 1079.3541313691867 0 1079.3541313691867 243.18425105112328 0 0 0 0 404.76931068854174 408.4741047405314 0 408.4741047405314 340.84895207340378 0 0 0 0 5.9482009378558018 17.78275862603526 0 17.78275862603526 -32.691236315576027 0 0 0 0 1917.1320651864517 932.38767898800143 0 932.38767898800143 -381.71921226588029 0 0 0 0 461.87145559399505 374.07600106282098 0 374.07600106282098 -343.57011599616453 0 0 0 0 408.99772359273447 -126.5595535495894 0 -126.5595535495894 -605.64346073407432 0 0 0 0 664.66178594394296 -227.95767418004561 0 -227.95767418004561 -751.19225367453691 0 0 0 0 -64.636776263112552 78.272466685604741 0 78.272466685604741 -724.37762045772979 0 0 0 0 -65.066202010115376 461.51100444542681 0 461.51100444542681 322.75017655005831 0 0 0 0 905.09026428963261 -205.06076962380666 0 -205.06076962380666 -918.06149263697262 0 0 0 0 1140.8016922322458 635.71602122212425 0 635.71602122212425 -359.12858925854744 0 0 0 0 5.1496044836694637 2.6820215362648412 0 2.6820215362648412 -18.468550981931728 0 0 0 0 1202.5599828856939 928.53544374841658 0 928.53544374841658 160.49378243754109 0 0 0 0 0.36170776461548826 6.3022602071217193 0 6.3022602071217193 -14.932600657921896 0 0 0 0 154.54300946651347 146.18467789418446 0 146.18467789418446 390.31227510320969 0 0 0 0 2.6954030744072881 7.1177791109502095 0 7.1177791109502095 -10.99361421852538 0 0 0 0 -2055.868306407443 1454.8645794615331 0 1454.8645794615331 9.6007518950718804 0 0 0 0 464.30210685066413 1117.0406944768001 0 1117.0406944768001 -1358.8355454188641 0 0 0 0 -210.1328933678742 458.69041903843208 0 458.69041903843208 662.14145496222591 0 0 0 0 -384.61566469041281 846.83620198479002 0 846.83620198479002 -124.97257049410473 0 0 0 0 111.22185398160946 88.540514060645364 0 88.540514060645364 338.57554655904823 0 0 0 0 -206.35981724690646 174.13084826835257 0 174.13084826835257 50.386069832326029 0 0 0 0 -36.880850238521816 357.57652248522572 0 357.57652248522572 242.78421174723189 0 0 0 0 -196.72750846846611 343.33050055372587 0 343.33050055372587 345.64518152688288 0 0 0 0 -194.60640071908711 294.28271425389539 0 294.28271425389539 307.77117151332641 0 0 0 0 -191.82272080064286 266.33182640196173 0 266.33182640196173 586.02115353937552 0 0 0 0 128.06264747129171 305.31463424001049 0 305.31463424001049 239.42866882469389 0 0 0 0 -403.39230727480026 440.16482742965854 0 440.16482742965854 224.32999238531193 0 0 0 0 1748.4924657116353 -397.12143839040073 0 -397.12143839040073 -363.31778323020626 0 0 0 0 1334.3935044700338 1085.2511911495221 0 1085.2511911495221 442.32601291567335 0 0 0 0 72.041058591385081 391.80222502885454 0 391.80222502885454 1584.8888336024538 0 0 0 0 479.03640763880685 393.13826798729133 0 393.13826798729133 41.261626162457105 0 0 0 0 139.32114941850887 374.1262403997207 0 374.1262403997207 -461.66457852323947 0 0 0 0 380.7585170668317 805.95491090138239 0 805.95491090138239 249.76185127772987 0 0 0 0 -316.95927323622163 1232.1988922905994 0 1232.1988922905994 -258.18325621876284 0 0 0 0 1081.6241210393491 564.88122168395967 0 564.88122168395967 -142.54435035259939 0 0 0 0 397.39834237382456 490.60662209755992 0 490.60662209755992 172.42345793242566 0 0 0 0 147.88925336815009 168.36643302277389 0 168.36643302277389 -951.55736890526896 0 0 0 0 403.09834586293437 1113.7009014688629 0 1113.7009014688629 -1820.6882332781624 0 0 0 0 1416.6165710219939 2851.1685095189277 0 2851.1685095189277 894.09651442489849 0 0 0 0 5.4572978800957799 4.6389158407852875 0 4.6389158407852875 -11.209980684039088 0 0 0 0 -233.72837344414438 -1262.131721669688 0 -1262.131721669688 -2741.7522263846822 0 0 0 0 2260.3501698774926 2556.6027539826719 0 2556.6027539826719 -2692.1447517459601 0 0 0 0 398.34290242931456 -195.32654466516669 0 -195.32654466516669 -3660.7305118489548 0 0 0 0 -4.8005479523458234 5.7485198184587532 0 5.7485198184587532 -4.745174135123488 0 0 0 0 2015.96180563897 1929.0889458818915 0 1929.0889458818915 370.60834681072447 0 0 0 0 355.67686849701568 1949.1306700745936 0 1949.1306700745936 422.93882255840344 0 0 0 0 598.84201480775664 1626.3024473238966 0 1626.3024473238966 -2303.8840361148359 0 0 0 0 64.439279241341865 877.65271016947372 0 877.65271016947372 -1231.4960696974572 0 0 0 0 -52.98767441498785 282.96239986696469 0 282.96239986696469 -827.98430953936258 0 0 0 0 104.49304210959235 184.00935468552416 0 184.00935468552416 -1186.3341391027038 0 0 0 0 34.846041292115956 25.71471269331073 0 25.71471269331073 -6.4814890254012596 0 0 0 0 -72.531997197495002 322.77552293930228 0 322.77552293930228 -635.42443973724767 0 0 0 0 49.866347123781452 120.09426504064322 0 120.09426504064322 -28.201665509791383 0 0 0 0 -40.044116745542965 39.300836527385655 0 39.300836527385655 -18.737006153685371 0 0 0 0 1501.5554257686972 -1.1563714053165768 0 -1.1563714053165768 -49.825927036585199 0 0 0 0 2.7160074541892527 17.293513661393916 0 17.293513661393916 -0.17690911755894234 0 0 0 0 732.56900565212709 24.951467474033052 0 24.951467474033052 3.9232319147004091 0 0 0 0 -7.2935945312024728 24.730253119371426 0 24.730253119371426 -12.140292232447221 0 0 0 0 296.57609746462549 770.7575710763449 0 770.7575710763449 349.36291181001434 0 0 0 0 -98.106329840375111 248.59793582104794 0 248.59793582104794 -7.6947587053364259 0 0 0 0 1127.149722365808 1206.9775589818255 0 1206.9775589818255 -220.39081313885254 0 0 0 0 1036.9086688639945 1452.9373311378949 0 1452.9373311378949 214.15429041212337 0 0 0 0 1230.4169337213389 763.57500869511205 0 763.57500869511205 12.151168875039673 0 0 0 0 -17.888750477974099 -230.13873147108143 0 -230.13873147108143 -466.86877090647977 0 0 0 0 176.99955949411378 261.10565107730054 0 261.10565107730054 -138.08753633801825 0 0 0 0 411.94093976936711 31.283174495535604 0 31.283174495535604 -107.81640173274354 0 0 0 0 -290.79266293355613 807.22567123185581 0 807.22567123185581 -327.99851201819411 0 0 0 0 1499.7554351717408 776.97898613434154 0 776.97898613434154 -141.82487078691105 0 0 0 0 4145.0640258319763 756.00274969323164 0 756.00274969323164 -886.08216229521258 0 0 0 0 -102.64099779548997 461.60639677552717 0 461.60639677552717 -660.13252501925581 0 0 0 0 11.129735725902719 606.62301319838389 0 606.62301319838389 -3172.5452905870525 0 0 0 0 94.565683635184541 258.15809901563898 0 258.15809901563898 220.51876482028001 0 0 0 0 -143.78115092638473 -20.129109372433959 0 -20.129109372433959 -183.97819914675188 0 0 0 0 -31.842514426162779 22.302971923002389 0 22.302971923002389 -15.962460701747048 0 0 0 0 -164.65483709268665 120.19852541705291 0 120.19852541705291 -1059.2091056048521 0 0 0 0 201.82864120152226 187.07506328463273 0 187.07506328463273 -198.22260453397757 0 0 0 0 -21.888034818402957 -24.0695036596926 0 -24.0695036596926 -84.629871550948337 0 0 0 0 51.015438473696122 72.006076412827952 0 72.006076412827952 -85.993244371368746 0 0 0 0 76.045306391097256 56.993015555274269 0 56.993015555274269 -92.120565414117664 0 0 0 0 56.531621314774384 -27.972319501933271 0 -27.972319501933271 -68.001885024873786 0 0 0 0 44.27166765734728 69.433949674592952 0 69.433949674592952 -97.822433268462191 0 0 0 0 -4.0654973461932968 890.68459678089312 0 890.68459678089312 -1633.5837896724688 0 0 0 0 -396.19712216847984 1370.8013035495519 0 1370.8013035495519 -1425.8626801000282 0 0 0 0 -258.5670756479376 1055.2282839266645 0 1055.2282839266645 -943.27847273943644 0 0 0 0 19.976042812253581 795.54948357543981 0 795.54948357543981 -1297.0228470448765 0 0 0 0 -511.64700159168569 350.47363887974916 0 350.47363887974916 -27.981687993305968 0 0 0 0 29.964698819944488 9.8938478676568309 0 9.8938478676568309 -7.2121656596206698 0 0 0 0 -497.23798659093154 362.38922862815889 0 362.38922862815889 -741.49155541547589 0 0 0 0 -501.68938060918686 868.85472120407383 0 868.85472120407383 -718.42887009561127 0 0 0 0 -147.43316046983819 650.64510353452806 0 650.64510353452806 -632.80244866908606 0 0 0 0 -51.879109624031116 739.38521081408317 0 739.38521081408317 -675.7621280732983 0 0 0 0 94.858979949553031 440.03673929115757 0 440.03673929115757 -764.72440161770146 0 0 0 0 -93.770429010051885 397.23284851807784 0 397.23284851807784 -11.165386022665189 0 0 0 0 -103.77000721651712 175.4477365297098 0 175.4477365297098 67.75249686411189 0 0 0 0 -14.21029393086792 52.558546466216285 0 52.558546466216285 126.30884442486604 0 0 0 0 -1.2116298971124024 3.8035072367643039 0 3.8035072367643039 -6.5822967808081572 0 0 0 0 92.724695729193627 343.32954973186861 0 343.32954973186861 -1230.3393910232826 0 0 0 0 108.725668029394 132.07112505750774 0 132.07112505750774 -210.39208072828842 0 0 0 0 45.791870949695294 31.953130704202977 0 31.953130704202977 -14.963273185503567 0 0 0 0 6.5971621885255445 90.698033612427025 0 90.698033612427025 82.498448603660563 0 0 0 0 -5.7423063065624547 11.596754169335853 0 11.596754169335853 -8.2746837341009893 0 0 0 0 46.71206305949454 28.073601723946922 0 28.073601723946922 1.3886157746637764 0 0 0 0 11.73412022809498 52.737904170040565 0 52.737904170040565 161.02518966300704 0 0 0 0 4.6608099226505146 46.600992656409744 0 46.600992656409744 -46.716730071150778 0 0 0 0 46.745160012767883 16.822995548833205 0 16.822995548833205 4.3419701096531753 0 0 0 0 9.2069015423332985 24.054211886253071 0 24.054211886253071 12.353227782169579 0 0 0 0 -1.9225312404159922 46.125516665747909 0 46.125516665747909 -46.248385145203883 0 0 0 0 49.011271887255134 12.180353694813675 0 12.180353694813675 -22.331781043383671 0 0 0 0 4.1357397385290824 52.189105637585271 0 52.189105637585271 -71.538980976013363 0 0 0 0 17.40937589822164 26.916901288235863 0 26.916901288235863 1.2712899122820573 0 0 0 0 -100.21007361117518 1.2413634363347228 0 1.2413634363347228 46.413355739947292 0 0 0 0 -22.268744782180875 124.23581163837025 0 124.23581163837025 38.20578041295812 0 0 0 0 180.57012502447469 126.04143717712577 0 126.04143717712577 -33.654577760522443 0 0 0 0 54.735990442088223 20.807258027074568 0 20.807258027074568 46.005694649138604 0 0 0 0 4.6475007955823902 15.507541690238526 0 15.507541690238526 -17.37563934996858 0 0 0 0 90.117798413339187 174.35673307619709 0 174.35673307619709 52.534917529997983 0 0 0 0 518.16180858696271 -113.07903846708591 0 -113.07903846708591 -688.81157089294538 0 0 0 0 -0.6397823677923018 -2.3730884332734092 0 -2.3730884332734092 -8.1264643238192704 0 0 0 0 -37.174600112630287 -66.173628505588567 0 -66.173628505588567 -128.34803760486648 0 0 0 0 -294.70257594171562 166.3839451901531 0 166.3839451901531 61.042433291757789 0 0 0 0 -427.90050013070868 1698.2343647291154 0 1698.2343647291154 -1956.9821378595552 0 0 0 0 1178.0819235588133 -771.60313722150931 0 -771.60313722150931 -69.115428373258055 0 0 0 0 6.2570403414021598 2.4247906308501967 0 2.4247906308501967 -3.4683474939929688 0 0 0 0 -1276.4156689227423 1239.6594944994588 0 1239.6594944994588 -1157.3319823022593 0 0 0 0 -816.89986180464621 356.73763345977113 0 356.73763345977113 -96.706934129477304 0 0 0 0 -1075.0473576700242 1100.244732764301 0 1100.244732764301 -564.61832584819422 0 0 0 0 71.665814491842866 243.88715898668653 0 243.88715898668653 -507.22353719827697 0 0 0 0 -326.44417075579986 99.539598761774869 0 99.539598761774869 120.95800710652497 0 0 0 0 197.82638020953164 84.211122729715498 0 84.211122729715498 -908.49674091325869 0 0 0 0 29.181155869846407 630.53699225091646 0 630.53699225091646 -869.88216648918024 0 0 0 0 508.49008118349593 217.76245372823178 0 217.76245372823178 -1260.5857175967485 0 0 0 0 -12.445605281420285 -476.09765743439675 0 -476.09765743439675 -1056.6395851856723 0 0 0 0 -1596.0965438006388 803.88582050814875 0 803.88582050814875 -185.66318024004795 0 0 0 0 4.7117865141036788 13.09502558154486 0 13.09502558154486 -8.4374852958684627 0 0 0 0 -201.14933902339544 1542.423070081908 0 1542.423070081908 -1407.9683765477675 0 0 0 0 -1211.5817074030056 -1396.0323654497661 0 -1396.0323654497661 -849.27273432211723 0 0 0 0 -363.02738798491191 908.79646645144021 0 908.79646645144021 -917.47944417770395 0 0 0 0 540.71860426280182 86.35427883774355 0 86.35427883774355 -1473.984947265194 0 0 0 0 2.7396826800650729 -0.8688721426120054 0 -0.8688721426120054 0.93255048922704509 0 0 0 0 8.6081883377196959 -0.15367774705288184 0 -0.15367774705288184 -0.89288240677290709 0 0 0 0 239.98864096301259 13.111311186338753 0 13.111311186338753 -381.78403601691389 0 0 0 0 -0.62165420624660328 51.321807541951785 0 51.321807541951785 -186.32562466941908 0 0 0 0 259.9537222731451 -283.77461211243462 0 -283.77461211243462 -16.014610659776736 0 0 0 0 40.323935166088631 84.854700745948321 0 84.854700745948321 -407.55921625992778 0 0 0 0 535.01021601288812 132.37034631362076 0 132.37034631362076 -580.94169695853748 0 0 0 0 633.0445688025211 613.75675272200533 0 613.75675272200533 -1026.7644410711528 0 0 0 0 -511.46622083647526 851.96481512399987 0 851.96481512399987 -506.43445102584519 0 0 0 0 170.72980872518383 -58.202967556006115 0 -58.202967556006115 -1132.7258514901268 0 0 0 0 226.66152834024979 -202.28645163476267 0 -202.28645163476267 -1420.0141225630814 0 0 0 0 160.92504130341695 239.18108212898892 0 239.18108212898892 -759.93109209541763 0 0 0 0 141.66515553518548 376.88858818207132 0 376.88858818207132 -1678.4204429795464 0 0 0 0 1343.4305975421103 456.56646518200841 0 456.56646518200841 -833.86189117609865 0 0 0 0 192.91676190623548 -40.377623264740578 0 -40.377623264740578 -1160.816070140706 0 0 0 0 162.11603058470064 25.05873687384792 0 25.05873687384792 -442.32713078030974 0 0 0 0 409.32082973999786 541.81423551748776 0 541.81423551748776 -607.82465067484327 0 0 0 0 55.807888706083759 506.28825561142776 0 506.28825561142776 -367.21162682830436 0 0 0 0 179.82675538046169 590.58334391807875 0 590.58334391807875 -496.16615023931718 0 0 0 0 12.446479192141851 671.99231358347163 0 671.99231358347163 -1023.8292026767613 0 0 0 0 0.95970901570399292 677.63043109498904 0 677.63043109498904 -885.77363206103132 0 0 0 0 -500.66356792408624 1249.0799050242294 0 1249.0799050242294 -623.31636534877225 0 0 0 0 50.999034299660707 733.62160200742528 0 733.62160200742528 -1108.5272870811141 0 0 0 0 -244.31932231973042 846.0913126368423 0 846.0913126368423 -214.45341948147689 0 0 0 0 -274.32414645340759 922.51809261630797 0 922.51809261630797 -395.65686593855389 0 0 0 0 -279.56445199102745 780.23524337454182 0 780.23524337454182 -315.94118620831159 0 0 0 0 -62.159302982414374 609.96726672304067 0 609.96726672304067 -199.6022051144646 0 0 0 0 -183.15555710560875 408.39064647056784 0 408.39064647056784 -173.66117170129519 0 0 0 0 38.362101547929342 127.84049043420373 0 127.84049043420373 -49.075086533684953 0 0 0 0 232.06482954759849 326.75518698167252 0 326.75518698167252 -265.44167463980239 0 0 0 0 87.030572349416616 360.24801803640412 0 360.24801803640412 -180.30268220902144 0 0 0 0 298.17413138382835 -12.516234687178439 0 -12.516234687178439 207.92238364227387 0 0 0 0 682.97848237439757 150.76096865285717 0 150.76096865285717 -404.13397534209253 0 0 0 0 19.03142396169693 5.5619878805732412 0 5.5619878805732412 -9.942152118208039 0 0 0 0 244.22662502850289 -131.9544107083093 0 -131.9544107083093 30.07204495780752 0 0 0 0 -797.52149141047994 631.46911492585195 0 631.46911492585195 -1817.8990321079364 0 0 0 0 343.67617772649101 109.447962889275 0 109.447962889275 -111.28971983332121 0 0 0 0 13.859241687867325 4.1418529671054785 0 4.1418529671054785 63.118537079455564 0 0 0 0 159.9514922760718 86.89991443682402 0 86.89991443682402 -126.89180414000839 0 0 0 0 -221.81262180127669 168.8863410347999 0 168.8863410347999 -87.414498857247509 0 0 0 0 -25.367789074938628 15.052950257663269 0 15.052950257663269 -118.84989416025019 0 0 0 0 -101.18925852020766 137.44481174261 0 137.44481174261 -191.49917406878012 0 0 0 0 -134.09682024738504 419.71615013546818 0 419.71615013546818 -227.73488894495131 0 0 0 0 -306.52079636621056 402.70408094231743 0 402.70408094231743 -158.8273320506878 0 0 0 0 -809.49904164957115 638.59054362671691 0 638.59054362671691 -245.6133740222831 0 0 0 0 -527.74752471724059 87.044581727387595 0 87.044581727387595 -23.496971695063621 0 0 0 0 -442.2144729082429 224.08169475480577 0 224.08169475480577 -227.75096931077678 0 0 0 0 -1075.5461301617033 155.11113328587544 0 155.11113328587544 509.616938007116 0 0 0 0 -1486.9763828693249 1032.6621425574194 0 1032.6621425574194 -214.55156525521542 0 0 0 0 49.727908880624454 -72.564793401950737 0 -72.564793401950737 -224.93763213377315 0 0 0 0 -623.13065832729626 586.62763970909828 0 586.62763970909828 -518.14068526922165 0 0 0 0 -935.04935749922879 1368.4988312523847 0 1368.4988312523847 -1382.6526955622176 0 0 0 0 -532.59443268948235 543.96931078953912 0 543.96931078953912 -2360.2434625699034 0 0 0 0 -11.593329724114824 9.1361373979527087 0 9.1361373979527087 -7.5689611834709964 0 0 0 0 -40.224290847283555 632.0910698122243 0 632.0910698122243 -1412.3916240013277 0 0 0 0 -259.18937375921814 812.60260294421141 0 812.60260294421141 -1552.4404594696935 0 0 0 0 -258.05744835401129 623.83229914467483 0 623.83229914467483 -1779.0299974467598 0 0 0 0 -489.54184703127248 880.10538779551734 0 880.10538779551734 -1379.2207464894227 0 0 0 0 -249.81596204765083 586.54483580952774 0 586.54483580952774 -1108.4419070974318 0 0 0 0 -147.03282727573969 766.94953605275987 0 766.94953605275987 -1346.5198055781475 0 0 0 0 -327.79374309096602 838.06592331395177 0 838.06592331395177 -366.97509912610622 0 0 0 0 -420.87764237019292 636.45706391548356 0 636.45706391548356 -352.68834293221244 0 0 0 0 -569.58129675872624 935.53795223158886 0 935.53795223158886 -706.94262993013399 0 0 0 0 -418.69396764750127 848.71622211825388 0 848.71622211825388 -241.95516528734606 0 0 0 0 -561.41594491231081 651.66747526923018 0 651.66747526923018 -169.76653971861379 0 0 0 0 -401.13941699036513 826.33115243299108 0 826.33115243299108 -216.14070712994544 0 0 0 0 -33.136389007122489 600.98830355838027 0 600.98830355838027 -177.62639116976061 0 0 0 0 -401.14364297453767 828.11815905871788 0 828.11815905871788 98.588890899281978 0 0 0 0 149.57081527845003 780.3956057383466 0 780.3956057383466 299.19771927811007 0 0 0 0 963.24767613898439 233.96143027444441 0 233.96143027444441 143.86405850066694 0 0 0 0 640.98034413126879 132.70497798526003 0 132.70497798526003 -389.0140796935093 0 0 0 0 714.1317670977387 644.64300503228151 0 644.64300503228151 484.01870364202296 0 0 0 0 35.672045305269421 826.29783680294031 0 826.29783680294031 184.06592432179878 0 0 0 0 5.0637669333518716 384.48940626057447 0 384.48940626057447 -729.87118136757499 0 0 0 0 129.47491719411119 679.73049996083478 0 679.73049996083478 -933.71522697163891 0 0 0 0 803.25063668115763 229.07008451481306 0 229.07008451481306 -1659.6439733231496 0 0 0 0 844.32801440207913 695.60870818275885 0 695.60870818275885 -1921.0302396376374 0 0 0 0 3868.8679677025502 573.81560486283797 0 573.81560486283797 -2565.2918509931774 0 0 0 0 2234.9800592621905 932.41714821864025 0 932.41714821864025 -2494.9265964098272 0 0 0 0 49.122212568938266 1219.0365415989386 0 1219.0365415989386 -2404.0298614277272 0 0 0 0 263.57788988345419 767.6459293510502 0 767.6459293510502 -1739.5645943967193 0 0 0 0 2.081437303480925 1077.3990976670934 0 1077.3990976670934 -3378.7274137360632 0 0 0 0 2232.2052007435123 847.13677682141679 0 847.13677682141679 -4211.6024758300391 0 0 0 0 2214.1036579212232 -221.7734807926181 0 -221.7734807926181 -2421.1858495438901 0 0 0 0 -2.1024819451149455 10.936910028206057 0 10.936910028206057 -30.099667490616568 0 0 0 0 1549.4418664799014 -555.32152183564131 0 -555.32152183564131 -689.89386237337749 0 0 0 0 -2.5327590551552408 196.54214193846957 0 196.54214193846957 -173.72030350283057 0 0 0 0 -1298.6846778938925 1902.4060699142299 0 1902.4060699142299 -2101.1958547585896 0 0 0 0 -6.3709030033751901 28.155823621342108 0 28.155823621342108 -72.492389170725758 0 0 0 0 2124.5920738957357 1014.6037573539083 0 1014.6037573539083 -140.48339889869885 0 0 0 0 184.85265942258411 295.67288461633052 0 295.67288461633052 -124.43813341654914 0 0 0 0 0.56392172355845105 289.32846600784978 0 289.32846600784978 -41.474295681060539 0 0 0 0 76.761494050588226 -99.902871992984728 0 -99.902871992984728 -296.80876951303344 0 0 0 0 -0.23944909173587803 335.73339369387031 0 335.73339369387031 -1002.1330371237455 0 0 0 0 270.3144816968852 92.573664798554091 0 92.573664798554091 -1621.4672289615937 0 0 0 0 -51.841432843910297 335.06548324473806 0 335.06548324473806 -1181.4093814300222 0 0 0 0 -10.423764744462801 36.901620913501489 0 36.901620913501489 -87.027275428985433 0 0 0 0 557.52797937818104 99.444982536172574 0 99.444982536172574 -1106.402080104348 0 0 0 0 1010.5766962306079 1024.3572649739644 0 1024.3572649739644 -461.12934641006132 0 0 0 0 -352.26371072800248 1033.2641457853706 0 1033.2641457853706 -66.402858261081747 0 0 0 0 106.16326366593421 629.75737647211508 0 629.75737647211508 -216.65940799961027 0 0 0 0 -652.64669712245814 769.76094987775605 0 769.76094987775605 -230.16331885214157 0 0 0 0 -1171.8388134087727 391.36699595695245 0 391.36699595695245 -934.86970570922904 0 0 0 0 350.03431065643963 444.02208372779296 0 444.02208372779296 -941.52888026497249 0 0 0 0 176.31524657664704 1491.4605699176705 0 1491.4605699176705 -3115.5835758140838 0 0 0 0 -9.6788940234462046 35.027836562129579 0 35.027836562129579 -88.711663078824628 0 0 0 0 90.554317824506143 257.4984672640303 0 257.4984672640303 -1886.4750139890311 0 0 0 0 -211.10399260628037 -208.02134578058394 0 -208.02134578058394 -90.994726839791838 0 0 0 0 -9.0095299025197164 4.4027022743891848 0 4.4027022743891848 -30.518720236248967 0 0 0 0 -105.12369663696154 709.36482787879504 0 709.36482787879504 -2414.7077428185694 0 0 0 0 153.91825793281896 -622.07256968082766 0 -622.07256968082766 -2087.9651933235418 0 0 0 0 -125.54902444314212 1352.9719341172145 0 1352.9719341172145 -2999.3062930789565 0 0 0 0 -445.49500404213904 -584.48169156927361 0 -584.48169156927361 -989.93799593596668 0 0 0 0 -422.98526476392726 -434.7512899107744 0 -434.7512899107744 -224.13563430977592 0 0 0 0 -372.47206087847007 -12.331963665679723 0 -12.331963665679723 -153.5354761696417 0 0 0 0 255.30297859810526 -15.754535843907433 0 -15.754535843907433 -1243.3797961226828 0 0 0 0 10.045684879466762 3.7383284884340497 0 3.7383284884340497 -22.371006100714677 0 0 0 0 -340.25445056357421 -51.67343646694826 0 -51.67343646694826 -140.40198284444978 0 0 0 0 14.680576615093742 46.048296144654159 0 46.048296144654159 -192.20146752818982 0 0 0 0 1.4989710750523955 36.627173188997403 0 36.627173188997403 -160.62564669979383 0 0 0 0 -2.9287220941041596 155.73896804026208 0 155.73896804026208 -274.8657196235481 0 0 0 0 19.685953071888434 12.750299501906866 0 12.750299501906866 -23.926925659912495 0 0 0 0 4.0255426595103927 60.094283293989065 0 60.094283293989065 -174.56692582270261 0 0 0 0 4.1018945519360841 22.471541570957854 0 22.471541570957854 -79.56529749524779 0 0 0 0 10.02343034370088 0.98767089759874693 0 0.98767089759874693 -72.846518520266017 0 0 0 0 6.9544320837515556 12.094525273883534 0 12.094525273883534 -72.806977388437389 0 0 0 0 2.8369763267692178 14.881952447893127 0 14.881952447893127 -57.831184584531002 0 0 0 0 543.201059081126 255.78741685957539 0 255.78741685957539 -56.436739542838268 0 0 0 0 98.629387156921439 -16.595889137181075 0 -16.595889137181075 -193.13206633284676 0 0 0 0 7.2340572767869702 23.071672236847633 0 23.071672236847633 -81.331306436286553 0 0 0 0 9.6659058725344948 27.115572056562996 0 27.115572056562996 -180.35450097652483 0 0 0 0 2.4637676991987973 20.905735156115043 0 20.905735156115043 -78.727235072903113 0 0 0 0 -11.199005362199387 57.538624144995993 0 57.538624144995993 -128.52319000014541 0 0 0 0 -0.91534602161846124 36.411691147053716 0 36.411691147053716 -109.12670580383565 0 0 0 0 133.49025567728677 483.59101422517961 0 483.59101422517961 -2294.2352297006064 0 0 0 0 25.997940982619753 -7.5843084981171671 0 -7.5843084981171671 -55.958502879969998 0 0 0 0 -4.5800540759746582 9.4733513493509562 0 9.4733513493509562 -25.330602394720668 0 0 0 0 0.51176193678111304 424.41650757502794 0 424.41650757502794 -2268.8398045420872 0 0 0 0 -47.919390364433639 41.715914339903975 0 41.715914339903975 -16.368985290144337 0 0 0 0 -7.6980928873599623 20.92324118443139 0 20.92324118443139 -113.38272312744812 0 0 0 0 0.1594736070799172 -2.8264119946912132 0 -2.8264119946912132 -3.3845838553837631 0 0 0 0 -30.662553517788183 100.6273957434787 0 100.6273957434787 -85.21278968437764 0 0 0 0 -114.72800934840052 310.97528216603132 0 310.97528216603132 -1714.2737027339754 0 0 0 0 -85.176889675232815 479.26640331660565 0 479.26640331660565 1010.186737244202 0 0 0 0 292.7075795659257 12.189490251753341 0 12.189490251753341 -183.43800422036202 0 0 0 0 13.270776209056052 -2.6220982021990826 0 -2.6220982021990826 -2.796807901489883 0 0 0 0 6.4293485918824445 19.362207229438354 0 19.362207229438354 -146.01399213353761 0 0 0 0 -215.93066848738817 844.79228354282168 0 844.79228354282168 645.02561881712563 0 0 0 0 -413.29417597510474 221.17182981986434 0 221.17182981986434 -137.89184748124171 0 0 0 0 659.81091207237478 357.52788497659276 0 357.52788497659276 -227.3447663003426 0 0 0 0 13.724753806858644 193.68331772710189 0 193.68331772710189 -151.36114637092396 0 0 0 0 77.348411753453547 299.2260392238677 0 299.2260392238677 -232.69474597212502 0 0 0 0 -98.247485157262417 348.66646227231195 0 348.66646227231195 -13.839935208299721 0 0 0 0 -32.239640794679872 265.07052106170158 0 265.07052106170158 -118.40815467019274 0 0 0 0 -58.148349985000095 220.24230252980851 0 220.24230252980851 -113.44216852436307 0 0 0 0 -32.936369788738375 158.75575441444744 0 158.75575441444744 -153.03353367042837 0 0 0 0 194.54621380966637 112.67437927023821 0 112.67437927023821 -143.91046873446976 0 0 0 0 -49.071728833770976 83.635421966898321 0 83.635421966898321 -83.165587288556708 0 0 0 0 22.114924098557822 111.18446246661188 0 111.18446246661188 -86.42174727281963 0 0 0 0 7.2574538303379086 97.885876897671551 0 97.885876897671551 -93.952910120897286 0 0 0 0 182.82804158977524 143.57275734444192 0 143.57275734444192 -115.52157839395295 0 0 0 0 34.216121676028706 98.170518682774855 0 98.170518682774855 -79.544551519227753 0 0 0 0 8.5033530125947436 90.575210931408947 0 90.575210931408947 -67.142780613964533 0 0 0 0 110.6367882586419 176.31314068119354 0 176.31314068119354 -76.48648738853808 0 0 0 0 26.92288553034787 4.4360363825624418 0 4.4360363825624418 0.73949346277431971 0 0 0 0 184.42431194905657 178.45892078830548 0 178.45892078830548 -59.103221281313381 0 0 0 0 227.81428203843097 286.72557148919259 0 286.72557148919259 15.147977384956903 0 0 0 0 -18.42955329270697 69.08078781213959 0 69.08078781213959 -54.544416015027508 0 0 0 0 7.4936827981853327 74.893866535670867 0 74.893866535670867 -48.02533920680375 0 0 0 0 379.14709515275172 158.40045346892475 0 158.40045346892475 -12.744705522847653 0 0 0 0 151.08938566125835 106.41661233363496 0 106.41661233363496 -47.834550324359881 0 0 0 0 233.53606974307331 86.005108276927785 0 86.005108276927785 28.411723465913383 0 0 0 0 54.873525912964141 100.11967521092316 0 100.11967521092316 -56.572947455351766 0 0 0 0 133.16475890675792 55.200166611539316 0 55.200166611539316 175.44027377126622 0 0 0 0 472.74271921051695 145.18356255602248 0 145.18356255602248 20.008749869294661 0 0 0 0 31.998712522605238 12.924885748120857 0 12.924885748120857 0.53717187553971968 0 0 0 0 169.67139434805722 87.547826776964939 0 87.547826776964939 -42.223820798877568 0 0 0 0 -7.4537238268600703 89.559553662012519 0 89.559553662012519 -12.950712563677648 0 0 0 0 8.554564110093466 37.18712191688067 0 37.18712191688067 -22.401697526638735 0 0 0 0 -4378.9343220924202 -528.63443424744401 0 -528.63443424744401 2990.7798397306178 0 0 0 0 24.743319702363806 143.19216541596052 0 143.19216541596052 196.74210204606607 0 0 0 0 64.809865689670914 146.07112808880834 0 146.07112808880834 61.81529341908481 0 0 0 0 19.202951702184791 19.574367870262847 0 19.574367870262847 0.5422776737614079 0 0 0 0 26.609089678509918 135.25538346333633 0 135.25538346333633 -118.2781165243905 0 0 0 0 35.377454084999044 214.64380178582815 0 214.64380178582815 93.247745100313296 0 0 0 0 137.03524835516873 152.7136593345931 0 152.7136593345931 -26.126881259206129 0 0 0 0 91.757530338880315 175.17222085785079 0 175.17222085785079 -34.671660367326695 0 0 0 0 -6.1673162102692345 8.1589997341859828 0 8.1589997341859828 -3.3710304149539141 0 0 0 0 523.81180361390579 127.63803064159038 0 127.63803064159038 -136.74090044433251 0 0 0 0 398.32108453048568 344.8363172513441 0 344.8363172513441 -330.50704150564707 0 0 0 0 92.960474935505772 140.96383714538024 0 140.96383714538024 212.51776980094837 0 0 0 0 186.28673553013141 143.50366156655389 0 143.50366156655389 -52.47576358618926 0 0 0 0 16.864880738634383 226.62657568344957 0 226.62657568344957 -109.73486270736703 0 0 0 0 -33.432777158820052 86.833237626491609 0 86.833237626491609 -15.8495504949775 0 0 0 0 -619.48982313369925 465.08922672090102 0 465.08922672090102 139.87408822763746 0 0 0 0 147.52564524300396 102.15432183998564 0 102.15432183998564 -71.815875845051778 0 0 0 0 99.84118788203341 111.11591429645864 0 111.11591429645864 -36.707671850796487 0 0 0 0 86.761074414767791 99.308011072171666 0 99.308011072171666 -8.3100664311627952 0 0 0 0 10.567068800686528 0.49050950720631192 0 0.49050950720631192 -13.331846117297559 0 0 0 0 -76.914635649643969 152.73254974273766 0 152.73254974273766 -493.48603880899645 0 0 0 0 -9.7098313675601453 11.048636249706476 0 11.048636249706476 0.56106840402787128 0 0 0 0 109.52690503127815 23.218829760060544 0 23.218829760060544 -105.95202829463869 0 0 0 0 64.173806005541337 126.19226233685072 0 126.19226233685072 113.4643662194876 0 0 0 0 -217.1797118990653 334.68419559755785 0 334.68419559755785 118.49112292308473 0 0 0 0 134.68195808586461 176.45400718065684 0 176.45400718065684 -264.20788243732113 0 0 0 0 -362.16834850726082 -360.53728970729026 0 -360.53728970729026 -321.38106975625669 0 0 0 0 -924.62309341520995 540.98353213994869 0 540.98353213994869 32.556898269169324 0 0 0 0 -94.079575696101529 81.954264871968007 0 81.954264871968007 -432.59612925657711 0 0 0 0 727.50010671428754 -706.90516073727213 0 -706.90516073727213 312.08987442974899 0 0 0 0 383.70367961633019 305.28553246204183 0 305.28553246204183 -459.44596747899686 0 0 0 0 -40.649603174684202 59.555033073932499 0 59.555033073932499 -41.81751119025644 0 0 0 0 263.64709830742231 438.84327211087873 0 438.84327211087873 -975.26043119683891 0 0 0 0 246.55467541430698 3.9241052983834379 0 3.9241052983834379 -661.21545100034928 0 0 0 0 -38.610655627831242 39.091464774817595 0 39.091464774817595 -39.021531531007909 0 0 0 0 557.38473759719636 -225.12564657616076 0 -225.12564657616076 -632.27446622628179 0 0 0 0 652.43059885781986 192.00855331030016 0 192.00855331030016 -941.23992337999266 0 0 0 0 719.09100176831998 725.50078893563568 0 725.50078893563568 -695.45762936702158 0 0 0 0 697.66583976844913 655.6180836569315 0 655.6180836569315 -676.36876714909158 0 0 0 0 199.24062996002795 603.25045279322012 0 603.25045279322012 112.57015041375962 0 0 0 0 220.08021643189386 624.92320009797731 0 624.92320009797731 -137.86072413036436 0 0 0 0 74.521944604199234 331.41819198388475 0 331.41819198388475 -412.37356122876008 0 0 0 0 361.58364879063083 258.26714467199781 0 258.26714467199781 -944.71255087826103 0 0 0 0 382.66998199975944 534.45495859945163 0 534.45495859945163 -771.90868278239577 0 0 0 0 6.0195084076425971 10.537106530638351 0 10.537106530638351 -3.0384167568992559 0 0 0 0 715.75016803183826 19.338056254344338 0 19.338056254344338 -2061.392613380458 0 0 0 0 312.07782854628022 1174.7168761224748 0 1174.7168761224748 2330.8855047960242 0 0 0 0 -157.87235458578652 -156.05423496651929 0 -156.05423496651929 -1054.9930399940313 0 0 0 0 -3.775781358734795 16.379549697540071 0 16.379549697540071 -3.6159069877272572 0 0 0 0 2121.3949289228622 1580.491954687066 0 1580.491954687066 746.85796616976222 0 0 0 0 1073.5278298674129 662.38598156089029 0 662.38598156089029 -925.99589711789486 0 0 0 0 886.01627317357634 691.31902821843323 0 691.31902821843323 131.26975283629145 0 0 0 0 924.80704200946275 689.93695986180319 0 689.93695986180319 -1434.639804605793 0 0 0 0 -253.61484322167917 721.42684204870056 0 721.42684204870056 -40.115967911333428 0 0 0 0 -1116.7260672367361 -755.94412987411306 0 -755.94412987411306 159.43652732488897 0 0 0 0 360.32261667289276 977.3268591299684 0 977.3268591299684 -7.8425938443349423 0 0 0 0 -10.206156459202475 856.78269359240403 0 856.78269359240403 14.276148342798024 0 0 0 0 222.64973260868146 557.26679243163744 0 557.26679243163744 -256.71013425531055 0 0 0 0 348.59472629291395 515.47643929752576 0 515.47643929752576 27.716927255991322 0 0 0 0 89.229349108052702 666.85276310109657 0 666.85276310109657 -58.047517355411401 0 0 0 0 157.62418298596276 497.05626347869111 0 497.05626347869111 -82.360944238145748 0 0 0 0 85.9202580184282 666.15076557387408 0 666.15076557387408 -254.79866592255712 0 0 0 0 11.526981551730689 18.2977888283365 0 18.2977888283365 -5.9251100414674518 0 0 0 0 85.860333588350045 198.36725740799011 0 198.36725740799011 -698.71153077011331 0 0 0 0 115.17905352718572 376.3242197356285 0 376.3242197356285 -553.08663214559056 0 0 0 0 -163.47936138356022 411.60215944135905 0 411.60215944135905 -511.79997915372223 0 0 0 0 32.678840514931835 580.23900887439413 0 580.23900887439413 -236.22416942518976 0 0 0 0 -13.951300154324471 1.4068704090285902 0 1.4068704090285902 7.4182359034692382 0 0 0 0 6.7827564911779064 64.505205632041907 0 64.505205632041907 -6.6807151762004651 0 0 0 0 -38.225376252624528 466.00249658886241 0 466.00249658886241 -396.24729716349975 0 0 0 0 -38.068448698264319 484.9599091897685 0 484.9599091897685 -24.458708750200458 0 0 0 0 -86.956973662992937 36.239764349858888 0 36.239764349858888 -245.70946575110793 0 0 0 0 -86.354010393593967 -13.255809745365696 0 -13.255809745365696 76.006763423496523 0 0 0 0 127.21261112205775 247.25842292719244 0 247.25842292719244 412.92625711079836 0 0 0 0 89.616690592265513 309.20473430391212 0 309.20473430391212 580.02552013266541 0 0 0 0 105.6935092438066 218.31711123390414 0 218.31711123390414 506.25583764069597 0 0 0 0 279.44505087925972 412.76332865336735 0 412.76332865336735 641.11908740943909 0 0 0 0 155.4096041566545 507.27267499052141 0 507.27267499052141 1087.2014866374238 0 0 0 0 108.03800869355439 246.2711385140633 0 246.2711385140633 760.05558488140377 0 0 0 0 268.67803532648941 515.14362052713477 0 515.14362052713477 609.3756463034988 0 0 0 0 115.51551514517814 266.54888870937248 0 266.54888870937248 162.30290797824 0 0 0 0 131.23252399918238 203.35222715879536 0 203.35222715879536 187.92846597209245 0 0 0 0 131.46587275920865 325.75837882553787 0 325.75837882553787 363.75349000901224 0 0 0 0 229.7629957210529 420.3342266717118 0 420.3342266717118 423.92884006936947 0 0 0 0 149.42667805323845 386.30753779748557 0 386.30753779748557 259.44946560647804 0 0 0 0 -26.141988871636272 169.37193391411677 0 169.37193391411677 77.832807852870246 0 0 0 0 30.077365105548381 47.06387921955357 0 47.06387921955357 -83.294297038580339 0 0 0 0 108.67436664361662 197.7772029880208 0 197.7772029880208 60.674317257660732 0 0 0 0 601.1836164970955 577.96594090398139 0 577.96594090398139 1477.5868604751486 0 0 0 0 -834.38835896529781 314.09412022951437 0 314.09412022951437 57.178119406592486 0 0 0 0 -13.665396495193406 59.797299782684142 0 59.797299782684142 3.2504906592594196 0 0 0 0 -27.262929142911201 82.29442942753154 0 82.29442942753154 28.746888768477618 0 0 0 0 -1380.6521318458545 14.159368388183793 0 14.159368388183793 606.39135281008566 0 0 0 0 170.27849998552119 822.08095172311914 0 822.08095172311914 2218.5923980934103 0 0 0 0 347.23191699317522 523.46137955447557 0 523.46137955447557 662.46862268921177 0 0 0 0 129.99326125602056 53.35049698169496 0 53.35049698169496 10.053877332276898 0 0 0 0 13.396598521037735 46.073842491248769 0 46.073842491248769 -87.414827566305561 0 0 0 0 -32.035252049350674 16.785919602855756 0 16.785919602855756 67.717591167105638 0 0 0 0 150.66412700054389 277.71934559444162 0 277.71934559444162 98.739464720434626 0 0 0 0 -4.1508275217911628 2.1412881887114494 0 2.1412881887114494 3.5860569465904817 0 0 0 0 -72.785706892917915 233.07337927549179 0 233.07337927549179 140.20857274573518 0 0 0 0 -13.00080905070763 58.170700882499091 0 58.170700882499091 -53.797295318332544 0 0 0 0 -260.80228619804984 230.29355522783771 0 230.29355522783771 -37.52235348060276 0 0 0 0 -14.184779900453009 67.421547232838691 0 67.421547232838691 -23.224735906033608 0 0 0 0 -44.170658360388188 128.13696881812939 0 128.13696881812939 -2.8597350768541219 0 0 0 0 2.7031668866876064 52.139431997500566 0 52.139431997500566 -18.747000393471339 0 0 0 0 82.689632150268608 127.40395387478884 0 127.40395387478884 -160.06905310920411 0 0 0 0 42.992660633586638 37.97508525064768 0 37.97508525064768 29.133718051136384 0 0 0 0 23.238608464834186 74.014811697745472 0 74.014811697745472 -36.679238077912601 0 0 0 0 63.105934986147076 23.150402094381207 0 23.150402094381207 -11.720725265884539 0 0 0 0 -44.373471625174716 86.204041332089218 0 86.204041332089218 -155.13249047069439 0 0 0 0 17.997992274969874 83.215306567879452 0 83.215306567879452 2.6900156713963952 0 0 0 0 31.188623955963262 82.616523375570608 0 82.616523375570608 -74.067720057806 0 0 0 0 -41.747538023284953 93.925132122779146 0 93.925132122779146 -75.697113359627579 0 0 0 0 -35.974512097084244 95.024818473571486 0 95.024818473571486 -74.887985501916774 0 0 0 0 14.07778036585573 36.040733555686529 0 36.040733555686529 -38.381746512717243 0 0 0 0 -71.15833662968862 85.392327820347873 0 85.392327820347873 -117.97279270359468 0 0 0 0 125.11647590085931 106.11740021694914 0 106.11740021694914 -146.06094960971495 0 0 0 0 -14.29727683145925 17.594429771031674 0 17.594429771031674 -19.499660327123483 0 0 0 0 42.287147059251936 134.39703730436486 0 134.39703730436486 36.517305749453953 0 0 0 0 -24.022366162388153 140.5841507455043 0 140.5841507455043 87.678751486655528 0 0 0 0 46.796853471652298 39.955988222056476 0 39.955988222056476 -182.90511478061921 0 0 0 0 14.014018392266014 98.525199531233383 0 98.525199531233383 -54.826884832191595 0 0 0 0 -21.088846392651128 69.065327073685197 0 69.065327073685197 23.872901414888929 0 0 0 0 23.122604228447017 146.31435513663746 0 146.31435513663746 -45.69235709264467 0 0 0 0 42.752757522772299 121.20791490894771 0 121.20791490894771 -101.48848018034187 0 0 0 0 21.4088233496459 122.57757804193716 0 122.57757804193716 -113.84905049411464 0 0 0 0 -7.2243276112130843 68.029328256729059 0 68.029328256729059 -9.8114038333005738 0 0 0 0 45.715126573530142 86.605369724871707 0 86.605369724871707 -61.871570073642943 0 0 0 0 9.7429853886618645 76.315856719334192 0 76.315856719334192 17.768126579522388 0 0 0 0 11.5481598096518 72.163443461024173 0 72.163443461024173 4.6181705685643095 0 0 0 0 10.610987182637473 87.537097952417753 0 87.537097952417753 9.3681004883837886 0 0 0 0 -88.936262727438589 20.116635409736773 0 20.116635409736773 153.87250411844434 0 0 0 0 -2.563154266855264 114.42082850235199 0 114.42082850235199 2.5336951664678153 0 0 0 0 -10.85252062457835 29.207422246287109 0 29.207422246287109 4.849209427635941 0 0 0 0 7.5863884781126654 51.032943386006444 0 51.032943386006444 -98.085655236239859 0 0 0 0 206.89817541007233 251.92585289666022 0 251.92585289666022 -49.260374193052485 0 0 0 0 -15.491621357102758 171.81756770803736 0 171.81756770803736 -20.816269341967825 0 0 0 0 -23.451453104438684 107.73336541467104 0 107.73336541467104 -30.666411317241021 0 0 0 0 71.179916660908873 140.61698654186125 0 140.61698654186125 -116.2348816264348 0 0 0 0 -39.102162163635512 133.50595663615968 0 133.50595663615968 9.6015441035924596 0 0 0 0 -49.178438060528606 156.88253542671009 0 156.88253542671009 -10.614003509650502 0 0 0 0 4.7631561824241544 159.22375737514085 0 159.22375737514085 -19.196725282967236 0 0 0 0 -33.42450389804435 167.4649367098973 0 167.4649367098973 -10.767748758022208 0 0 0 0 22.594491378342468 117.40052040639239 0 117.40052040639239 26.651185989627265 0 0 0 0 -20.765725447435443 152.58473372759181 0 152.58473372759181 -17.89300887878926 0 0 0 0 -32.693789591699897 164.92574596297345 0 164.92574596297345 1.7410788771594525 0 0 0 0 6.439031355086172 172.20962820164641 0 172.20962820164641 -14.359534033734235 0 0 0 0 24.6092031511198 144.28002752200155 0 144.28002752200155 -15.492721023503691 0 0 0 0 53.132218936833851 143.74284486450233 0 143.74284486450233 -19.837392578090657 0 0 0 0 48.492827420950228 88.771010734954814 0 88.771010734954814 10.596964590206483 0 0 0 0 25.141783517148724 74.078097138826706 0 74.078097138826706 42.857544655336824 0 0 0 0 -124.3837086060305 133.198614406243 0 133.198614406243 6.6668051224114606 0 0 0 0 -27.103125029560488 92.64385985879926 0 92.64385985879926 18.965431658732996 0 0 0 0 -62.330716566477349 149.85550908294681 0 149.85550908294681 1.3749350366633735 0 0 0 0 -62.515888219578486 121.94825019610039 0 121.94825019610039 -72.318070074601565 0 0 0 0 -38.571485299720315 92.091252011346683 0 92.091252011346683 -30.22969337915336 0 0 0 0 45.932620237883938 57.800534865951221 0 57.800534865951221 -82.118863367152997 0 0 0 0 84.61043004709154 88.832778506415707 0 88.832778506415707 15.01443192793522 0 0 0 0 -15.731269841459909 63.629922080847763 0 63.629922080847763 -1.7201711597352869 0 0 0 0 -32.920744581405415 161.64566479896166 0 161.64566479896166 6.1684022251138231 0 0 0 0 64.561076086058165 96.562367270722461 0 96.562367270722461 -2.0999170327413594 0 0 0 0 63.77521991255162 123.78295898483339 0 123.78295898483339 7.2696926476273802 0 0 0 0 108.17944887053727 98.813432001803449 0 98.813432001803449 -41.275711540714838 0 0 0 0 83.748041879844095 79.56766320783936 0 79.56766320783936 7.3563183053556713 0 0 0 0 74.810601132034208 117.0790053386736 0 117.0790053386736 -22.471442589376238 0 0 0 0 50.152636525272101 150.28566617710749 0 150.28566617710749 -44.101254246248573 0 0 0 0 64.893316817183191 54.587660347656076 0 54.587660347656076 0.49630340423505004 0 0 0 0 15.108380987096872 77.85726089246424 0 77.85726089246424 -38.527089479746039 0 0 0 0 35.166285415278253 96.669707307764838 0 96.669707307764838 -61.720356712423381 0 0 0 0 6.3480243777812575 119.01220267446843 0 119.01220267446843 -38.048683867000364 0 0 0 0 58.475082616953657 51.552298153669852 0 51.552298153669852 25.042500256008623 0 0 0 0 28.049774343228819 156.49037431302168 0 156.49037431302168 -84.051934272560175 0 0 0 0 -33.835395379686815 143.23493667961702 0 143.23493667961702 85.382895361046394 0 0 0 0 -47.954799996667134 193.46081421431518 0 193.46081421431518 -90.263234375745014 0 0 0 0 14.728907272437937 178.87980245983999 0 178.87980245983999 -87.04257450730438 0 0 0 0 17.695761661838333 202.0790230577586 0 202.0790230577586 -141.26796959390776 0 0 0 0 29.364547574150492 152.43197138085998 0 152.43197138085998 -115.90837765127799 0 0 0 0 -33.034186977354693 119.11097533605061 0 119.11097533605061 -122.38121760444301 0 0 0 0 2.3432360727218509 8.5630735667348716 0 8.5630735667348716 7.9366477211309245 0 0 0 0 -84.996448977668479 255.10824404777031 0 255.10824404777031 -179.76963440591135 0 0 0 0 50.566193169041071 96.322401801495289 0 96.322401801495289 -278.42397112564868 0 0 0 0 35.598575168281968 49.328956962479424 0 49.328956962479424 -91.604585491186299 0 0 0 0 434.46677012374857 102.22944957143773 0 102.22944957143773 -87.006707717606332 0 0 0 0 167.64794101355074 403.13564039970515 0 403.13564039970515 -137.18387959827669 0 0 0 0 18.503400284917234 186.29726883326822 0 186.29726883326822 -49.49868780811812 0 0 0 0 140.49422217436222 106.9830324525301 0 106.9830324525301 -90.22534379271201 0 0 0 0 39.671219492793625 101.25773166387012 0 101.25773166387012 -46.767409460349882 0 0 0 0 47.748413856224943 206.41801819529064 0 206.41801819529064 -98.034568270169984 0 0 0 0 -47.780297040808271 91.08884181667193 0 91.08884181667193 -62.346343098277075 0 0 0 0 -1.5781164478424614 62.587987387386335 0 62.587987387386335 -70.767632169189255 0 0 0 0 795.40811664747889 369.40033085599498 0 369.40033085599498 39.89066698546776 0 0 0 0 382.32222156176431 113.7769978715296 0 113.7769978715296 -386.99205288437224 0 0 0 0 102.06077244256858 -9.1138736368021398 0 -9.1138736368021398 -32.463416481312166 0 0 0 0 133.40727831436379 288.85645083624695 0 288.85645083624695 243.67549274753401 0 0 0 0 393.43953925403503 -111.08965778798529 0 -111.08965778798529 -7.2889922098838724 0 0 0 0 384.79177526716376 425.75585387897445 0 425.75585387897445 83.482317602592957 0 0 0 0 457.97131848803838 514.24674406039412 0 514.24674406039412 117.99145977034641 0 0 0 0 14.664536995473554 180.29575982886445 0 180.29575982886445 -117.55647391590173 0 0 0 0 95.345864376839017 78.806024335499387 0 78.806024335499387 -38.301082169185975 0 0 0 0 10.648354950217069 107.08627152673645 0 107.08627152673645 -47.516189708963452 0 0 0 0 -199.27319763913692 -17.919548413581651 0 -17.919548413581651 -122.2401366577833 0 0 0 0 38.993463221668478 107.75939789746239 0 107.75939789746239 -18.356323740327412 0 0 0 0 -276.18438568993588 26.089630538554047 0 26.089630538554047 53.570337654615287 0 0 0 0 -210.43077951541636 10.48995760458638 0 10.48995760458638 18.585813728626817 0 0 0 0 3.9666506574867526 124.16080333363789 0 124.16080333363789 -152.92322654429881 0 0 0 0 77.203749445994617 116.36305291790632 0 116.36305291790632 -51.107014236855321 0 0 0 0 57.477156288718305 82.13885945018707 0 82.13885945018707 -49.804577317639314 0 0 0 0 47.303152816690393 94.235829920325344 0 94.235829920325344 -2.4487049284358307 0 0 0 0 35.354801962167585 128.87397144892384 0 128.87397144892384 9.6347822533571161 0 0 0 0 96.943617377577482 52.872529606773753 0 52.872529606773753 -8.5591493504885534 0 0 0 0 83.588133687087975 127.01572495674918 0 127.01572495674918 -46.729691368032945 0 0 0 0 68.538162510361872 156.68993077014056 0 156.68993077014056 -126.3984450501739 0 0 0 0 -64.510833869979251 203.31814539525658 0 203.31814539525658 -37.597774293186376 0 0 0 0 20.984128888600743 19.437561298336576 0 19.437561298336576 7.1808652752979469 0 0 0 0 102.82512362988382 116.40043043574769 0 116.40043043574769 -156.98201174905989 0 0 0 0 70.359850728385936 176.20507122579875 0 176.20507122579875 -19.913390241214074 0 0 0 0 74.848041854740586 153.32701895537321 0 153.32701895537321 10.638361099005124 0 0 0 0 43.839290608582814 94.628210161128663 0 94.628210161128663 -40.622668187541422 0 0 0 0 49.36536687595617 192.3699186126787 0 192.3699186126787 -33.626689499244094 0 0 0 0 201.87074251896411 354.15288539046014 0 354.15288539046014 -102.99067743499108 0 0 0 0 -39.916382061552213 -340.31725332115093 0 -340.31725332115093 -469.85523981499136 0 0 0 0 1743.4748563739922 138.65530193522864 0 138.65530193522864 -341.4794926358154 0 0 0 0 46.361894080637285 153.38978564285208 0 153.38978564285208 -39.863685579359299 0 0 0 0 -0.84996118230449724 6.086736715350284 0 6.086736715350284 0.87573249884741244 0 0 0 0 4774.4247466600136 1869.9464288398158 0 1869.9464288398158 718.73872510678484 0 0 0 0 11.980537807482008 4.6687827296771616 0 4.6687827296771616 4.8979175096967538 0 0 0 0 2419.9004239988499 1359.4406952313038 0 1359.4406952313038 -105.09924372033856 0 0 0 0 4027.170910761808 2717.8707696428173 0 2717.8707696428173 1346.6450301749683 0 0 0 0 2285.1142594658595 1403.7925111545737 0 1403.7925111545737 713.09914608680992 0 0 0 0 2026.22578933365 1689.4895851800247 0 1689.4895851800247 630.66413311239376 0 0 0 0 2444.2572691348396 2067.6933360634102 0 2067.6933360634102 600.2426832793135 0 0 0 0 2219.5887345728461 1555.5615280523307 0 1555.5615280523307 408.86123338935431 0 0 0 0 1251.1606027538 1706.4794000739967 0 1706.4794000739967 1499.5927014467743 0 0 0 0 339.138986555477 668.44344671560248 0 668.44344671560248 695.59219155611936 0 0 0 0 2.9654643580337758 16.46293798838137 0 16.46293798838137 10.864589846466629 0 0 0 0 2883.9780364748694 1749.7306618466282 0 1749.7306618466282 220.71668187039177 0 0 0 0 -1044.9421417082867 664.60499210365379 0 664.60499210365379 703.33695722893754 0 0 0 0 470.24497070023881 1823.9474854299297 0 1823.9474854299297 1405.8372983932495 0 0 0 0 5.5541617419294198 75.47254601867462 0 75.47254601867462 -252.54688973734301 0 0 0 0 -85.167174036005235 85.779661798620509 0 85.779661798620509 -23.437531145944376 0 0 0 0 -64.472915523086129 122.93415160967498 0 122.93415160967498 -11.39138179740695 0 0 0 0 -2.1825803359354268 -104.17173490921959 0 -104.17173490921959 -141.23025179606338 0 0 0 0 -460.64085497486212 -19.651470124601474 0 -19.651470124601474 -111.26667306546005 0 0 0 0 -454.90034993218342 105.98339938625941 0 105.98339938625941 69.648230525301187 0 0 0 0 133.09812352425979 -465.35632438002358 0 -465.35632438002358 178.83826762263197 0 0 0 0 795.60817475329168 277.95247332856525 0 277.95247332856525 -57.077446144674468 0 0 0 0 192.07081249496878 493.85424060917285 0 493.85424060917285 956.80796128950897 0 0 0 0 1772.8112938924967 1043.286585195186 0 1043.286585195186 627.50164433559985 0 0 0 0 1402.4272064552424 1258.004794533641 0 1258.004794533641 1046.9878250163893 0 0 0 0 5087.3487522181094 4064.1275321426365 0 4064.1275321426365 1258.1065437922371 0 0 0 0 2686.4373374913848 1912.2288603651978 0 1912.2288603651978 400.15047275846882 0 0 0 0 -1105.9983072154475 738.78662908793012 0 738.78662908793012 -183.20971469754295 0 0 0 0 1667.900530525656 329.30527327808886 0 329.30527327808886 232.60111430790857 0 0 0 0 -838.1118137285539 -854.59586907923949 0 -854.59586907923949 227.44432794749446 0 0 0 0 3888.1898968379319 546.88294339862477 0 546.88294339862477 -1867.5496792686026 0 0 0 0 23.891419723768564 1.8557168542351263 0 1.8557168542351263 -9.1663874703153283 0 0 0 0 -395.78695804631116 6.9470265871568699 0 6.9470265871568699 3739.4117941844743 0 0 0 0 -254.58382093428736 98.202528822394015 0 98.202528822394015 1393.6982328744925 0 0 0 0 -482.98142377259865 887.01931184601563 0 887.01931184601563 1431.7642617131905 0 0 0 0 2253.9701162352721 4530.1218382016086 0 4530.1218382016086 3979.3215053129243 0 0 0 0 24.46795174800765 -8.7338783343782325 0 -8.7338783343782325 5.4524976415472111 0 0 0 0 2288.1955048822274 -1425.3066934481612 0 -1425.3066934481612 -3107.632479376367 0 0 0 0 2209.2881685406901 478.73972434730968 0 478.73972434730968 -2847.2827547588677 0 0 0 0 1909.970817546724 4940.2956879073754 0 4940.2956879073754 1604.3607589454914 0 0 0 0 696.73147048431565 1262.3783466872337 0 1262.3783466872337 -750.65718529903097 0 0 0 0 881.66181182749278 2634.0202148741373 0 2634.0202148741373 2599.0146610766678 0 0 0 0 3886.5257156713087 1696.6641303786764 0 1696.6641303786764 -279.06965527651482 0 0 0 0 3229.4714291979471 -659.99268925703655 0 -659.99268925703655 738.01282639996498 0 0 0 0 1735.2037304566402 -1248.4398619687017 0 -1248.4398619687017 501.45383276831126 0 0 0 0 1180.5373793676263 -1045.7704237533908 0 -1045.7704237533908 973.02172118166345 0 0 0 0 1838.4009025321648 -824.82030484519055 0 -824.82030484519055 -1537.445809077064 0 0 0 0 2699.9371611035167 304.58765238643537 0 304.58765238643537 -389.41688067944415 0 0 0 0 -842.16278050174878 -1286.315838413786 0 -1286.315838413786 -1014.9891743443368 0 0 0 0 -89.903047008170688 338.92492981189207 0 338.92492981189207 190.88393436597107 0 0 0 0 90.25801125227008 47.920547550293122 0 47.920547550293122 179.73462039850892 0 0 0 0 -330.14514134687488 850.04801115849841 0 850.04801115849841 -227.02769461917705 0 0 0 0 216.37814529936077 1.1349599304776348 0 1.1349599304776348 -1366.7551395352639 0 0 0 0 67.482251931823129 -15.90820262916489 0 -15.90820262916489 5.0234448554694495 0 0 0 0 1312.3440222144345 514.61368960016989 0 514.61368960016989 1149.878916446185 0 0 0 0 1738.0435729021774 1762.2815631259364 0 1762.2815631259364 2630.3260114654186 0 0 0 0 1740.3640023064681 2618.1108360560943 0 2618.1108360560943 1614.9905277366925 0 0 0 0 1685.9065959652507 3360.6350598555928 0 3360.6350598555928 4021.965892887456 0 0 0 0 -13.439743262049888 -591.68135644040558 0 -591.68135644040558 1250.9884942792996 0 0 0 0 673.06684860392124 680.20978184447813 0 680.20978184447813 107.4132839649501 0 0 0 0 519.13392056497923 -509.29669014951378 0 -509.29669014951378 468.70729402301367 0 0 0 0 15.029936947094853 26.96813485202027 0 26.96813485202027 -5.2695237815265727 0 0 0 0 448.21673629927682 167.44644525025797 0 167.44644525025797 -108.12169620717759 0 0 0 0 -110.73212321614847 -18.738844592873647 0 -18.738844592873647 903.69343775848392 0 0 0 0 262.43056079732196 -386.90072424748359 0 -386.90072424748359 -195.44691995041649 0 0 0 0 66.896309561297528 81.719667650518318 0 81.719667650518318 -132.31265998762302 0 0 0 0 178.74210822975692 725.29590508739238 0 725.29590508739238 423.8308396335342 0 0 0 0 307.19667600987304 684.67419246274221 0 684.67419246274221 116.35608605293965 0 0 0 0 123.35452243321924 574.48829168616066 0 574.48829168616066 741.61379608014249 0 0 0 0 384.03795478751999 666.16162144158079 0 666.16162144158079 -104.98401949813706 0 0 0 0 499.8708169481979 929.18021478748778 0 929.18021478748778 491.85504397605837 0 0 0 0 -1.1762882509877386 10.360965981894697 0 10.360965981894697 -5.6182449472671863 0 0 0 0 -14.753599288481011 11.54016491029887 0 11.54016491029887 3.2933694644832485 0 0 0 0 106.94564528667252 353.68123348231165 0 353.68123348231165 792.23419942398323 0 0 0 0 196.56012779212324 378.06155032437164 0 378.06155032437164 566.62506562200724 0 0 0 0 -643.30525691004004 -230.59201689092151 0 -230.59201689092151 -788.61384211125551 0 0 0 0 219.15234846636304 481.77060241412255 0 481.77060241412255 259.95117198883963 0 0 0 0 101.36821875344322 213.17429581216129 0 213.17429581216129 -58.012803926772904 0 0 0 0 -187.9931156336097 102.82486158414395 0 102.82486158414395 -18.031708962400444 0 0 0 0 -63.249263834342628 123.78786698206935 0 123.78786698206935 1.078293880371632 0 0 0 0 -312.08508940257889 260.88468435039977 0 260.88468435039977 59.803393562575366 0 0 0 0 -826.97967590527696 250.99603256231603 0 250.99603256231603 168.65062961337389 0 0 0 0 2.3720967318836585 98.221281508131582 0 98.221281508131582 69.208854899843431 0 0 0 0 -660.97408699188463 -33.074064187985641 0 -33.074064187985641 255.56649073382141 0 0 0 0 -177.79920969760497 9.6116512707397774 0 9.6116512707397774 34.814697014271758 0 0 0 0 -185.15126023441553 110.17120840086136 0 110.17120840086136 -28.676913971139584 0 0 0 0 -179.73189601080355 83.616366523190521 0 83.616366523190521 61.227708950920373 0 0 0 0 -269.6916835042357 83.531001873518107 0 83.531001873518107 49.311094335076632 0 0 0 0 -284.18206348456744 102.63943874429742 0 102.63943874429742 104.84912608072966 0 0 0 0 -50.927833045900357 129.97134071359849 0 129.97134071359849 12.532840118185703 0 0 0 0 -176.91595724337458 16.530155382119119 0 16.530155382119119 16.680341036670143 0 0 0 0 -22.894961434149948 42.001319887741985 0 42.001319887741985 5.7925680610471488 0 0 0 0 -410.28675441901464 23.684863518303246 0 23.684863518303246 555.79751790505543 0 0 0 0 34.219613214379933 396.36374993715435 0 396.36374993715435 324.52165338055784 0 0 0 0 -54.381658076852148 17.504905558747687 0 17.504905558747687 -0.064767145793211967 0 0 0 0 -150.89938212183188 90.277126347660669 0 90.277126347660669 -122.33420591117465 0 0 0 0 -62.798351750253715 126.52261910621104 0 126.52261910621104 27.818937428056728 0 0 0 0 -136.73947977283387 486.76490948044375 0 486.76490948044375 -477.1830755320716 0 0 0 0 127.7920154879248 -278.94894296244456 0 -278.94894296244456 -340.28695049831731 0 0 0 0 -302.86556172517157 104.91787986610143 0 104.91787986610143 78.318103936908301 0 0 0 0 -322.90899696504903 -259.36200142310713 0 -259.36200142310713 193.39687135205895 0 0 0 0 -6.2407682840873875 83.850162350738103 0 83.850162350738103 -3.0055901855209299 0 0 0 0 -65.546055170387262 -196.19704872094735 0 -196.19704872094735 -111.54648118674157 0 0 0 0 228.16600044765073 -562.51573422588262 0 -562.51573422588262 375.06801411546621 0 0 0 0 54.216192087151285 182.91251094848121 0 182.91251094848121 1069.0001901565411 0 0 0 0 -1638.8250870929915 1443.0916281574609 0 1443.0916281574609 -866.85893978008426 0 0 0 0 -4.1650341237019859 -8.2808198139532863 0 -8.2808198139532863 -18.808537275220118 0 0 0 0 -1079.8715239505909 -406.18847845608616 0 -406.18847845608616 1393.7988539019425 0 0 0 0 1181.4121137356851 672.59653525607428 0 672.59653525607428 -1691.9617838419217 0 0 0 0 7.318791919398592 6.8743617449575538 0 6.8743617449575538 -84.998353244963681 0 0 0 0 222.90043937652081 83.533895009197295 0 83.533895009197295 -279.83853597544748 0 0 0 0 22.667196660644322 131.34536748649492 0 131.34536748649492 -32.967878453298127 0 0 0 0 -27.95344758972351 679.85647691032136 0 679.85647691032136 -761.35251915860499 0 0 0 0 -148.6454345016391 420.96971266666696 0 420.96971266666696 -583.26624996346072 0 0 0 0 -46.802894895221243 107.26468330379765 0 107.26468330379765 -16.744768872612283 0 0 0 0 -481.88430183792661 584.3281129438783 0 584.3281129438783 -748.43187102954107 0 0 0 0 -128.18938482887461 511.74939502471352 0 511.74939502471352 -958.48938874550731 0 0 0 0 -311.01797141012503 563.92724302737406 0 563.92724302737406 -808.25923857455928 0 0 0 0 -53.228351528121841 232.75726669429508 0 232.75726669429508 19.275749806681802 0 0 0 0 -734.81233093181891 1067.4027201842255 0 1067.4027201842255 -2987.1354919793084 0 0 0 0 -10.391496656992786 -2.231801055077085 0 -2.231801055077085 -2218.9473019263824 0 0 0 0 -60.24227419877883 2.8111012513476186 0 2.8111012513476186 -1.0210625462650285 0 0 0 0 -49.145079328252443 86.206754905699682 0 86.206754905699682 8.1689081292716708 0 0 0 0 -61.755429889191873 399.55735114667914 0 399.55735114667914 -785.81079706807304 0 0 0 0 -339.13923469623114 94.847631644410285 0 94.847631644410285 74.682104479805275 0 0 0 0 -39.5136094612335 473.54494738781409 0 473.54494738781409 -638.19446862248878 0 0 0 0 -24.634035936874454 129.13166720927441 0 129.13166720927441 0.87519633671107044 0 0 0 0 312.64113321817058 1021.848055841423 0 1021.848055841423 -598.01647266259533 0 0 0 0 706.16204137212753 889.53665805234959 0 889.53665805234959 -618.5638860793988 0 0 0 0 175.15793458950611 816.74567230050889 0 816.74567230050889 627.93884651377903 0 0 0 0 289.79461114042533 773.94642634601041 0 773.94642634601041 -125.89282467005251 0 0 0 0 565.68454742635186 739.81182524720316 0 739.81182524720316 -1594.2097199302225 0 0 0 0 -141.46722900304667 1278.7941977985029 0 1278.7941977985029 -409.05351475003044 0 0 0 0 992.26211243648686 349.23120940139415 0 349.23120940139415 -3408.1463548890861 0 0 0 0 -149.34135929906915 1513.2013364445411 0 1513.2013364445411 -2126.4960395857888 0 0 0 0 257.66585949749162 64.416438931986619 0 64.416438931986619 -13.198291624056308 0 0 0 0 785.04548651882214 979.82330984310192 0 979.82330984310192 1296.2220616174473 0 0 0 0 2063.3520020636997 -1451.4124168273415 0 -1451.4124168273415 -1759.8463624566793 0 0 0 0 351.70187070315296 981.25366122245396 0 981.25366122245396 1753.6920223407978 0 0 0 0 107.23537597199902 1124.184764910342 0 1124.184764910342 1775.2139996030328 0 0 0 0 -572.4677977363317 195.51392521284515 0 195.51392521284515 2964.1607331187533 0 0 0 0 725.90675078462664 1802.6229539591363 0 1802.6229539591363 2397.9579975329016 0 0 0 0 96.442653512305696 713.82570181311257 0 713.82570181311257 787.08364392477961 0 0 0 0 2.9815840325282181 -2.1397645342914302 0 -2.1397645342914302 14.227233369507225 0 0 0 0 5643.486582976504 5067.4711466286517 0 5067.4711466286517 3278.1363339331801 0 0 0 0 -2518.7037496409757 -232.62124951834346 0 -232.62124951834346 2695.4729542869313 0 0 0 0 -364.17386597266886 -1012.3663422130576 0 -1012.3663422130576 909.05214985433122 0 0 0 0 4572.8550026186276 2726.1951479792406 0 2726.1951479792406 8366.8130186715789 0 0 0 0 -2623.7140278222505 2633.5696528033604 0 2633.5696528033604 10241.133471380774 0 0 0 0 18.687861508907702 35.828672255138656 0 35.828672255138656 55.124156168953995 0 0 0 0 -122.74961170867027 322.60188552769978 0 322.60188552769978 -62.188407172415907 0 0 0 0 744.71647358660266 988.51093143225125 0 988.51093143225125 1377.6460924992671 0 0 0 0 1707.3415889223834 1302.2864698823073 0 1302.2864698823073 1065.9930279227192 0 0 0 0 359.37281571666244 171.24260911364081 0 171.24260911364081 -507.11358404510247 0 0 0 0 0.73064730015690316 52.889353538758385 0 52.889353538758385 -6.1357410579222815 0 0 0 0 602.07548479089746 -608.103159473299 0 -608.103159473299 -437.5833651467139 0 0 0 0 1446.5192978274135 252.80199604974655 0 252.80199604974655 433.46391800681886 0 0 0 0 2151.1198922774056 802.02510602935217 0 802.02510602935217 7117.6251636201305 0 0 0 0 -7.0195452353596011 -1.5454637717797368 0 -1.5454637717797368 23.627222505794197 0 0 0 0 57.153833404222894 28.801835293614481 0 28.801835293614481 19.647438317551163 0 0 0 0 -486.87043050352077 4586.0767842793157 0 4586.0767842793157 10026.693733679684 0 0 0 0 -3177.9054103707167 2029.9939560589009 0 2029.9939560589009 8120.1192514730192 0 0 0 0 2478.7137871468221 -1367.3935518556314 0 -1367.3935518556314 -775.88863356562069 0 0 0 0 -255.63597957027378 -576.38518113611099 0 -576.38518113611099 5599.6353882254571 0 0 0 0 1154.2199974789983 3868.5832402182223 0 3868.5832402182223 3020.4189927731086 0 0 0 0 -275.25968639797065 161.39071329143644 0 161.39071329143644 720.05633072923229 0 0 0 0 818.65350139718794 -57.085172775798128 0 -57.085172775798128 -1031.8285599401861 0 0 0 0 -624.60486984892486 1315.6913751830534 0 1315.6913751830534 -1094.8565412169773 0 0 0 0 62.211334025246174 0.45974211089605177 0 0.45974211089605177 0.0082344463127537182 0 0 0 0 -32.455642192318919 2169.5279927349766 0 2169.5279927349766 7580.7122672449523 0 0 0 0 1713.2954856062352 -1727.1091749361112 0 -1727.1091749361112 -6343.2278703930497 0 0 0 0 2798.4705677932798 3882.352150089102 0 3882.352150089102 2042.6676110758708 0 0 0 0 4427.2800495218835 -191.25887740178132 0 -191.25887740178132 -1949.396102998624 0 0 0 0 -2815.3777141858009 1356.1445337168952 0 1356.1445337168952 -152.2619591540024 0 0 0 0 2559.8607334473345 427.84636227854935 0 427.84636227854935 -995.69708641504258 0 0 0 0 2132.569576249065 -2545.6919515845548 0 -2545.6919515845548 1367.8695937850644 0 0 0 0 54.084318228487973 161.30898362983135 0 161.30898362983135 351.88782342940249 0 0 0 0 55.940641613269378 26.654350233152272 0 26.654350233152272 -17.231730089281839 0 0 0 0 217.1082232691333 1553.1533299209732 0 1553.1533299209732 -3407.9954454550789 0 0 0 0 412.77410730918564 -155.76413340389126 0 -155.76413340389126 -4420.7352651364999 0 0 0 0 1665.4191221511574 5028.34759807105 0 5028.34759807105 2981.0057833448172 0 0 0 0 33.633714587828592 -5.9022915238495131 0 -5.9022915238495131 -8.5481677728062948 0 0 0 0 -378.63156335707026 171.8099285879216 0 171.8099285879216 1583.1251094338659 0 0 0 0 552.5965013741079 -1584.9839342450068 0 -1584.9839342450068 -3595.713752351392 0 0 0 0 2652.3963267955151 1215.9429563751473 0 1215.9429563751473 -1854.6767834085331 0 0 0 0 797.28160598687828 -516.40884702714538 0 -516.40884702714538 1190.1549033404408 0 0 0 0 880.57197298722167 1979.4494073763453 0 1979.4494073763453 -2688.0280307878102 0 0 0 0 433.77052253888542 154.97356089748791 0 154.97356089748791 602.55764117321814 0 0 0 0 1783.3572885563335 1933.1211326945886 0 1933.1211326945886 -297.38703823453397 0 0 0 0 1661.4360881669563 492.53466453541478 0 492.53466453541478 -2167.8407944053397 0 0 0 0 -1352.7560213353281 -1758.3732920765688 0 -1758.3732920765688 -3130.9121035308744 0 0 0 0 145.52925438151942 1525.1452070302585 0 1525.1452070302585 -212.06866324981092 0 0 0 0 -54.507791781354172 1163.7861041127326 0 1163.7861041127326 1073.8046825696438 0 0 0 0 -839.63022748582807 518.57285362601033 0 518.57285362601033 -1234.5550980543794 0 0 0 0 135.97491375880054 502.74538809146179 0 502.74538809146179 -1298.6221277958321 0 0 0 0 1430.2053486728728 -70.884630136381929 0 -70.884630136381929 -5759.879407159744 0 0 0 0 172.42696455882822 17.219721261789921 0 17.219721261789921 -7.0239066063918738 0 0 0 0 -36.063458498101681 1304.7736234529466 0 1304.7736234529466 3739.6007051234883 0 0 0 0 1284.5823934649816 1002.1450207713942 0 1002.1450207713942 2351.0167073665543 0 0 0 0 573.12283985500108 597.53325562226019 0 597.53325562226019 781.51747097396765 0 0 0 0 421.00781688715506 1326.3395423140155 0 1326.3395423140155 2307.9305228935373 0 0 0 0 305.08450875997369 599.72989397998117 0 599.72989397998117 2485.9819119479926 0 0 0 0 261.37413279275643 1377.4037086385733 0 1377.4037086385733 1883.3711294219484 0 0 0 0 474.56391474568227 1103.3327398209553 0 1103.3327398209553 1041.4359858234548 0 0 0 0 -127.6223365581609 281.81031168567642 0 281.81031168567642 1018.821227613 0 0 0 0 -253.41610683008912 486.22339712283338 0 486.22339712283338 916.09331099630526 0 0 0 0 361.38188279029418 -586.23314794964335 0 -586.23314794964335 -829.78959810619108 0 0 0 0 -2.8722980561232418 -1.5607801169896902 0 -1.5607801169896902 -3.5480019456470426 0 0 0 0 915.0551533887774 -514.34262571699674 0 -514.34262571699674 -1589.8703250614785 0 0 0 0 805.56237691910064 374.1154743687066 0 374.1154743687066 -1070.8151001823007 0 0 0 0 351.46863081130141 102.7575020620834 0 102.7575020620834 450.89384565412547 0 0 0 0 1650.9873016894562 649.46386437555884 0 649.46386437555884 216.46763290719355 0 0 0 0 384.94205818261253 201.36404828599825 0 201.36404828599825 1932.2052121464658 0 0 0 0 -2956.4290707946784 -1266.4045311084974 0 -1266.4045311084974 535.2315782278356 0 0 0 0 740.94223593271454 528.02760157156899 0 528.02760157156899 -471.09791080216382 0 0 0 0 -855.92685337207513 -466.59215651886188 0 -466.59215651886188 -40.064910233431874 0 0 0 0 -139.35166369358194 -667.1015885003917 0 -667.1015885003917 -546.47996582991732 0 0 0 0 22.787264177663019 -278.36726580453524 0 -278.36726580453524 -61.384724543049515 0 0 0 0 -298.6352734583852 -22.227894186482445 0 -22.227894186482445 74.267891023326229 0 0 0 0 458.31553312965843 29.80074157179115 0 29.80074157179115 -138.76160789995811 0 0 0 0 -47.910774643634795 116.44898492119756 0 116.44898492119756 -131.75111916522656 0 0 0 0 -34.452902971406729 8.3384988122335244 0 8.3384988122335244 72.1029019967973 0 0 0 0 -109.51393819484656 96.777573896043009 0 96.777573896043009 28.221094540739159 0 0 0 0 -54.880166071956978 44.483174991489612 0 44.483174991489612 41.327896609841119 0 0 0 0 -175.98515848701936 148.18986319863416 0 148.18986319863416 -11.216385015944979 0 0 0 0 30.39953177615098 104.74826894549506 0 104.74826894549506 80.974916408837089 0 0 0 0 7.8008731548659291 26.548911274364997 0 26.548911274364997 2.7624506685574168 0 0 0 0 67.733836982692083 80.013787709988335 0 80.013787709988335 45.620259137259836 0 0 0 0 186.23098348146596 122.90132377732834 0 122.90132377732834 -176.93857185766137 0 0 0 0 86.496059547207551 -63.244032906983193 0 -63.244032906983193 217.60586749898721 0 0 0 0 -47.603897360451811 599.46740990494277 0 599.46740990494277 581.14407942958951 0 0 0 0 242.96965615000227 -41.244234732108453 0 -41.244234732108453 -10.539154152928859 0 0 0 0 86.662808523789863 300.65548315789147 0 300.65548315789147 186.87292843658315 0 0 0 0 5.9150511785166486 27.837542969825137 0 27.837542969825137 16.522325000569467 0 0 0 0 75.587253092298653 88.287374936175084 0 88.287374936175084 35.864661244758388 0 0 0 0 376.59425548014406 268.90333495715549 0 268.90333495715549 -662.91151027573233 0 0 0 0 -172.35509533519507 248.66393733208315 0 248.66393733208315 60.386632956524409 0 0 0 0 78.038389969377022 90.117124677107313 0 90.117124677107313 -220.71285278010691 0 0 0 0 -132.38240428049903 -32.912514721630941 0 -32.912514721630941 283.11731718070951 0 0 0 0 123.60511780828529 11.186406287703903 0 11.186406287703903 -58.250917925339309 0 0 0 0 81.700035068904981 -27.012663488112594 0 -27.012663488112594 154.13737875555671 0 0 0 0 -12.172398981550941 183.93049041733684 0 183.93049041733684 -118.38155970787921 0 0 0 0 -679.76296557931346 206.96270316407754 0 206.96270316407754 177.94688659850726 0 0 0 0 105.26715027236787 -4.6427696847858897 0 -4.6427696847858897 -56.448457318983856 0 0 0 0 426.88008019697736 96.80230570317508 0 96.80230570317508 -53.187260049802717 0 0 0 0 26.542402443978062 372.98043458164466 0 372.98043458164466 -505.24609344676355 0 0 0 0 -421.55025027600277 648.970818446458 0 648.970818446458 -308.93580765373554 0 0 0 0 -739.2087564747344 790.17994179150628 0 790.17994179150628 -322.09524094993685 0 0 0 0 -2363.2524873510411 1480.6434861389407 0 1480.6434861389407 -63.324124285070866 0 0 0 0 -590.0509841106832 1194.1491525454076 0 1194.1491525454076 -2500.0370173437386 0 0 0 0 -529.86026869440684 358.38049772190425 0 358.38049772190425 492.0104037002784 0 0 0 0 542.40467277879361 54.217033384891693 0 54.217033384891693 288.93626740616855 0 0 0 0 -18.691579287632806 12.500292208935303 0 12.500292208935303 -1.533441935662843 0 0 0 0 -67.340295767222415 -156.26229661282014 0 -156.26229661282014 259.41297390827822 0 0 0 0 -133.61698534302195 276.64303716312929 0 276.64303716312929 -1079.1081393202548 0 0 0 0 -46.725559559970861 -400.63309503613709 0 -400.63309503613709 537.71093036770617 0 0 0 0 -15.25545825419249 50.173911548386968 0 50.173911548386968 5.4270832434085605 0 0 0 0 -22.772388233198853 38.40486565353882 0 38.40486565353882 -2.1590722513721801 0 0 0 0 163.23403202122427 391.71236242363375 0 391.71236242363375 341.94260315439897 0 0 0 0 118.27399659858202 126.83516371019869 0 126.83516371019869 101.31689772641766 0 0 0 0 -14.456934466328448 8.2705157597193875 0 8.2705157597193875 6.0615103872682425 0 0 0 0 -44.475186054693722 39.61015561116011 0 39.61015561116011 26.452344530310171 0 0 0 0 -4.7400378862596497 50.800857778827904 0 50.800857778827904 17.623774749965278 0 0 0 0 -5.1009250440071128 65.979411560499798 0 65.979411560499798 34.909530213880529 0 0 0 0 4.4341692802263424 85.531748167521073 0 85.531748167521073 36.874670368339139 0 0 0 0 -6.7211610599852349 58.705028018435797 0 58.705028018435797 9.891525750409258 0 0 0 0 -15.934154899360692 67.937650458900862 0 67.937650458900862 54.342850231478224 0 0 0 0 -35.236121649183588 80.813254807039357 0 80.813254807039357 49.8166511870877 0 0 0 0 -41.596026144645293 75.367085785802374 0 75.367085785802374 46.664659979611315 0 0 0 0 128.93120891613944 124.99771524274229 0 124.99771524274229 71.862171467815642 0 0 0 0 -13.815895474116772 56.209651816505016 0 56.209651816505016 54.588690524960029 0 0 0 0 189.53982747875853 87.477016088687378 0 87.477016088687378 18.08163759783929 0 0 0 0 -323.7522920019328 5407.5468471786044 0 5407.5468471786044 -461.70398958469741 0 0 0 0 -3.2484208083933481 10.524319429431742 0 10.524319429431742 -13.1070018427421 0 0 0 0 553.61047756734479 -935.79345681584527 0 -935.79345681584527 -3787.8336608994978 0 0 0 0 -101.99578959183418 -63.750624600064839 0 -63.750624600064839 -665.94796736092121 0 0 0 0 917.19115005296771 1636.9539335615937 0 1636.9539335615937 -1779.6806705196241 0 0 0 0 580.65021175933362 1913.7449534709349 0 1913.7449534709349 -124.21532813377053 0 0 0 0 452.80349272260128 1865.8818644104713 0 1865.8818644104713 -88.435956050041568 0 0 0 0 1446.6382392453816 1980.5410958096136 0 1980.5410958096136 -3859.937695726956 0 0 0 0 -1303.3714456705493 1480.7094462398745 0 1480.7094462398745 -438.14491018078729 0 0 0 0 590.06501210872375 -111.03806106016509 0 -111.03806106016509 -186.63123697892661 0 0 0 0 2528.2073738143445 1170.2927325951218 0 1170.2927325951218 -420.76355659062028 0 0 0 0 -250.97207622547285 -116.54921377915434 0 -116.54921377915434 152.14990615240822 0 0 0 0 -29.121547537196875 10.670424324285371 0 10.670424324285371 -9.6175673133200021 0 0 0 0 1105.0008051616751 2049.6500907134214 0 2049.6500907134214 791.06609587549246 0 0 0 0 -68.290277617110405 -270.82860395552416 0 -270.82860395552416 261.104861662433 0 0 0 0 116.04832330280624 -14.380703155629817 0 -14.380703155629817 -1518.5964304179943 0 0 0 0 330.54917506710626 675.68811886356707 0 675.68811886356707 -4372.7108520607617 0 0 0 0 109.41577877016971 -193.9197304242125 0 -193.9197304242125 -113.61013546494723 0 0 0 0 192.69528417119 -293.72808157587042 0 -293.72808157587042 5.9320734711054683 0 0 0 0 609.33782054185576 344.18495140108553 0 344.18495140108553 -504.01216181879681 0 0 0 0 138.53152743040749 72.726316494148037 0 72.726316494148037 20.24701629873217 0 0 0 0 312.48059290375386 484.4588760665365 0 484.4588760665365 29.449460041395923 0 0 0 0 -277.84884652800974 519.78972002768569 0 519.78972002768569 -319.48857046259945 0 0 0 0 -61.987566631469917 59.25616555329907 0 59.25616555329907 6.1718905816994223 0 0 0 0 -225.17024912250054 1400.959081198997 0 1400.959081198997 -1276.4694567787847 0 0 0 0 -19.31453036586754 1407.7665421481324 0 1407.7665421481324 -1279.806476704638 0 0 0 0 -446.16246287649847 1993.4106256873456 0 1993.4106256873456 -2067.2631248448529 0 0 0 0 420.34453821116767 1341.9477091628214 0 1341.9477091628214 -1639.0404862595242 0 0 0 0 46.904107895112247 1485.8329512295659 0 1485.8329512295659 -1705.139940018671 0 0 0 0 -231.3348813861885 938.41544181965583 0 938.41544181965583 -1482.0975478687906 0 0 0 0 -913.6898848087294 2512.2965966238662 0 2512.2965966238662 -3055.7591827379074 0 0 0 0 -2070.6230602835421 1895.550924120862 0 1895.550924120862 -183.70763842695305 0 0 0 0 155.71327509233379 -217.39551978993586 0 -217.39551978993586 -199.30855146730028 0 0 0 0 1257.1530180494156 597.61692186964137 0 597.61692186964137 -1186.505742015989 0 0 0 0 -874.53176952498325 907.49292282802708 0 907.49292282802708 -1156.0684369829687 0 0 0 0 4.3630079096583358 -0.1015394412973194 0 -0.1015394412973194 -10.051314429180948 0 0 0 0 482.90852505213115 -1148.0637325446642 0 -1148.0637325446642 -1353.9690115663448 0 0 0 0 809.77428196577239 288.12173762289967 0 288.12173762289967 -1445.045226925803 0 0 0 0 2312.5184406116459 -910.1193510898047 0 -910.1193510898047 -521.74450454263933 0 0 0 0 -939.51731760732946 109.97476678773273 0 109.97476678773273 2515.2179627331134 0 0 0 0 945.63728582682961 -326.3961342475659 0 -326.3961342475659 3.255977101453027 0 0 0 0 1114.0147565914085 86.965030115377886 0 86.965030115377886 -116.04438249301529 0 0 0 0 1417.1350634198316 987.08314502789199 0 987.08314502789199 -488.32689503982328 0 0 0 0 1242.6603644418065 195.52391327093756 0 195.52391327093756 -26.022790859540692 0 0 0 0 1319.628479411429 482.19720279875492 0 482.19720279875492 -859.07939760779118 0 0 0 0 545.37924940052471 456.38962479944803 0 456.38962479944803 -59.377369591147726 0 0 0 0 303.67614388671063 856.84412130486635 0 856.84412130486635 -602.3581703662785 0 0 0 0 -611.24194086543866 685.23404127695358 0 685.23404127695358 -1862.0442539533187 0 0 0 0 -207.54983334585995 1330.0989537385067 0 1330.0989537385067 -885.95738393404463 0 0 0 0 813.55977034776515 743.76811153841436 0 743.76811153841436 -1073.2024086265701 0 0 0 0 -557.96386038558558 1258.6457411162519 0 1258.6457411162519 -43.894155446829245 0 0 0 0 -351.46018906783138 44.752121239817825 0 44.752121239817825 499.58849001854287 0 0 0 0 365.43717577911593 364.25720890955131 0 364.25720890955131 580.07589890034978 0 0 0 0 228.0535926899538 176.034998869932 0 176.034998869932 2993.8818084617014 0 0 0 0 20.661974648544742 13.118858031887683 0 13.118858031887683 8.6513056704351889 0 0 0 0 2175.7820050586597 904.67003869029304 0 904.67003869029304 48.500589830330682 0 0 0 0 1888.2706650107139 -476.53415478299098 0 -476.53415478299098 283.23379435229799 0 0 0 0 682.18545173363236 -33.987601073971746 0 -33.987601073971746 1796.78379032052 0 0 0 0 472.55623593457858 517.20508247280213 0 517.20508247280213 419.75223012905553 0 0 0 0 -3355.8864273275376 2670.537751486183 0 2670.537751486183 -1328.5250023072695 0 0 0 0 623.16278312652139 -37.670044306345517 0 -37.670044306345517 -2456.1214958989794 0 0 0 0 -27.019321091342135 -10.756132712581348 0 -10.756132712581348 -129.53745270805666 0 0 0 0 0.53462415991628376 -4.7244456548408493 0 -4.7244456548408493 -21.852213262359911 0 0 0 0 -2213.0378067724523 3121.3159963770267 0 3121.3159963770267 -2918.2650719692192 0 0 0 0 -279.46660392836202 1465.2241842515232 0 1465.2241842515232 -2368.4387415640558 0 0 0 0 -15.170373233107966 -22.435041191019991 0 -22.435041191019991 -891.83183339180687 0 0 0 0 2.3562162624231178 59.184018227449343 0 59.184018227449343 60.594776450476907 0 0 0 0 -226.18916994189203 261.21556241496364 0 261.21556241496364 -57.206925501232035 0 0 0 0 -57.861934006155934 109.64382665301127 0 109.64382665301127 31.422050210909219 0 0 0 0 25.235498759042486 15.176542055368202 0 15.176542055368202 5.4755415424457112 0 0 0 0 -176.59620046970667 889.67136306521388 0 889.67136306521388 -1455.0592255605734 0 0 0 0 134.53081534305238 303.09052351972059 0 303.09052351972059 -34.989227353813476 0 0 0 0 -548.34843369296141 613.57689208678039 0 613.57689208678039 -765.51541796169477 0 0 0 0 4.8972374817315583 13.928410883259829 0 13.928410883259829 -51.637350179838521 0 0 0 0 -1428.0176466210396 1516.8838318130365 0 1516.8838318130365 -671.08207410246723 0 0 0 0 -1813.8655400000571 2040.7818553783363 0 2040.7818553783363 -1327.3164075418845 0 0 0 0 -1469.9776971455431 1678.3531779778223 0 1678.3531779778223 -1093.6359144464495 0 0 0 0 -964.08641947845172 994.92830381175554 0 994.92830381175554 -576.43778710868537 0 0 0 0 -383.50395965589632 1450.8676571858282 0 1450.8676571858282 -1373.383177727188 0 0 0 0 -862.31502749449282 1327.2144031152438 0 1327.2144031152438 -2798.1543392914518 0 0 0 0 -832.57696411489451 785.16489984364944 0 785.16489984364944 -806.35447636622484 0 0 0 0 -1206.4312416971443 713.10732440151969 0 713.10732440151969 379.68715246151442 0 0 0 0 -128.06837820772489 629.57335072464139 0 629.57335072464139 -905.47495795030591 0 0 0 0 -402.39231519366149 -539.30471396691246 0 -539.30471396691246 1899.9725608887256 0 0 0 0 299.85111200065876 287.91117444501197 0 287.91117444501197 507.05292812894731 0 0 0 0 -394.69450777734164 4.9238126560867386 0 4.9238126560867386 445.57136001089202 0 0 0 0 -975.86884155742882 899.79695763097425 0 899.79695763097425 549.86738978848189 0 0 0 0 -660.20356976856419 960.5991598635801 0 960.5991598635801 54.83678919586896 0 0 0 0 -1039.4218675667944 1399.9454527790931 0 1399.9454527790931 188.41271135560601 0 0 0 0 -1863.169287552475 1230.1898566715354 0 1230.1898566715354 60.883165505363252 0 0 0 0 -2580.6314127939986 239.06713898243652 0 239.06713898243652 -959.42259625731822 0 0 0 0 -968.28279330951773 1823.2761713901245 0 1823.2761713901245 -1097.6569573368797 0 0 0 0 -637.54942123265937 1283.759374713818 0 1283.759374713818 -918.2523992354545 0 0 0 0 3.7827435848630557 806.8126954334175 0 806.8126954334175 -951.76222804096324 0 0 0 0 -790.77418921818025 1442.7695914510641 0 1442.7695914510641 -282.31040858243796 0 0 0 0 -550.0929536125841 1446.2212554964735 0 1446.2212554964735 -974.84992668840277 0 0 0 0 -739.42516028026876 1465.072404886715 0 1465.072404886715 -286.19960280525197 0 0 0 0 -707.58171490039967 1390.8074257218959 0 1390.8074257218959 -254.70139245065548 0 0 0 0 -446.18415232308325 1380.182184650419 0 1380.182184650419 -322.08861852550945 0 0 0 0 -565.19167657155776 1500.0086072086142 0 1500.0086072086142 -193.51518636904075 0 0 0 0 -299.05689034724492 1749.2628388930243 0 1749.2628388930243 524.67617895926514 0 0 0 0 428.77336181587452 1336.0093244196974 0 1336.0093244196974 -820.59502799101574 0 0 0 0 29.44025181672643 21.40411314914865 0 21.40411314914865 18.930143449288003 0 0 0 0 -270.1961481318358 1066.4934340630443 0 1066.4934340630443 1767.2879360869065 0 0 0 0 -309.11496567921859 725.36475658661766 0 725.36475658661766 73.863518568340623 0 0 0 0 -331.04579049458334 870.02506707308748 0 870.02506707308748 -615.87094335606889 0 0 0 0 -376.83359013743757 1058.0344348831386 0 1058.0344348831386 -107.87356101506612 0 0 0 0 1254.2265835187936 2153.6067912788531 0 2153.6067912788531 -25.193800146176727 0 0 0 0 2370.2955071657343 -1178.4548008787897 0 -1178.4548008787897 -406.09072015074344 0 0 0 0 2584.900591806103 -624.08111920463909 0 -624.08111920463909 -108.57076450462773 0 0 0 0 3013.1225011797069 1542.8366775434497 0 1542.8366775434497 178.23848753603124 0 0 0 0 -650.10057382353261 1309.4393635351553 0 1309.4393635351553 1869.8849568998285 0 0 0 0 -213.9334393614954 571.08305056028985 0 571.08305056028985 -133.32718075503544 0 0 0 0 476.66289699785011 765.23041048824689 0 765.23041048824689 -24.908933767499548 0 0 0 0 304.01075715192837 465.20008809726869 0 465.20008809726869 -219.74519895231242 0 0 0 0 2289.3564661399832 397.98658431764125 0 397.98658431764125 -657.94500500673348 0 0 0 0 1357.1523121106657 398.14674111853674 0 398.14674111853674 -628.47424338658402 0 0 0 0 921.55657983663696 196.51141932421524 0 196.51141932421524 -504.71475503878901 0 0 0 0 1356.7808950593571 367.78382553035408 0 367.78382553035408 -562.0117015554315 0 0 0 0 2071.6746755399072 936.797562069798 0 936.797562069798 -346.94055581140765 0 0 0 0 1608.3872742466192 260.71127339974009 0 260.71127339974009 -897.65015824768489 0 0 0 0 939.4239532821332 455.06072699080931 0 455.06072699080931 -769.08614331109493 0 0 0 0 -194.99220848957339 -153.83344666360426 0 -153.83344666360426 -1051.6272688500885 0 0 0 0 75.614408078837627 68.544122010039459 0 68.544122010039459 46.151492278867877 0 0 0 0 -216.79748621492035 724.55635793466809 0 724.55635793466809 -482.59967182878972 0 0 0 0 52.269058403109739 254.92334089582596 0 254.92334089582596 -679.50744117974318 0 0 0 0 1245.1389199648565 -336.11322866454793 0 -336.11322866454793 -70.116085484569339 0 0 0 0 124.87244319265665 38.457238644969038 0 38.457238644969038 11.319284719138523 0 0 0 0 168.77296312931139 280.94680202909058 0 280.94680202909058 194.9919408650112 0 0 0 0 1283.8039217116311 339.28225448319608 0 339.28225448319608 36.984046948919058 0 0 0 0 191.86438640104461 255.00635758598946 0 255.00635758598946 209.27676408615844 0 0 0 0 156.80402632264304 379.47704204500951 0 379.47704204500951 6.6686516126555944 0 0 0 0 -77.956237013197097 78.075003393116276 0 78.075003393116276 39.07723506074899 0 0 0 0 -164.45530084268557 51.064497770467369 0 51.064497770467369 152.57413679733145 0 0 0 0 -52.50623507772616 36.291880936585585 0 36.291880936585585 -60.917187028044282 0 0 0 0 -22.866858183610873 39.88048512572022 0 39.88048512572022 3.7705305450016979 0 0 0 0 -44.600632294130001 60.877172498973046 0 60.877172498973046 52.11977886209533 0 0 0 0 84.719473541106709 92.442663827363049 0 92.442663827363049 -19.144868127921654 0 0 0 0 -45.507835924283427 133.8182413898985 0 133.8182413898985 116.47735031163847 0 0 0 0 -42.490165594972495 50.071408634133149 0 50.071408634133149 72.409773717958558 0 0 0 0 192.56183527405665 83.686926342846164 0 83.686926342846164 5.7144899310635537 0 0 0 0 86.713958628439286 160.60054810868527 0 160.60054810868527 84.014846017529607 0 0 0 0 -30.356835246477928 39.941171737306306 0 39.941171737306306 18.786503863896453 0 0 0 0 -13.189096621285898 -2.9013812831057635 0 -2.9013812831057635 -60.358008623100432 0 0 0 0 -35.385107068954255 24.045885656207748 0 24.045885656207748 -5.4251720684289646 0 0 0 0 -12.217050305982411 67.283605046157732 0 67.283605046157732 -1.29964232081727 0 0 0 0 185.02332426230714 152.54151077799952 0 152.54151077799952 -84.096326591448815 0 0 0 0 -117.21675262814097 -61.764944982921406 0 -61.764944982921406 319.19642585472684 0 0 0 0 978.25323938671863 1071.3062057246434 0 1071.3062057246434 773.53530714811495 0 0 0 0 2023.7526425497199 2371.2846610923516 0 2371.2846610923516 325.5692789476816 0 0 0 0 1820.9748461886047 2223.5098057789528 0 2223.5098057789528 1470.9756172437337 0 0 0 0 1485.4466700178455 1843.1577809016926 0 1843.1577809016926 1399.6363244895037 0 0 0 0 2722.8223085109348 2148.164348368151 0 2148.164348368151 871.19648689300084 0 0 0 0 3350.380499316123 1334.1006582658683 0 1334.1006582658683 56.126283224395593 0 0 0 0 3249.9995011785359 942.81760293798015 0 942.81760293798015 807.83036144507423 0 0 0 0 -10.918403347061039 10.978643218681174 0 10.978643218681174 11.702096168196327 0 0 0 0 -276.05140809269869 56.901798121454704 0 56.901798121454704 657.70329118497671 0 0 0 0 1339.1030696136841 718.64779099292355 0 718.64779099292355 -1987.3153269741924 0 0 0 0 7.2349481518859022 -1.02898601321629 0 -1.02898601321629 0.083996388004353051 0 0 0 0 570.29870866011333 1305.8109575477647 0 1305.8109575477647 2221.2580639929074 0 0 0 0 536.48465913926702 865.84841587942446 0 865.84841587942446 1604.2432267844215 0 0 0 0 93.370487791544292 14.997132417391185 0 14.997132417391185 69.754762893266161 0 0 0 0 1117.6634249808162 1110.813390629213 0 1110.813390629213 640.95158840891236 0 0 0 0 950.38833545368834 1133.47452373127 0 1133.47452373127 677.45784768853628 0 0 0 0 1030.6578458319818 1175.5623012073083 0 1175.5623012073083 259.32025525676545 0 0 0 0 872.88259917054529 1208.1051827162382 0 1208.1051827162382 432.37564085546001 0 0 0 0 1129.679133572412 1215.3550009876617 0 1215.3550009876617 275.29044370096199 0 0 0 0 -4.8720234537618499 29.017648157661867 0 29.017648157661867 -25.935896660390654 0 0 0 0 703.81039727595635 203.11162155366037 0 203.11162155366037 54.380579589231274 0 0 0 0 1.8685178903114377 6.6881645579921543 0 6.6881645579921543 -2.7803789155597665 0 0 0 0 2056.0231260846776 860.28591164663885 0 860.28591164663885 -638.58808681641312 0 0 0 0 1652.0034847994975 1269.844170025186 0 1269.844170025186 277.76390323313899 0 0 0 0 1189.5543124291653 327.15874568796244 0 327.15874568796244 -832.53153397992537 0 0 0 0 2519.2853000880568 1611.5149220250496 0 1611.5149220250496 -463.34489186385326 0 0 0 0 670.89239629419899 496.96174885450728 0 496.96174885450728 -32.720253103349023 0 0 0 0 647.0852402352466 664.55480599227394 0 664.55480599227394 -930.31382002178907 0 0 0 0 -61.798445225366777 36.101725215236414 0 36.101725215236414 13.06221116763561 0 0 0 0 -158.25208417856265 688.14533662705844 0 688.14533662705844 743.37686302718339 0 0 0 0 551.60643110462479 811.69553701310087 0 811.69553701310087 2017.556767332635 0 0 0 0 1937.6077464533118 989.22092060704472 0 989.22092060704472 -421.9185756174229 0 0 0 0 1867.9795952810091 1105.0395897320045 0 1105.0395897320045 302.19222509385827 0 0 0 0 106.97850904264487 100.72755566265278 0 100.72755566265278 -20.73071226832144 0 0 0 0 2172.048685031652 864.62570053485615 0 864.62570053485615 148.82336822191974 0 0 0 0 1135.5913309230964 -908.90182491233008 0 -908.90182491233008 479.30058418160752 0 0 0 0 495.89215252843496 -26.853285670938931 0 -26.853285670938931 -270.63216658181591 0 0 0 0 19.603951040837273 36.080603628790129 0 36.080603628790129 -60.189038394404633 0 0 0 0 38.449849384276604 83.810938831091875 0 83.810938831091875 -11.912250758784921 0 0 0 0 -678.15861662093039 -701.60577190630011 0 -701.60577190630011 876.91226909813668 0 0 0 0 -8.7946054076312166 26.857422261767027 0 26.857422261767027 -38.20616330327568 0 0 0 0 99.045800043089002 115.79647438784053 0 115.79647438784053 14.219441994565841 0 0 0 0 86.0938275072549 71.938293183680685 0 71.938293183680685 -48.841840735128358 0 0 0 0 126.98477202424692 77.17783541317732 0 77.17783541317732 -18.767068350364568 0 0 0 0 -110.02860579179105 89.152952423416764 0 89.152952423416764 -0.96496627457236173 0 0 0 0 158.05179247880187 114.28597371958671 0 114.28597371958671 -18.673244324220548 0 0 0 0 -30.643521363618625 89.816368123985256 0 89.816368123985256 -12.636468258262502 0 0 0 0 4.4447208931196656 56.73341492143004 0 56.73341492143004 -3.2519857518511799 0 0 0 0 35.069262205877749 41.66528995066767 0 41.66528995066767 -44.425422832820118 0 0 0 0 57.822349675436271 112.45180098954086 0 112.45180098954086 18.538245325461389 0 0 0 0 63.151141380602894 172.87503212309093 0 172.87503212309093 414.38183947902348 0 0 0 0 -5.2104956451292459 20.15508588072467 0 20.15508588072467 -20.271439781959192 0 0 0 0 64.627789547786961 239.56590590895485 0 239.56590590895485 360.17283539187611 0 0 0 0 -2726.0370430601279 -815.75996412371887 0 -815.75996412371887 557.2627290760538 0 0 0 0 -431.7338690996512 237.21037261761455 0 237.21037261761455 -1113.0765004947448 0 0 0 0 -1.1285609130252698 -0.24619261929781544 0 -0.24619261929781544 -8.3726239362543069 0 0 0 0 -2364.5533838148167 -399.73162702367017 0 -399.73162702367017 97.30307683555111 0 0 0 0 -4.240610130315317 5.1116397640530655 0 5.1116397640530655 -12.363207974316019 0 0 0 0 670.91682615299851 870.33339494164011 0 870.33339494164011 -24.823337435478606 0 0 0 0 148.57338250258181 633.38853976354403 0 633.38853976354403 103.14653369848202 0 0 0 0 666.66629553148755 354.81234264216704 0 354.81234264216704 252.58872246300598 0 0 0 0 183.71658719589323 598.32886842025073 0 598.32886842025073 10.508708451361599 0 0 0 0 57.232213586943544 542.70134019128 0 542.70134019128 496.46538227944075 0 0 0 0 -97.35456357761359 510.30055608629482 0 510.30055608629482 1301.3762266572021 0 0 0 0 -95.922337138497824 485.22939668321396 0 485.22939668321396 477.96214757791927 0 0 0 0 574.80342243704217 1116.353541012501 0 1116.353541012501 -100.43321149373332 0 0 0 0 323.44294051573888 936.74226660600971 0 936.74226660600971 456.08771086253228 0 0 0 0 313.2160451782438 753.78625708731806 0 753.78625708731806 738.96169290694706 0 0 0 0 888.34937750818426 1618.1504965082008 0 1618.1504965082008 1730.1000583675377 0 0 0 0 -78.043497033164385 143.96025190420755 0 143.96025190420755 2533.9606880279334 0 0 0 0 1171.1388373384543 856.64601397512524 0 856.64601397512524 336.10120847047074 0 0 0 0 16.355410609183366 11.368595189618752 0 11.368595189618752 10.205993641095457 0 0 0 0 15.42703885775154 4.2241927931535201 0 4.2241927931535201 379.05659908594703 0 0 0 0 25.791192470114765 272.63806838896221 0 272.63806838896221 713.85693957089097 0 0 0 0 -78.178069397050422 -71.2558053915551 0 -71.2558053915551 932.83528889529669 0 0 0 0 86.41767993866506 212.01453842168485 0 212.01453842168485 202.69133921191496 0 0 0 0 45.565967433343758 290.13436936651942 0 290.13436936651942 -53.229436166333471 0 0 0 0 32.545240646629281 41.9744747472188 0 41.9744747472188 24.747793731746579 0 0 0 0 45.039112040274631 325.8265518665803 0 325.8265518665803 32.526188022700808 0 0 0 0 -128.13594184882822 -23.785646287610689 0 -23.785646287610689 -66.671573357816669 0 0 0 0 -81.332183023987454 126.27783184594682 0 126.27783184594682 269.62814680296287 0 0 0 0 4.9882188979336206 3.966215219834293 0 3.966215219834293 -0.56181937724759301 0 0 0 0 -1.2578914069726466 -0.24684312056437108 0 -0.24684312056437108 -4.8478691546352692 0 0 0 0 378.25717912901928 557.05161277002389 0 557.05161277002389 792.56206902261465 0 0 0 0 439.50423332877835 369.72449650748422 0 369.72449650748422 -161.51516369218007 0 0 0 0 -327.54636416782159 -430.04050534421003 0 -430.04050534421003 -269.1138929997328 0 0 0 0 167.75075075777568 -49.004015825142687 0 -49.004015825142687 -83.645838186464971 0 0 0 0 -185.39525297985529 -24.635108992717505 0 -24.635108992717505 -66.812810732922117 0 0 0 0 0.017876444333808195 32.126873123302389 0 32.126873123302389 1.6202732978749417 0 0 0 0 -244.6952561114158 -141.65661690269008 0 -141.65661690269008 -50.06031905755799 0 0 0 0 -64.488687169112296 8.1327819855860355 0 8.1327819855860355 20.770966183306086 0 0 0 0 -52.923187450363912 40.588393693307808 0 40.588393693307808 13.392328798389485 0 0 0 0 -6.6927590679083266 37.711337351078114 0 37.711337351078114 21.329809544884732 0 0 0 0 -30.235139087280778 31.807926343278528 0 31.807926343278528 30.838379989574896 0 0 0 0 -419.6021788957496 47.505293718455505 0 47.505293718455505 14.35552323063348 0 0 0 0 -62.837206803582376 76.085076243038202 0 76.085076243038202 14.793373109299864 0 0 0 0 -118.41562376365425 48.325908374796541 0 48.325908374796541 56.305985513307604 0 0 0 0 -97.112003888958498 50.007356414878586 0 50.007356414878586 44.924154934458784 0 0 0 0 -57.324092872054784 70.609972475418417 0 70.609972475418417 26.838635462901927 0 0 0 0 -87.956876147989533 -58.020889908540084 0 -58.020889908540084 110.28508685409906 0 0 0 0 -30.818346437185177 5.4843109015263849 0 5.4843109015263849 9.4248347009540154 0 0 0 0 -137.06011426741316 35.856871275265803 0 35.856871275265803 80.179971737607957 0 0 0 0 -124.04835935126903 -56.499604572678436 0 -56.499604572678436 135.76823980265726 0 0 0 0 -15.711559096196289 11.228669491273452 0 11.228669491273452 9.6281346700287749 0 0 0 0 -7.0343440764736442 130.40607685117629 0 130.40607685117629 -22.330183142136775 0 0 0 0 -45.565098887149361 37.652712872813026 0 37.652712872813026 54.909152709249611 0 0 0 0 -63.218614073352342 31.820392930692407 0 31.820392930692407 47.674992313239215 0 0 0 0 -161.67276764696726 -50.401854295820158 0 -50.401854295820158 124.01708588206839 0 0 0 0 -54.800784443385965 -15.309935389614111 0 -15.309935389614111 -52.879819817533757 0 0 0 0 38.05495771812457 29.83621782762475 0 29.83621782762475 60.822879267007011 0 0 0 0 -559.72728485612424 -249.57179872868119 0 -249.57179872868119 193.05773480259347 0 0 0 0 -420.00325849343699 352.66339919340834 0 352.66339919340834 -106.82982087098981 0 0 0 0 -46.922143933733153 35.382254489930972 0 35.382254489930972 26.949087473421724 0 0 0 0 -1188.1618964078098 224.7885549562501 0 224.7885549562501 150.49415105026037 0 0 0 0 -311.62528795315666 223.88229370829049 0 223.88229370829049 108.17707369664913 0 0 0 0 -5.1746931342238156 2.3245404137446535 0 2.3245404137446535 4.0629554646415897 0 0 0 0 -132.67243639960725 -155.31466154674035 0 -155.31466154674035 -582.61846268104455 0 0 0 0 -656.37663452761899 577.36259726562525 0 577.36259726562525 -195.16650789631694 0 0 0 0 7.7551343728955544 209.44373788053872 0 209.44373788053872 98.964153011037979 0 0 0 0 405.70333684483194 511.63432767117047 0 511.63432767117047 261.21828472179504 0 0 0 0 41.008176988936611 -76.123274316003517 0 -76.123274316003517 62.490377431005982 0 0 0 0 -51.547755852912815 -95.184946054747087 0 -95.184946054747087 68.760106180651746 0 0 0 0 -31.607339024383691 13.403899183926114 0 13.403899183926114 95.677214325009118 0 0 0 0 -63.627688132251933 -6.1779442941606248 0 -6.1779442941606248 87.815210618307901 0 0 0 0 -361.09718200915449 266.07179643355221 0 266.07179643355221 -54.555510132759082 0 0 0 0 -354.79024125709839 220.47195187106263 0 220.47195187106263 -118.91330370861397 0 0 0 0 49.527003176550352 76.38067512492762 0 76.38067512492762 -79.610144680839767 0 0 0 0 -1.4742095584335644 -7.3071159294714256 0 -7.3071159294714256 13.960291121743925 0 0 0 0 -81.199939135248712 -1.3252926004070176 0 -1.3252926004070176 64.996361604969181 0 0 0 0 -369.66199483117816 227.62457978800649 0 227.62457978800649 85.671997324985568 0 0 0 0 -319.47486419440247 185.92548036387871 0 185.92548036387871 -45.384285173227909 0 0 0 0 -299.09836769638787 115.80505299659126 0 115.80505299659126 92.262405509354721 0 0 0 0 -69.728877397892958 -7.771199873279528 0 -7.771199873279528 76.143542912073201 0 0 0 0 -325.61212936048105 38.661118539408562 0 38.661118539408562 112.57157396653565 0 0 0 0 -359.03954350415734 590.64373055329088 0 590.64373055329088 -617.06446160949054 0 0 0 0 -394.06403866134497 390.33611354428467 0 390.33611354428467 -313.04945847435147 0 0 0 0 -474.58107257443498 602.61824375915376 0 602.61824375915376 -379.74654778313561 0 0 0 0 -367.43636768940269 463.08428827180069 0 463.08428827180069 -480.62191397746392 0 0 0 0 -256.68564612756745 317.32026433115016 0 317.32026433115016 -82.154515922948121 0 0 0 0 -117.09811535756707 101.79791179950155 0 101.79791179950155 7.8721777143233354 0 0 0 0 -267.41001400374807 253.14907206595672 0 253.14907206595672 -352.57440222530749 0 0 0 0 -369.533137400329 208.43684457092877 0 208.43684457092877 101.63703150593255 0 0 0 0 -353.73284684374448 272.73309513853792 0 272.73309513853792 74.76572826031952 0 0 0 0 -98.539886465737453 94.631594407760829 0 94.631594407760829 13.217018376335567 0 0 0 0 27.113901609678578 641.41414369909307 0 641.41414369909307 333.27650522963268 0 0 0 0 -1873.1192993389704 -330.48821931788052 0 -330.48821931788052 952.52466633924087 0 0 0 0 -179.49806533963965 285.29603604891918 0 285.29603604891918 125.46031888166726 0 0 0 0 -510.39950254542055 311.35557223799788 0 311.35557223799788 295.10717656558882 0 0 0 0 -702.74363958286267 197.21523734267794 0 197.21523734267794 264.45921828876089 0 0 0 0 -301.55108430680775 309.18003824714197 0 309.18003824714197 -146.83798652753012 0 0 0 0 -273.22050468018278 188.71242584743095 0 188.71242584743095 363.17884933580797 0 0 0 0 -470.73077760813248 113.59772727728523 0 113.59772727728523 132.7305281271947 0 0 0 0 -379.78422536113067 38.209266382564238 0 38.209266382564238 126.56691998502521 0 0 0 0 -433.78586537397496 187.17080524025914 0 187.17080524025914 219.0470325732349 0 0 0 0 -564.58298583545547 129.68462844919941 0 129.68462844919941 194.63713117011139 0 0 0 0 -601.67334693521116 96.209455126035209 0 96.209455126035209 102.62361427333144 0 0 0 0 -625.30212313669472 140.69892798989804 0 140.69892798989804 200.59016120820252 0 0 0 0 -606.9736049530693 -127.09200110100028 0 -127.09200110100028 86.56308583990176 0 0 0 0 -309.62080989553942 42.517009835861245 0 42.517009835861245 126.57828159791288 0 0 0 0 -182.78047899141529 -105.26698666226685 0 -105.26698666226685 -50.93938667878092 0 0 0 0 -721.41156210226836 -336.87934832414078 0 -336.87934832414078 -53.144960453962085 0 0 0 0 -1043.0256484643251 306.58349218092826 0 306.58349218092826 47.175739249150183 0 0 0 0 -706.45606731967564 278.09920223976405 0 278.09920223976405 -383.78242536871312 0 0 0 0 -1513.502689710549 927.99287649571829 0 927.99287649571829 -704.75506076085117 0 0 0 0 -3.5836654932834051 8.657134002763442 0 8.657134002763442 -16.338157907150936 0 0 0 0 -1575.761329847538 5.6661722631500595 0 5.6661722631500595 -87.174511295374032 0 0 0 0 498.99192049390331 257.8009060424597 0 257.8009060424597 -431.24179795332566 0 0 0 0 -279.36402062757406 583.70236329239742 0 583.70236329239742 -567.27686500484424 0 0 0 0 -776.57404995613615 498.6877312558604 0 498.6877312558604 -203.26034871230581 0 0 0 0 -218.15211358377201 421.94858231119224 0 421.94858231119224 -1012.6547538955683 0 0 0 0 -544.61360664849053 659.21286188299462 0 659.21286188299462 -1090.2755763125431 0 0 0 0 184.26229027740555 435.05455378868817 0 435.05455378868817 -1427.0970330094553 0 0 0 0 -299.69576945712106 694.67505787066136 0 694.67505787066136 -1538.2780551040864 0 0 0 0 -111.02960671242727 575.78348131379335 0 575.78348131379335 -1980.3512759522664 0 0 0 0 -417.93156953317157 882.47040133759981 0 882.47040133759981 -2186.9551635039384 0 0 0 0 -0.7666383526535725 6.1958094767387415 0 6.1958094767387415 3.8493139573491248 0 0 0 0 -37.299127108337416 49.542965834835741 0 49.542965834835741 319.88795765906866 0 0 0 0 204.9263837116232 228.65233154661064 0 228.65233154661064 -1389.9823581036921 0 0 0 0 -1179.3548586473407 1135.8831735348749 0 1135.8831735348749 -799.96676622727864 0 0 0 0 -552.59330844193755 762.59666013040635 0 762.59666013040635 -1908.1044625746113 0 0 0 0 -482.06848564269922 575.14056028238895 0 575.14056028238895 -1844.1990275792823 0 0 0 0 -1649.0908832280948 974.39312707660838 0 974.39312707660838 -868.09652032070039 0 0 0 0 -857.35963814955176 797.15098721284983 0 797.15098721284983 -1251.1055824055197 0 0 0 0 -1649.6275493970388 816.69271214612434 0 816.69271214612434 -824.20664657931854 0 0 0 0 -4.8050373904503232 -3.7519344179577132 0 -3.7519344179577132 -6.9389560743497771 0 0 0 0 -2665.4337598112543 2007.6147223392477 0 2007.6147223392477 -839.0531383217085 0 0 0 0 -1120.787588150084 1191.4895595362771 0 1191.4895595362771 -850.67088929209854 0 0 0 0 35.211273211774824 159.67912183506451 0 159.67912183506451 -99.467662265730723 0 0 0 0 28.288242054542934 546.6795856614649 0 546.6795856614649 -1006.6947394898624 0 0 0 0 453.33379486694685 -77.141935785099918 0 -77.141935785099918 -195.84349073710564 0 0 0 0 -0.45750997603317956 247.15161359306057 0 247.15161359306057 117.13426408568193 0 0 0 0 21.006317255021713 84.770271034431062 0 84.770271034431062 -16.826942014961332 0 0 0 0 36.788418305478558 70.975891741735325 0 70.975891741735325 17.177349065216564 0 0 0 0 -46.843511380142445 104.98033909956939 0 104.98033909956939 117.36688900284207 0 0 0 0 8.2836349138488004 94.977038492461361 0 94.977038492461361 -25.01389203288727 0 0 0 0 159.65426701839169 183.69708230297329 0 183.69708230297329 26.814217691456861 0 0 0 0 33.652242191710684 91.595118535795336 0 91.595118535795336 15.234468539892987 0 0 0 0 -3.2540072543620084 0.41557041974566289 0 0.41557041974566289 1.4170319461534717 0 0 0 0 97.102348731452366 33.904411226119919 0 33.904411226119919 -11.75307286764928 0 0 0 0 44.33241654921585 187.79674786845135 0 187.79674786845135 37.904022565749074 0 0 0 0 109.14299882562409 92.071860048603412 0 92.071860048603412 105.29318151553889 0 0 0 0 29.366221409462156 80.385842551828233 0 80.385842551828233 83.336228009243257 0 0 0 0 191.66226953051955 103.1248619066107 0 103.1248619066107 -121.27513041857128 0 0 0 0 15.045316996311982 7.9093722254113317 0 7.9093722254113317 -37.43568162495724 0 0 0 0 107.68639871014238 85.295870126856244 0 85.295870126856244 118.69389107418829 0 0 0 0 74.4595042146818 81.698202127630836 0 81.698202127630836 19.919175111132713 0 0 0 0 -25.424748848272401 22.820173812669236 0 22.820173812669236 -5.3404061950224815 0 0 0 0 -18.615180031381897 156.37287681316957 0 156.37287681316957 -121.76031942320697 0 0 0 0 -40.808873140922429 68.356126586734405 0 68.356126586734405 17.913455371363163 0 0 0 0 -141.94720377913836 116.30755796833637 0 116.30755796833637 43.552668524354885 0 0 0 0 -16.148288237054658 114.92176531455152 0 114.92176531455152 17.33989626771745 0 0 0 0 -50.316049292366934 101.35340648048937 0 101.35340648048937 2.897123720919204 0 0 0 0 -109.88665543471143 95.987985442439822 0 95.987985442439822 36.556414096781737 0 0 0 0 -115.46793896180957 144.54603840025646 0 144.54603840025646 12.365932238670915 0 0 0 0 -128.57691152291954 64.413051112454468 0 64.413051112454468 51.8116635949591 0 0 0 0 -40.857934205487254 108.31047672374552 0 108.31047672374552 71.24486426536896 0 0 0 0 -77.34156968350851 83.856827451392405 0 83.856827451392405 -5.8478632057754112 0 0 0 0 -112.32745054399857 53.638856903575288 0 53.638856903575288 58.718128626973339 0 0 0 0 -114.91515623489249 85.581719717411033 0 85.581719717411033 23.590270724824222 0 0 0 0 -86.549523889036209 66.334221136854467 0 66.334221136854467 36.65023486528662 0 0 0 0 -76.867669677540107 10.954431599066083 0 10.954431599066083 112.50353213864764 0 0 0 0 3.0624720679381312 -4.2449463133576 0 -4.2449463133576 -4.6404661161269232 0 0 0 0 112.63983366356842 79.106330803373567 0 79.106330803373567 -56.878631592075635 0 0 0 0 50.331596963078482 69.551869258620172 0 69.551869258620172 40.982449446362807 0 0 0 0 -73.233321683015674 -29.653726276166708 0 -29.653726276166708 -30.919941882441435 0 0 0 0 -1.9297528148286602 66.344674426653626 0 66.344674426653626 16.72230960964335 0 0 0 0 -67.972918689050857 248.76739519402872 0 248.76739519402872 -245.65041785224275 0 0 0 0 -14.298687012233131 84.80243922464183 0 84.80243922464183 64.668185124737647 0 0 0 0 -15.221610633485398 90.137238108752626 0 90.137238108752626 35.513368767615589 0 0 0 0 18.52973693846991 120.67506689458482 0 120.67506689458482 62.487344031545945 0 0 0 0 -42.750702136094333 81.480792468361273 0 81.480792468361273 77.494437203904965 0 0 0 0 -40.741920800905064 67.735460453274328 0 67.735460453274328 41.454476253545863 0 0 0 0 -46.243466905616515 93.233260482814785 0 93.233260482814785 64.941838950083365 0 0 0 0 -70.391864362754859 58.749204406115865 0 58.749204406115865 46.503994057428656 0 0 0 0 60.542746777116918 88.79557935535945 0 88.79557935535945 47.003837706128252 0 0 0 0 -22.052864424834937 53.02894168515067 0 53.02894168515067 10.164057122624735 0 0 0 0 -52.360744070535063 65.018442270328265 0 65.018442270328265 -1.0286472600861609 0 0 0 0 -134.93922592064882 29.271834555623627 0 29.271834555623627 39.126919304177136 0 0 0 0 -147.00003070452183 45.876194494695795 0 45.876194494695795 41.919727295166616 0 0 0 0 -42.811505855937867 66.679288981621482 0 66.679288981621482 36.360088084479685 0 0 0 0 -52.333780093118548 68.657662333663666 0 68.657662333663666 105.23282963892234 0 0 0 0 -62.924411138603318 90.522157081810292 0 90.522157081810292 85.380175374977625 0 0 0 0 -98.976905567861721 43.646117016508413 0 43.646117016508413 60.59725341976727 0 0 0 0 -136.52126201408464 38.98812113819622 0 38.98812113819622 19.169719857112796 0 0 0 0 -66.343664309273265 68.061717772519074 0 68.061717772519074 51.530214949034239 0 0 0 0 -135.47565969310381 79.73021559243216 0 79.73021559243216 51.902150452289789 0 0 0 0 -92.974065879672651 87.324261727148226 0 87.324261727148226 12.939132104017347 0 0 0 0 -110.50729347952074 89.44617193160957 0 89.44617193160957 48.304139458196005 0 0 0 0 -54.207550789767993 92.908003486876623 0 92.908003486876623 36.702290448132771 0 0 0 0 -76.191231346714375 90.451225587042828 0 90.451225587042828 31.770802314018567 0 0 0 0 -77.061881424408057 101.05494550034018 0 101.05494550034018 62.631761348235159 0 0 0 0 -76.642588389106095 93.551146245967175 0 93.551146245967175 66.383294178107462 0 0 0 0 -62.695872116112241 48.066609335671899 0 48.066609335671899 73.11106503640444 0 0 0 0 -52.736296452381794 155.84330155716998 0 155.84330155716998 -6.4383798439448583 0 0 0 0 90.922119837469523 97.620862609493727 0 97.620862609493727 52.805952583730225 0 0 0 0 -26.966805075113371 220.19409131186967 0 220.19409131186967 1.7625053836854931 0 0 0 0 -79.949367797606101 149.17671926810635 0 149.17671926810635 43.207901312351169 0 0 0 0 -153.47001609011204 112.33060342314366 0 112.33060342314366 62.190861957813468 0 0 0 0 8.9956585097866935 10.673443064374496 0 10.673443064374496 9.28184700927644 0 0 0 0 -98.816329834724456 154.66850195357802 0 154.66850195357802 46.649140220025402 0 0 0 0 -22.150485607897281 108.07797068382024 0 108.07797068382024 51.744971994109392 0 0 0 0 61.999636335629475 142.04069768058071 0 142.04069768058071 31.620450914320827 0 0 0 0 87.414873043508123 90.231854605051922 0 90.231854605051922 -2.5464703038342122 0 0 0 0 -28.879770908236857 49.082501773258592 0 49.082501773258592 29.142764801567623 0 0 0 0 -5.9743855212733479 78.493796725893674 0 78.493796725893674 43.430595113096885 0 0 0 0 -10.407825241287355 120.19742496072899 0 120.19742496072899 59.460091194396227 0 0 0 0 -28.45136282267049 146.39653727781661 0 146.39653727781661 -62.933610128475266 0 0 0 0 -14.953480452972144 104.48653947378625 0 104.48653947378625 14.281115581936319 0 0 0 0 -13.496487924546273 60.076329633559702 0 60.076329633559702 42.424159206835384 0 0 0 0 -49.617628466039605 63.57656287821419 0 63.57656287821419 46.023919217646153 0 0 0 0 -77.984534014289238 29.932983501664239 0 29.932983501664239 18.511857275731046 0 0 0 0 -53.390525590804828 84.091352963250401 0 84.091352963250401 22.573873421605242 0 0 0 0 91.931152422560444 137.42007814189128 0 137.42007814189128 73.755890446940157 0 0 0 0 -42.174146178632554 60.530839172649422 0 60.530839172649422 -0.072481851198899605 0 0 0 0 115.98728205484076 130.16006844801632 0 130.16006844801632 44.44455987888432 0 0 0 0 -36.568821211972349 225.33961746614614 0 225.33961746614614 49.094391954171051 0 0 0 0 24.394614439888237 6.6063190163644308 0 6.6063190163644308 -2.0877592290420459 0 0 0 0 264.7672205999479 158.26722815684047 0 158.26722815684047 24.315006743586309 0 0 0 0 -831.44517374318093 1287.9952331060192 0 1287.9952331060192 -1774.8816546970402 0 0 0 0 -11.060371772438884 25.775631479971999 0 25.775631479971999 9.8651638867123594 0 0 0 0 53.464977793206344 1231.3947920052096 0 1231.3947920052096 -2288.2612451375717 0 0 0 0 450.93392239628156 495.05061205928132 0 495.05061205928132 -1906.5819668819479 0 0 0 0 -19.19248192433588 537.06555136030897 0 537.06555136030897 -516.40445873677618 0 0 0 0 -669.23154588905527 536.15500392105946 0 536.15500392105946 -1588.7907278361959 0 0 0 0 -347.97216808569647 1605.8423358773562 0 1605.8423358773562 -2379.4026231278676 0 0 0 0 -75.38686926814421 98.925803905617357 0 98.925803905617357 -5.8172429373615504 0 0 0 0 760.65361340139498 619.38292999045768 0 619.38292999045768 -1641.4792039935933 0 0 0 0 -1251.0610106650747 -396.37480580047031 0 -396.37480580047031 -431.97440753660521 0 0 0 0 -93.32746153617893 87.120842632635615 0 87.120842632635615 3.3552814197864329 0 0 0 0 643.09906297625139 910.2303539480688 0 910.2303539480688 -596.69665771392101 0 0 0 0 18.496392040758593 60.492007734900511 0 60.492007734900511 41.241893565138604 0 0 0 0 -248.35734719450556 1229.5522469334139 0 1229.5522469334139 -1633.9294752036017 0 0 0 0 -471.07665136056676 940.01397436443722 0 940.01397436443722 -1329.8118778663338 0 0 0 0 -207.95100701088813 1126.3397353121429 0 1126.3397353121429 -2304.3623783775247 0 0 0 0 50.82478740631268 1341.5853519592665 0 1341.5853519592665 -1179.7037741081781 0 0 0 0 -124.03655651603185 1268.1993407054897 0 1268.1993407054897 -779.97480969617754 0 0 0 0 -570.73777821452313 1405.7903122842838 0 1405.7903122842838 -284.30509951054228 0 0 0 0 -601.16426389028493 1345.8713366243924 0 1345.8713366243924 -329.62160981650402 0 0 0 0 -586.06767194888016 951.68160712793383 0 951.68160712793383 -153.32267004067853 0 0 0 0 -554.82189585869492 943.37217824616982 0 943.37217824616982 -783.7884855008715 0 0 0 0 98.89120914173111 57.429186564987759 0 57.429186564987759 -3.2338103165186425 0 0 0 0 -374.47829673203523 758.64688153331554 0 758.64688153331554 -730.60860977479069 0 0 0 0 8.1125859812831607 79.05912030864441 0 79.05912030864441 52.99137662057494 0 0 0 0 0.22573706002731342 130.84589250311728 0 130.84589250311728 -146.55918045926046 0 0 0 0 0.73050302454794291 210.94961043757758 0 210.94961043757758 -178.3391124967784 0 0 0 0 -542.81553940771846 863.73640757604426 0 863.73640757604426 -23.226093570292505 0 0 0 0 39.469216791313642 10.353866912896152 0 10.353866912896152 -39.600205852309564 0 0 0 0 -257.78739240132563 186.77688422377832 0 186.77688422377832 473.35072455638146 0 0 0 0 -478.11140490543039 1074.1398807404812 0 1074.1398807404812 492.33612992681981 0 0 0 0 20.338215344541823 278.52613472921439 0 278.52613472921439 534.53162495192737 0 0 0 0 -542.12424678570824 205.08189639856528 0 205.08189639856528 1183.8890157500828 0 0 0 0 103.36209775043449 67.969129708646918 0 67.969129708646918 24.872172163964432 0 0 0 0 156.11066543943889 -6.4541329784497066 0 -6.4541329784497066 1104.5558641264533 0 0 0 0 127.51793725883181 218.50814801660636 0 218.50814801660636 -517.14840120141162 0 0 0 0 62.80169626375249 36.38733594950979 0 36.38733594950979 21.663157190786794 0 0 0 0 -49.511326261708746 254.05610329704996 0 254.05610329704996 -149.76066604571679 0 0 0 0 103.79298410777119 226.50251328641571 0 226.50251328641571 -165.49781097370033 0 0 0 0 35.443985827441793 327.69258878590153 0 327.69258878590153 -292.13802331984334 0 0 0 0 -3.9265673239860917 280.48447385449435 0 280.48447385449435 -25.493117338010052 0 0 0 0 9.764151801886328 138.74742870498585 0 138.74742870498585 -34.402180533175851 0 0 0 0 82.701005434222679 134.99632108144147 0 134.99632108144147 89.157339646815672 0 0 0 0 46.811253239789949 252.0154017216048 0 252.0154017216048 130.38449313604724 0 0 0 0 53.236619878764031 195.13629754606154 0 195.13629754606154 -21.248671957357146 0 0 0 0 -16.156000716713606 298.33751963080977 0 298.33751963080977 129.96265703865993 0 0 0 0 -114.21826626645634 246.19793722608301 0 246.19793722608301 58.959293564629945 0 0 0 0 -67.933769940325874 183.62567890730043 0 183.62567890730043 -68.615812154661398 0 0 0 0 -24.819024092546897 166.85998300080792 0 166.85998300080792 -2.1213057864260918 0 0 0 0 -31.537420484819449 291.74754666280933 0 291.74754666280933 -95.222890893342992 0 0 0 0 864.18955444256517 676.84669940427398 0 676.84669940427398 -12.996473368242732 0 0 0 0 1545.3361277736403 1470.0142978635995 0 1470.0142978635995 728.10516525569528 0 0 0 0 949.68424810333818 774.3328459015338 0 774.3328459015338 -134.7621452814692 0 0 0 0 153.82948401687463 343.06177526922056 0 343.06177526922056 -206.62396722952326 0 0 0 0 258.44993401881948 -3.3348607205707594 0 -3.3348607205707594 -150.77199080056835 0 0 0 0 1082.5247249746317 298.29327317305615 0 298.29327317305615 -227.88894658436766 0 0 0 0 1768.3845932979311 72.334677205795742 0 72.334677205795742 -602.81558506972942 0 0 0 0 216.85040044150082 176.31894143356294 0 176.31894143356294 -34.01778922471658 0 0 0 0 288.6623293779121 317.18922284030123 0 317.18922284030123 14.430243724358661 0 0 0 0 457.41765309039329 231.06616851983381 0 231.06616851983381 -214.06413211787867 0 0 0 0 254.77555771053085 256.15664059527398 0 256.15664059527398 -18.596099207374209 0 0 0 0 764.18317664675851 600.75431442547324 0 600.75431442547324 -70.43256052869765 0 0 0 0 321.42621135430818 548.57535810441732 0 548.57535810441732 -76.581852010441253 0 0 0 0 449.93717435637882 777.83179566268882 0 777.83179566268882 113.71483271185571 0 0 0 0 648.88963118418178 693.79078392424526 0 693.79078392424526 -144.57655991214233 0 0 0 0 135.99627919259115 664.91735797532215 0 664.91735797532215 66.930997727129579 0 0 0 0 221.87055868440075 646.30465729429307 0 646.30465729429307 44.706031422183514 0 0 0 0 337.76125462638447 499.58982792879033 0 499.58982792879033 30.500325813911331 0 0 0 0 133.71064852151903 503.25746678895848 0 503.25746678895848 43.522943658372242 0 0 0 0 140.35091068859037 499.08543543097949 0 499.08543543097949 27.575160720163694 0 0 0 0 70.154036486666882 388.21443735536559 0 388.21443735536559 63.80909746112593 0 0 0 0 108.85138518118038 349.74031058625224 0 349.74031058625224 94.080427792192495 0 0 0 0 95.508021889341762 320.35777130974384 0 320.35777130974384 60.98791798298771 0 0 0 0 122.80243626217271 270.3789986387992 0 270.3789986387992 133.18013862256339 0 0 0 0 3.4727183318900643 331.31893758652041 0 331.31893758652041 148.0797279893668 0 0 0 0 56.393188113965152 326.09777055887753 0 326.09777055887753 67.018317408059374 0 0 0 0 -45.926475386882885 283.23309144665973 0 283.23309144665973 50.32765157184258 0 0 0 0 -27.034057824334013 416.2717989575176 0 416.2717989575176 58.329872491025526 0 0 0 0 -129.37385448635905 446.41452100726019 0 446.41452100726019 5.9167618105384463 0 0 0 0 -162.1007658643648 280.86431319207259 0 280.86431319207259 71.398586896408233 0 0 0 0 -39.150399414458661 394.04562872410679 0 394.04562872410679 31.819558327511913 0 0 0 0 -34.905333994298644 547.99104609604387 0 547.99104609604387 13.928430312655109 0 0 0 0 38.001030354891554 539.41025889303637 0 539.41025889303637 -39.182442260659627 0 0 0 0 -217.94980870553991 601.59538811377206 0 601.59538811377206 -49.119021229225837 0 0 0 0 154.09106386970961 613.09912762919885 0 613.09912762919885 -27.792672076073359 0 0 0 0 -55.885601383772155 723.25989522280179 0 723.25989522280179 -85.567080975255521 0 0 0 0 -110.78445738919254 112.86440020929695 0 112.86440020929695 193.11670235726524 0 0 0 0 -20.201059392113336 26.954497281411832 0 26.954497281411832 9.1331212126821342 0 0 0 0 -37.177172763593262 150.91409252697849 0 150.91409252697849 40.012897472288387 0 0 0 0 -98.257614657095573 79.177854841147337 0 79.177854841147337 37.028828451940228 0 0 0 0 -134.75017584090529 59.670192287789177 0 59.670192287789177 92.342105088660901 0 0 0 0 -109.55887365258241 164.66655472511593 0 164.66655472511593 118.55852211960155 0 0 0 0 -74.978988585149636 168.70322386711632 0 168.70322386711632 56.003156097486453 0 0 0 0 -99.829516807192704 136.99815208763175 0 136.99815208763175 190.90685487676365 0 0 0 0 -39.39443906156157 117.20895692649947 0 117.20895692649947 131.06124821720732 0 0 0 0 201.95535728929099 285.83037956812041 0 285.83037956812041 135.02950230220767 0 0 0 0 -49.747224189984991 136.21191182760049 0 136.21191182760049 662.85275532395463 0 0 0 0 84.05480873057968 218.63490186995477 0 218.63490186995477 117.14581128954342 0 0 0 0 111.28320271888515 154.78708587494293 0 154.78708587494293 253.77282513929822 0 0 0 0 32.089382236270467 338.2674753506235 0 338.2674753506235 199.94343518354708 0 0 0 0 23.386654066256597 34.843666427033895 0 34.843666427033895 -195.2627273743019 0 0 0 0 6.3818191528712305 -3.1705103170603479 0 -3.1705103170603479 -3.3375967135937117 0 0 0 0 79.894457097936538 301.9497728694314 0 301.9497728694314 -154.40287321276264 0 0 0 0 132.67076716513839 277.84796974593701 0 277.84796974593701 -494.20285090827019 0 0 0 0 -81.847451836874825 228.45870207579537 0 228.45870207579537 196.59096041273187 0 0 0 0 -46.724669216928305 73.930651561933701 0 73.930651561933701 99.219558850199974 0 0 0 0 -60.957008435798343 289.34051842796362 0 289.34051842796362 48.309744511736426 0 0 0 0 119.34039421439229 221.54754129040339 0 221.54754129040339 33.549833747634693 0 0 0 0 -76.325939395080269 5.7107711039553806 0 5.7107711039553806 12.932640620245706 0 0 0 0 -257.31340147490846 84.748857701026282 0 84.748857701026282 180.36821050556318 0 0 0 0 -117.55013715351259 81.453500341710836 0 81.453500341710836 18.653442506546128 0 0 0 0 -86.546510856613168 323.11018661061098 0 323.11018661061098 -87.224743215223498 0 0 0 0 -158.86304352538718 48.857010137407997 0 48.857010137407997 16.050222947727889 0 0 0 0 -74.823781161404355 68.155573191247555 0 68.155573191247555 23.479676036109218 0 0 0 0 -102.92655014201591 138.75566139987541 0 138.75566139987541 58.731424564048211 0 0 0 0 -151.64485510990198 96.819116455308176 0 96.819116455308176 15.261104868814073 0 0 0 0 -123.85448954174353 48.261492574078147 0 48.261492574078147 0.66957820397510659 0 0 0 0 -62.80877525846882 66.784714588257003 0 66.784714588257003 2.3759905990039982 0 0 0 0 -98.049108271836303 92.484902380914718 0 92.484902380914718 1.6951139961711306 0 0 0 0 -69.838967010426217 67.72799018773344 0 67.72799018773344 -11.016003451138346 0 0 0 0 -56.529655111055035 241.11781453759249 0 241.11781453759249 -46.791184910485754 0 0 0 0 51.858682102022613 108.98474411255302 0 108.98474411255302 -72.289953721472557 0 0 0 0 29.674411634860007 87.503760557303394 0 87.503760557303394 -1.7308522464809357 0 0 0 0 -172.19271618124912 53.015751220916172 0 53.015751220916172 1.3037877940242879 0 0 0 0 -41.988129788088315 94.384591177701964 0 94.384591177701964 -22.149759071977059 0 0 0 0 38.374184394473559 153.77430476326572 0 153.77430476326572 -38.727296616616513 0 0 0 0 -52.773213184584407 64.231777091605323 0 64.231777091605323 -18.692913714235772 0 0 0 0 -479.81966500251292 259.78772505864436 0 259.78772505864436 -366.78862011611636 0 0 0 0 22.396376844662882 4.1995319891393592 0 4.1995319891393592 0.24320778045876068 0 0 0 0 -0.3451425865531661 1.9787542339132784 0 1.9787542339132784 0.66081317262138839 0 0 0 0 -598.23202019717428 127.61918210172007 0 127.61918210172007 -107.13322617523227 0 0 0 0 -404.54357818345625 41.862124617682639 0 41.862124617682639 -146.93356257542109 0 0 0 0 -97.421918257439756 -29.809325132161689 0 -29.809325132161689 -3.0175428392204111 0 0 0 0 -386.96809840330297 -69.915779404227351 0 -69.915779404227351 -3.4707792839726608 0 0 0 0 -77.601809783140197 245.60501974573344 0 245.60501974573344 31.968272486541082 0 0 0 0 -155.03933277908092 113.4248536542151 0 113.4248536542151 50.417498449176918 0 0 0 0 -91.68884433490166 213.42285193245698 0 213.42285193245698 -41.552601754243369 0 0 0 0 -233.93712931255868 355.39816199491997 0 355.39816199491997 35.529511967717553 0 0 0 0 -322.98534472558822 327.96121468616184 0 327.96121468616184 -37.159464044416495 0 0 0 0 -401.28467900717806 56.552361998361448 0 56.552361998361448 -257.52325542768449 0 0 0 0 -151.46480051396694 115.58309323909461 0 115.58309323909461 51.718768642048175 0 0 0 0 -391.40640675322356 108.29220509373772 0 108.29220509373772 -141.06780677582447 0 0 0 0 -426.52408421241353 -75.912734988500688 0 -75.912734988500688 -141.72027106431051 0 0 0 0 -290.97981155516027 -70.22327289810346 0 -70.22327289810346 -147.20379506553581 0 0 0 0 -364.15996451683895 91.361723476262341 0 91.361723476262341 -223.69091609015504 0 0 0 0 -368.14132087018334 103.46242329550614 0 103.46242329550614 202.70257779839449 0 0 0 0 -186.45026922767283 -144.80984371254453 0 -144.80984371254453 -107.92088197372505 0 0 0 0 -288.36630538281315 368.82352605996766 0 368.82352605996766 -240.8387375744278 0 0 0 0 -598.52472230558487 878.0269936837085 0 878.0269936837085 -612.05626505490727 0 0 0 0 -152.32236230462718 115.48514195232957 0 115.48514195232957 51.894576267575459 0 0 0 0 -899.29436772120971 264.38911754179389 0 264.38911754179389 166.19413689366775 0 0 0 0 50.816299819387496 151.24638972833054 0 151.24638972833054 -32.74571350748738 0 0 0 0 60.133074231533101 87.336926143705568 0 87.336926143705568 -32.662410440137137 0 0 0 0 -122.54310460611305 8.4805752587635652 0 8.4805752587635652 -11.812728236874136 0 0 0 0 3.0638449172996474 8.9048389720168899 0 8.9048389720168899 14.811824334905751 0 0 0 0 174.3535995696875 144.39342708656477 0 144.39342708656477 -21.398937505867252 0 0 0 0 -127.04461017229914 232.69999251161471 0 232.69999251161471 -101.70623751125186 0 0 0 0 5.0883412812371631 39.044789972554057 0 39.044789972554057 26.078315466010224 0 0 0 0 -311.96249790521142 62.700123733953205 0 62.700123733953205 651.60909260841436 0 0 0 0 145.89366652299123 108.38763416226516 0 108.38763416226516 -140.89089389825676 0 0 0 0 133.3294402371348 236.27896265814957 0 236.27896265814957 -585.65656150416908 0 0 0 0 -257.85564969956795 278.70652585475068 0 278.70652585475068 -45.29165839455527 0 0 0 0 66.993888242168381 106.73024984934568 0 106.73024984934568 -21.208988235728697 0 0 0 0 -197.76740434000749 918.5286658080031 0 918.5286658080031 -1162.4480160983949 0 0 0 0 38.719928041324465 12.897800892042916 0 12.897800892042916 -22.918067382893071 0 0 0 0 -701.71760713904223 433.62077799866529 0 433.62077799866529 -253.59598874278527 0 0 0 0 48.461151718380279 -56.558711417292216 0 -56.558711417292216 -281.54154895243119 0 0 0 0 -174.15973899017263 132.61042502381315 0 132.61042502381315 -440.04017873710836 0 0 0 0 96.935945301738684 -741.15273284190698 0 -741.15273284190698 1005.1529510106993 0 0 0 0 66.689381451709778 317.39903000245977 0 317.39903000245977 488.34918499683408 0 0 0 0 -164.38400178101438 -56.172713019699586 0 -56.172713019699586 -222.54119262727545 0 0 0 0 -2808.3263175143511 2025.3823351052706 0 2025.3823351052706 631.6333238257248 0 0 0 0 3575.4755256146018 -1017.35207331938 0 -1017.35207331938 -2192.4933796576661 0 0 0 0 -241.4557846312091 831.94550870333751 0 831.94550870333751 -184.87106001745997 0 0 0 0 -99.532843991448885 630.95831804685793 0 630.95831804685793 -96.035877113492461 0 0 0 0 -97.707015938412269 803.05271156054562 0 803.05271156054562 -188.67116968145274 0 0 0 0 -213.89278294402175 714.76843958164136 0 714.76843958164136 -157.09296824912235 0 0 0 0 -312.09992668665654 670.11939388034443 0 670.11939388034443 -176.59509215506478 0 0 0 0 -511.25320763776836 603.73363616914867 0 603.73363616914867 -106.45987707630138 0 0 0 0 -284.43950199514802 426.44497938030872 0 426.44497938030872 29.15967099928821 0 0 0 0 -296.40515007057911 531.91259669891724 0 531.91259669891724 -86.496702794971497 0 0 0 0 -132.83073620256619 575.50138366205556 0 575.50138366205556 -88.866095017325279 0 0 0 0 -199.7835033337542 362.32424493183498 0 362.32424493183498 -56.672627291809476 0 0 0 0 -438.87202168928343 431.61928375355637 0 431.61928375355637 -51.170588073968474 0 0 0 0 -772.83196006955404 250.8220759485157 0 250.8220759485157 -229.89697309469557 0 0 0 0 -720.09633580685477 646.0452747903928 0 646.0452747903928 -313.39298165976834 0 0 0 0 -541.78481158718205 566.22565344869463 0 566.22565344869463 -779.21782196933054 0 0 0 0 -366.73123047722038 467.55167785669437 0 467.55167785669437 -226.97237919163308 0 0 0 0 -403.74435934559733 621.50711100027365 0 621.50711100027365 -324.05625162972137 0 0 0 0 -345.81239400525374 724.83565006585559 0 724.83565006585559 -249.99916946969461 0 0 0 0 -597.91839570528828 719.24373356589786 0 719.24373356589786 -372.4851612519451 0 0 0 0 -344.58013605725137 581.61866779279171 0 581.61866779279171 -332.28031302663294 0 0 0 0 -357.94721938071234 801.33733516549614 0 801.33733516549614 -281.00856817381646 0 0 0 0 -288.20341726364859 749.39401766135052 0 749.39401766135052 -242.50616119004007 0 0 0 0 -278.82162784427419 476.88736838050409 0 476.88736838050409 -698.25214591572512 0 0 0 0 -347.7342945781711 672.89310130963077 0 672.89310130963077 -721.36455919866421 0 0 0 0 -573.14019863902649 639.47746660206121 0 639.47746660206121 -1061.9524507263122 0 0 0 0 -381.68631952103169 354.50149046910155 0 354.50149046910155 -650.31350746484713 0 0 0 0 -1005.4388184549098 244.06871402526849 0 244.06871402526849 -747.12396557108514 0 0 0 0 -148.02646122301547 113.62569607247094 0 113.62569607247094 48.282643772416236 0 0 0 0 -196.71740216409853 880.438683254637 0 880.438683254637 -754.27249964607836 0 0 0 0 -931.8741944062931 744.72536408638553 0 744.72536408638553 -721.49247394779013 0 0 0 0 -116.07150451631969 600.23376522866238 0 600.23376522866238 -1466.9573101898059 0 0 0 0 -1.7766208303199988 -3.8127977476812589 0 -3.8127977476812589 -0.6810862179418713 0 0 0 0 -618.04892723967714 1464.9697348575737 0 1464.9697348575737 -2608.0655068607994 0 0 0 0 -723.75953410111106 143.47433507490496 0 143.47433507490496 2350.0900666335911 0 0 0 0 -74.699193538122927 483.22553567376781 0 483.22553567376781 885.71574193478705 0 0 0 0 -7.5310521494398017 54.952791702266751 0 54.952791702266751 11.299514871816928 0 0 0 0 -150.04778393426719 111.05736090655618 0 111.05736090655618 45.980147038317156 0 0 0 0 -56.177103225011706 834.87707848182572 0 834.87707848182572 -1009.3731559867374 0 0 0 0 -517.58075969698257 82.293074336215795 0 82.293074336215795 -950.74756650005565 0 0 0 0 -347.22024164764298 293.28291236365203 0 293.28291236365203 -771.68545797430488 0 0 0 0 -60.737003578004078 184.89910332212457 0 184.89910332212457 -47.931122916347704 0 0 0 0 -81.966831247910818 31.501922295250353 0 31.501922295250353 9.8280305950681832 0 0 0 0 -95.537899651717453 75.456407388198386 0 75.456407388198386 -704.79280851155272 0 0 0 0 -556.62341380047292 769.23803951266746 0 769.23803951266746 -669.75906789590135 0 0 0 0 12.435807435460447 251.55687810476502 0 251.55687810476502 -804.80488286793843 0 0 0 0 -24.336728721689724 218.75680647979607 0 218.75680647979607 -422.78396424685889 0 0 0 0 -303.55689946950588 409.72056152833466 0 409.72056152833466 -287.22069182601808 0 0 0 0 -91.827231142640812 182.88695345078213 0 182.88695345078213 -178.56400388180919 0 0 0 0 -59.813330557790323 100.99701331841516 0 100.99701331841516 92.607323311629443 0 0 0 0 -21.093431944275949 14.792472477719357 0 14.792472477719357 0.71146600326641263 0 0 0 0 73.640472059540116 -41.363523936135607 0 -41.363523936135607 -129.47010990531271 0 0 0 0 -238.64347577479566 145.48558896824579 0 145.48558896824579 -177.42951375867779 0 0 0 0 -9.7913040109226017 -0.33423447443270504 0 -0.33423447443270504 -0.85401540486382821 0 0 0 0 -449.59570452946355 822.91690524602018 0 822.91690524602018 -1511.3105463755601 0 0 0 0 -421.30534316700323 -113.03121335607466 0 -113.03121335607466 178.4103964988135 0 0 0 0 -783.39583960172968 308.42624014280227 0 308.42624014280227 -851.65240937114049 0 0 0 0 -802.56385170825524 655.19268507514062 0 655.19268507514062 -623.17072085561813 0 0 0 0 -1298.9527514785568 781.68967873886686 0 781.68967873886686 -654.15368000719172 0 0 0 0 -817.21925227982138 653.34231919790454 0 653.34231919790454 -493.88677464926877 0 0 0 0 -761.09124425497794 756.20849536605783 0 756.20849536605783 -492.26147791933181 0 0 0 0 -822.95678534725812 692.91416574407594 0 692.91416574407594 -539.78745599988906 0 0 0 0 -813.71053153428147 689.34733697811043 0 689.34733697811043 -898.17804092175356 0 0 0 0 -843.42131992560826 712.19119774335195 0 712.19119774335195 -550.21768219124715 0 0 0 0 -854.92527263072043 900.41216093465118 0 900.41216093465118 -395.12397147287766 0 0 0 0 -934.00753009833352 880.61797965335245 0 880.61797965335245 -398.5296742942628 0 0 0 0 -1138.635482571015 1140.2307794353183 0 1140.2307794353183 -680.43680840713569 0 0 0 0 -826.50244273369026 860.52334062390219 0 860.52334062390219 -579.61414812244129 0 0 0 0 -781.83228719655926 762.10760824955833 0 762.10760824955833 -418.08636643140562 0 0 0 0 -678.11786340779145 735.10277844328812 0 735.10277844328812 -415.7761375723494 0 0 0 0 -591.55965472697426 652.74232233034854 0 652.74232233034854 -481.69426299092629 0 0 0 0 -561.12406255111637 692.65124790722257 0 692.65124790722257 -440.92778287018882 0 0 0 0 -201.90628273362381 498.09395754842262 0 498.09395754842262 -531.36683591720794 0 0 0 0 -125.99538525713433 401.65214197582827 0 401.65214197582827 -402.58504917611936 0 0 0 0 -358.4740686735131 557.22414513709919 0 557.22414513709919 -443.04624488917034 0 0 0 0 -407.14596313916991 485.83767967501626 0 485.83767967501626 -302.86632432690385 0 0 0 0 -689.49551864828027 627.63770316593582 0 627.63770316593582 -371.97788360894992 0 0 0 0 -468.67001603441167 536.11724800155844 0 536.11724800155844 -425.9895039661933 0 0 0 0 -502.71177564525715 495.90094494120785 0 495.90094494120785 -363.03894689476147 0 0 0 0 -178.89427063048061 429.23927994354199 0 429.23927994354199 -416.65350518865307 0 0 0 0 -240.63809913739533 463.57763663351943 0 463.57763663351943 -417.32069869873521 0 0 0 0 -311.82147873195572 368.52270339183451 0 368.52270339183451 -197.54842109335732 0 0 0 0 89.933276651802245 9.6418770661097106 0 9.6418770661097106 -51.530491822426036 0 0 0 0 -292.44063445145002 356.3118237006056 0 356.3118237006056 -74.65193332733179 0 0 0 0 52.697789970636222 118.02701059299397 0 118.02701059299397 -204.92707266216257 0 0 0 0 103.45234498925748 107.97465846688718 0 107.97465846688718 -68.920589541352896 0 0 0 0 -359.91115208390329 510.36792797707312 0 510.36792797707312 95.940813219844131 0 0 0 0 164.24088257572294 125.06988381726842 0 125.06988381726842 -118.92478489375935 0 0 0 0 -40.958106195974608 24.653434020972771 0 24.653434020972771 -10.324467823311949 0 0 0 0 -65.47293973397791 353.86563957482304 0 353.86563957482304 -280.57597176430863 0 0 0 0 -172.16371111173066 264.81455117356381 0 264.81455117356381 -111.3143939235315 0 0 0 0 87.387754741859681 102.65573998221589 0 102.65573998221589 -169.33289108201279 0 0 0 0 -144.46473081301156 215.70927891493011 0 215.70927891493011 -73.46769267142372 0 0 0 0 -183.05690416658581 206.93971353967936 0 206.93971353967936 -103.03298605092277 0 0 0 0 26.678914645440273 65.594733419579484 0 65.594733419579484 -14.553366934765364 0 0 0 0 74.283587796274915 51.073666603943025 0 51.073666603943025 -41.893390484015299 0 0 0 0 -62.909830130418413 175.57942450019254 0 175.57942450019254 -60.665090348571539 0 0 0 0 -36.242010581830982 178.29431831521288 0 178.29431831521288 -117.57980202467297 0 0 0 0 -15.532218187827198 25.520873335713446 0 25.520873335713446 -16.378803715211447 0 0 0 0 -35.573908211430535 133.24822792245686 0 133.24822792245686 -56.58310349445469 0 0 0 0 -108.88064898509037 145.68822418025593 0 145.68822418025593 31.872620360001747 0 0 0 0 -62.265573477487223 126.77567413657371 0 126.77567413657371 -23.379645176932936 0 0 0 0 53.772111591619343 49.857761456476922 0 49.857761456476922 -16.973599214971884 0 0 0 0 -52.070692871466235 166.59239263188283 0 166.59239263188283 -73.152522979049536 0 0 0 0 49.254894151141265 71.065713540685834 0 71.065713540685834 -32.680268129782803 0 0 0 0 -70.00077101281795 100.19215281172001 0 100.19215281172001 -77.423760047583528 0 0 0 0 269.44919629884316 409.09460401214164 0 409.09460401214164 -596.34347711988812 0 0 0 0 -469.27443014327218 470.63679014025729 0 470.63679014025729 288.94773256430199 0 0 0 0 -447.24041437889537 162.72824319952815 0 162.72824319952815 111.43870996514852 0 0 0 0 -143.58901119032089 -36.067691298065256 0 -36.067691298065256 144.10353969727657 0 0 0 0 -24.350231248718046 233.82382938118462 0 233.82382938118462 123.00377895448673 0 0 0 0 -93.160414132697042 390.00478478376681 0 390.00478478376681 -142.13773449342261 0 0 0 0 -45.690533221175372 48.512100588437818 0 48.512100588437818 -56.731572235984004 0 0 0 0 -83.196655224055576 590.8472302581722 0 590.8472302581722 208.36362633342287 0 0 0 0 82.839419319941953 347.78012826730628 0 347.78012826730628 -222.3204867055465 0 0 0 0 -7.7521311015152605 324.82625531695521 0 324.82625531695521 -223.59278721763258 0 0 0 0 -124.82073395545376 102.55429880259362 0 102.55429880259362 207.1669165645726 0 0 0 0 5.1576664516896642 59.150679414009772 0 59.150679414009772 -75.949078751451623 0 0 0 0 135.42101539266787 220.83280123105305 0 220.83280123105305 -196.32385062138928 0 0 0 0 -39.298800486154505 280.22768125820585 0 280.22768125820585 -251.76114763069199 0 0 0 0 -72.528983654730837 262.42394381538179 0 262.42394381538179 -254.7403702099482 0 0 0 0 47.120050125347916 335.68456566032182 0 335.68456566032182 -347.41254371862419 0 0 0 0 -36.073799905265332 378.53746399031297 0 378.53746399031297 -437.99326457598363 0 0 0 0 -98.693216378029319 296.15463060724869 0 296.15463060724869 -398.80335151362306 0 0 0 0 1.1945170253748074 297.02047878956364 0 297.02047878956364 -261.30134768087009 0 0 0 0 -20.230051877246296 369.26109102433111 0 369.26109102433111 -229.71520384002724 0 0 0 0 -78.90976835499896 281.34537029149942 0 281.34537029149942 -155.84006193801906 0 0 0 0 -866.80550040553499 556.62922804029222 0 556.62922804029222 -312.54116351380071 0 0 0 0 -0.13875337098267337 5.0867129655112464 0 5.0867129655112464 -0.79949605476787156 0 0 0 0 612.77040526926703 303.81897812107309 0 303.81897812107309 -1389.6230229805224 0 0 0 0 572.76254209308081 801.19331356252223 0 801.19331356252223 -708.88051376011572 0 0 0 0 -160.832297853005 449.73690933852049 0 449.73690933852049 -720.62538509434671 0 0 0 0 -202.57240686611476 409.66284482841365 0 409.66284482841365 -471.39098918823584 0 0 0 0 -254.91111855490249 205.2217870274967 0 205.2217870274967 -137.41494182495808 0 0 0 0 -269.38618242686789 361.74846716035972 0 361.74846716035972 -188.0172441991599 0 0 0 0 -173.60415427094267 226.4327457926338 0 226.4327457926338 -133.77949100701517 0 0 0 0 417.19278574443388 -89.625564556560676 0 -89.625564556560676 99.072828373551602 0 0 0 0 -262.8761502954294 190.00032759212081 0 190.00032759212081 -19.866938694554847 0 0 0 0 240.80592975670879 12.933204849206959 0 12.933204849206959 -46.043986670410959 0 0 0 0 17.286643613327129 15.389609817469946 0 15.389609817469946 -1.1852401730350834 0 0 0 0 176.31139856300797 181.21757225252895 0 181.21757225252895 28.726590718353691 0 0 0 0 57.65945808002013 58.123866978723555 0 58.123866978723555 56.516705342486986 0 0 0 0 -119.63020616047288 193.22890845564689 0 193.22890845564689 61.458177594759036 0 0 0 0 -91.848199755433598 78.450613370470819 0 78.450613370470819 41.700113154365681 0 0 0 0 -192.28576510181301 235.35102761054441 0 235.35102761054441 -48.999992998171365 0 0 0 0 -60.115501683569164 210.74164916055452 0 210.74164916055452 -44.768842564983061 0 0 0 0 -78.997685148409801 215.55225647709085 0 215.55225647709085 30.33067846816266 0 0 0 0 -14.018506173801143 198.4530572235235 0 198.4530572235235 28.699362452083733 0 0 0 0 -22.855930311758129 149.92702933399414 0 149.92702933399414 69.818514074606355 0 0 0 0 -53.56476014470536 180.19862979048776 0 180.19862979048776 111.13652176366304 0 0 0 0 20.437128759193001 221.86757443751412 0 221.86757443751412 111.21191962494049 0 0 0 0 -28.503024524907232 166.3502230271115 0 166.3502230271115 122.66574553973624 0 0 0 0 -19.073907951169531 164.67212869611103 0 164.67212869611103 110.87196112249512 0 0 0 0 28.107847493578447 122.56511533290904 0 122.56511533290904 119.90043198133299 0 0 0 0 47.986639946295597 72.226189248953943 0 72.226189248953943 71.35851816650603 0 0 0 0 -27.927756150915229 159.58019722517201 0 159.58019722517201 123.75461034689215 0 0 0 0 61.427446742221946 126.07573191177653 0 126.07573191177653 45.709423275649897 0 0 0 0 53.763153186600846 69.813150558170946 0 69.813150558170946 50.509975186760869 0 0 0 0 97.175827181330533 169.19316882858402 0 169.19316882858402 54.463442266260245 0 0 0 0 12.808674107363913 66.700615275913151 0 66.700615275913151 1.5993951153636772 0 0 0 0 67.204651523892494 81.705254080687936 0 81.705254080687936 64.01266099847382 0 0 0 0 29.638856933102943 192.09823865098224 0 192.09823865098224 54.603069032595627 0 0 0 0 78.880059396047727 245.00248216482214 0 245.00248216482214 79.836530004737142 0 0 0 0 44.033655997183814 297.71544841524155 0 297.71544841524155 -164.4779517489078 0 0 0 0 15.372481374550262 301.85934533864202 0 301.85934533864202 -33.977952498666127 0 0 0 0 -87.891177967678232 276.61944350577323 0 276.61944350577323 -99.812134876134223 0 0 0 0 -20.376977784588234 268.78392571926088 0 268.78392571926088 -99.227900749968285 0 0 0 0 -33.616966653105919 254.78426012358614 0 254.78426012358614 -4.4311583666858496 0 0 0 0 41.300011524057481 251.50744346897409 0 251.50744346897409 -4.2966627337850696 0 0 0 0 135.5855469093076 172.47622611826955 0 172.47622611826955 52.908896143686434 0 0 0 0 -5.988289513385098 170.84649934008485 0 170.84649934008485 93.033543940473464 0 0 0 0 -12.080336045910371 189.61665216521942 0 189.61665216521942 107.3885366172035 0 0 0 0 9.6795350209722528 183.30410664834199 0 183.30410664834199 109.1587547618692 0 0 0 0 280.39951280697642 652.36250487743564 0 652.36250487743564 207.63700673978383 0 0 0 0 137.45876429426426 342.75509841273379 0 342.75509841273379 -32.351825806810666 0 0 0 0 -31.531435798374957 48.094094201215327 0 48.094094201215327 -62.635978348286017 0 0 0 0 159.06173653876249 -12.790044391119409 0 -12.790044391119409 8.3200445131078595 0 0 0 0 25.679825717648782 158.6728025088596 0 158.6728025088596 146.15415375564771 0 0 0 0 7.2461735334109107 185.41302974801874 0 185.41302974801874 120.05470126918226 0 0 0 0 -17.785463411672879 66.483397930873636 0 66.483397930873636 -27.470088166039716 0 0 0 0 17.0950358199334 212.23275238811766 0 212.23275238811766 165.41787493959964 0 0 0 0 358.64129065194902 269.29236352847511 0 269.29236352847511 198.32508897889056 0 0 0 0 270.78796662534296 234.44340618416027 0 234.44340618416027 189.30286078585777 0 0 0 0 -75.825893477041546 22.57533180718012 0 22.57533180718012 101.69608940282194 0 0 0 0 -9.3169332130637486 9.0706948051611107 0 9.0706948051611107 95.396167941436943 0 0 0 0 48.441291547213041 172.63091563339549 0 172.63091563339549 92.887989374921744 0 0 0 0 41.624190187605564 198.40456303304109 0 198.40456303304109 13.510144552463316 0 0 0 0 -35.235425414677593 218.38549511835208 0 218.38549511835208 65.316361334334943 0 0 0 0 479.45316450890095 322.99820001257876 0 322.99820001257876 69.925242266624991 0 0 0 0 -1.3089240710675867 17.497207645874497 0 17.497207645874497 -2.1196226311519633 0 0 0 0 2.8529415807461191 58.510392543202215 0 58.510392543202215 35.727823003326193 0 0 0 0 14.146651963586919 81.294954764466638 0 81.294954764466638 8.8609321982553411 0 0 0 0 27.616998120148196 75.560414095790819 0 75.560414095790819 44.910879832260974 0 0 0 0 36.651497286427514 80.394067837201291 0 80.394067837201291 20.279720254905239 0 0 0 0 -86.794424416701077 122.62908764928579 0 122.62908764928579 104.98746347875567 0 0 0 0 -7.4160802431433694 161.36384855967481 0 161.36384855967481 123.8446292299559 0 0 0 0 5.2539784810643653 14.90066517137015 0 14.90066517137015 25.776394925780011 0 0 0 0 77.09877872710058 297.04270965469823 0 297.04270965469823 189.41544923947367 0 0 0 0 47.380340918796335 110.03999736606991 0 110.03999736606991 131.43665836301753 0 0 0 0 134.06143622326636 -113.63033522114897 0 -113.63033522114897 107.69812168516911 0 0 0 0 43.942522977733461 446.47353016603154 0 446.47353016603154 411.86202989894718 0 0 0 0 -243.17609232572431 70.213570813845308 0 70.213570813845308 107.04576373679038 0 0 0 0 -20.71364044908114 177.66977030243157 0 177.66977030243157 414.82150015109607 0 0 0 0 -39.882846064132991 42.459174781313209 0 42.459174781313209 -20.587799576395234 0 0 0 0 11.275278457726017 194.15451256953236 0 194.15451256953236 404.44862546568129 0 0 0 0 -60.997129632793076 242.65129690185825 0 242.65129690185825 325.87437011959776 0 0 0 0 152.98083625957952 212.83902932022909 0 212.83902932022909 58.106495076535552 0 0 0 0 195.93615430793398 231.06604121881264 0 231.06604121881264 207.68313028207922 0 0 0 0 -82.04600196609951 12.192536029225792 0 12.192536029225792 84.705850880293553 0 0 0 0 137.83834535352344 122.02496633507099 0 122.02496633507099 84.102017964163679 0 0 0 0 23.417899442796624 117.45650197227405 0 117.45650197227405 179.25761366347433 0 0 0 0 157.82850816606515 176.01808019565487 0 176.01808019565487 139.08486135972635 0 0 0 0 -71.832579833556068 20.907842247705695 0 20.907842247705695 82.44016067983037 0 0 0 0 -87.346721676593006 -37.176583911972713 0 -37.176583911972713 190.86810670347614 0 0 0 0 21.802896911267453 74.311224259216033 0 74.311224259216033 148.84192437250749 0 0 0 0 76.561837489105528 54.649993318311317 0 54.649993318311317 132.6558718418537 0 0 0 0 -36.950638839712724 2.2724073780499907 0 2.2724073780499907 106.21280333595132 0 0 0 0 -28.651501709642616 175.03662790350427 0 175.03662790350427 124.4414245848202 0 0 0 0 -6.1143742144298869 1.7375936010334101 0 1.7375936010334101 1.352604232405632 0 0 0 0 -41.915557984180708 18.487392385473484 0 18.487392385473484 73.527051249006036 0 0 0 0 -44.018396870054858 215.01787891411004 0 215.01787891411004 208.67102045268985 0 0 0 0 8.5787785464963235 49.038259867143552 0 49.038259867143552 244.18113508286115 0 0 0 0 -256.6884437048684 14.184801945893923 0 14.184801945893923 231.05315297842208 0 0 0 0 -320.99371992340093 248.56609194579687 0 248.56609194579687 52.002578115421784 0 0 0 0 -130.01307556751271 135.14298459335441 0 135.14298459335441 105.28638117987612 0 0 0 0 -4.1537610126407145 0.89592232128197224 0 0.89592232128197224 1.3561600139132253 0 0 0 0 -150.92383219551994 516.79268433280049 0 516.79268433280049 -82.470584530430642 0 0 0 0 -225.82840150573247 336.13574548466568 0 336.13574548466568 -257.79932200107578 0 0 0 0 -47.804636370412481 300.02764881417079 0 300.02764881417079 -199.85570840144646 0 0 0 0 -96.523044301808113 72.163390583318687 0 72.163390583318687 -74.610205651062643 0 0 0 0 70.427407724018479 85.886609347473922 0 85.886609347473922 -65.765181268784119 0 0 0 0 -73.815694590615749 177.8378541553684 0 177.8378541553684 -155.69515949277138 0 0 0 0 127.87769632502022 34.487658244377599 0 34.487658244377599 -163.69477511158038 0 0 0 0 -128.35828260350274 201.34838897814117 0 201.34838897814117 -120.18132693231382 0 0 0 0 -47.392400781558536 176.93793378617011 0 176.93793378617011 -176.81496563720793 0 0 0 0 -699.43080062389345 466.74240248816568 0 466.74240248816568 -197.59760456008735 0 0 0 0 -112.36174270615811 445.72672451996004 0 445.72672451996004 -978.15683942340547 0 0 0 0 -9.5766940685085586 -6.1889589212921692 0 -6.1889589212921692 1.7705933397263642 0 0 0 0 -287.85940213580034 -161.57412983739414 0 -161.57412983739414 -135.44663507998666 0 0 0 0 -152.33792375682242 -58.657999436178216 0 -58.657999436178216 185.71048445103406 0 0 0 0 96.858989249312799 90.138877395650525 0 90.138877395650525 -61.605608206773468 0 0 0 0 87.417267622797226 114.35198799630416 0 114.35198799630416 -78.302180375401804 0 0 0 0 -22.081786505674245 41.589517948264984 0 41.589517948264984 -6.5853488494885823 0 0 0 0 -40.547648679581471 123.85224943709181 0 123.85224943709181 104.16547392732355 0 0 0 0 -93.701742952311179 44.692408372535283 0 44.692408372535283 69.262863019948782 0 0 0 0 -69.27865872822656 26.205679736557528 0 26.205679736557528 4.5729864948966537 0 0 0 0 -0.0012709974107565358 40.898947565781782 0 40.898947565781782 -14.340335879242048 0 0 0 0 -29.265322424340411 53.585710466724777 0 53.585710466724777 9.3689995390632248 0 0 0 0 -4.352896896074526 31.107360888665426 0 31.107360888665426 -10.709854921145961 0 0 0 0 -14.037140415809894 29.12980352334958 0 29.12980352334958 -2.6045965337454362 0 0 0 0 -37.475230407443178 42.498694231109766 0 42.498694231109766 -4.6370746487989578 0 0 0 0 41.000163346048794 138.78944486251021 0 138.78944486251021 34.730421152789859 0 0 0 0 -33.706740076740971 122.85522782521548 0 122.85522782521548 32.571044789925509 0 0 0 0 11.022977877044468 82.493377872335259 0 82.493377872335259 -22.343802901486924 0 0 0 0 -18.221853678106481 66.640692500559226 0 66.640692500559226 -1.3182501286111545 0 0 0 0 53.004774362481044 24.531164640097415 0 24.531164640097415 -4.1802772251504337 0 0 0 0 -78.553500972084294 141.92259088914398 0 141.92259088914398 148.62961706682836 0 0 0 0 -79.963107328585465 253.6024964104945 0 253.6024964104945 39.816607334265427 0 0 0 0 -80.332175945324707 240.51555100864061 0 240.51555100864061 114.02074874916161 0 0 0 0 -389.26795777525695 274.10323910956868 0 274.10323910956868 331.31010556305955 0 0 0 0 -102.84863540234801 -76.366995657237567 0 -76.366995657237567 602.48031580599491 0 0 0 0 3.1447466753995741 -1.7433867170866506 0 -1.7433867170866506 -3.6178879745468961 0 0 0 0 -825.10988397902111 568.77442505030558 0 568.77442505030558 -920.00787579689859 0 0 0 0 -854.5476283729804 655.39290515932771 0 655.39290515932771 -372.40129364744644 0 0 0 0 -119.08397868475004 125.47141233168622 0 125.47141233168622 150.02820500428425 0 0 0 0 -89.129515988926869 69.000205161522899 0 69.000205161522899 197.00455364958543 0 0 0 0 -20.121397090122173 18.171298002377455 0 18.171298002377455 0.61698945600215183 0 0 0 0 -785.74011378921568 1185.0606606584734 0 1185.0606606584734 -261.9664113919498 0 0 0 0 -379.09690653189318 689.28744197255583 0 689.28744197255583 -612.09565402296721 0 0 0 0 -87.609558967725604 55.503809802058811 0 55.503809802058811 -1.111410799106622 0 0 0 0 -43.528812013282732 718.22379838486722 0 718.22379838486722 -627.53564324380568 0 0 0 0 -224.52557893862104 381.80872687946157 0 381.80872687946157 -993.67850607428409 0 0 0 0 463.55159173389256 685.33123452235668 0 685.33123452235668 -871.08171583330841 0 0 0 0 -1925.7335473727144 334.27160220011137 0 334.27160220011137 -441.36290069178358 0 0 0 0 -525.82390500405745 -375.29538295197017 0 -375.29538295197017 -1226.7904366559014 0 0 0 0 -1338.5898967020694 473.0228755788421 0 473.0228755788421 781.02935003560196 0 0 0 0 1590.1500285311195 373.98141240807308 0 373.98141240807308 231.05866473302012 0 0 0 0 -356.72735821962124 1748.0682056712722 0 1748.0682056712722 -640.33165551069942 0 0 0 0 1.2427103517571823 16.415658915981879 0 16.415658915981879 -5.9255761623621339 0 0 0 0 59.23249766088702 54.152175909513176 0 54.152175909513176 -68.179023918790335 0 0 0 0 -505.67947211183491 1098.0115498380583 0 1098.0115498380583 212.11732847099574 0 0 0 0 -288.08376264691469 144.16174008007829 0 144.16174008007829 810.06838444656751 0 0 0 0 -491.46114821101946 343.68521897588107 0 343.68521897588107 -352.19680965583029 0 0 0 0 -20.919672025349609 12.378185457233883 0 12.378185457233883 1.8735699002648971 0 0 0 0 -537.50495630787918 512.25960976276292 0 512.25960976276292 -256.61130650706582 0 0 0 0 -15.353825992341733 66.475677159284714 0 66.475677159284714 8.2405674993015907 0 0 0 0 -408.20567707641749 483.56993238767063 0 483.56993238767063 -287.89565423605018 0 0 0 0 -551.76916104237898 477.65808814258344 0 477.65808814258344 -223.38661026785485 0 0 0 0 -456.72299626600579 566.89908026177272 0 566.89908026177272 -135.28104457202426 0 0 0 0 -458.71813713134907 545.36511479892761 0 545.36511479892761 -303.64162871739245 0 0 0 0 -52.326282553941837 6.1455189353885373 0 6.1455189353885373 7.0797041076404454 0 0 0 0 -8.8585064822455948 27.412637723131752 0 27.412637723131752 -16.801890498958628 0 0 0 0 -4.983062330778921 28.932415960318394 0 28.932415960318394 -10.472726522762059 0 0 0 0 -0.018211306538432837 22.83124567098821 0 22.83124567098821 -21.84353296556219 0 0 0 0 -53.154344207403483 33.256832799801487 0 33.256832799801487 -0.54475487004674505 0 0 0 0 -16.099764320413669 -34.411485171058985 0 -34.411485171058985 578.92094009228458 0 0 0 0 -0.10884431836406579 825.00917988531887 0 825.00917988531887 -218.94217534197014 0 0 0 0 -5.1354525703630998 11.219635137091842 0 11.219635137091842 -17.372769138967186 0 0 0 0 -3.3342647113334571 5.970573893366236 0 5.970573893366236 0.56113279674598004 0 0 0 0 -378.12199176894501 481.92288719489807 0 481.92288719489807 -287.30807090140297 0 0 0 0 -673.56636656182673 140.61689020433937 0 140.61689020433937 615.02082129280461 0 0 0 0 -361.9448500542494 600.90227836698978 0 600.90227836698978 -235.53205723826977 0 0 0 0 -303.81507499964209 707.07465880197196 0 707.07465880197196 -157.09345308946649 0 0 0 0 -359.43265500056441 629.85528520115622 0 629.85528520115622 703.94510794094685 0 0 0 0 -172.29374050250044 627.38812060560485 0 627.38812060560485 -367.85213504890271 0 0 0 0 -172.29148339072708 585.50234870690292 0 585.50234870690292 -491.66682847589618 0 0 0 0 -362.72316841140855 530.02655299083563 0 530.02655299083563 -253.86975548555256 0 0 0 0 -339.95591588834941 537.58348597104941 0 537.58348597104941 -327.0989881024434 0 0 0 0 -294.26914879423566 628.25647108677367 0 628.25647108677367 -230.93661942513882 0 0 0 0 -138.4136558167811 303.75997269751861 0 303.75997269751861 -276.2152092841568 0 0 0 0 12.118313681128711 46.637478082421609 0 46.637478082421609 -23.873579191420504 0 0 0 0 -148.30755885262624 372.87494651978591 0 372.87494651978591 -755.44622398513093 0 0 0 0 -0.3579617028955816 688.12491598311283 0 688.12491598311283 -764.50998926271859 0 0 0 0 2.2792841224551239 4.5009703745986691 0 4.5009703745986691 1.3051192675358312 0 0 0 0 3.7670645374191736 -30.891537299416512 0 -30.891537299416512 -13.425517487694378 0 0 0 0 3.3625240779738306 -0.11270120917892967 0 -0.11270120917892967 -0.95315171341953331 0 0 0 0 63.413946221786318 553.94704029019704 0 553.94704029019704 -1163.6254037351468 0 0 0 0 -468.33398751309142 1241.0397869851677 0 1241.0397869851677 3230.9943965247571 0 0 0 0 -1.3377825574425515 1611.270420605958 0 1611.270420605958 1599.0427274252497 0 0 0 0 143.7209496408916 1260.285849534383 0 1260.285849534383 796.56142204404114 0 0 0 0 138.46291198383551 609.28366266371131 0 609.28366266371131 1532.8412380309273 0 0 0 0 32.04269883246161 2532.0080269261139 0 2532.0080269261139 -2006.1577836129534 0 0 0 0 1146.7980543380982 903.98870659352542 0 903.98870659352542 202.0552757792143 0 0 0 0 587.58295204157184 1226.6771329170783 0 1226.6771329170783 -133.97737406747501 0 0 0 0 -1374.1336288004604 502.79499900723079 0 502.79499900723079 -256.3391758964417 0 0 0 0 -612.56008735095384 659.52214388469292 0 659.52214388469292 -325.17370657327137 0 0 0 0 -108.22018330544233 1002.2370545764702 0 1002.2370545764702 -1774.6449303842955 0 0 0 0 1.7976647227192082 3.435812662359524 0 3.435812662359524 -7.0345851288956034 0 0 0 0 899.67880438012071 1171.7223779864216 0 1171.7223779864216 172.35673429940181 0 0 0 0 -1575.1941769602126 1623.9284610175896 0 1623.9284610175896 -1290.3535210768987 0 0 0 0 515.10979154320376 925.99040699081434 0 925.99040699081434 1080.2601465151965 0 0 0 0 -12.479836945230375 18.627195097961934 0 18.627195097961934 -3.287816625920283 0 0 0 0 -5.5077698782467586 13.864762093151825 0 13.864762093151825 -12.075493321737508 0 0 0 0 1290.0169283917348 842.51817358647531 0 842.51817358647531 439.78820329255223 0 0 0 0 14.663522124727024 155.63494589127549 0 155.63494589127549 138.83800250558852 0 0 0 0 -347.78359239849669 198.39653073639784 0 198.39653073639784 -210.53885885623276 0 0 0 0 -31.178659913751858 13.249833351830347 0 13.249833351830347 -3.1818653981358853 0 0 0 0 11.315904992690776 128.420011802717 0 128.420011802717 -467.69991671364812 0 0 0 0 141.44703885813942 227.84302009532257 0 227.84302009532257 -64.372517955080525 0 0 0 0 -30.752795032875156 7.3575606932260342 0 7.3575606932260342 2.5642505039176013 0 0 0 0 67.837973035377217 49.537407943607832 0 49.537407943607832 -73.824354607579153 0 0 0 0 83.946626082848525 64.783711719022904 0 64.783711719022904 -60.276254848709868 0 0 0 0 -69.375363421830116 238.92249118340624 0 238.92249118340624 447.03696608879363 0 0 0 0 -36.548486528539797 15.878574619462597 0 15.878574619462597 26.265939210601573 0 0 0 0 243.82261360232951 553.35932155102091 0 553.35932155102091 59.321726638525433 0 0 0 0 29.956646855921804 19.025247243280177 0 19.025247243280177 -1.9538486677852234 0 0 0 0 -6.8725434704392683 27.204984760372099 0 27.204984760372099 -2.4450020318208772 0 0 0 0 -181.05139030133432 277.59528457437364 0 277.59528457437364 -250.96493697572078 0 0 0 0 -5.9716538010528026 27.757473830077373 0 27.757473830077373 -4.29400976175328 0 0 0 0 -384.29235646719826 343.23199311825419 0 343.23199311825419 -73.733412965146272 0 0 0 0 -21.706453679711558 184.90670255054283 0 184.90670255054283 -212.50400956289559 0 0 0 0 -19.395174759813017 64.12573820400894 0 64.12573820400894 119.6160290879634 0 0 0 0 7.1916286005220798 64.025287795954171 0 64.025287795954171 6.4631076137268693 0 0 0 0 -7.2416765741072595 14.080136992573898 0 14.080136992573898 -92.237365071506701 0 0 0 0 197.5805391085014 -215.83367773914597 0 -215.83367773914597 -625.22033042785915 0 0 0 0 39.518139837891795 113.88948240406353 0 113.88948240406353 -17.592614019200482 0 0 0 0 -9.7106815543211269 3.2488010248930834 0 3.2488010248930834 3.5092539833443794 0 0 0 0 -554.59006067924201 -253.14402693269221 0 -253.14402693269221 -341.90473234162164 0 0 0 0 -309.85612476592996 -837.89398539888111 0 -837.89398539888111 717.05103269207029 0 0 0 0 -686.32624948627199 -628.10877605645692 0 -628.10877605645692 521.8651215646496 0 0 0 0 623.40715403092327 411.66567787364875 0 411.66567787364875 -543.29659032296263 0 0 0 0 -457.69045510354044 1618.8814517514747 0 1618.8814517514747 1533.2341519827323 0 0 0 0 -1609.6237768323554 245.64175724442839 0 245.64175724442839 -82.603232950346865 0 0 0 0 -1344.1676901945466 -207.66638673882107 0 -207.66638673882107 168.08251795472552 0 0 0 0 -479.73133134265663 134.77918559664249 0 134.77918559664249 -216.17262259770268 0 0 0 0 -10.112145486089616 -7.3297115617843573 0 -7.3297115617843573 -1.7792975887164211 0 0 0 0 -751.79854231287027 -770.4412728223233 0 -770.4412728223233 -71.923958887123263 0 0 0 0 106.30217452900251 -29.870799161733885 0 -29.870799161733885 -286.08103890105122 0 0 0 0 -639.55829315706796 -373.11844864004706 0 -373.11844864004706 -48.81516180991548 0 0 0 0 -261.44937576225493 735.5407282674887 0 735.5407282674887 -1985.7297006669316 0 0 0 0 180.73656700708671 149.62662050147082 0 149.62662050147082 -250.109331969604 0 0 0 0 -13.603998487594311 2.7615054417780271 0 2.7615054417780271 -1.8367061059484522 0 0 0 0 -1187.887403296013 667.81713412004035 0 667.81713412004035 -1488.0769386355078 0 0 0 0 152.36275195480266 152.61917733960354 0 152.61917733960354 -1257.1446164387435 0 0 0 0 -61.205276163149392 903.74811404703951 0 903.74811404703951 -1577.3613207075468 0 0 0 0 -989.57387567635487 1238.409264047473 0 1238.409264047473 -1838.2573697183961 0 0 0 0 -1157.290376625514 29.569481690452022 0 29.569481690452022 -1601.5148679493759 0 0 0 0 -969.45241769919812 -64.681337753693697 0 -64.681337753693697 -1835.1329252841178 0 0 0 0 71.157599430982373 45.711912280740762 0 45.711912280740762 -1805.6600826581512 0 0 0 0 -368.26541999839901 609.94083575339346 0 609.94083575339346 -124.29228875846366 0 0 0 0 522.99286829944413 1699.1401612342404 0 1699.1401612342404 290.25137025471577 0 0 0 0 -38.031268621889808 32.510002077138473 0 32.510002077138473 -20.240295020338191 0 0 0 0 225.33126132604957 -425.31635398839717 0 -425.31635398839717 121.59922956541504 0 0 0 0 -40.744647990115936 29.024661712619107 0 29.024661712619107 -15.898314555193586 0 0 0 0 569.6124083626346 1114.9354206235075 0 1114.9354206235075 820.63916650124611 0 0 0 0 791.07364645933558 659.52383716793702 0 659.52383716793702 120.95450186977178 0 0 0 0 547.35347059393371 467.98737208826583 0 467.98737208826583 202.33534420171418 0 0 0 0 837.11309247826284 584.21701408955778 0 584.21701408955778 -245.00537152459947 0 0 0 0 966.48924940334109 499.29776290796508 0 499.29776290796508 -234.28032996695038 0 0 0 0 664.06114601099398 406.54446632241161 0 406.54446632241161 -230.77019714201788 0 0 0 0 461.81647963908472 373.07446117016207 0 373.07446117016207 207.38907453585125 0 0 0 0 557.37344218011367 527.63350411087811 0 527.63350411087811 239.25247641863461 0 0 0 0 250.74389441940002 51.538452836754004 0 51.538452836754004 -639.20607296774688 0 0 0 0 236.3086804835184 17.82501436210805 0 17.82501436210805 -257.33330726675194 0 0 0 0 -20.434343165538621 10.014092721822401 0 10.014092721822401 -4.0434121518307862 0 0 0 0 -1124.7998761957861 107.36179205151166 0 107.36179205151166 1406.4417668043461 0 0 0 0 68.588428891729563 372.50048040346519 0 372.50048040346519 -1199.5518175551151 0 0 0 0 -782.75579252809985 1079.9613261255327 0 1079.9613261255327 -1001.687186329299 0 0 0 0 -128.51368099734827 536.56054796388707 0 536.56054796388707 -577.69637308725214 0 0 0 0 165.83416948802187 499.8937613297021 0 499.8937613297021 -207.81324032140992 0 0 0 0 109.05593367721303 697.63353345220821 0 697.63353345220821 -840.39464416558258 0 0 0 0 399.88564996607602 655.90683958187219 0 655.90683958187219 -465.18258781084296 0 0 0 0 -43.274438606807962 502.85948125214782 0 502.85948125214782 -97.366679519072932 0 0 0 0 -936.54636995818873 628.24651695835018 0 628.24651695835018 21.634827277921431 0 0 0 0 -298.16575693120831 841.13551254432241 0 841.13551254432241 -535.37720948428978 0 0 0 0 -443.53150316268147 500.23382259097343 0 500.23382259097343 143.44999812618698 0 0 0 0 -338.78836389865319 476.87485076477969 0 476.87485076477969 56.709926964138504 0 0 0 0 -234.36222017100954 739.8123365983738 0 739.8123365983738 -62.392985746279464 0 0 0 0 147.23427389509743 461.30242114257089 0 461.30242114257089 27.0568651005633 0 0 0 0 428.01423654508835 727.14821593326269 0 727.14821593326269 -168.71660765198612 0 0 0 0 672.56623615155695 361.28498717687035 0 361.28498717687035 149.42188785536428 0 0 0 0 1326.7057268151548 610.20443299381259 0 610.20443299381259 -210.34668727276949 0 0 0 0 805.11648255852924 508.26689569487644 0 508.26689569487644 -161.69059306058261 0 0 0 0 691.1545848013775 581.75954162840571 0 581.75954162840571 -160.90801034064862 0 0 0 0 630.24540836868982 372.08431314265363 0 372.08431314265363 -231.89416556526703 0 0 0 0 994.86637666476599 685.26070211697879 0 685.26070211697879 -106.37858526498761 0 0 0 0 705.63452113221865 836.87051735467139 0 836.87051735467139 -104.97793011164271 0 0 0 0 942.34363635737827 936.53859690129593 0 936.53859690129593 465.99471757175343 0 0 0 0 353.92845214655972 1023.2090493896958 0 1023.2090493896958 278.16533552877445 0 0 0 0 341.87036154072848 958.28418638698895 0 958.28418638698895 25.676092315010465 0 0 0 0 -70.341895429402939 951.0499290135067 0 951.0499290135067 144.93166642051983 0 0 0 0 -188.42587665659221 1406.5905530484104 0 1406.5905530484104 -92.789087548713724 0 0 0 0 -162.84551964394632 836.91733877906881 0 836.91733877906881 34.535020085731958 0 0 0 0 262.5102526339615 1086.9314890766345 0 1086.9314890766345 -209.53982465104127 0 0 0 0 -702.05589403324029 753.34393359624369 0 753.34393359624369 -160.63904945746981 0 0 0 0 -634.87831229819767 1853.7691518424706 0 1853.7691518424706 -576.43057653854339 0 0 0 0 -335.27356091664115 1509.0752353094122 0 1509.0752353094122 -385.50780650477418 0 0 0 0 -46.112880314132781 991.27884475783412 0 991.27884475783412 262.01153037341101 0 0 0 0 786.02402189245913 688.3579375051504 0 688.3579375051504 -281.69572292749763 0 0 0 0 301.7270304253916 630.59404778901978 0 630.59404778901978 -100.80762918334585 0 0 0 0 1045.0996240136446 645.77262900005371 0 645.77262900005371 -270.0122228816108 0 0 0 0 814.93477174841973 753.37173551559863 0 753.37173551559863 -205.17042616773597 0 0 0 0 538.06128754716883 649.44591727906754 0 649.44591727906754 455.88719910026703 0 0 0 0 -999.61641429760493 1833.7667731639176 0 1833.7667731639176 1413.6555500380282 0 0 0 0 -15.631464817606798 14.887468453028418 0 14.887468453028418 -9.9176877633891642 0 0 0 0 384.67925040067348 1564.4330787903232 0 1564.4330787903232 -2976.3786694839655 0 0 0 0 590.22604265534028 665.82189021641807 0 665.82189021641807 -1658.1617358474896 0 0 0 0 -143.20823722168279 691.67885945541548 0 691.67885945541548 -1154.237229893477 0 0 0 0 -1027.1976830113708 1997.9915246156197 0 1997.9915246156197 -1109.6852517356806 0 0 0 0 897.13059042200621 382.498621538306 0 382.498621538306 686.52496650408648 0 0 0 0 2302.1410416639046 -577.08171581606166 0 -577.08171581606166 -215.58289442794558 0 0 0 0 171.31360050596413 -77.863276384182427 0 -77.863276384182427 -79.537680696148527 0 0 0 0 1001.9526328825305 961.14806425436382 0 961.14806425436382 -693.15281513244099 0 0 0 0 -644.36423798129181 123.86227341062829 0 123.86227341062829 -805.83707815336311 0 0 0 0 2093.8532980844466 804.04718274562947 0 804.04718274562947 -1241.394245588901 0 0 0 0 379.88868598560657 1018.3517442790021 0 1018.3517442790021 -3.7178718144714367 0 0 0 0 -377.17354863473156 2312.7588909785291 0 2312.7588909785291 -1372.0169313312354 0 0 0 0 -629.39529498982301 1323.9914711708889 0 1323.9914711708889 -13.085094746660616 0 0 0 0 -964.42633904145623 862.88099093648998 0 862.88099093648998 -298.89152670417752 0 0 0 0 1204.9961333804677 640.48275469945838 0 640.48275469945838 -10.936791638927389 0 0 0 0 3.8487123575409541 20.17166314692858 0 20.17166314692858 -16.678112674411238 0 0 0 0 640.13254551438149 587.27083317080906 0 587.27083317080906 211.23602059653786 0 0 0 0 150.80361555198033 352.04909064606636 0 352.04909064606636 0.068551760386981186 0 0 0 0 127.0799414767971 659.94994586102803 0 659.94994586102803 -428.84075077885791 0 0 0 0 5.2440830035624799 19.097204272939024 0 19.097204272939024 -22.372348677594879 0 0 0 0 1.8574784175871173 1167.2246942711899 0 1167.2246942711899 204.95756339018044 0 0 0 0 -256.5691325829539 744.06393388031711 0 744.06393388031711 -321.85892076528398 0 0 0 0 -1105.2213289282372 507.72852676126604 0 507.72852676126604 47.238683371098887 0 0 0 0 483.47342345461948 647.50353077889849 0 647.50353077889849 523.8631990752574 0 0 0 0 873.51266094254879 850.94610358455998 0 850.94610358455998 -182.20940037649416 0 0 0 0 -1.3605559107485021 4.3068954473057204 0 4.3068954473057204 -5.3238680370441642 0 0 0 0 433.29399405687582 412.08488369181214 0 412.08488369181214 -347.21623596944482 0 0 0 0 646.98066503982409 1015.8400078241921 0 1015.8400078241921 -584.45676507428198 0 0 0 0 642.44644863803114 856.72658122877874 0 856.72658122877874 -98.486348973130589 0 0 0 0 703.82896902259199 875.01846829219608 0 875.01846829219608 -148.15450780997708 0 0 0 0 201.54316143641199 1122.9452932646873 0 1122.9452932646873 -85.842687523694622 0 0 0 0 459.8121845334972 873.02526689871775 0 873.02526689871775 125.80785675733387 0 0 0 0 706.36291130511381 893.59556679403613 0 893.59556679403613 63.089803833285259 0 0 0 0 464.98255362130294 879.3158215722724 0 879.3158215722724 -67.709691503079739 0 0 0 0 371.51377041737578 882.78414570168434 0 882.78414570168434 222.32007255098142 0 0 0 0 307.39089358753699 662.68857431724064 0 662.68857431724064 81.980211877042166 0 0 0 0 696.90858417788695 1026.8222633791347 0 1026.8222633791347 -227.28791800171894 0 0 0 0 2834.476467365952 938.00222549898172 0 938.00222549898172 -223.57312291171911 0 0 0 0 1.0203812226405518 9.4246135973174319 0 9.4246135973174319 -5.5085616204262067 0 0 0 0 -3353.5297170480335 1597.7147164343351 0 1597.7147164343351 103.39121577769401 0 0 0 0 374.61586265909136 1388.862064315661 0 1388.862064315661 -155.04775805317331 0 0 0 0 -137.29532119778742 1415.8716800664533 0 1415.8716800664533 -52.348765074377297 0 0 0 0 178.39028631680412 1076.5956687866501 0 1076.5956687866501 -141.63881359838342 0 0 0 0 -190.92780619506084 1314.5373674184575 0 1314.5373674184575 -197.81681405258314 0 0 0 0 192.30251276603667 1210.6350578775146 0 1210.6350578775146 -38.873930407878106 0 0 0 0 -383.7802056291257 948.59212213110732 0 948.59212213110732 -168.39930296858256 0 0 0 0 30.265558914950816 709.11226413046097 0 709.11226413046097 -120.88063593231345 0 0 0 0 -49.208897774820798 897.90543530058494 0 897.90543530058494 -226.03841204155106 0 0 0 0 102.38497537039439 827.18758472749619 0 827.18758472749619 -40.754367836052552 0 0 0 0 0.28279528381244745 1097.2823952066083 0 1097.2823952066083 -118.93780887718822 0 0 0 0 106.01985292244353 766.08796177346812 0 766.08796177346812 -131.59258065766153 0 0 0 0 -332.11709612033155 983.95791724511946 0 983.95791724511946 -186.60262365404924 0 0 0 0 -128.86971930935397 931.30351864798104 0 931.30351864798104 -254.99478139790153 0 0 0 0 -172.63331611202739 800.88500731908607 0 800.88500731908607 -176.23484680211186 0 0 0 0 -118.27323000489923 895.49720540214685 0 895.49720540214685 -205.88024564819352 0 0 0 0 -124.57707662030816 1018.7460827832401 0 1018.7460827832401 -387.46221363936274 0 0 0 0 -435.15220560496437 1608.8067483429963 0 1608.8067483429963 -147.97701908580348 0 0 0 0 771.93632746010553 1178.7381860225123 0 1178.7381860225123 -359.18702866578315 0 0 0 0 -752.23306079804024 675.00611646819743 0 675.00611646819743 949.52902709181944 0 0 0 0 -5.2517645542148443 5.6063320363186477 0 5.6063320363186477 -2.6491767366232466 0 0 0 0 -635.29704335419228 1272.7637939050055 0 1272.7637939050055 -146.8792191254397 0 0 0 0 -352.43189422601426 945.01331373682478 0 945.01331373682478 220.69470569408804 0 0 0 0 -249.40371939926263 626.46899162495174 0 626.46899162495174 207.06035195886943 0 0 0 0 -260.3424505568837 634.30668096242334 0 634.30668096242334 239.90934776730501 0 0 0 0 128.45814432118641 279.04802407353509 0 279.04802407353509 351.50056327697894 0 0 0 0 -211.63406114261306 499.87490025126772 0 499.87490025126772 -73.391619408052065 0 0 0 0 -147.8581941107841 320.37573674041414 0 320.37573674041414 366.78345770222768 0 0 0 0 -211.76912602644006 496.78886058877106 0 496.78886058877106 -92.063393782112144 0 0 0 0 -324.73029707534442 782.17255002797174 0 782.17255002797174 -50.150910135125741 0 0 0 0 -295.14455226119026 816.13528602253064 0 816.13528602253064 -12.039601334632607 0 0 0 0 -238.12353681949025 591.73589606342102 0 591.73589606342102 -491.30266881795251 0 0 0 0 -226.54299374782568 526.8218146367476 0 526.8218146367476 -127.68664958723821 0 0 0 0 -123.07166948259692 329.75430312862045 0 329.75430312862045 -341.62117465192205 0 0 0 0 -166.58323362267583 321.68938737323811 0 321.68938737323811 -316.53949127031592 0 0 0 0 -168.40239898010623 306.20547757015993 0 306.20547757015993 -443.19163264054305 0 0 0 0 -96.987637182966864 123.21875145025479 0 123.21875145025479 -557.39188279489463 0 0 0 0 -69.011242944070545 59.066623278909901 0 59.066623278909901 -415.76203392439493 0 0 0 0 -22.985693446564255 121.19861374938773 0 121.19861374938773 -473.43625065997549 0 0 0 0 129.85261361331504 -44.396601819542411 0 -44.396601819542411 -604.04848949594088 0 0 0 0 -93.216123364632949 221.91250845913237 0 221.91250845913237 -396.00522958890292 0 0 0 0 -51.27439198470546 0.40035551881574349 0 0.40035551881574349 -1.654615948317689 0 0 0 0 -6.6377555703633107 3.164866100868835 0 3.164866100868835 -1.2071228391282256 0 0 0 0 425.45610561063222 290.39673117474013 0 290.39673117474013 -1756.5423978167892 0 0 0 0 260.78033069043886 -222.45142683396261 0 -222.45142683396261 -939.68623382736405 0 0 0 0 -14.591866312490311 78.534875377139542 0 78.534875377139542 -424.60852687025545 0 0 0 0 75.688471838104306 337.95411787944977 0 337.95411787944977 -1076.9916855458941 0 0 0 0 -420.83677679035463 241.19312313233422 0 241.19312313233422 -269.08222449930327 0 0 0 0 -25.532881831044165 7.7946228642069002 0 7.7946228642069002 -0.7217225295268257 0 0 0 0 -17.530670363208628 168.97296701776213 0 168.97296701776213 -273.99459343354465 0 0 0 0 -30.570040530044935 26.538317419071973 0 26.538317419071973 -337.31773000137036 0 0 0 0 44.761976248410065 129.9709626103886 0 129.9709626103886 -208.66333258660234 0 0 0 0 94.24457983476168 211.45632552861662 0 211.45632552861662 -209.74549492094229 0 0 0 0 49.580979730624676 96.9552180036967 0 96.9552180036967 -208.28191163872179 0 0 0 0 3.9320357552351197 298.67475193905557 0 298.67475193905557 -132.65268324398494 0 0 0 0 -103.80955848124722 247.77470461299799 0 247.77470461299799 6.3510740185301984 0 0 0 0 63.103325355024026 223.7599039606921 0 223.7599039606921 -38.281441993152839 0 0 0 0 72.542944108185111 366.65624273453784 0 366.65624273453784 282.12396260673995 0 0 0 0 547.19542250229279 365.90777539228293 0 365.90777539228293 278.41066143612989 0 0 0 0 84.795132597733755 358.00462382242222 0 358.00462382242222 313.12330200559518 0 0 0 0 274.4471102262396 307.87920982154537 0 307.87920982154537 -140.34247912226419 0 0 0 0 112.62582443050633 69.487622992623074 0 69.487622992623074 -32.281421656316525 0 0 0 0 11.839551327298977 159.67176054502124 0 159.67176054502124 -234.96711761514962 0 0 0 0 88.88136101422424 400.59310885436935 0 400.59310885436935 -694.56176660169513 0 0 0 0 186.57194264728423 316.11005869423252 0 316.11005869423252 -536.29929870432534 0 0 0 0 160.23827910271939 116.28593475526941 0 116.28593475526941 -261.70432534339488 0 0 0 0 251.42896336952253 164.9223923038935 0 164.9223923038935 -893.44407640087593 0 0 0 0 116.37617316682008 328.22139728179536 0 328.22139728179536 -800.41765641109669 0 0 0 0 232.9154001253919 183.59181605720005 0 183.59181605720005 -675.32308492210723 0 0 0 0 11.906366771261673 231.51822343629465 0 231.51822343629465 -681.95823011999801 0 0 0 0 105.87296898844943 44.994604638419332 0 44.994604638419332 -329.50406948201271 0 0 0 0 182.28926774192951 46.528039003092999 0 46.528039003092999 -817.17323880536424 0 0 0 0 -208.82920041361831 150.78664824840178 0 150.78664824840178 -370.49760930900811 0 0 0 0 -187.88605455409561 581.41710821527886 0 581.41710821527886 -574.26531197424629 0 0 0 0 -149.11185296827171 433.43664797174824 0 433.43664797174824 -1130.9605021423122 0 0 0 0 169.44777316853288 -314.04017626358109 0 -314.04017626358109 134.84285635330389 0 0 0 0 86.151552473776974 34.350063257814327 0 34.350063257814327 60.926771247004581 0 0 0 0 14.551095088888758 5.9375079100231005 0 5.9375079100231005 -1.0741097763776821 0 0 0 0 192.21849519779789 43.941838639551861 0 43.941838639551861 -48.270206821733154 0 0 0 0 5.3405262835595408 8.411712524593554 0 8.411712524593554 -1.4214988162685671 0 0 0 0 2.7860214166285004 227.59011126667974 0 227.59011126667974 -542.9555016929844 0 0 0 0 -89.339375071809627 316.80671537543822 0 316.80671537543822 -571.24192213432434 0 0 0 0 -362.88679577514995 678.06216352896081 0 678.06216352896081 -1042.9230329940037 0 0 0 0 1.0147619723987304 -3.7128367167579484 0 -3.7128367167579484 1.9629789906908854 0 0 0 0 -331.51138245010225 255.7013950113942 0 255.7013950113942 -515.82589687006839 0 0 0 0 9.6830203892022837 157.94937067120918 0 157.94937067120918 -966.18825498192291 0 0 0 0 -10.190170597517863 158.03173858800074 0 158.03173858800074 -614.08895085207041 0 0 0 0 -16.981388936255826 219.67289468007584 0 219.67289468007584 -528.86850716384924 0 0 0 0 22.447548300173366 523.55628777593483 0 523.55628777593483 -1087.0478001466618 0 0 0 0 -96.074900233914377 -107.70498333787691 0 -107.70498333787691 -552.66001358050562 0 0 0 0 -309.76324878266314 308.18611309621338 0 308.18611309621338 371.13057510100771 0 0 0 0 -215.99569668919139 557.84587942678627 0 557.84587942678627 374.29585272636632 0 0 0 0 -399.78048184956424 550.03465159084953 0 550.03465159084953 1138.1569242216647 0 0 0 0 -228.95448369006044 580.01516425613227 0 580.01516425613227 532.8520111086691 0 0 0 0 362.11387546625338 367.96327362207739 0 367.96327362207739 -61.222292637025021 0 0 0 0 -137.77596835997247 276.45564559846025 0 276.45564559846025 -29.36686757967982 0 0 0 0 -3.7092835669614601 4.3489981715387103 0 4.3489981715387103 -1.2736485421891501 0 0 0 0 600.70707607133954 1086.9565020751943 0 1086.9565020751943 675.36307364842833 0 0 0 0 380.70813638557593 1505.000352924395 0 1505.000352924395 735.37067341004149 0 0 0 0 1019.7821144948248 697.77601654598766 0 697.77601654598766 406.61997589705425 0 0 0 0 -319.21407901716884 405.03453043566515 0 405.03453043566515 947.69998909376955 0 0 0 0 498.62529104923306 827.87358086948461 0 827.87358086948461 971.08841579210275 0 0 0 0 731.65174503465096 641.61058036767827 0 641.61058036767827 682.02371869906347 0 0 0 0 361.35928294491896 671.11019904325258 0 671.11019904325258 793.19985085220651 0 0 0 0 384.51105156159429 822.30897035934117 0 822.30897035934117 1002.8435511324133 0 0 0 0 -10.552561338171472 9.8853965983657162 0 9.8853965983657162 -3.8678853024985074 0 0 0 0 456.07179231713235 760.5679459167568 0 760.5679459167568 863.96332444167638 0 0 0 0 383.48467598618299 281.78609306319231 0 281.78609306319231 253.83153856478566 0 0 0 0 333.97958639763237 745.47383989977061 0 745.47383989977061 788.71162677756911 0 0 0 0 -11.608164586675571 11.279038934008454 0 11.279038934008454 -5.5495925872917127 0 0 0 0 321.13318519854511 566.43116235085108 0 566.43116235085108 823.38089831895195 0 0 0 0 588.55223422648123 1009.0477678894731 0 1009.0477678894731 797.16286146033781 0 0 0 0 658.76346123799522 470.71132458743807 0 470.71132458743807 322.88028623697392 0 0 0 0 334.23586378536129 924.4602625726111 0 924.4602625726111 45.166736406532436 0 0 0 0 357.74958673767105 740.09674297187848 0 740.09674297187848 188.41760508110201 0 0 0 0 -377.71049947877327 374.84652035318868 0 374.84652035318868 372.66376815157855 0 0 0 0 2765.541398804562 1299.5201837075329 0 1299.5201837075329 188.80000989454857 0 0 0 0 -1.693038598653601 3.6517054949351007 0 3.6517054949351007 6.140534768161757 0 0 0 0 404.34838119237975 727.50064770622703 0 727.50064770622703 728.36252786689511 0 0 0 0 -5.4420332431554357 5.4975687858930939 0 5.4975687858930939 21.216174054670262 0 0 0 0 345.44598342169775 506.59521908030729 0 506.59521908030729 640.27754600452317 0 0 0 0 454.7988038577314 588.44429940612099 0 588.44429940612099 361.37275097605743 0 0 0 0 90.684393413728685 606.68348739770227 0 606.68348739770227 5.1144683912461915 0 0 0 0 1057.8906303435069 368.73558269587011 0 368.73558269587011 -1093.3634497617604 0 0 0 0 1821.7020381781331 1696.3339693333492 0 1696.3339693333492 -775.02700206890586 0 0 0 0 1912.0820719787735 2030.5367193519742 0 2030.5367193519742 405.74835563298711 0 0 0 0 1653.4643351439154 1379.9619663308258 0 1379.9619663308258 265.02046523127501 0 0 0 0 1358.1764072490143 662.8806267299924 0 662.8806267299924 -154.2960327181645 0 0 0 0 1354.5881417883502 853.96372912120569 0 853.96372912120569 857.43342689319979 0 0 0 0 767.12516240301193 797.75655466397802 0 797.75655466397802 216.98404941292256 0 0 0 0 419.80890976593946 394.11524798149549 0 394.11524798149549 -54.520647913399443 0 0 0 0 92.955909763724776 671.13678890293158 0 671.13678890293158 95.844031923124021 0 0 0 0 -200.99726554499648 413.13427496340591 0 413.13427496340591 -57.888055544215604 0 0 0 0 -247.22565958581981 498.72840736394483 0 498.72840736394483 122.42302315376946 0 0 0 0 -123.83613062575387 562.57478363312407 0 562.57478363312407 -261.1056761800719 0 0 0 0 142.79462325487111 687.1431935086548 0 687.1431935086548 -171.68587418190236 0 0 0 0 -94.43722510812222 328.25904862098832 0 328.25904862098832 -539.94267379998564 0 0 0 0 -379.84657867379428 491.80463781065373 0 491.80463781065373 -575.76964011768723 0 0 0 0 102.05476249456086 18.724876662196671 0 18.724876662196671 -3.8594557420184472 0 0 0 0 119.27083079206932 413.54275462022633 0 413.54275462022633 -1207.4925105042967 0 0 0 0 447.90029444709944 1854.9678164013494 0 1854.9678164013494 255.94695955890347 0 0 0 0 405.47271386305511 1506.5308523085023 0 1506.5308523085023 1407.9788651558483 0 0 0 0 1922.9684794073589 2808.0170443799375 0 2808.0170443799375 -150.80129421767197 0 0 0 0 -17.851015942520462 2002.1463753239368 0 2002.1463753239368 4813.6306967337132 0 0 0 0 2309.4731745242025 1286.9870661270725 0 1286.9870661270725 -1236.7687544417049 0 0 0 0 1051.4444234960829 -95.044682696821837 0 -95.044682696821837 -2571.7148763090736 0 0 0 0 35.915700506942756 9.1823092962221153 0 9.1823092962221153 0.060481962047484572 0 0 0 0 1992.2882937635004 -967.05338285095058 0 -967.05338285095058 3051.4261780352681 0 0 0 0 2522.5935273995274 2293.1475757903609 0 2293.1475757903609 -270.5347043027723 0 0 0 0 1011.5627927122987 797.5132631787128 0 797.5132631787128 1221.6832464335203 0 0 0 0 -3.5145314678365764 2.3352878309229368 0 2.3352878309229368 26.396305465086328 0 0 0 0 1308.5473068057472 1468.3057238388856 0 1468.3057238388856 968.61441897373879 0 0 0 0 2523.5084039448993 1187.2330512973276 0 1187.2330512973276 357.80553864188551 0 0 0 0 893.56832377355386 1817.8329315469741 0 1817.8329315469741 1189.8262845368445 0 0 0 0 117.81442268115643 1081.9841962222963 0 1081.9841962222963 1748.0568184999865 0 0 0 0 2593.0052416810213 2773.3341173444242 0 2773.3341173444242 1848.9847429528963 0 0 0 0 -603.27693838282721 158.93551434800611 0 158.93551434800611 1589.8415620196338 0 0 0 0 2.3803168259277356 -0.4813107309411464 0 -0.4813107309411464 9.8692648969595211 0 0 0 0 212.72428240437876 1115.6117148855374 0 1115.6117148855374 1755.0017509787795 0 0 0 0 1137.9164584090686 209.53247773389012 0 209.53247773389012 1775.4664617556191 0 0 0 0 549.69960105544305 937.54834977010614 0 937.54834977010614 1383.4820195290085 0 0 0 0 1427.5078774531285 709.23080803447556 0 709.23080803447556 1290.0376913138607 0 0 0 0 1494.1687945838494 744.83491293588304 0 744.83491293588304 160.88470084018536 0 0 0 0 322.99637616227847 1317.7134235213271 0 1317.7134235213271 1294.3901744071336 0 0 0 0 -210.27507586841239 1100.5016451368501 0 1100.5016451368501 124.60553732267817 0 0 0 0 398.70212647455628 -371.12254651919648 0 -371.12254651919648 505.27326916260108 0 0 0 0 1230.7099936852755 -829.64306706058414 0 -829.64306706058414 525.56983598411898 0 0 0 0 5.2886588288805569 2.8939157828541511 0 2.8939157828541511 2.0692848806293398 0 0 0 0 2159.4548011310399 497.32610918459977 0 497.32610918459977 131.05444488580542 0 0 0 0 627.51895299268654 93.010871753278479 0 93.010871753278479 80.422163080984319 0 0 0 0 676.70604779045971 388.97279568848535 0 388.97279568848535 -185.45599043615221 0 0 0 0 999.63027098200109 -49.604054081253707 0 -49.604054081253707 -359.4533028008882 0 0 0 0 484.46384071020657 16.637118190161345 0 16.637118190161345 -275.43487610053126 0 0 0 0 352.29105533042457 205.52348259338032 0 205.52348259338032 -285.00241647741132 0 0 0 0 311.68511142519856 628.88765000139142 0 628.88765000139142 -550.32754680905782 0 0 0 0 12.548554154695012 275.99815245980426 0 275.99815245980426 -707.07246934396244 0 0 0 0 402.12231646099826 489.2751431845536 0 489.2751431845536 -592.2034329119997 0 0 0 0 208.8532824566646 -205.1482735861955 0 -205.1482735861955 -224.48413524575335 0 0 0 0 350.54789701046684 -54.51529612084687 0 -54.51529612084687 -151.44268464700872 0 0 0 0 101.23994147765916 392.38119063172417 0 392.38119063172417 -579.38938045467876 0 0 0 0 -903.83507629693486 567.51761206758965 0 567.51761206758965 -23.442495321793103 0 0 0 0 -756.01799509840203 568.28659443512151 0 568.28659443512151 -321.064134883316 0 0 0 0 -1079.5454657108057 617.85481651086593 0 617.85481651086593 -21.659622364371899 0 0 0 0 -558.95188759015582 -83.15765293149525 0 -83.15765293149525 -1.9110248632787261 0 0 0 0 48.622650777163074 67.201384974945881 0 67.201384974945881 13.73872596545425 0 0 0 0 -318.19146045070374 960.18371281035797 0 960.18371281035797 -660.01998046481822 0 0 0 0 41.290826071544359 65.244913896613696 0 65.244913896613696 45.713415148337177 0 0 0 0 -12.109949339006562 88.696109634780441 0 88.696109634780441 -28.586605220480124 0 0 0 0 -411.61767276207684 653.14658070545192 0 653.14658070545192 -490.69780532220648 0 0 0 0 -102.44136755442014 545.80800447661386 0 545.80800447661386 -149.62103522074904 0 0 0 0 -73.282820563792484 575.80012293982509 0 575.80012293982509 -840.40006122423074 0 0 0 0 -1131.5744586861401 266.69600341653131 0 266.69600341653131 154.63127293600701 0 0 0 0 756.53783485413805 757.33258295953874 0 757.33258295953874 -119.60662775098172 0 0 0 0 476.93132148648147 717.55476950380398 0 717.55476950380398 761.48195999694508 0 0 0 0 -220.34169350666343 566.61220624783891 0 566.61220624783891 743.79274112070561 0 0 0 0 -211.63606286087452 923.88575545600395 0 923.88575545600395 572.33292516130314 0 0 0 0 -596.41808051554835 504.9254169754131 0 504.9254169754131 1045.41864345258 0 0 0 0 9.9745268243260341 5.5925774034796234 0 5.5925774034796234 -13.13626720314798 0 0 0 0 -1530.5695530431622 962.44334542314755 0 962.44334542314755 872.53480337055225 0 0 0 0 410.55950971803395 230.6845407699584 0 230.6845407699584 -290.30334643638344 0 0 0 0 -1181.1111466166331 683.5860348813585 0 683.5860348813585 20.051877740075724 0 0 0 0 36.266465298902006 64.288850813854054 0 64.288850813854054 85.728947451846182 0 0 0 0 -65.525974624284572 -359.21971130753127 0 -359.21971130753127 1124.6365206485498 0 0 0 0 -1648.7039832185837 580.27842256936128 0 580.27842256936128 4084.3151725023345 0 0 0 0 -1329.1295688454411 44.857627115206924 0 44.857627115206924 1702.2088645825424 0 0 0 0 -739.68422794123762 1040.123061780876 0 1040.123061780876 658.16013567122718 0 0 0 0 -687.80765388536383 1223.7275888178629 0 1223.7275888178629 2480.6966305026181 0 0 0 0 -1138.8761055405193 1349.1251757369755 0 1349.1251757369755 2911.524791541844 0 0 0 0 -767.55472066724906 1595.003150290162 0 1595.003150290162 3040.1412668213889 0 0 0 0 -353.43382884774473 881.16844584642968 0 881.16844584642968 1627.6958496505686 0 0 0 0 -751.10983286303235 1020.2203899236774 0 1020.2203899236774 1969.9229827014133 0 0 0 0 -1.0013747682678513 780.66131720152043 0 780.66131720152043 1609.8656837001308 0 0 0 0 -203.24982898464077 1737.2303064718581 0 1737.2303064718581 1464.4760170589425 0 0 0 0 -13.346027337269334 1279.4045302523573 0 1279.4045302523573 2060.5781115552236 0 0 0 0 217.89880998279841 2107.9775571550272 0 2107.9775571550272 1388.1930596161546 0 0 0 0 -63.007321444631089 2164.2571738519819 0 2164.2571738519819 2612.2327130124395 0 0 0 0 1100.4483275012899 3718.6498699864424 0 3718.6498699864424 3932.8653271352669 0 0 0 0 2582.603638458706 2035.5397824653046 0 2035.5397824653046 570.05269187338854 0 0 0 0 -1689.573440084082 512.74714991628412 0 512.74714991628412 2674.5565060481895 0 0 0 0 -1721.5726164919379 916.76641794240368 0 916.76641794240368 5707.810526078043 0 0 0 0 957.35664596853894 4167.7454007432025 0 4167.7454007432025 4087.1859799962695 0 0 0 0 -834.99168531511896 1842.2229104891726 0 1842.2229104891726 6188.0017250008241 0 0 0 0 2272.1135914661281 2593.6309215102774 0 2593.6309215102774 143.87018271244597 0 0 0 0 18.496217924922007 22.647068531919558 0 22.647068531919558 30.354380019004637 0 0 0 0 1709.4965646992205 1471.8246019699509 0 1471.8246019699509 -333.47794155342854 0 0 0 0 -17.399860809960956 -886.73924938853816 0 -886.73924938853816 4868.3033691751116 0 0 0 0 339.96445607946953 156.49560129481688 0 156.49560129481688 -890.54436814706423 0 0 0 0 -1135.138598622465 202.23211546285211 0 202.23211546285211 -131.11618519715557 0 0 0 0 536.16291734455081 1515.9523955302648 0 1515.9523955302648 379.29483771711239 0 0 0 0 -543.74349217195413 2303.2400558532827 0 2303.2400558532827 1823.9611324643483 0 0 0 0 -49.493387591413921 1107.3627969603622 0 1107.3627969603622 176.19202415638574 0 0 0 0 -8.5985879497824271 4.4501052694417496 0 4.4501052694417496 7.004821988856321 0 0 0 0 572.27519264149305 1766.8368260667048 0 1766.8368260667048 1879.2152921915549 0 0 0 0 -306.50498147425242 679.49519715776842 0 679.49519715776842 546.74106167344871 0 0 0 0 -38.850970972242067 169.90399305732717 0 169.90399305732717 391.55345234449123 0 0 0 0 -360.70840317476541 512.19344194418954 0 512.19344194418954 42.543489324933034 0 0 0 0 -554.69014307798352 322.51276087990846 0 322.51276087990846 -27.058374804390041 0 0 0 0 -259.47099892041297 514.84024242062151 0 514.84024242062151 -104.7849470755973 0 0 0 0 -901.69538296056999 584.29495963498448 0 584.29495963498448 102.82247221186117 0 0 0 0 -68.520189227798255 294.33936141042795 0 294.33936141042795 512.83831213638041 0 0 0 0 1.6208913857117295 -212.61125355002878 0 -212.61125355002878 1200.7761195567764 0 0 0 0 -96.579602902493207 80.093200467017596 0 80.093200467017596 1174.5426554652506 0 0 0 0 -11.095951056912327 5.1398588223200932 0 5.1398588223200932 6.7678680797185393 0 0 0 0 -381.82932526161312 338.30765578583669 0 338.30765578583669 1182.4803871096669 0 0 0 0 -1920.2645019547781 -564.66106495587155 0 -564.66106495587155 2180.0880189044374 0 0 0 0 -402.3537030168518 47.923901389111052 0 47.923901389111052 2086.9783971996876 0 0 0 0 -11.355243508412968 -1664.8266078335328 0 -1664.8266078335328 2035.3923494535484 0 0 0 0 -1874.9078473302652 1696.1052308914695 0 1696.1052308914695 3954.9639824771439 0 0 0 0 -1781.007004531828 -74.949490716906439 0 -74.949490716906439 3038.5319535173185 0 0 0 0 -3089.7217935408407 1382.361296569281 0 1382.361296569281 2473.895711896861 0 0 0 0 -5479.7874544553342 -399.26780758344103 0 -399.26780758344103 3524.7966836363066 0 0 0 0 225.12149995101208 -4220.0697593012428 0 -4220.0697593012428 316.57965106399206 0 0 0 0 -4237.4063270698425 -3596.9313577334551 0 -3596.9313577334551 1556.4826189290179 0 0 0 0 165.09956328875467 -33.909486696751429 0 -33.909486696751429 -15.120992289692383 0 0 0 0 -76267.441019330407 119947.35297046095 0 119947.35297046095 213291.04332819194 0 0 0 0 -531.34395567400497 10682.816796584921 0 10682.816796584921 -26062.397076411602 0 0 0 0 -18.079964830031102 -220.28747485447241 0 -220.28747485447241 -104.27616069264106 0 0 0 0 -78.972045393424196 21.104597042848582 0 21.104597042848582 28.959529127110727 0 0 0 0 0.16209196571315942 48.960016276657626 0 48.960016276657626 18.724354089420586 0 0 0 0 188.50793283795065 39.705252985326297 0 39.705252985326297 -176.03325540458536 0 0 0 0 123.14649219844432 26.797545682497002 0 26.797545682497002 -10.667022838693811 0 0 0 0 216.09314059255121 -6.0554617443631287 0 -6.0554617443631287 -115.81827364441415 0 0 0 0 94.606695077251061 75.477735501783172 0 75.477735501783172 -84.978339973396942 0 0 0 0 -3321.6802171213785 1800.5897278782359 0 1800.5897278782359 2581.7606829049901 0 0 0 0 151.63981958530655 9.4114056708120302 0 9.4114056708120302 -8.7182769637041382 0 0 0 0 -206.66912074951688 2615.2756848819936 0 2615.2756848819936 -4308.0406746760273 0 0 0 0 96.603192790324101 2262.4615263341511 0 2262.4615263341511 1288.5483564919887 0 0 0 0 -27.861872701440006 481.03097797674855 0 481.03097797674855 532.73601754032552 0 0 0 0 79.784311475799768 139.2275511925618 0 139.2275511925618 -615.020368273028 0 0 0 0 75.301943142199889 166.99603346770709 0 166.99603346770709 -368.5743285214071 0 0 0 0 97.165544185190811 75.392452113663239 0 75.392452113663239 -180.32301743621065 0 0 0 0 22.745054629878723 273.75510425490756 0 273.75510425490756 -227.43827381004303 0 0 0 0 -161.36385854228865 383.32420695010114 0 383.32420695010114 -121.14435948729988 0 0 0 0 -122.24799332791372 292.99185015096464 0 292.99185015096464 22.200492476476938 0 0 0 0 18.427418056802708 214.78244852049647 0 214.78244852049647 -29.821804329589213 0 0 0 0 79.44704991063918 160.91595552047875 0 160.91595552047875 -4.7286900807575876 0 0 0 0 -0.009266987006412819 46.103076361732747 0 46.103076361732747 1.2940461693797261 0 0 0 0 38.772807631990872 155.89579265000202 0 155.89579265000202 7.5996180791553343 0 0 0 0 -39.956983649346512 142.90201715369039 0 142.90201715369039 12.980503056809539 0 0 0 0 -7.2158778574286728 71.134892414699152 0 71.134892414699152 9.5773142300548955 0 0 0 0 197.31864526629215 107.80407375176947 0 107.80407375176947 -22.325963811712427 0 0 0 0 101.98458118467533 174.00733112112175 0 174.00733112112175 -51.486695438121387 0 0 0 0 -40.716608841437846 265.66491927648167 0 265.66491927648167 80.995176071599417 0 0 0 0 -46.432312473742059 252.1742603728344 0 252.1742603728344 95.488953642249726 0 0 0 0 0.023502573647419922 267.96652541431467 0 267.96652541431467 10.689098821443622 0 0 0 0 -0.037960760077112354 303.85376837859076 0 303.85376837859076 147.30674807407195 0 0 0 0 -25.362623586028349 263.68939319227502 0 263.68939319227502 94.691882945935959 0 0 0 0 -51.603170375426998 300.43954339922493 0 300.43954339922493 172.77925051590137 0 0 0 0 -89.208487861353206 254.3778810868389 0 254.3778810868389 124.4842203800581 0 0 0 0 -126.48851545408252 303.91506930141622 0 303.91506930141622 201.35015962458783 0 0 0 0 -134.53335194168903 322.908230667309 0 322.908230667309 348.05904306010052 0 0 0 0 -121.00901945217629 388.3798155623881 0 388.3798155623881 262.68735910519172 0 0 0 0 -129.21923317512847 189.09550080706686 0 189.09550080706686 133.16862978539939 0 0 0 0 -85.728270144958515 290.53300396932173 0 290.53300396932173 194.04621118727664 0 0 0 0 -145.81164244032698 125.04096002593724 0 125.04096002593724 -29.450685342249926 0 0 0 0 -62.323157975297818 217.62148666039957 0 217.62148666039957 38.034843699424528 0 0 0 0 -106.42377810213657 222.03461550379689 0 222.03461550379689 66.886245412722928 0 0 0 0 -166.82632895742427 216.06243368722789 0 216.06243368722789 73.409535192084149 0 0 0 0 -181.81712136104761 234.21433342836099 0 234.21433342836099 -206.40522831969429 0 0 0 0 -15.174714474094799 180.82071541299229 0 180.82071541299229 -123.27087233786006 0 0 0 0 -10.534632584807696 197.24031212735281 0 197.24031212735281 -87.973968574682658 0 0 0 0 22.973171413206728 248.01404867750898 0 248.01404867750898 -161.70331435475964 0 0 0 0 -8.6871742579678539 238.30562806570379 0 238.30562806570379 -53.550819267373299 0 0 0 0 -62.841385551224676 195.44737038318817 0 195.44737038318817 24.182183851284208 0 0 0 0 -13.262862627361756 218.22172727023735 0 218.22172727023735 -40.628233821393223 0 0 0 0 -0.18273043478257023 260.46793653923669 0 260.46793653923669 -96.287101286477991 0 0 0 0 52.699394536175532 254.11372970564116 0 254.11372970564116 -160.68258547439473 0 0 0 0 278.26528441561095 304.63558821859624 0 304.63558821859624 -205.75018530952366 0 0 0 0 1.1838926826767169 400.49437067509052 0 400.49437067509052 -80.023160187440226 0 0 0 0 -6.5349147433396411 1.9918854646983846 0 1.9918854646983846 5.3589990880649907 0 0 0 0 602.03541569011577 565.1643379947418 0 565.1643379947418 -36.02906949222961 0 0 0 0 378.06873756828281 141.67563578496811 0 141.67563578496811 73.679489561516675 0 0 0 0 597.55469253376941 713.09622752437281 0 713.09622752437281 448.58716813829233 0 0 0 0 -0.48802464268898726 -214.49619352161358 0 -214.49619352161358 29.628013307155925 0 0 0 0 -544.21659937067307 364.30219645504621 0 364.30219645504621 -127.44773186679231 0 0 0 0 -332.22638720592659 117.62815178733581 0 117.62815178733581 31.987446894083405 0 0 0 0 -21.279019978101132 398.36293947768718 0 398.36293947768718 62.275787812925046 0 0 0 0 487.99116068923831 198.19986109451929 0 198.19986109451929 -3.2103697048587492 0 0 0 0 244.59558320854558 308.6959873724918 0 308.6959873724918 -135.31516473337251 0 0 0 0 -106.76025353936711 43.064426707169332 0 43.064426707169332 -4.7253625520970672 0 0 0 0 -608.03551230022276 104.43117099165829 0 104.43117099165829 -19.037345242177253 0 0 0 0 -248.23129217428504 285.22209074788225 0 285.22209074788225 -237.48841767566046 0 0 0 0 -244.36863957381865 83.972644823923474 0 83.972644823923474 -149.85836773453047 0 0 0 0 -119.94768171272881 218.82973939415751 0 218.82973939415751 -184.5191313851974 0 0 0 0 46.397962340386584 160.6431088561003 0 160.6431088561003 -186.60447081370512 0 0 0 0 60.206941849502982 168.08150570968155 0 168.08150570968155 -250.77340893076325 0 0 0 0 -147.9153953546047 113.29798959301115 0 113.29798959301115 -157.59866413549753 0 0 0 0 -462.00167567070457 136.39553144100501 0 136.39553144100501 -185.53121366351843 0 0 0 0 -568.66299307666486 417.11673126925962 0 417.11673126925962 -415.74972595686268 0 0 0 0 -730.21675207326189 261.14630337058043 0 261.14630337058043 -466.75749737762089 0 0 0 0 -978.83530187085853 168.37876167615468 0 168.37876167615468 -360.35176147755556 0 0 0 0 6.8697152720049246 7.2736766958717567 0 7.2736766958717567 -33.736591914619794 0 0 0 0 -1126.7436785900354 540.12512180606063 0 540.12512180606063 -277.78672686735808 0 0 0 0 -790.69520503241802 254.4770542787237 0 254.4770542787237 -176.10142363197519 0 0 0 0 -444.79559106167289 349.32570067509369 0 349.32570067509369 -318.03061223852637 0 0 0 0 -792.00795781274792 236.82028267277929 0 236.82028267277929 -86.499230292261927 0 0 0 0 -678.24848002931685 342.29248464639386 0 342.29248464639386 -153.52122392438469 0 0 0 0 -826.1071595059766 291.86573331802356 0 291.86573331802356 -67.505362503259676 0 0 0 0 -793.04274343186989 345.70169922422065 0 345.70169922422065 -75.809544820149313 0 0 0 0 -787.23584061326983 351.51584679671305 0 351.51584679671305 -240.56655201356625 0 0 0 0 -898.2456372785964 438.99283365588053 0 438.99283365588053 -162.2978687514551 0 0 0 0 -809.18359336045978 467.77059466497303 0 467.77059466497303 -213.62633836903842 0 0 0 0 267.66120439549559 44.77896749813408 0 44.77896749813408 -157.85405108521809 0 0 0 0 12.516670098547706 11.849610315045084 0 11.849610315045084 -52.387009382283367 0 0 0 0 43.525833272484761 -11.374177618630483 0 -11.374177618630483 -29.633722346741706 0 0 0 0 10.78556082656371 56.701470209920615 0 56.701470209920615 42.073745167080169 0 0 0 0 -5.6065806080001721 9.0376990705528613 0 9.0376990705528613 -6.1315793240476069 0 0 0 0 -960.51655758213019 712.02747748528782 0 712.02747748528782 -556.49460528654163 0 0 0 0 -878.50571268383646 114.86147412616992 0 114.86147412616992 -189.51477775266176 0 0 0 0 -1233.7428479433001 447.41895772168573 0 447.41895772168573 -54.417404982974404 0 0 0 0 122.17277068709529 108.2328504600097 0 108.2328504600097 27.64588483240388 0 0 0 0 201.91531123263121 247.31408702876433 0 247.31408702876433 -207.39017035419238 0 0 0 0 349.4229703398305 410.3630876098905 0 410.3630876098905 -959.2390478708403 0 0 0 0 100.47230058936918 111.14300311529264 0 111.14300311529264 42.306227667146324 0 0 0 0 349.23790198509232 94.068418613242102 0 94.068418613242102 -313.93617155735046 0 0 0 0 36.270313001504746 241.84243461993742 0 241.84243461993742 -118.59482158932951 0 0 0 0 25.825202194240774 10.85903330179616 0 10.85903330179616 -39.926674584709986 0 0 0 0 205.84029118492617 82.033699129067827 0 82.033699129067827 20.080019413915579 0 0 0 0 259.79749357094988 322.3763621868784 0 322.3763621868784 117.39057731658249 0 0 0 0 213.70092552089045 214.66267227854223 0 214.66267227854223 -165.60909599118168 0 0 0 0 18.179287515507895 100.74049033181291 0 100.74049033181291 -28.83588711469929 0 0 0 0 96.042908083152724 366.99667954023607 0 366.99667954023607 113.6593319027379 0 0 0 0 27.451784166230937 401.77713118493011 0 401.77713118493011 558.6044710973656 0 0 0 0 1010.7109436072351 54.284506352138123 0 54.284506352138123 -155.16317906859331 0 0 0 0 560.71326604655769 564.27610880275824 0 564.27610880275824 -371.03772670830949 0 0 0 0 709.43068741817842 -658.88384081281401 0 -658.88384081281401 7.8413116571755381 0 0 0 0 -71.287537410229561 473.35665103786596 0 473.35665103786596 297.25772388358018 0 0 0 0 167.96054935357097 632.7166549265221 0 632.7166549265221 -429.83189234719612 0 0 0 0 40.549785731825978 351.18944571677275 0 351.18944571677275 398.10415129190369 0 0 0 0 717.19707757228753 262.35277188416512 0 262.35277188416512 36.572805661024177 0 0 0 0 -54.938111964875134 -12.598560850245121 0 -12.598560850245121 560.49781838777926 0 0 0 0 249.370043690491 596.50366167693574 0 596.50366167693574 685.18865939503303 0 0 0 0 5.3606153876111193 7.9207801783161926 0 7.9207801783161926 13.674441205926996 0 0 0 0 -104.66050695677404 -82.065030923440645 0 -82.065030923440645 1370.8324265847987 0 0 0 0 -583.06013600254664 1122.5828853027924 0 1122.5828853027924 1507.9149973095336 0 0 0 0 2238.2895096443826 -283.10805390020687 0 -283.10805390020687 -448.26388027469511 0 0 0 0 3.3532548980149102 4.0099054957279918 0 4.0099054957279918 -13.192921210230566 0 0 0 0 1099.6685383452277 1102.3305259899644 0 1102.3305259899644 -1260.0350972770393 0 0 0 0 -1774.4571371975617 1595.0861993059407 0 1595.0861993059407 -398.07639205356827 0 0 0 0 65.67292168943095 944.69776787553565 0 944.69776787553565 89.553251164412359 0 0 0 0 1063.5130653427914 865.8737470082051 0 865.8737470082051 94.203638152801432 0 0 0 0 -1468.7784052811039 437.97042538488313 0 437.97042538488313 -87.683632329106331 0 0 0 0 -831.40504675565171 417.74214734242923 0 417.74214734242923 -179.7913413127244 0 0 0 0 -406.19922742660856 108.51377317178412 0 108.51377317178412 -182.9357636404892 0 0 0 0 -553.30662688089069 561.28654244065547 0 561.28654244065547 -318.53859024572739 0 0 0 0 -254.53540759484167 68.995194675670064 0 68.995194675670064 -109.76444830293985 0 0 0 0 -443.1988824744185 237.27827165169583 0 237.27827165169583 233.27863711325335 0 0 0 0 -126.10009594651638 396.63226417623082 0 396.63226417623082 200.70683307709442 0 0 0 0 -263.69520499338978 514.5197724424288 0 514.5197724424288 171.91165774733236 0 0 0 0 -46.808232724986738 870.04542656939157 0 870.04542656939157 665.54866217766494 0 0 0 0 -297.22211951155623 -21.740503798249847 0 -21.740503798249847 600.59585420213989 0 0 0 0 -54.767717144364724 502.4909704553429 0 502.4909704553429 144.75965454961988 0 0 0 0 56.165174139634473 219.66359311264387 0 219.66359311264387 206.40995584531629 0 0 0 0 -219.14116683347675 314.77056396775151 0 314.77056396775151 176.38162391562946 0 0 0 0 109.89062110933446 489.96401667870305 0 489.96401667870305 1067.4961165283312 0 0 0 0 401.68400150723755 394.90036806515855 0 394.90036806515855 147.11654971123062 0 0 0 0 403.32717834119831 830.95705943448411 0 830.95705943448411 -160.84735235801782 0 0 0 0 -1210.1459420551255 945.01435627188039 0 945.01435627188039 327.6107054912427 0 0 0 0 5.8261915163516278 28.177106618395044 0 28.177106618395044 30.452798225829838 0 0 0 0 -1811.5098459850706 -16.359166148322402 0 -16.359166148322402 -14.159700997653999 0 0 0 0 -859.91953393209405 484.62131934924582 0 484.62131934924582 211.14454953279346 0 0 0 0 -28.56705245692865 91.993636652267014 0 91.993636652267014 27.424139445317451 0 0 0 0 11.666187333423295 24.096292413265473 0 24.096292413265473 38.520659406553023 0 0 0 0 -70.636219950734812 1044.8384419026461 0 1044.8384419026461 -269.52370096876984 0 0 0 0 -738.8499939647736 339.27339563998976 0 339.27339563998976 -221.62518116550928 0 0 0 0 -33.045220106898341 91.03292786894599 0 91.03292786894599 88.898187341539597 0 0 0 0 -26.00224331491853 42.457320980785276 0 42.457320980785276 -27.296266031279004 0 0 0 0 -10.120601905728108 50.655848186501316 0 50.655848186501316 37.553200508773443 0 0 0 0 97.260695190663682 195.9352980522599 0 195.9352980522599 78.180279462598264 0 0 0 0 109.24272513153846 51.486071689847449 0 51.486071689847449 -2.245344443625072 0 0 0 0 111.22446124171256 226.07414798342143 0 226.07414798342143 34.127912980024121 0 0 0 0 87.195260718857753 297.26831474810024 0 297.26831474810024 127.4469197307626 0 0 0 0 -107.95109551302448 392.12829774005513 0 392.12829774005513 70.512696826059255 0 0 0 0 -45.190376105019823 212.09579777470935 0 212.09579777470935 91.040609735311591 0 0 0 0 -628.84800140775042 67.350613841917948 0 67.350613841917948 78.716751108935568 0 0 0 0 -268.57758640823886 326.87502195056004 0 326.87502195056004 57.944906223652652 0 0 0 0 -186.20232162471802 188.88176785619726 0 188.88176785619726 287.22491720909602 0 0 0 0 56.166803865518887 301.55267803109018 0 301.55267803109018 2.6874072555438033 0 0 0 0 -43.838371640156765 45.632213788206009 0 45.632213788206009 -40.16011670905408 0 0 0 0 52.034830502409022 283.36123708079685 0 283.36123708079685 143.27873547915078 0 0 0 0 -52.688536455301801 142.98663329079136 0 142.98663329079136 13.939320466015488 0 0 0 0 -125.65782079506607 137.18238035814647 0 137.18238035814647 30.084554389977711 0 0 0 0 -52.981861778653467 60.492111543726182 0 60.492111543726182 -32.854452889979655 0 0 0 0 -142.19732590005879 184.49549787575052 0 184.49549787575052 -65.550144199893111 0 0 0 0 -200.98274468144518 402.92064537637634 0 402.92064537637634 280.617167432315 0 0 0 0 -215.06929305956146 235.21536454426678 0 235.21536454426678 -35.646832059705048 0 0 0 0 31.71779265997904 46.982871609276572 0 46.982871609276572 2.4849851197159865 0 0 0 0 -75.396508916819585 215.86499471073694 0 215.86499471073694 -33.115193595680466 0 0 0 0 -143.4631319139371 166.14239315722079 0 166.14239315722079 -58.92174102338322 0 0 0 0 -44.656075082108146 345.15571702095622 0 345.15571702095622 -72.78738568569679 0 0 0 0 -73.243476976364036 194.59570819545661 0 194.59570819545661 113.6959218311531 0 0 0 0 -69.786336245859275 144.01364238648966 0 144.01364238648966 40.128101989103016 0 0 0 0 -62.192146902583772 90.702955093685887 0 90.702955093685887 367.87430806847988 0 0 0 0 -46.552852330059977 288.83694673468563 0 288.83694673468563 137.45094184983463 0 0 0 0 43.942081776560372 319.28258126144601 0 319.28258126144601 141.94091644104628 0 0 0 0 106.01276839972707 42.895414515689481 0 42.895414515689481 -815.33031834285794 0 0 0 0 31.469115542568034 236.06923434943019 0 236.06923434943019 -156.94933074183791 0 0 0 0 39.395139326850767 165.15361550842499 0 165.15361550842499 -70.113180818108958 0 0 0 0 98.917646382033126 163.95244556134276 0 163.95244556134276 -89.151092345855432 0 0 0 0 -10.020462660911676 2.3611491311291033 0 2.3611491311291033 -5.6853378009498954 0 0 0 0 10.602107803162653 183.40262027254357 0 183.40262027254357 155.10514280052666 0 0 0 0 254.30775475120754 174.10170176210522 0 174.10170176210522 152.52653777357045 0 0 0 0 -6.1256617061078487 35.164202690825256 0 35.164202690825256 12.037994172142504 0 0 0 0 79.548505343904253 151.94509484049195 0 151.94509484049195 228.16178374267474 0 0 0 0 203.03833416418638 285.7463326760917 0 285.7463326760917 42.882232339688926 0 0 0 0 125.4728452944546 350.15518313395114 0 350.15518313395114 268.27381177424104 0 0 0 0 130.69109539104807 119.82014231072958 0 119.82014231072958 54.470109778051025 0 0 0 0 226.56413101981161 -48.242780587806919 0 -48.242780587806919 -303.6297167838311 0 0 0 0 -288.37072512583109 -3.3896950396665488 0 -3.3896950396665488 12.517448489437811 0 0 0 0 214.29209316929337 -0.10111253742434201 0 -0.10111253742434201 -223.19372262488469 0 0 0 0 27.546444469066984 7.6708323201727353 0 7.6708323201727353 -24.781654834404009 0 0 0 0 -200.86528392741457 -18.994398073438788 0 -18.994398073438788 -135.08313858552719 0 0 0 0 255.91266999245272 104.29803503498806 0 104.29803503498806 -710.02160843971069 0 0 0 0 81.722466165170772 -44.752382679798757 0 -44.752382679798757 -30.708916162962851 0 0 0 0 131.98682589517557 -84.323976381030661 0 -84.323976381030661 -211.81492646121478 0 0 0 0 -232.5271729947126 260.81286656753218 0 260.81286656753218 852.77190179000172 0 0 0 0 -194.41612073561555 223.78338443863231 0 223.78338443863231 -19.393598520866362 0 0 0 0 3.6825658969097503 7.8119206767906491 0 7.8119206767906491 13.64118448499535 0 0 0 0 555.88435845673666 442.88260692102995 0 442.88260692102995 -260.30328742854908 0 0 0 0 352.04482413931692 -80.019097035863524 0 -80.019097035863524 -288.23485909053852 0 0 0 0 0.48208957597006474 2.8190502907269206 0 2.8190502907269206 3.2987025269014367 0 0 0 0 -13.301919656689279 -208.80168845256048 0 -208.80168845256048 56.070261845983623 0 0 0 0 781.43247077040724 453.66788003766851 0 453.66788003766851 -414.48737296930994 0 0 0 0 -289.51584113338049 -149.33547240129758 0 -149.33547240129758 317.09792149704299 0 0 0 0 400.0824156422168 332.90361404614669 0 332.90361404614669 572.48295294318814 0 0 0 0 3.4873369986457874 1.5676654170171247 0 1.5676654170171247 -14.420230076872755 0 0 0 0 368.91324519133195 402.80885147041408 0 402.80885147041408 -267.34629699295328 0 0 0 0 599.86031439580256 262.21504827783065 0 262.21504827783065 566.8473599026911 0 0 0 0 698.22370764944935 189.07479984263045 0 189.07479984263045 -191.13746255876322 0 0 0 0 32.454629537923722 82.396811338248767 0 82.396811338248767 -2.2634539749597735 0 0 0 0 -168.97771021534572 120.82237750252534 0 120.82237750252534 376.82518792617702 0 0 0 0 -7.1200256535587414 23.326444693944751 0 23.326444693944751 26.352578262531303 0 0 0 0 87.705215453761042 153.92950718883955 0 153.92950718883955 127.01014981168561 0 0 0 0 30.915136825256923 92.622279897565022 0 92.622279897565022 69.821643395771389 0 0 0 0 43.223342364173732 110.47870580414019 0 110.47870580414019 45.506904824447702 0 0 0 0 37.259342118966742 95.250083513088612 0 95.250083513088612 11.092483914631885 0 0 0 0 -22.629846593030379 108.81063335694489 0 108.81063335694489 50.997422294523858 0 0 0 0 70.66461322021496 119.77177544005826 0 119.77177544005826 -40.808775857294677 0 0 0 0 53.061282119982565 78.529764173923184 0 78.529764173923184 57.056211764305033 0 0 0 0 -72.595747382671107 221.1708544022913 0 221.1708544022913 -53.742339368690409 0 0 0 0 -17.928761440722155 175.4012255980615 0 175.4012255980615 -42.658499671029858 0 0 0 0 48.380668214053316 55.428005270854328 0 55.428005270854328 36.142319433228295 0 0 0 0 -27.546689179318491 102.80071843777478 0 102.80071843777478 24.583106323116226 0 0 0 0 9.1761731269507436 51.569626662640076 0 51.569626662640076 14.203443069563946 0 0 0 0 -1.5287901655550322 52.034758008650442 0 52.034758008650442 10.723644012626551 0 0 0 0 58.906288222118746 72.892864919944259 0 72.892864919944259 2.7148159481148468 0 0 0 0 -70.38530601671664 73.227634492744983 0 73.227634492744983 126.04625444652629 0 0 0 0 -7.7188197908690199 27.502731468390266 0 27.502731468390266 35.462916067917831 0 0 0 0 171.47543576924363 -15.844989689998329 0 -15.844989689998329 0.44690345681829058 0 0 0 0 388.26622050297738 165.58018163197994 0 165.58018163197994 -29.317936333667603 0 0 0 0 -151.49377417529467 48.894529498997144 0 48.894529498997144 77.615163584734546 0 0 0 0 0.15259259076481158 1.6434783573194238 0 1.6434783573194238 1.20034075713221 0 0 0 0 35.746472724480554 63.436351669672149 0 63.436351669672149 -24.731376488634851 0 0 0 0 101.09030840321793 191.87034368452441 0 191.87034368452441 56.079672920102894 0 0 0 0 29.002747194019321 71.619673995810444 0 71.619673995810444 27.097688052948797 0 0 0 0 4.0213616843976467 73.002179772531207 0 73.002179772531207 5.8213677284492178 0 0 0 0 92.36818020962528 93.624921531634755 0 93.624921531634755 28.062852094255504 0 0 0 0 49.330113842941046 72.757947717190632 0 72.757947717190632 10.285532551222403 0 0 0 0 -30.039496956549101 99.253288570626751 0 99.253288570626751 -40.714142656390322 0 0 0 0 -156.524204289919 159.84168412033978 0 159.84168412033978 22.448344804333829 0 0 0 0 -16.579800226171699 71.494623730060454 0 71.494623730060454 40.407057455891973 0 0 0 0 9.8210947499610484 314.58057782021569 0 314.58057782021569 67.203622101646033 0 0 0 0 -283.41500687435473 164.08007211305721 0 164.08007211305721 106.6149155155872 0 0 0 0 -158.5411355663673 40.288483880335662 0 40.288483880335662 -224.42355328441772 0 0 0 0 4.5241649356719549 25.122662307200756 0 25.122662307200756 4.4071121868537091 0 0 0 0 59.319878448412055 32.838062820708728 0 32.838062820708728 89.739891991039258 0 0 0 0 302.88772351801617 284.9726931167454 0 284.9726931167454 -222.49759766217903 0 0 0 0 -129.97710524819558 176.46029244059901 0 176.46029244059901 -19.518421627755743 0 0 0 0 -129.47191456070868 144.18368277035188 0 144.18368277035188 -85.084932238394686 0 0 0 0 -46.622398490580963 434.57275634135658 0 434.57275634135658 10.753829480687273 0 0 0 0 -119.30265657516429 302.57563597678745 0 302.57563597678745 -91.656365553633805 0 0 0 0 20.797540985947137 75.887048438947716 0 75.887048438947716 45.026814018610253 0 0 0 0 4.2434466110265987 12.429049257726831 0 12.429049257726831 -11.429469127026721 0 0 0 0 250.31937991999803 53.395407847713614 0 53.395407847713614 -166.80267134522364 0 0 0 0 -163.17217968439218 207.18822744077806 0 207.18822744077806 -107.06006893562244 0 0 0 0 -162.49541281309212 210.84800462723433 0 210.84800462723433 -133.07726074027232 0 0 0 0 22.499283010663163 89.123315662058985 0 89.123315662058985 44.817132709700644 0 0 0 0 -25.175823644240154 121.66005916822178 0 121.66005916822178 17.535993502810015 0 0 0 0 9.3185679149173666 146.08446617454319 0 146.08446617454319 31.688454563438427 0 0 0 0 -45.765354519307039 70.486420323474462 0 70.486420323474462 38.183485375648644 0 0 0 0 7.166517045981891 151.35370770511418 0 151.35370770511418 27.34675945941126 0 0 0 0 12.103338902219548 149.73843312720419 0 149.73843312720419 8.0482637787026761 0 0 0 0 31.477336300752825 65.324408336552025 0 65.324408336552025 -58.676694874363619 0 0 0 0 55.748340117977932 186.0793964756449 0 186.0793964756449 44.325110393032446 0 0 0 0 -52.894746019112063 149.70269978274519 0 149.70269978274519 28.06513411962078 0 0 0 0 30.826753579342039 120.69481289130636 0 120.69481289130636 6.6238487435330171 0 0 0 0 17.201584295293287 165.69111681413051 0 165.69111681413051 41.369528555762372 0 0 0 0 96.802755109092686 146.66404899281042 0 146.66404899281042 9.5043295179957568 0 0 0 0 -78.594390304733679 84.688817592850683 0 84.688817592850683 -23.539933805790497 0 0 0 0 11.643237560376292 158.46033178373909 0 158.46033178373909 32.163156997019541 0 0 0 0 35.250860238898895 108.25367362295947 0 108.25367362295947 38.116333730606129 0 0 0 0 -32.213540033395702 71.218988770234347 0 71.218988770234347 7.3950514459084786 0 0 0 0 -32.049516979621217 84.456795252049758 0 84.456795252049758 7.5521351818024414 0 0 0 0 -31.828878014399265 116.07775802705646 0 116.07775802705646 37.633147181258238 0 0 0 0 -112.09183556287462 69.343027851749866 0 69.343027851749866 197.3442770439724 0 0 0 0 15.08215840721823 227.30332299356451 0 227.30332299356451 141.1681858691154 0 0 0 0 33.561643633605854 215.84569636169181 0 215.84569636169181 118.3867109526218 0 0 0 0 -88.994305615299993 67.10401125887509 0 67.10401125887509 35.709303907848437 0 0 0 0 209.40428841646644 193.81220300411223 0 193.81220300411223 87.74626767780137 0 0 0 0 -94.201531999383178 64.003445587930116 0 64.003445587930116 59.537777701637481 0 0 0 0 116.09376041420182 215.88589977993615 0 215.88589977993615 110.59508632362122 0 0 0 0 106.87157137680333 206.00121733879496 0 206.00121733879496 184.70260464365128 0 0 0 0 38.458408993778448 34.515619069173781 0 34.515619069173781 -45.076091803668248 0 0 0 0 40.703719486788032 120.34708960964053 0 120.34708960964053 104.35911068502173 0 0 0 0 172.33146466594189 162.46796832345717 0 162.46796832345717 110.04316301949439 0 0 0 0 15.771331253460545 26.717944424087747 0 26.717944424087747 14.973877236757232 0 0 0 0 234.77757961917087 148.64534776383516 0 148.64534776383516 -14.210174912470393 0 0 0 0 157.5300822238496 182.23637282988057 0 182.23637282988057 13.794119350463006 0 0 0 0 5.0655108961109034 65.990900256864251 0 65.990900256864251 14.866488142905666 0 0 0 0 21.989971535309451 76.85003345093719 0 76.85003345093719 -10.896129465312697 0 0 0 0 8.4905844279564917 87.728294652610202 0 87.728294652610202 -1.5751670597237535 0 0 0 0 73.517302321706666 119.37958315415017 0 119.37958315415017 51.437840642858646 0 0 0 0 -6.5708907475927845 82.561815389213734 0 82.561815389213734 -0.67226640634180512 0 0 0 0 138.79620725728455 59.150827701909293 0 59.150827701909293 15.547391488507856 0 0 0 0 12.581093644729293 11.243583621852792 0 11.243583621852792 13.640257922634078 0 0 0 0 -122.50485812674742 60.176228831463959 0 60.176228831463959 149.28345168603119 0 0 0 0 -7.3651150325740673 49.464883119847855 0 49.464883119847855 -17.443139285314828 0 0 0 0 22.290646787849255 140.08362763139303 0 140.08362763139303 219.37828697595978 0 0 0 0 35.098083403975124 68.628873245826298 0 68.628873245826298 -48.71638286669571 0 0 0 0 79.992687788672583 30.339925552453622 0 30.339925552453622 -60.790313616155601 0 0 0 0 86.623693345987704 47.333447200770024 0 47.333447200770024 -74.764868791942718 0 0 0 0 10.319945229825683 33.512733436584853 0 33.512733436584853 0.77301864155822386 0 0 0 0 -65.68744249973679 309.63081720919581 0 309.63081720919581 119.34647857764503 0 0 0 0 -101.76895587707986 184.01002651524323 0 184.01002651524323 258.09830289102683 0 0 0 0 152.91388634772738 160.52817927880096 0 160.52817927880096 137.27977300916973 0 0 0 0 352.94287744220492 188.8483681044745 0 188.8483681044745 81.645613592350855 0 0 0 0 377.33686847507124 296.30210353124858 0 296.30210353124858 69.149996256746817 0 0 0 0 258.02695748468977 128.25006117703742 0 128.25006117703742 100.76135560256444 0 0 0 0 144.26919127287692 244.68827109911945 0 244.68827109911945 152.64376158143568 0 0 0 0 225.8215598200477 340.63975648194537 0 340.63975648194537 152.7449851592246 0 0 0 0 -96.323935873573646 207.62831248552538 0 207.62831248552538 114.41423797653988 0 0 0 0 -355.84739289147547 167.45112765431986 0 167.45112765431986 171.59846097353875 0 0 0 0 -195.24999143938476 6.3722369765891926 0 6.3722369765891926 -257.58243615672109 0 0 0 0 -0.072894091155689011 -4.8392060514845525 0 -4.8392060514845525 0.27297710700310063 0 0 0 0 -1114.1773508824845 -84.923947942581435 0 -84.923947942581435 144.56917555053224 0 0 0 0 -959.14824001472152 536.23455127554917 0 536.23455127554917 90.554544584243558 0 0 0 0 743.65043574670563 655.21006635783851 0 655.21006635783851 132.81435265514301 0 0 0 0 736.41855012552696 196.98562360741926 0 196.98562360741926 104.4332448043624 0 0 0 0 -99.470345589803202 77.93393882494081 0 77.93393882494081 23.010654583068344 0 0 0 0 113.6568116709459 199.52632740403351 0 199.52632740403351 19.555380741141562 0 0 0 0 66.243972935764759 193.65642124202714 0 193.65642124202714 105.24306224262364 0 0 0 0 73.152074338642706 233.92807728917251 0 233.92807728917251 23.238594509995892 0 0 0 0 60.022293969377642 214.79147730415298 0 214.79147730415298 53.717906366975512 0 0 0 0 69.055769481303287 264.26535502618208 0 264.26535502618208 117.25681153667392 0 0 0 0 29.609309055784252 207.21903639016455 0 207.21903639016455 101.47002046012494 0 0 0 0 82.07615539015751 202.83711212974595 0 202.83711212974595 19.334692738186277 0 0 0 0 59.155893515162461 169.28453167713451 0 169.28453167713451 -3.4537493707903195 0 0 0 0 89.557159223244525 198.48685921459401 0 198.48685921459401 19.630625404945022 0 0 0 0 -253.42733308763127 193.8207354279948 0 193.8207354279948 -78.445329632522771 0 0 0 0 -571.12364637304563 -22.295803957356839 0 -22.295803957356839 216.39533800801655 0 0 0 0 -88.633960343848997 91.227561733022441 0 91.227561733022441 2.1922694709220423 0 0 0 0 57.588279126513953 181.8317718144026 0 181.8317718144026 24.728927251933783 0 0 0 0 98.069602555641723 175.70064759840261 0 175.70064759840261 25.177586728161259 0 0 0 0 25.65890756425506 242.53466220616247 0 242.53466220616247 116.5197062602092 0 0 0 0 140.89727342051629 242.7057497895803 0 242.7057497895803 90.428992923247279 0 0 0 0 60.279927759587736 107.95198558181286 0 107.95198558181286 -75.174718898334291 0 0 0 0 154.1298323436713 231.97921357549785 0 231.97921357549785 54.709238720410212 0 0 0 0 34.66266243430124 109.14944795681555 0 109.14944795681555 -86.162563513886781 0 0 0 0 59.872038866233197 339.25618738654885 0 339.25618738654885 266.64406019651506 0 0 0 0 96.089048698477654 207.10957296605909 0 207.10957296605909 20.411885266192257 0 0 0 0 145.71492750191101 169.97698255293108 0 169.97698255293108 154.88673958834261 0 0 0 0 -128.05942465682892 327.34990703238873 0 327.34990703238873 66.159514658713306 0 0 0 0 -20.730229286142276 157.74879730369139 0 157.74879730369139 23.024447590883938 0 0 0 0 106.53797523968751 280.16452641518117 0 280.16452641518117 -16.805086531909183 0 0 0 0 111.5936809206105 231.01652589427977 0 231.01652589427977 10.571309008504613 0 0 0 0 116.85984905026817 328.22990972420121 0 328.22990972420121 44.832842809642898 0 0 0 0 143.65216720829631 324.44290326842747 0 324.44290326842747 13.024717719461478 0 0 0 0 157.72367453826155 267.26612395189295 0 267.26612395189295 0.04267445724690333 0 0 0 0 118.82963880875468 282.68718131717469 0 282.68718131717469 68.442088643772877 0 0 0 0 195.43003789830254 166.51598929082684 0 166.51598929082684 0.15613781438150909 0 0 0 0 188.15165895487735 214.37264679303917 0 214.37264679303917 91.760259382106597 0 0 0 0 204.70307033904828 246.4925470201124 0 246.4925470201124 115.64888188170153 0 0 0 0 140.86349805853388 348.2982105773699 0 348.2982105773699 144.27984884250691 0 0 0 0 101.85572781025257 333.63715911809413 0 333.63715911809413 437.74777795806585 0 0 0 0 117.12756653873657 128.80622244949336 0 128.80622244949336 223.22487786049169 0 0 0 0 126.11782184885669 125.97273126440996 0 125.97273126440996 126.10960530600278 0 0 0 0 214.88601191877387 23.833198351814644 0 23.833198351814644 -467.22365325991996 0 0 0 0 -19.532633499155054 -8.8928324360313127 0 -8.8928324360313127 -25.601339269807795 0 0 0 0 2.0415265005922834 5.592017381769125 0 5.592017381769125 -3.503159978764586 0 0 0 0 208.17919798759976 274.41871182355681 0 274.41871182355681 -345.49025099074061 0 0 0 0 37.458245627363794 284.10593591092038 0 284.10593591092038 33.967641454000841 0 0 0 0 481.30237366769143 300.04395705150091 0 300.04395705150091 -50.818165643533575 0 0 0 0 153.63994809238648 392.1673746656943 0 392.1673746656943 10.442188111890573 0 0 0 0 -275.49782449696067 248.07360022028297 0 248.07360022028297 116.46665709104855 0 0 0 0 6.4802271544293397 19.545858008990223 0 19.545858008990223 1.862851664465893 0 0 0 0 -20.792603892886376 25.179503645266138 0 25.179503645266138 -6.2479824410108336 0 0 0 0 66.090920471528079 205.97929335008666 0 205.97929335008666 -12.557602945045801 0 0 0 0 175.6289809254813 79.960719990624057 0 79.960719990624057 -26.52064685926598 0 0 0 0 187.85683881076693 116.22451416941476 0 116.22451416941476 29.593069634262065 0 0 0 0 89.736419946199021 360.03058556932592 0 360.03058556932592 16.428001757187303 0 0 0 0 177.87884723651223 235.38826957403217 0 235.38826957403217 86.474758879674482 0 0 0 0 -0.65085389281369999 8.4755902166050419 0 8.4755902166050419 -4.591238278040521 0 0 0 0 243.90927256048599 376.15636944165453 0 376.15636944165453 185.55481740230607 0 0 0 0 86.537449923423992 137.60479962040699 0 137.60479962040699 171.43542363088636 0 0 0 0 419.18047974128422 138.95715127932272 0 138.95715127932272 -72.244935217895545 0 0 0 0 1.7155192991631338 63.155729069578229 0 63.155729069578229 129.39150554638036 0 0 0 0 125.53169982934196 101.66203948372276 0 101.66203948372276 -0.1810322676319629 0 0 0 0 156.14447848175769 165.49476422308362 0 165.49476422308362 131.50325629156578 0 0 0 0 -230.00712312629912 -149.73196900024777 0 -149.73196900024777 -258.35980391417979 0 0 0 0 85.152696426899638 338.32265849433315 0 338.32265849433315 -30.767527549265651 0 0 0 0 -51.993620041426766 224.0454289757854 0 224.0454289757854 -198.75540743711463 0 0 0 0 -616.51821835336159 213.62890103683458 0 213.62890103683458 0.21299839706625789 0 0 0 0 -1230.9128894707683 284.39671828056453 0 284.39671828056453 789.62848397508787 0 0 0 0 -0.65870527389915878 5.8052509600050826 0 5.8052509600050826 -2.9718062762918862 0 0 0 0 476.10195975130773 183.81698324163153 0 183.81698324163153 -125.78110173323512 0 0 0 0 -438.88130433990591 -430.37706926594547 0 -430.37706926594547 394.30014945309085 0 0 0 0 699.40768700687477 129.8771528811485 0 129.8771528811485 -55.252442630415317 0 0 0 0 -66.773278323205886 710.89540438679978 0 710.89540438679978 36.822371115791611 0 0 0 0 1.2557027368004015 1.5849930630240152 0 1.5849930630240152 -12.312247172840443 0 0 0 0 -1876.5546096517646 50.683188242401229 0 50.683188242401229 228.78043920399796 0 0 0 0 -54.802333443047246 70.449166288374641 0 70.449166288374641 -50.341736935557549 0 0 0 0 7.5572939931298606 19.986489803704899 0 19.986489803704899 19.899862366350135 0 0 0 0 -682.43779564327269 230.9905198656561 0 230.9905198656561 297.35651892450551 0 0 0 0 -74.316762187532731 66.8361603698213 0 66.8361603698213 237.85527961406478 0 0 0 0 -58.84228198493588 68.813841600055184 0 68.813841600055184 -29.492263442963178 0 0 0 0 -205.3665398074736 422.50535978809239 0 422.50535978809239 80.068629682064056 0 0 0 0 3.0216874714533333 295.47550009502811 0 295.47550009502811 -897.91648388576868 0 0 0 0 7.9734105926254415 131.00934676692486 0 131.00934676692486 -173.84493391617434 0 0 0 0 -13.02621694929195 7.6149436585512831 0 7.6149436585512831 -6.5220991348201665 0 0 0 0 -10.143381932619377 -31.630783663080365 0 -31.630783663080365 40.771829853023519 0 0 0 0 -219.37555802079078 351.30155076989467 0 351.30155076989467 -176.20806608944258 0 0 0 0 -291.53973271494033 278.92095098352729 0 278.92095098352729 224.74364478212374 0 0 0 0 -418.48466810661193 838.6735256198881 0 838.6735256198881 -249.79755204729736 0 0 0 0 -1152.7690843914606 607.74450568669272 0 607.74450568669272 526.74348331212241 0 0 0 0 637.16601817228366 279.01297668797633 0 279.01297668797633 -484.13155278027989 0 0 0 0 -64.007006874835696 55.362240869168282 0 55.362240869168282 13.229445746272518 0 0 0 0 -25.508639646673885 81.119831763365539 0 81.119831763365539 -31.093619147796858 0 0 0 0 -44.361673241335666 97.232081226207811 0 97.232081226207811 34.539264455379453 0 0 0 0 12.367561364808353 137.19385612403858 0 137.19385612403858 -16.292466562896152 0 0 0 0 -46.293923866760451 121.5015070825757 0 121.5015070825757 78.41945531143574 0 0 0 0 -38.377619751200498 106.52530213488707 0 106.52530213488707 59.301065883548404 0 0 0 0 -28.083350169558855 70.445298338038285 0 70.445298338038285 -42.411184478079065 0 0 0 0 6.9506758686475223 94.198411866047536 0 94.198411866047536 -42.789404794137226 0 0 0 0 -31.756129826811957 141.05891283310484 0 141.05891283310484 34.631541147085954 0 0 0 0 -119.77404484088038 41.524596506382295 0 41.524596506382295 -68.279448546934873 0 0 0 0 -18.775491383090355 20.317859551186189 0 20.317859551186189 -1.0533069811342557 0 0 0 0 -67.313116379019618 43.336621498727936 0 43.336621498727936 41.824549510503402 0 0 0 0 -76.218615646561375 107.52112384151405 0 107.52112384151405 -367.43188366110553 0 0 0 0 -454.41940094845882 -663.22975668736547 0 -663.22975668736547 92.044027467360138 0 0 0 0 -92.258278924797196 -127.13410042162286 0 -127.13410042162286 -288.15348720226029 0 0 0 0 -356.59000484863645 -274.6669442858547 0 -274.6669442858547 249.95693493832368 0 0 0 0 -144.86473854604992 47.275442804384511 0 47.275442804384511 284.21325589458866 0 0 0 0 -1.553974232992914 429.89470548758618 0 429.89470548758618 544.61479911240167 0 0 0 0 -176.15974933266989 54.426535981809138 0 54.426535981809138 113.71640615124488 0 0 0 0 -41.535466380140548 -3.7043300260429248 0 -3.7043300260429248 -2.4630213504541985 0 0 0 0 -127.65354644003673 6.4678936706914101 0 6.4678936706914101 -50.3920842733678 0 0 0 0 204.19111522306412 273.89082490434396 0 273.89082490434396 95.981217476626625 0 0 0 0 -1275.5936134060612 310.25531401178159 0 310.25531401178159 272.52778748009587 0 0 0 0 -0.69371256265280579 -3.8494248728442528 0 -3.8494248728442528 -0.36847213694574066 0 0 0 0 -23.810342109994963 120.63276386616053 0 120.63276386616053 21.554028302394727 0 0 0 0 -105.0434330108983 160.31523444601044 0 160.31523444601044 107.92976276336412 0 0 0 0 -38.696619583868596 250.86986826829707 0 250.86986826829707 204.71815249399515 0 0 0 0 381.85814031472546 350.80290211662941 0 350.80290211662941 90.63788855925668 0 0 0 0 190.02797305752756 336.66315921675414 0 336.66315921675414 131.7367956399612 0 0 0 0 1003.0117974806926 113.79407427734986 0 113.79407427734986 -38.583050956998704 0 0 0 0 299.96276166206371 -15.616060005455438 0 -15.616060005455438 -59.362106631975621 0 0 0 0 14.776272157614585 85.953256544627948 0 85.953256544627948 11.340854067726468 0 0 0 0 -3.6034808611678955 16.390392493161755 0 16.390392493161755 11.65712221747799 0 0 0 0 -99.997947367432062 394.56749263222446 0 394.56749263222446 -324.13726760706049 0 0 0 0 226.66514306241879 113.33685436582891 0 113.33685436582891 -324.99567124192254 0 0 0 0 -596.8326197075221 373.36027450850816 0 373.36027450850816 473.56096216157312 0 0 0 0 -814.51651376156951 -411.5801045356493 0 -411.5801045356493 220.22782387860934 0 0 0 0 -304.70033688511467 152.94669914571568 0 152.94669914571568 83.16154677484883 0 0 0 0 493.09419188790343 476.98568279654137 0 476.98568279654137 117.05366399863851 0 0 0 0 201.53165217963397 1494.0917489936546 0 1494.0917489936546 2569.0736244920408 0 0 0 0 -21.669058844829635 4.5567330744438124 0 4.5567330744438124 27.604996639908478 0 0 0 0 -85.305175845745339 39.124083204663123 0 39.124083204663123 52.123234512029967 0 0 0 0 426.12191362679005 1014.2717910381471 0 1014.2717910381471 256.41617217652674 0 0 0 0 -593.84321686754993 229.37749909248669 0 229.37749909248669 1477.399270474998 0 0 0 0 766.87570858214895 837.67028588273024 0 837.67028588273024 403.21130228886614 0 0 0 0 -2.9762419064401229 2.4326758415407994 0 2.4326758415407994 11.536822144711209 0 0 0 0 -402.41992818185827 405.05815226456616 0 405.05815226456616 -229.55529048465905 0 0 0 0 -270.1259057542411 164.55826725985389 0 164.55826725985389 -462.48314206238138 0 0 0 0 -198.32277316116961 398.28872194539872 0 398.28872194539872 -135.17761276234523 0 0 0 0 -221.02917762173456 507.96904336124862 0 507.96904336124862 -384.73934056185681 0 0 0 0 -875.40625087828084 -723.16074498083253 0 -723.16074498083253 1866.3315010833903 0 0 0 0 -129.43928414530819 391.30760534666479 0 391.30760534666479 -352.47930057658596 0 0 0 0 11.19514331703067 35.987622606863852 0 35.987622606863852 13.380454207853433 0 0 0 0 -3431.65332198533 1287.7345325535425 0 1287.7345325535425 1444.3438035956206 0 0 0 0 -9.098851967443693 15.776218962888009 0 15.776218962888009 2.2267433738778095 0 0 0 0 65.656332070575445 91.055110761106334 0 91.055110761106334 -876.45578117846162 0 0 0 0 2306.4796137561498 -242.32459668537194 0 -242.32459668537194 -1549.0242580984777 0 0 0 0 390.39109430331155 -1252.4938962859524 0 -1252.4938962859524 1822.1241548980761 0 0 0 0 -257.15066790419223 732.50884774739825 0 732.50884774739825 -144.21869170144782 0 0 0 0 4.8112560124718584 1.2013115896815521 0 1.2013115896815521 3.8811688811715612 0 0 0 0 -52.335539800988045 762.13655756607477 0 762.13655756607477 -972.54784053914773 0 0 0 0 -196.54094355079724 580.83124663293711 0 580.83124663293711 209.21589105653402 0 0 0 0 -76.864981563470792 273.31655293942458 0 273.31655293942458 552.53238263889216 0 0 0 0 -99.803209259960568 339.00833457477711 0 339.00833457477711 68.02073279969045 0 0 0 0 -85.803769811260281 270.02563960534462 0 270.02563960534462 198.25634279983933 0 0 0 0 -227.11426357924938 230.53728262579534 0 230.53728262579534 188.36282281716558 0 0 0 0 -35.360506616561906 318.89169545669574 0 318.89169545669574 -250.01674270784861 0 0 0 0 -263.45240097443457 244.39189079419884 0 244.39189079419884 82.175122885964811 0 0 0 0 -220.90660615582601 137.37610013417725 0 137.37610013417725 260.96527004396194 0 0 0 0 -45.36824731878005 120.98073665385891 0 120.98073665385891 56.858290960211889 0 0 0 0 -164.27030430050218 198.45209870841791 0 198.45209870841791 529.63347355139558 0 0 0 0 8.4065716949154989 3.6913112322046686 0 3.6913112322046686 -2.5971190302551577 0 0 0 0 23.316595576296095 -252.51352463751391 0 -252.51352463751391 494.04905275402325 0 0 0 0 10.869856388352673 -22.73710391905388 0 -22.73710391905388 126.21451396512566 0 0 0 0 -385.59393354249187 690.89631389627175 0 690.89631389627175 224.38380421465263 0 0 0 0 -182.38269136857707 352.3118274105218 0 352.3118274105218 449.22045780485496 0 0 0 0 -895.36063066351926 549.39703483617632 0 549.39703483617632 425.09387062284077 0 0 0 0 135.70055471709929 33.925390651449561 0 33.925390651449561 294.45854985731421 0 0 0 0 -899.49982739280676 -59.631264626077609 0 -59.631264626077609 778.31291424290976 0 0 0 0 -778.04517368650704 303.73460153594715 0 303.73460153594715 -95.438381526153535 0 0 0 0 -421.70257942822354 1162.8505470761811 0 1162.8505470761811 -535.4127213442116 0 0 0 0 -1420.9467290111934 827.81436661454791 0 827.81436661454791 11.270440213324036 0 0 0 0 -1807.1967948415986 188.48097710699585 0 188.48097710699585 484.21894641747349 0 0 0 0 -4.6228456161627918 10.686146547771045 0 10.686146547771045 -5.9223861348767173 0 0 0 0 -1183.2168180155131 444.60797481323971 0 444.60797481323971 9.0980073694954626 0 0 0 0 -1318.5565029205172 -60.934112475304573 0 -60.934112475304573 437.25048618426081 0 0 0 0 -326.24982165488473 -29.363917351311102 0 -29.363917351311102 11.415679107769392 0 0 0 0 -70.359776564844651 -7.5451885351358214 0 -7.5451885351358214 141.39155803722679 0 0 0 0 -544.07870019762777 238.04980851407163 0 238.04980851407163 69.226492940826574 0 0 0 0 -5.3331423654522041 16.07371022480163 0 16.07371022480163 12.231327023078393 0 0 0 0 -75.942585236735795 108.38347483822258 0 108.38347483822258 61.637427779030986 0 0 0 0 -113.24566711459192 105.41434583911905 0 105.41434583911905 44.47534129943233 0 0 0 0 -58.09807313778191 33.516875249597021 0 33.516875249597021 11.455694891774215 0 0 0 0 7.1745832086307928 33.618807312173885 0 33.618807312173885 69.454257131044869 0 0 0 0 -106.99434571014717 215.12127736241382 0 215.12127736241382 -169.95478997383179 0 0 0 0 -268.31409567249648 215.51386116051799 0 215.51386116051799 76.05273412601673 0 0 0 0 -172.15649352796027 129.01626066004974 0 129.01626066004974 -64.888532285960537 0 0 0 0 -82.386630972083594 57.332429074057195 0 57.332429074057195 -9.1529463114337659 0 0 0 0 -95.663408417633036 114.02072304766625 0 114.02072304766625 12.720006179290067 0 0 0 0 -113.56972123042215 144.1338634849817 0 144.1338634849817 22.182439091353444 0 0 0 0 -39.616240127448691 84.492028319393285 0 84.492028319393285 127.36642219400528 0 0 0 0 -40.775750678129953 23.655660238394645 0 23.655660238394645 7.086380602347333 0 0 0 0 -33.094366843186435 56.57682589891192 0 56.57682589891192 65.04196972156933 0 0 0 0 -50.967029905186791 52.401973907893989 0 52.401973907893989 24.370115223282482 0 0 0 0 -42.669249627762156 57.965779209236075 0 57.965779209236075 37.377554712044969 0 0 0 0 -27.776196706675591 65.385064339500843 0 65.385064339500843 42.795653593486804 0 0 0 0 -42.805249499303955 45.215667043524377 0 45.215667043524377 -15.34061138557442 0 0 0 0 -87.292552768398309 127.78844981579459 0 127.78844981579459 -76.197315510900808 0 0 0 0 -373.06984733116406 270.05593791654974 0 270.05593791654974 96.825444489164511 0 0 0 0 -23.294137249700725 -26.889751735448954 0 -26.889751735448954 287.03603820120043 0 0 0 0 -6.5249440648155996 16.511238954077498 0 16.511238954077498 -5.5132280045323228 0 0 0 0 -175.40243629203178 305.80882826948073 0 305.80882826948073 449.1981938560275 0 0 0 0 319.09102662694204 604.15025151064583 0 604.15025151064583 132.33936101198196 0 0 0 0 -187.31946237241937 221.69071398999677 0 221.69071398999677 27.732314603665145 0 0 0 0 -165.99443938000331 412.95277160398109 0 412.95277160398109 28.30676796118496 0 0 0 0 -305.80810143366398 346.28568919670943 0 346.28568919670943 29.163271839279332 0 0 0 0 -126.92699411450303 350.75825265602907 0 350.75825265602907 -74.768316962115932 0 0 0 0 -124.96219407581975 369.68332238589483 0 369.68332238589483 7.0682533693034202 0 0 0 0 -15.604710339015583 361.04261965616024 0 361.04261965616024 26.894438222792814 0 0 0 0 1.0540641787229106 337.05648090410978 0 337.05648090410978 -0.48841209073895575 0 0 0 0 -66.386119257673272 311.58958884047752 0 311.58958884047752 -15.992830217961455 0 0 0 0 -97.647580393730664 15.846372328691871 0 15.846372328691871 6.6784328790635641 0 0 0 0 -100.9933950020461 29.731152505187993 0 29.731152505187993 0.0083322989230509847 0 0 0 0 -62.790041251610091 119.4299995117035 0 119.4299995117035 -180.95374702442496 0 0 0 0 -36.09876151234532 3.6902996649982356 0 3.6902996649982356 0.24107853296345638 0 0 0 0 -223.51395579811651 410.68910799559671 0 410.68910799559671 0.49391727820329834 0 0 0 0 -31.129802446521353 69.839418910763925 0 69.839418910763925 158.12089320280938 0 0 0 0 -7.2111931738170369 15.729839587225001 0 15.729839587225001 -4.7832478014217514 0 0 0 0 -303.489134364645 344.00067104613117 0 344.00067104613117 -276.06052505157277 0 0 0 0 -418.30797037729644 235.15597756658826 0 235.15597756658826 -29.275390019480255 0 0 0 0 -356.73979929503002 208.79659581383567 0 208.79659581383567 -100.53678585274611 0 0 0 0 -354.94281548327854 180.3371095819457 0 180.3371095819457 219.77670128800673 0 0 0 0 -214.89626578903699 39.43557420875004 0 39.43557420875004 357.27946179261198 0 0 0 0 -12.625907316367375 -199.05928406384919 0 -199.05928406384919 264.91563882067567 0 0 0 0 -14.06100902139676 49.735534254287472 0 49.735534254287472 -39.526894336186842 0 0 0 0 -345.52410955744563 96.665571546152933 0 96.665571546152933 954.27407914007199 0 0 0 0 -1161.3059909555413 -964.30955900853951 0 -964.30955900853951 2503.6850510470103 0 0 0 0 -1317.3739528515362 526.34310448753604 0 526.34310448753604 1238.9692727328511 0 0 0 0 -39.59454989846563 -81.352873231517151 0 -81.352873231517151 -3414.1409652459552 0 0 0 0 -1575.6712763889227 2310.2414675663458 0 2310.2414675663458 440.69540281814989 0 0 0 0 -2158.1262083589099 1454.3009134966414 0 1454.3009134966414 1731.9408630894177 0 0 0 0 -1347.3315482834587 800.76623355422635 0 800.76623355422635 1787.0880537824341 0 0 0 0 -1456.6319887061545 1240.8444964829614 0 1240.8444964829614 945.24923602410126 0 0 0 0 -1001.73374265444 484.420740311587 0 484.420740311587 750.612767403014 0 0 0 0 -23.394238754237747 15.750256658462888 0 15.750256658462888 12.019820461393351 0 0 0 0 2602.4185944638448 1744.1151271857962 0 1744.1151271857962 -237.62314605672145 0 0 0 0 -351.01920155284461 892.12473050912376 0 892.12473050912376 308.6223049252294 0 0 0 0 -393.76629602338653 953.371919423691 0 953.371919423691 1001.4883248446276 0 0 0 0 731.60115026286803 662.08363088220358 0 662.08363088220358 -35.917418994911714 0 0 0 0 1287.7758298309054 710.6457185166073 0 710.6457185166073 -110.85927444457775 0 0 0 0 1145.0115317092132 1409.2902704642329 0 1409.2902704642329 423.78053043293767 0 0 0 0 -296.05104276444763 1595.4028574221884 0 1595.4028574221884 630.17369774990948 0 0 0 0 956.91601856332272 1744.3499202681705 0 1744.3499202681705 336.17498259840067 0 0 0 0 -298.19335886102635 1596.1846259551821 0 1596.1846259551821 775.23659194936045 0 0 0 0 -372.8478142742315 1179.8596013060669 0 1179.8596013060669 -601.96791895630304 0 0 0 0 917.20992981019663 716.10126881208271 0 716.10126881208271 -3475.6914316891634 0 0 0 0 -410.50161798855697 1408.1916234898817 0 1408.1916234898817 1035.3838573372923 0 0 0 0 375.82938098884188 2016.2505851069 0 2016.2505851069 1390.3218180064287 0 0 0 0 297.54910912550986 -2513.8623383297236 0 -2513.8623383297236 398.40287454800273 0 0 0 0 1200.2703451041598 2408.4490844046813 0 2408.4490844046813 851.62987593817525 0 0 0 0 -1300.0822926702676 2849.7827749220887 0 2849.7827749220887 -1902.5506665285793 0 0 0 0 -3321.4250630037277 2888.5189318989433 0 2888.5189318989433 178.26790846511722 0 0 0 0 -3960.6858707288629 1148.1263836966027 0 1148.1263836966027 2524.2153179807356 0 0 0 0 -68.411582213344218 56.560015092790792 0 56.560015092790792 -25.566862916277501 0 0 0 0 -519.50517473218497 1728.0121837953338 0 1728.0121837953338 528.18050008820137 0 0 0 0 -766.9920609400142 312.60347714394447 0 312.60347714394447 233.69890462240437 0 0 0 0 191.97792209254112 136.45933082257397 0 136.45933082257397 -557.29213076528686 0 0 0 0 -183.51243023524148 227.50934748998043 0 227.50934748998043 -35.482960773544619 0 0 0 0 -253.97130055417074 136.93156003295735 0 136.93156003295735 -4.9992928033680073 0 0 0 0 -27.715295738819577 52.341407286932721 0 52.341407286932721 -0.58967354071501177 0 0 0 0 -12.579378619215788 4.6777249865335762 0 4.6777249865335762 8.269025362074899 0 0 0 0 -516.37823771541298 -346.11220220351242 0 -346.11220220351242 -194.42896748284693 0 0 0 0 -51.538619909905151 27.311534983029588 0 27.311534983029588 24.502271272067333 0 0 0 0 -646.29915019718464 -738.65808016658411 0 -738.65808016658411 -504.25836936397536 0 0 0 0 -1039.873733297718 -712.05278100488795 0 -712.05278100488795 32.255828536319314 0 0 0 0 -1063.4887658975194 764.43647328259613 0 764.43647328259613 -3135.6375931820367 0 0 0 0 -24.239117904317141 14.437477954967392 0 14.437477954967392 -3.4150807754768948 0 0 0 0 -928.94618617286324 -364.99085247555922 0 -364.99085247555922 501.43886765075149 0 0 0 0 -4.2341317457765939 16.223279835303117 0 16.223279835303117 -18.683461361850902 0 0 0 0 133.85247068089666 195.32879970409704 0 195.32879970409704 114.02202326283441 0 0 0 0 100.81549948404427 187.81531891977647 0 187.81531891977647 151.10979105446131 0 0 0 0 49.820960310433293 309.53947912428703 0 309.53947912428703 252.13898694100499 0 0 0 0 140.13718503257405 256.39521433819027 0 256.39521433819027 171.49678612453863 0 0 0 0 47.057649585040053 284.82215891595115 0 284.82215891595115 210.76897596678464 0 0 0 0 32.634704779484309 216.3784341688006 0 216.3784341688006 167.25101862433439 0 0 0 0 7.110110285175324 252.06106025136069 0 252.06106025136069 277.47677948759519 0 0 0 0 18.930025594712788 180.92470668955866 0 180.92470668955866 104.93585483549396 0 0 0 0 11.805476587353041 144.83825659421564 0 144.83825659421564 136.45677703546244 0 0 0 0 115.57861521936138 154.82564928261127 0 154.82564928261127 27.962041916413 0 0 0 0 1.469827167398762 35.816529236442875 0 35.816529236442875 -36.481466775556328 0 0 0 0 -121.07181181081978 4.511354614260199 0 4.511354614260199 65.397546622043592 0 0 0 0 162.50976982043358 -439.99487110303016 0 -439.99487110303016 585.87313299175003 0 0 0 0 -23.300686223519577 13.319027636265531 0 13.319027636265531 -7.6968149695172201 0 0 0 0 -71.539859805542847 5.8687546902621079 0 5.8687546902621079 5.7945117399641504 0 0 0 0 13.571809542030678 80.086554837369476 0 80.086554837369476 49.600060897690128 0 0 0 0 -53.331187623414735 82.905433116702625 0 82.905433116702625 62.336045469361125 0 0 0 0 -994.19311826527701 1158.2262346686684 0 1158.2262346686684 -1471.5269607991067 0 0 0 0 -97.326638507365715 32.58353822704521 0 32.58353822704521 -2.4551287064678036 0 0 0 0 -32.101973715359165 4.6869379965572193 0 4.6869379965572193 0.5268405323183174 0 0 0 0 -1821.9753663339652 1790.7748597051395 0 1790.7748597051395 -3.7523837779194769 0 0 0 0 3.3590019937546458 4340.5547196625412 0 4340.5547196625412 -4523.9913856828352 0 0 0 0 -52.497971290256828 169.64120896481472 0 169.64120896481472 539.42897205142071 0 0 0 0 -21.730152020085256 5.0687114706168472 0 5.0687114706168472 -2.5425790832021278 0 0 0 0 0.057553835766157135 292.40296335809398 0 292.40296335809398 313.61908593500993 0 0 0 0 -58.691121217692853 105.87620921133566 0 105.87620921133566 192.89043492286874 0 0 0 0 25.63009266545123 287.48359606798476 0 287.48359606798476 232.50329748168588 0 0 0 0 25.790400414320175 279.04367953036126 0 279.04367953036126 288.65759827398142 0 0 0 0 0.010543969459831715 307.52992280799663 0 307.52992280799663 265.758056052131 0 0 0 0 11.825553497939836 296.90546410425304 0 296.90546410425304 239.65491371570533 0 0 0 0 50.680525785137434 308.79736919849529 0 308.79736919849529 221.44474969137809 0 0 0 0 15.50929102043483 318.7630479583413 0 318.7630479583413 253.32218005805044 0 0 0 0 44.843955587537494 303.49580333777703 0 303.49580333777703 253.24318779070927 0 0 0 0 63.259716455504531 341.9963713237521 0 341.9963713237521 271.48349099938059 0 0 0 0 177.00010462279897 338.80498307010566 0 338.80498307010566 233.09976977438055 0 0 0 0 763.92152605157753 513.51369276596415 0 513.51369276596415 85.889711302646901 0 0 0 0 259.41667775256792 217.01774169267446 0 217.01774169267446 153.85924875724595 0 0 0 0 155.74633560738584 527.70096822611595 0 527.70096822611595 134.41386755375424 0 0 0 0 167.44232640398059 349.7778646619663 0 349.7778646619663 177.54407402279321 0 0 0 0 -23.252667648950592 640.00160379885347 0 640.00160379885347 211.62340150025557 0 0 0 0 -13.526021327183116 473.38026672488195 0 473.38026672488195 227.77901041942823 0 0 0 0 46.685201112995856 310.12767776606779 0 310.12767776606779 261.36687081660784 0 0 0 0 -19.300057679793099 394.76971654341469 0 394.76971654341469 180.25718724160379 0 0 0 0 19.153599186473002 342.99217204586967 0 342.99217204586967 196.45590099830588 0 0 0 0 -19.08567399578169 403.04259869063389 0 403.04259869063389 212.00672226044117 0 0 0 0 -44.807610380288679 433.65673393030738 0 433.65673393030738 202.29490996932873 0 0 0 0 -210.88629285340721 436.89584244883008 0 436.89584244883008 222.04567311677965 0 0 0 0 -86.682009148033103 396.20009773589845 0 396.20009773589845 213.49265479565656 0 0 0 0 -49.947113310277928 352.9667730953006 0 352.9667730953006 217.54620931009777 0 0 0 0 -53.393363281749771 344.61559710880465 0 344.61559710880465 197.5639232591202 0 0 0 0 -18.194526047329418 304.72279238819465 0 304.72279238819465 168.80671536784939 0 0 0 0 -40.170738790446194 294.63653487586271 0 294.63653487586271 186.4034755722023 0 0 0 0 -0.01291098514047917 314.6785345821263 0 314.6785345821263 227.24219390378494 0 0 0 0 -16.271825636649737 327.09251099274115 0 327.09251099274115 217.01124755424098 0 0 0 0 14.738833829906071 305.56859320646618 0 305.56859320646618 188.27252589879208 0 0 0 0 -677.74130088421953 539.27143979713946 0 539.27143979713946 -200.75862127801156 0 0 0 0 -616.73981750176699 517.88755839011901 0 517.88755839011901 -252.0707524361278 0 0 0 0 33.813905878111143 178.10014765590955 0 178.10014765590955 -118.29050734683003 0 0 0 0 -645.73243591965638 446.16617565621573 0 446.16617565621573 -360.58621054696414 0 0 0 0 -547.61093616416838 541.93358413127862 0 541.93358413127862 69.272056503119529 0 0 0 0 -630.62037331825923 467.35435170149867 0 467.35435170149867 -343.06768264397397 0 0 0 0 -545.03476290243998 648.87102082610181 0 648.87102082610181 -376.33985627022412 0 0 0 0 -539.65732518363802 568.39518461922125 0 568.39518461922125 -332.98951451566973 0 0 0 0 -649.33742921157773 690.95669896193886 0 690.95669896193886 -249.70382622854231 0 0 0 0 -642.98095181637109 668.55167644979156 0 668.55167644979156 -233.36512204628525 0 0 0 0 -671.74770155099031 766.52161608224924 0 766.52161608224924 -325.42481598986342 0 0 0 0 -777.58412954365122 686.58111688359713 0 686.58111688359713 -64.058428647194887 0 0 0 0 -660.20283721291162 567.20889258534407 0 567.20889258534407 -21.883025368995732 0 0 0 0 -681.31097195656912 574.99177546965075 0 574.99177546965075 -120.80586965236216 0 0 0 0 -707.51896389959074 577.47795309836511 0 577.47795309836511 -76.931379491521511 0 0 0 0 -710.64099599993278 627.29025478055701 0 627.29025478055701 8.1026290387380868 0 0 0 0 17.312222129922006 155.38067413941405 0 155.38067413941405 -120.13849983150148 0 0 0 0 -559.85756049959582 651.92664357136164 0 651.92664357136164 -39.762601441092556 0 0 0 0 -713.77301963011814 625.03048822868777 0 625.03048822868777 126.82662305759732 0 0 0 0 -884.18067682180845 683.83648616970459 0 683.83648616970459 107.18456404643075 0 0 0 0 13.743252614023518 151.58299526354008 0 151.58299526354008 -114.48412288261936 0 0 0 0 -720.0810792861339 587.93880964255368 0 587.93880964255368 71.085500676592346 0 0 0 0 -685.61159966376181 494.64344891004657 0 494.64344891004657 97.928992741421098 0 0 0 0 -594.55836939479923 445.82267579211475 0 445.82267579211475 123.92246164410608 0 0 0 0 -846.32456693461427 477.47974040750705 0 477.47974040750705 206.15330332244048 0 0 0 0 -598.55228774054103 426.05771642643231 0 426.05771642643231 27.456450780795421 0 0 0 0 111.40913352104297 144.69989378925482 0 144.69989378925482 105.17097031060439 0 0 0 0 237.39726250255626 50.556312039581826 0 50.556312039581826 -209.23471716314452 0 0 0 0 -483.41295221570908 365.23116222717363 0 365.23116222717363 11.61675446285517 0 0 0 0 -52.472503688550205 436.40979799155321 0 436.40979799155321 55.400497660033579 0 0 0 0 -468.73930219247995 457.04476922124013 0 457.04476922124013 33.068381137030883 0 0 0 0 380.42836868512677 272.68488307026564 0 272.68488307026564 -82.958520495987614 0 0 0 0 -512.31898997315511 194.90805235799053 0 194.90805235799053 36.872380606786464 0 0 0 0 5.3287787289449327 11.361634076741947 0 11.361634076741947 5.6686799813951438 0 0 0 0 -255.89128721163797 239.19196876487695 0 239.19196876487695 132.6639238082862 0 0 0 0 -217.85324846789445 154.71689347243228 0 154.71689347243228 243.76407552606543 0 0 0 0 119.86317240833159 194.23294536907633 0 194.23294536907633 -65.621883702415289 0 0 0 0 -150.77907204705662 84.271810090254803 0 84.271810090254803 169.83904197625816 0 0 0 0 29.471106167820835 185.17808463955589 0 185.17808463955589 63.431443058376317 0 0 0 0 -175.18903686650447 -8.9719619793395395 0 -8.9719619793395395 -87.816092417815526 0 0 0 0 5.3479543658759567 10.002996255615319 0 10.002996255615319 1.890955485501479 0 0 0 0 -165.92546510714601 60.977182514798187 0 60.977182514798187 -140.42789444833033 0 0 0 0 -328.232130936256 66.306138152503991 0 66.306138152503991 -40.868219886113366 0 0 0 0 -167.72431298595257 64.201356483503332 0 64.201356483503332 -134.52661480029928 0 0 0 0 34.941168926197861 -25.201876686049218 0 -25.201876686049218 -111.23775699213729 0 0 0 0 228.23686115076271 335.69032368167973 0 335.69032368167973 43.194059463668964 0 0 0 0 104.7335424881591 179.94059477685462 0 179.94059477685462 91.533800232342401 0 0 0 0 66.997563702579271 81.000204162700072 0 81.000204162700072 -52.537234134051999 0 0 0 0 210.82035600476956 149.16868279589835 0 149.16868279589835 -174.52839785561082 0 0 0 0 184.41080716041324 254.73247463574808 0 254.73247463574808 -100.54323955556174 0 0 0 0 249.94906516928495 207.26158973155543 0 207.26158973155543 -129.96184404510132 0 0 0 0 159.56053963003797 259.34340041189716 0 259.34340041189716 -94.951931188021263 0 0 0 0 181.2059868962624 227.42719150134508 0 227.42719150134508 -173.393578431278 0 0 0 0 130.47217788241522 97.04229640403193 0 97.04229640403193 -200.12017499452509 0 0 0 0 228.31953203133162 143.57457151928247 0 143.57457151928247 -285.80435168616532 0 0 0 0 280.89228471353817 74.862032926357642 0 74.862032926357642 -312.16355830963585 0 0 0 0 253.80549914992298 29.50468655199802 0 29.50468655199802 -11.326791720959591 0 0 0 0 -456.82217709191536 343.99455386228146 0 343.99455386228146 -227.43917329732358 0 0 0 0 776.24749669403172 1.7069671255812864 0 1.7069671255812864 -286.27815710971481 0 0 0 0 3.6871662289171425 5.9487737272716004 0 5.9487737272716004 -1.7169857337931944 0 0 0 0 -79.293070173058368 259.64182381341743 0 259.64182381341743 -456.80699450707471 0 0 0 0 -284.24986282606551 199.06507260892249 0 199.06507260892249 -175.34986233106974 0 0 0 0 -210.56627003235644 341.32140496553166 0 341.32140496553166 -316.86920171105885 0 0 0 0 -77.80585096125651 236.29930115203024 0 236.29930115203024 -343.80946252815193 0 0 0 0 -183.74344795651996 275.67041258811514 0 275.67041258811514 -358.13180714782357 0 0 0 0 -227.24857345585042 333.44008117609337 0 333.44008117609337 -348.49095888886222 0 0 0 0 -148.30427427838413 301.74291009841909 0 301.74291009841909 -339.68937867775094 0 0 0 0 -137.05833099944084 370.17433420436464 0 370.17433420436464 -371.97282557442668 0 0 0 0 -74.562040247896221 368.00517764618053 0 368.00517764618053 -332.603592935302 0 0 0 0 -191.38329357031762 267.4912387768527 0 267.4912387768527 -366.49268536567979 0 0 0 0 -86.364899408166821 268.87672029752866 0 268.87672029752866 -493.77452048459963 0 0 0 0 -196.67045507317016 327.99895498486876 0 327.99895498486876 -394.18366919767868 0 0 0 0 -220.68988946017635 311.16245413868455 0 311.16245413868455 -385.43626763948123 0 0 0 0 -218.95003781229025 219.80522236187244 0 219.80522236187244 -612.02872807723907 0 0 0 0 -337.41773299562919 231.16286539388238 0 231.16286539388238 -351.91880282372585 0 0 0 0 -112.91581345489249 455.7459635646228 0 455.7459635646228 -197.36753925197991 0 0 0 0 -309.68974754768533 318.64874647979923 0 318.64874647979923 -290.66232426374336 0 0 0 0 -187.79659122923476 399.13234438853033 0 399.13234438853033 -324.53455914312508 0 0 0 0 114.59564031104674 139.03626743426139 0 139.03626743426139 -316.72327940096875 0 0 0 0 175.55545238544255 246.9060868516317 0 246.9060868516317 -191.00103683001362 0 0 0 0 131.09953806737394 260.80002127314947 0 260.80002127314947 -425.78598307589709 0 0 0 0 68.065997386516756 284.77707491846741 0 284.77707491846741 -484.03931605399703 0 0 0 0 -69.67998002931563 307.47042782434437 0 307.47042782434437 -405.25504044428817 0 0 0 0 54.442729319071077 258.79582408010901 0 258.79582408010901 -378.98877227820049 0 0 0 0 62.075306053455279 243.56875167013277 0 243.56875167013277 -350.65013801009695 0 0 0 0 14.71927443883942 199.15198506982779 0 199.15198506982779 -244.73532888241607 0 0 0 0 120.98662081553837 104.54820460401481 0 104.54820460401481 -154.92868713032078 0 0 0 0 119.98813623204732 98.095287680252184 0 98.095287680252184 -166.1476072912082 0 0 0 0 -152.59930458951567 384.12039903569621 0 384.12039903569621 -402.56619593872892 0 0 0 0 -9.4563310878584161 170.06821767443034 0 170.06821767443034 -251.9004452537738 0 0 0 0 -26.881613436380576 209.52653042855673 0 209.52653042855673 -97.531093329380383 0 0 0 0 -502.55953862363731 545.48095419012861 0 545.48095419012861 -399.11581452741666 0 0 0 0 93.857772754869075 83.220009170698177 0 83.220009170698177 -217.63346026392537 0 0 0 0 -456.6168408190988 452.14050460041835 0 452.14050460041835 -366.68900533228589 0 0 0 0 -416.15576781432173 484.02075306137885 0 484.02075306137885 -355.81844449923665 0 0 0 0 112.86771567168117 90.066855585413734 0 90.066855585413734 -172.81238098459511 0 0 0 0 -524.92774498567201 707.73175671704212 0 707.73175671704212 -542.33155356672069 0 0 0 0 -519.17681655414344 652.33183712285609 0 652.33183712285609 -395.71667499679097 0 0 0 0 -384.42994036405435 618.40013707965954 0 618.40013707965954 -549.10282138246475 0 0 0 0 -556.67288117367207 674.63499448765651 0 674.63499448765651 -489.80649208062823 0 0 0 0 -446.55873678810531 665.97896190374377 0 665.97896190374377 -559.61753293521178 0 0 0 0 -437.97250922116291 487.82715973819631 0 487.82715973819631 -477.58293963123651 0 0 0 0 -519.08063204044993 620.10770144717389 0 620.10770144717389 -573.12076741304918 0 0 0 0 -326.10662475099161 419.15911469639468 0 419.15911469639468 -256.52962785137788 0 0 0 0 -324.80714651668677 525.66069076368149 0 525.66069076368149 -485.62619806563453 0 0 0 0 217.08735919421451 176.65118999322658 0 176.65118999322658 -496.46281116747559 0 0 0 0 -257.13749196747085 219.67972745733277 0 219.67972745733277 -223.9494168771198 0 0 0 0 -177.74318623714407 378.40595555383334 0 378.40595555383334 -453.46280885505257 0 0 0 0 -400.52863139580887 518.09452805809281 0 518.09452805809281 -504.18049244304711 0 0 0 0 -402.91052262881567 386.5154875986409 0 386.5154875986409 -380.71523501701995 0 0 0 0 -326.153202318681 386.85062966366968 0 386.85062966366968 -425.82048735657736 0 0 0 0 -296.22314986940455 496.56713030155106 0 496.56713030155106 -438.02264776480297 0 0 0 0 -510.59215717746702 442.93979761059381 0 442.93979761059381 -436.29281747540153 0 0 0 0 -790.24983777517627 524.95183056274254 0 524.95183056274254 -449.756466936371 0 0 0 0 -597.528435010463 615.33005654409953 0 615.33005654409953 -436.28455528864288 0 0 0 0 -617.97948686295422 466.28450590971988 0 466.28450590971988 -493.50041237017649 0 0 0 0 -572.69111741685992 529.75788943297812 0 529.75788943297812 -724.23568226618954 0 0 0 0 -612.43958059140027 589.07990134067893 0 589.07990134067893 -568.06229553790035 0 0 0 0 -835.66783390112687 590.97633187518113 0 590.97633187518113 -546.45786480060997 0 0 0 0 -1075.3792006937947 596.5094810524115 0 596.5094810524115 -502.41634405228251 0 0 0 0 -919.37861838133176 455.19262063315546 0 455.19262063315546 -761.6195570496202 0 0 0 0 -1109.4457821774195 730.5538599639076 0 730.5538599639076 -617.22134248224756 0 0 0 0 -841.48821164599303 746.45337916499875 0 746.45337916499875 -411.42730484793719 0 0 0 0 -971.08319687658513 755.48804197020945 0 755.48804197020945 -378.9533957653075 0 0 0 0 -908.30676635749114 825.31571461299609 0 825.31571461299609 -372.36492461257149 0 0 0 0 -933.30695794343774 858.62817069412995 0 858.62817069412995 -304.15021168893873 0 0 0 0 -410.23093312935271 740.84953862445309 0 740.84953862445309 -581.64484088186873 0 0 0 0 -459.77502264452596 558.88224591593462 0 558.88224591593462 -1125.1800000256699 0 0 0 0 -766.8361718923079 1070.3492608789347 0 1070.3492608789347 -751.70619764360163 0 0 0 0 -1257.1875529825556 859.69962415626651 0 859.69962415626651 -304.74911623264416 0 0 0 0 -1516.6336964418442 1243.4222855529952 0 1243.4222855529952 -790.8984446516788 0 0 0 0 -2397.1432441919078 1314.2026083327419 0 1314.2026083327419 -565.20751705789007 0 0 0 0 -1525.2376195358715 364.69960652479665 0 364.69960652479665 -914.11734295311908 0 0 0 0 366.41213890847575 129.28308960588765 0 129.28308960588765 -1112.9043398602644 0 0 0 0 177.26420532615157 961.04651932356501 0 961.04651932356501 -1572.4457418598795 0 0 0 0 -232.66644680723039 667.16200720893812 0 667.16200720893812 -457.55766145318194 0 0 0 0 -149.35445599703053 -55.929944421932305 0 -55.929944421932305 148.64790776462178 0 0 0 0 123.89920440802629 131.01160316146613 0 131.01160316146613 69.755801719492965 0 0 0 0 249.87187636195449 217.84914222669613 0 217.84914222669613 86.28111497244754 0 0 0 0 -1677.0163457208109 893.53748232367798 0 893.53748232367798 -324.78612344696376 0 0 0 0 -745.73749865493664 -269.60809802747463 0 -269.60809802747463 421.30708856377714 0 0 0 0 15.140512708587899 34.348919061404089 0 34.348919061404089 14.243096547484868 0 0 0 0 -14.989806334635503 18.355171421583094 0 18.355171421583094 42.244982230273614 0 0 0 0 -1674.2979981126409 876.32229560458291 0 876.32229560458291 -241.25361741722236 0 0 0 0 -855.1107766543887 909.75716830739248 0 909.75716830739248 -894.3846167282245 0 0 0 0 -671.03217469570154 764.72604355136718 0 764.72604355136718 -459.60015628307701 0 0 0 0 -842.24289246431726 821.32802956017986 0 821.32802956017986 -478.17811958857419 0 0 0 0 -746.06073495634337 654.47221358029128 0 654.47221358029128 -630.5171981019339 0 0 0 0 -569.66506178358622 739.51706978430002 0 739.51706978430002 -735.96751878687064 0 0 0 0 -748.6526080502249 724.59350958026653 0 724.59350958026653 -928.99625379795179 0 0 0 0 -1140.3513097558389 1017.4950336645707 0 1017.4950336645707 -1583.7870025065458 0 0 0 0 -1042.3227578662299 711.79936670717871 0 711.79936670717871 -782.64270074204978 0 0 0 0 395.04049789630153 334.49449801897117 0 334.49449801897117 -293.57230550168606 0 0 0 0 -89.366483779229355 96.253750744611295 0 96.253750744611295 8.2813913316927881 0 0 0 0 -149.74433022120502 237.01286388327389 0 237.01286388327389 -81.313714185056597 0 0 0 0 -88.954454172439 145.24848948344243 0 145.24848948344243 -97.184213924476353 0 0 0 0 217.15775917649444 606.44401557276342 0 606.44401557276342 -50.597251330575091 0 0 0 0 -109.71993175279526 76.945191099810913 0 76.945191099810913 14.393960941609009 0 0 0 0 134.08654073173966 225.86163736853814 0 225.86163736853814 66.674770420322602 0 0 0 0 129.92396654707682 -30.567586021364605 0 -30.567586021364605 -1572.679649414571 0 0 0 0 199.56167527316211 362.46184246849589 0 362.46184246849589 -341.2910442351822 0 0 0 0 193.38472465314044 478.47652063651003 0 478.47652063651003 40.626226641063113 0 0 0 0 -832.18379298027321 1058.6570988764215 0 1058.6570988764215 517.4537268953718 0 0 0 0 -350.193324745258 1030.4073210893002 0 1030.4073210893002 -224.93174856795667 0 0 0 0 -642.21572807791381 143.05582384443551 0 143.05582384443551 16.026414281182952 0 0 0 0 -247.32742748106102 961.02578853522573 0 961.02578853522573 -658.19349602189322 0 0 0 0 -4.4249020490083524 3.7171509911440488 0 3.7171509911440488 -5.4231884948198612 0 0 0 0 -150.35904880837916 528.99908894488181 0 528.99908894488181 430.02689461710543 0 0 0 0 174.43188560998897 223.86925656756284 0 223.86925656756284 -332.73520809456568 0 0 0 0 129.90120810786357 122.25630588312704 0 122.25630588312704 54.588671700809897 0 0 0 0 -18.966985382356143 142.00621357173077 0 142.00621357173077 28.113721252811956 0 0 0 0 104.77987882501475 176.24322542443406 0 176.24322542443406 13.412987993462593 0 0 0 0 73.237738430776517 61.405960149255407 0 61.405960149255407 273.25144310560427 0 0 0 0 63.32160196912082 173.41063199396376 0 173.41063199396376 171.13273296515399 0 0 0 0 158.4726103599678 222.71430649781541 0 222.71430649781541 -89.595225585631852 0 0 0 0 236.28915277232409 230.21442247415962 0 230.21442247415962 137.13791561266771 0 0 0 0 131.42888090603518 124.73097111430937 0 124.73097111430937 34.053536341214773 0 0 0 0 167.62379050699383 50.071202788978553 0 50.071202788978553 56.845672198200191 0 0 0 0 140.21446003166147 260.67754997694828 0 260.67754997694828 -170.79876778350808 0 0 0 0 2.3773449365888268 35.850398541238988 0 35.850398541238988 27.156677636035397 0 0 0 0 197.42450821906095 -35.239340839660144 0 -35.239340839660144 -577.11330984323286 0 0 0 0 106.02843639869388 173.37706695682937 0 173.37706695682937 34.473160687455675 0 0 0 0 369.93485171611974 119.13192782613623 0 119.13192782613623 -49.752341147395782 0 0 0 0 212.74960996664595 20.057069784508712 0 20.057069784508712 -93.357260270116967 0 0 0 0 84.161782711454265 102.35039125790517 0 102.35039125790517 6.0194562668205265 0 0 0 0 21.743731625501823 114.2358999180542 0 114.2358999180542 57.420083683755365 0 0 0 0 25.063520044573352 83.695883923415664 0 83.695883923415664 -19.11945427170636 0 0 0 0 12.346958535199519 143.56016991557408 0 143.56016991557408 68.528613341877644 0 0 0 0 4.9129218534322519 92.378015813784202 0 92.378015813784202 10.882714344792475 0 0 0 0 195.43163673072559 368.2866969818424 0 368.2866969818424 235.10608996168594 0 0 0 0 -102.16195301494008 121.38897654566063 0 121.38897654566063 306.6850967235514 0 0 0 0 -7.2795802711635531 11.606221558515387 0 11.606221558515387 -5.3384392242676881 0 0 0 0 341.77557832274761 295.81892577106191 0 295.81892577106191 82.683546377960738 0 0 0 0 87.222636910941219 260.79021255559201 0 260.79021255559201 446.41902495874092 0 0 0 0 299.28576251737104 76.219648380227227 0 76.219648380227227 206.54769090778427 0 0 0 0 145.09323533997667 201.13640245176066 0 201.13640245176066 107.00993387398921 0 0 0 0 108.43747127189999 99.885512281340198 0 99.885512281340198 151.78615176817402 0 0 0 0 41.52453804230754 202.30908691226068 0 202.30908691226068 273.02321153908269 0 0 0 0 70.257410715683363 200.51173588569509 0 200.51173588569509 174.97258176694959 0 0 0 0 86.133756881296449 230.2150491726029 0 230.2150491726029 219.65662278258242 0 0 0 0 71.739865415598615 270.43532414931906 0 270.43532414931906 357.45687249125331 0 0 0 0 39.305956063086342 208.38352576124089 0 208.38352576124089 238.75619907060172 0 0 0 0 114.27708464553871 200.00612929345516 0 200.00612929345516 115.71228129134397 0 0 0 0 43.742685537159559 202.16502938486519 0 202.16502938486519 236.69649281495731 0 0 0 0 -43.707043353018051 46.385796942628595 0 46.385796942628595 -9.6284185386588206 0 0 0 0 2.4113675757071178 79.777583983785007 0 79.777583983785007 65.270624424549169 0 0 0 0 -49.835803206871788 138.44852446203731 0 138.44852446203731 -16.657173307967241 0 0 0 0 108.22462517050008 131.24484358876725 0 131.24484358876725 -18.650153852780932 0 0 0 0 55.443527448849636 173.33475670685584 0 173.33475670685584 72.327172471646918 0 0 0 0 59.314420271890413 159.73708317958517 0 159.73708317958517 89.965727244387381 0 0 0 0 74.500989034306258 173.37265948213462 0 173.37265948213462 -13.286313524164143 0 0 0 0 135.53856395808907 233.58884794172263 0 233.58884794172263 17.871862878469983 0 0 0 0 -446.96282678143325 355.72288151011526 0 355.72288151011526 44.265631443387974 0 0 0 0 -702.13834706239504 457.02352837925355 0 457.02352837925355 97.403804702116759 0 0 0 0 -680.24976968498595 587.30210821386936 0 587.30210821386936 -3.7506700733792968 0 0 0 0 -718.63127504142358 580.3998171075018 0 580.3998171075018 6.2109171201809659 0 0 0 0 -961.79528835296151 811.33266386838113 0 811.33266386838113 -115.00936060251843 0 0 0 0 -893.94526424166543 705.70288396136675 0 705.70288396136675 -261.82367342344105 0 0 0 0 -1201.54756602616 558.33226701699823 0 558.33226701699823 266.46565995182755 0 0 0 0 -205.7462226814423 289.18649414325773 0 289.18649414325773 169.61317592635896 0 0 0 0 -103.22937672764238 109.13107088091783 0 109.13107088091783 470.31224479254161 0 0 0 0 -46.225919233247453 52.738125963652642 0 52.738125963652642 192.31207259086096 0 0 0 0 -55.066478480119002 -14.064043686528407 0 -14.064043686528407 46.145164840772054 0 0 0 0 375.53229726113204 227.07110385368287 0 227.07110385368287 108.34320145877427 0 0 0 0 -28.775318759761106 52.330995583777508 0 52.330995583777508 36.472054592440202 0 0 0 0 -17.710534411209665 143.54124624959695 0 143.54124624959695 53.129917000216665 0 0 0 0 80.2205212682602 154.87079386760888 0 154.87079386760888 153.40279758639008 0 0 0 0 -417.02735138828575 29.656154073913058 0 29.656154073913058 147.25287924503959 0 0 0 0 30.791335096322442 75.365081820340578 0 75.365081820340578 142.71812132172238 0 0 0 0 -11.476661675584182 143.6433234486467 0 143.6433234486467 67.007964618474944 0 0 0 0 61.087727606980479 116.41721479770058 0 116.41721479770058 52.727476902492867 0 0 0 0 118.04724976997022 171.8436222057062 0 171.8436222057062 26.602013160169008 0 0 0 0 84.29686979635153 133.90987444124039 0 133.90987444124039 54.938995806209277 0 0 0 0 74.680282905002969 157.46888996179041 0 157.46888996179041 -1.369523381756153 0 0 0 0 -12.936468222396769 126.50144522029679 0 126.50144522029679 -45.99550583209799 0 0 0 0 -19.710447410338929 176.93235132124846 0 176.93235132124846 -21.885541861469392 0 0 0 0 -14.707403866945242 180.81063447077759 0 180.81063447077759 185.45565176109085 0 0 0 0 -544.77217894809655 421.28526230504576 0 421.28526230504576 73.16407196118962 0 0 0 0 61.759672094125335 123.12109496912649 0 123.12109496912649 104.07330173655845 0 0 0 0 -595.04443776767948 570.55081621322097 0 570.55081621322097 113.58275038526335 0 0 0 0 -705.69863554773292 530.06934611300494 0 530.06934611300494 100.04048684719601 0 0 0 0 21.848021282357422 167.72097714286784 0 167.72097714286784 -86.565028033288883 0 0 0 0 -661.09136865826804 424.70164674128864 0 424.70164674128864 -287.71321340097347 0 0 0 0 -745.35945722001998 527.53627858941036 0 527.53627858941036 -213.8059036217528 0 0 0 0 19.249425697066457 58.969085746073063 0 58.969085746073063 18.177016227769855 0 0 0 0 -38.506985377828869 -107.75688381861164 0 -107.75688381861164 425.79400734242518 0 0 0 0 -32.956773316002682 1.475494862746018 0 1.475494862746018 1768.4580552387051 0 0 0 0 1.8480503926509328 6.3185529694422087 0 6.3185529694422087 28.57323097520981 0 0 0 0 -158.24276944907615 13.669793308465159 0 13.669793308465159 310.60497362584465 0 0 0 0 -17.933465394329687 163.96692306883779 0 163.96692306883779 338.95808053063229 0 0 0 0 24.464913695235737 300.47825372075749 0 300.47825372075749 368.86397455821862 0 0 0 0 23.925866408481454 88.216223737196259 0 88.216223737196259 -70.331942766350295 0 0 0 0 232.29544043348869 807.10867322191189 0 807.10867322191189 765.94967769642244 0 0 0 0 29.179220408419496 305.94213437463623 0 305.94213437463623 74.021872824458114 0 0 0 0 -287.49730312091015 -33.241291292928508 0 -33.241291292928508 1185.3187322979793 0 0 0 0 -147.21997377552179 89.642621627841436 0 89.642621627841436 623.67129753398331 0 0 0 0 -267.59797762895323 312.37340239455079 0 312.37340239455079 176.5425509626366 0 0 0 0 -234.69311900538924 -73.517649039549724 0 -73.517649039549724 406.49707572266925 0 0 0 0 -1.238309102305152 3.8917037982141096 0 3.8917037982141096 12.369634717442352 0 0 0 0 259.42328886401083 883.27397523383843 0 883.27397523383843 -50.49850298409001 0 0 0 0 -399.86073437596497 227.54507241827378 0 227.54507241827378 100.00573483300104 0 0 0 0 1.4609929829493211 11.152087384124854 0 11.152087384124854 25.226002290277734 0 0 0 0 -533.21020171061173 541.49071606905636 0 541.49071606905636 -183.33580459756195 0 0 0 0 -75.469425747185596 116.56731394122471 0 116.56731394122471 -57.554165261080925 0 0 0 0 320.7612330613174 210.48779328063392 0 210.48779328063392 -484.36638455934008 0 0 0 0 101.73255607297324 495.5984887837003 0 495.5984887837003 726.2295196907653 0 0 0 0 76.084001063154574 169.22129180721458 0 169.22129180721458 -83.038887869130122 0 0 0 0 13.992140082052742 114.82014962867987 0 114.82014962867987 -85.891630504941034 0 0 0 0 17.486237869896286 186.45835984278528 0 186.45835984278528 -10.33078143770399 0 0 0 0 62.205972143618055 109.5771683572957 0 109.5771683572957 -131.80153414295637 0 0 0 0 1.4850886008643727 125.50615257702307 0 125.50615257702307 -90.459354855958253 0 0 0 0 14.113960681359458 441.62805274182392 0 441.62805274182392 347.49142876479891 0 0 0 0 -124.1517595376572 214.91327809846553 0 214.91327809846553 311.39139801084093 0 0 0 0 1.3320581000048151 30.689433851810769 0 30.689433851810769 32.224251492692588 0 0 0 0 -40.035324751774645 91.488085165374713 0 91.488085165374713 -15.189458288575452 0 0 0 0 163.65020702194306 196.35383856873523 0 196.35383856873523 65.783600126669626 0 0 0 0 78.807953506925628 83.938974989870786 0 83.938974989870786 -73.494452719787517 0 0 0 0 498.99320486762736 -235.88112112610543 0 -235.88112112610543 -239.16097964188521 0 0 0 0 64.106602050655056 622.80874833813868 0 622.80874833813868 999.88091718773649 0 0 0 0 356.47299609041511 443.26258928304014 0 443.26258928304014 -280.86624671603204 0 0 0 0 768.43290418016113 706.43924728140701 0 706.43924728140701 187.67822278065432 0 0 0 0 560.72182532701117 234.6637039375928 0 234.6637039375928 206.57246975428234 0 0 0 0 350.72623039081418 495.85788020853033 0 495.85788020853033 356.04538892253186 0 0 0 0 -349.40851661241322 54.229157292884338 0 54.229157292884338 158.759220520893 0 0 0 0 145.20158897242072 94.69149085450772 0 94.69149085450772 77.567296129331226 0 0 0 0 0.25754437996199897 -2.2872192403304439 0 -2.2872192403304439 0.0096086269556963089 0 0 0 0 -70.538177546797669 -2.0535375124891289 0 -2.0535375124891289 -48.442541409247497 0 0 0 0 -151.32096873591945 368.6063853357773 0 368.6063853357773 426.1138360567129 0 0 0 0 151.35355686576077 424.78416458643915 0 424.78416458643915 107.7858648399997 0 0 0 0 67.862861258174235 323.5365769120981 0 323.5365769120981 45.18162163834495 0 0 0 0 -255.08704863613821 381.57000955891999 0 381.57000955891999 128.35196914261905 0 0 0 0 0.46453248187310692 0.58319562022307991 0 0.58319562022307991 0.4796384733706418 0 0 0 0 -902.72599586346769 -55.149488040653523 0 -55.149488040653523 112.95444775932992 0 0 0 0 1255.8915146434338 784.85721160456887 0 784.85721160456887 157.68228991414071 0 0 0 0 293.71538890530792 506.34964222231065 0 506.34964222231065 255.86899554405318 0 0 0 0 191.77979803933704 344.31681962664879 0 344.31681962664879 7.4034522631263826 0 0 0 0 369.10121894572512 152.74479074271221 0 152.74479074271221 -37.39175096622057 0 0 0 0 218.10972299887362 459.77435886351304 0 459.77435886351304 232.44221728417324 0 0 0 0 78.131397966761142 142.17776581194994 0 142.17776581194994 -114.94280346145388 0 0 0 0 -14.24429029981286 261.39737586141939 0 261.39737586141939 17.932422211844823 0 0 0 0 -67.725350330390938 309.12526287039873 0 309.12526287039873 -0.060626179969403893 0 0 0 0 192.7479609370057 325.82891191582166 0 325.82891191582166 -0.10825383332849015 0 0 0 0 82.313974335967941 190.73579729326593 0 190.73579729326593 -33.208665085039684 0 0 0 0 173.0365363851306 339.85067091359815 0 339.85067091359815 9.59558525281318 0 0 0 0 161.59379832116247 321.53089987127896 0 321.53089987127896 0.072575756159494631 0 0 0 0 2.4535948501150529 16.446109474322498 0 16.446109474322498 29.831387924028661 0 0 0 0 5.2734599484630778 9.5849642006386802 0 9.5849642006386802 -25.738045611253312 0 0 0 0 6.8564300158177502 86.626481957697251 0 86.626481957697251 -124.65778104755736 0 0 0 0 131.55286533134677 47.42843331736367 0 47.42843331736367 -130.04342670796905 0 0 0 0 73.184526767006901 -72.589586502494058 0 -72.589586502494058 -374.88868058056687 0 0 0 0 2.4437776225952916 13.345451350696749 0 13.345451350696749 31.022397135599306 0 0 0 0 -119.7885108842238 282.8863668784179 0 282.8863668784179 -87.726381035879967 0 0 0 0 -388.36820708010055 186.83956061484059 0 186.83956061484059 -105.51695778098656 0 0 0 0 -618.72544390539042 343.77367656464776 0 343.77367656464776 -4.8143728811701294 0 0 0 0 -262.0085200053727 326.51689030676789 0 326.51689030676789 36.670981469382241 0 0 0 0 -358.10004500958166 142.37128632984241 0 142.37128632984241 108.67247337716617 0 0 0 0 -373.52066437569738 259.54628048824088 0 259.54628048824088 -44.065419606180512 0 0 0 0 -300.8129380072678 200.23864513788612 0 200.23864513788612 -33.22035267658066 0 0 0 0 -514.7896415263167 232.1526424298936 0 232.1526424298936 53.363722779380623 0 0 0 0 -296.89631023575566 180.68561046507239 0 180.68561046507239 43.492115989647573 0 0 0 0 -15.801651472857202 197.42657632488908 0 197.42657632488908 -23.459631814592285 0 0 0 0 -595.13332076925872 311.70083036224241 0 311.70083036224241 0.08808005149463792 0 0 0 0 -768.83601131813521 15.504595356942446 0 15.504595356942446 57.335148580110399 0 0 0 0 3.8361868267186026 0.89209582094598261 0 0.89209582094598261 -3.7284527734582298 0 0 0 0 -433.42011612241004 69.860863324127422 0 69.860863324127422 -2.9158188738219906 0 0 0 0 448.68125936251818 111.66559833975043 0 111.66559833975043 -33.982563450473208 0 0 0 0 554.83647537611978 -57.91187697485293 0 -57.91187697485293 -45.715019358554855 0 0 0 0 0.42509618901964075 5.3329079362841014 0 5.3329079362841014 4.6540741500559193 0 0 0 0 12.729248669809749 28.890437232825207 0 28.890437232825207 0.0073467464535497129 0 0 0 0 9.8711149552946154 8.5451311040378641 0 8.5451311040378641 -8.4639040175534319 0 0 0 0 -12.317694939287321 26.303916608900181 0 26.303916608900181 -0.01071383454836905 0 0 0 0 -1.7311162428215283 -0.28080799820176594 0 -0.28080799820176594 5.2078153695658784 0 0 0 0 1242.3866729104484 -324.3229467960482 0 -324.3229467960482 -53.513423365669951 0 0 0 0 -410.8167240577859 57.550084185320884 0 57.550084185320884 -8.3769579245999921 0 0 0 0 422.07975449922196 466.99427119683969 0 466.99427119683969 0.66932727799576242 0 0 0 0 81.0878334127774 417.21215213861433 0 417.21215213861433 -31.752075235010125 0 0 0 0 458.38313177953387 59.144334712051204 0 59.144334712051204 -106.16965368495948 0 0 0 0 335.12296272122876 -3.3080435831689101 0 -3.3080435831689101 -96.852723574382253 0 0 0 0 -2.90804113865007 -2.1632600678835558 0 -2.1632600678835558 1.4587010688873647 0 0 0 0 -1318.0841488203332 306.26341855309147 0 306.26341855309147 208.47365328829619 0 0 0 0 -558.13841001444962 462.81818597123493 0 462.81818597123493 -0.62062233609088946 0 0 0 0 -492.81122185265849 17.608395339586423 0 17.608395339586423 -174.8619756775006 0 0 0 0 -440.88953973322987 423.01611409520956 0 423.01611409520956 -72.759506624686765 0 0 0 0 -844.74211746955189 387.45508816534129 0 387.45508816534129 -28.249683220419683 0 0 0 0 -1016.5619326421861 296.33983426350824 0 296.33983426350824 14.730486927001039 0 0 0 0 -1266.089980562916 494.99891854369343 0 494.99891854369343 -55.01712605234934 0 0 0 0 -2.634226828821042 -1.0143217401280538 0 -1.0143217401280538 -2.418705148299864 0 0 0 0 -1018.6222140110003 208.48020839409764 0 208.48020839409764 140.76002009431249 0 0 0 0 -1925.7226418318605 635.5248248790449 0 635.5248248790449 302.98601595023501 0 0 0 0 -1377.6746361481437 1418.10781612344 0 1418.10781612344 -1099.0212273321813 0 0 0 0 -36.515330640777393 54.824104859253566 0 54.824104859253566 12.671481771554681 0 0 0 0 458.72042831328508 114.72071704360133 0 114.72071704360133 -174.13650227311882 0 0 0 0 -164.4731760129107 368.74608672766772 0 368.74608672766772 -176.27310282898287 0 0 0 0 -201.81608777476504 222.95248886047921 0 222.95248886047921 -276.15010766888736 0 0 0 0 -180.71331018959609 92.496969596970303 0 92.496969596970303 287.96089688918437 0 0 0 0 3.5933879391474974 2.9624212878009359 0 2.9624212878009359 -22.113782994213409 0 0 0 0 547.21286896658421 322.87342473227181 0 322.87342473227181 -83.870308540372207 0 0 0 0 2.0533686552373069 0.34005481584262043 0 0.34005481584262043 -9.1532098493863714 0 0 0 0 -482.76723061476514 -990.0901616415249 0 -990.0901616415249 -784.82598712365143 0 0 0 0 292.54393466361216 79.349783280151314 0 79.349783280151314 -316.05658075158863 0 0 0 0 1370.778856564787 -200.18004636868318 0 -200.18004636868318 -1142.6675580089213 0 0 0 0 970.2152866107208 1098.0415827852703 0 1098.0415827852703 559.73897157331521 0 0 0 0 -750.08027933076301 168.69359174450801 0 168.69359174450801 1507.4382892467838 0 0 0 0 -755.81518311147374 343.30254218704067 0 343.30254218704067 -1375.6224632111989 0 0 0 0 331.99177022110962 593.07578698152065 0 593.07578698152065 -117.09679144527763 0 0 0 0 -320.3145861215653 -328.82596423628274 0 -328.82596423628274 -752.32163654026226 0 0 0 0 -944.35304133051613 263.42662442961591 0 263.42662442961591 42.601908886819729 0 0 0 0 -1674.2190272813677 182.22795875629527 0 182.22795875629527 -2415.5888742605166 0 0 0 0 -2.1899382578569728 -0.01942940827422035 0 -0.01942940827422035 -3.3403720520086608 0 0 0 0 -2874.7078739105091 1745.6623465721932 0 1745.6623465721932 -611.09014497893804 0 0 0 0 -1144.4551957554904 2014.4239863211697 0 2014.4239863211697 -3308.8781660327804 0 0 0 0 -56.062518115853891 38.386613040231168 0 38.386613040231168 688.08572482177988 0 0 0 0 -25.937002342412228 -0.74248458990001609 0 -0.74248458990001609 2.2758946291856219 0 0 0 0 -4.8467827883745258 8.1202810547671334 0 8.1202810547671334 3.9599878351266682 0 0 0 0 -2225.4113958957532 -1224.2268542894744 0 -1224.2268542894744 888.06179516168777 0 0 0 0 -4950.4035997094907 327.84820363704057 0 327.84820363704057 1146.5582721217361 0 0 0 0 -2047.2763420224364 52.72003827028675 0 52.72003827028675 722.9889106406772 0 0 0 0 -2131.7390052182745 -675.66685507897637 0 -675.66685507897637 494.25974080266315 0 0 0 0 -526.78398279570683 -266.14604873112694 0 -266.14604873112694 291.35900468478212 0 0 0 0 304.30158787430355 202.33559935061203 0 202.33559935061203 336.82380515197292 0 0 0 0 84.991502709279303 -838.29015190625796 0 -838.29015190625796 177.38162022904726 0 0 0 0 -3329.3771161898512 2001.1369983020995 0 2001.1369983020995 -399.07842466110014 0 0 0 0 -1871.82011494178 1160.738394671178 0 1160.738394671178 0.78585494034632575 0 0 0 0 -1886.2021539562884 1070.6273291551697 0 1070.6273291551697 541.67173859250033 0 0 0 0 -1354.0504283790797 361.0189744020463 0 361.0189744020463 557.64278227458999 0 0 0 0 -2792.1580142156236 208.52808671454841 0 208.52808671454841 768.93420532572782 0 0 0 0 -621.97375787258352 72.611355377099244 0 72.611355377099244 235.72177988685144 0 0 0 0 -526.23040095089527 -281.69351755834941 0 -281.69351755834941 358.79938223108184 0 0 0 0 -1519.892096286836 -171.58295245574845 0 -171.58295245574845 423.04458012044779 0 0 0 0 -1481.8839941376791 334.50784883239248 0 334.50784883239248 641.86849472507311 0 0 0 0 -653.24095510462212 149.50614107043657 0 149.50614107043657 216.40101760148536 0 0 0 0 -1030.8933424742827 408.13896132226364 0 408.13896132226364 269.63357924410957 0 0 0 0 -1437.4371620103871 927.56214745465331 0 927.56214745465331 361.63774924978497 0 0 0 0 -713.74608465392885 786.12290058849612 0 786.12290058849612 -105.77236566333886 0 0 0 0 -702.58927933801897 876.0512663055124 0 876.0512663055124 284.38257095895824 0 0 0 0 -354.72440747470682 421.72367182992457 0 421.72367182992457 -382.22150776823401 0 0 0 0 -129.59947111915972 1096.8953928355477 0 1096.8953928355477 34.796571949642384 0 0 0 0 565.38873985745158 740.12210038307239 0 740.12210038307239 -274.21356385410763 0 0 0 0 355.06794739667521 1817.9218286638406 0 1817.9218286638406 463.7936043702648 0 0 0 0 -869.78162023561526 1215.1342911426909 0 1215.1342911426909 447.90388221605099 0 0 0 0 -832.16201694268966 1076.0911880515632 0 1076.0911880515632 83.688156935342704 0 0 0 0 110.43122515927649 145.40325027568869 0 145.40325027568869 94.223929853420543 0 0 0 0 -9.4680394848073774 261.14757295411982 0 261.14757295411982 172.39982940934715 0 0 0 0 430.51972044542345 241.53368467374094 0 241.53368467374094 -35.68713174383447 0 0 0 0 3.7215668044095196 7.0737399429235204 0 7.0737399429235204 2.1941338387867404 0 0 0 0 451.34214468977734 669.60828218066308 0 669.60828218066308 95.701323862944264 0 0 0 0 884.19672531535252 332.55440493402421 0 332.55440493402421 -174.93423547409475 0 0 0 0 -795.09331765342722 202.96723202110115 0 202.96723202110115 307.94214954010386 0 0 0 0 -330.96821641581482 267.80504563625436 0 267.80504563625436 27.133673794160131 0 0 0 0 -476.12679565587314 334.30742218157684 0 334.30742218157684 -0.60297991085826652 0 0 0 0 -451.04630898494361 -10.056250913112308 0 -10.056250913112308 161.98331908989348 0 0 0 0 -262.39993591002712 279.56836747042689 0 279.56836747042689 25.905332644033479 0 0 0 0 -87.546536419948097 121.88174649348366 0 121.88174649348366 138.4094892788853 0 0 0 0 -201.46234612663829 364.32050432995311 0 364.32050432995311 -5.5452218096252182 0 0 0 0 -439.15881419244397 409.43050394373859 0 409.43050394373859 66.877354797557928 0 0 0 0 -104.45882279001671 126.892784488693 0 126.892784488693 138.775809523926 0 0 0 0 -29.853600636903138 32.965753814496566 0 32.965753814496566 255.0941599952348 0 0 0 0 -320.17518843252037 -8.862724487829837 0 -8.862724487829837 935.87578575465886 0 0 0 0 -67.420117646906874 224.88683434581617 0 224.88683434581617 537.68369426861136 0 0 0 0 -301.26068343745646 112.54329437104752 0 112.54329437104752 528.5076916917169 0 0 0 0 46.190701517014531 -262.97234281030251 0 -262.97234281030251 1655.5725488915341 0 0 0 0 -607.61995059239416 824.04536204504257 0 824.04536204504257 -1124.1175244213373 0 0 0 0 -41.8427676128195 11.972766594613233 0 11.972766594613233 14.107962083705445 0 0 0 0 -32.586823063315137 -6.3198529122810214 0 -6.3198529122810214 0.27335023361646904 0 0 0 0 -543.41330459281926 884.927374362931 0 884.927374362931 -1327.0756518443814 0 0 0 0 7.6899678675472387 -36.123151456355117 0 -36.123151456355117 46.768704198555497 0 0 0 0 -19.280788994005029 19.941940466162805 0 19.941940466162805 22.034587792824226 0 0 0 0 -96.3474923555641 27.971798864098673 0 27.971798864098673 79.267515123123303 0 0 0 0 -100.2179343857251 19.273545870657188 0 19.273545870657188 27.548128688595575 0 0 0 0 -32.962480990669064 55.097062177897897 0 55.097062177897897 64.217531711266929 0 0 0 0 -335.50743886428609 255.50973437969878 0 255.50973437969878 365.68357107126212 0 0 0 0 96.943187229877225 138.62214110385332 0 138.62214110385332 92.214226084304642 0 0 0 0 243.35358010836353 55.05027107924252 0 55.05027107924252 -129.77982974507904 0 0 0 0 210.14822840008492 -63.767091658970458 0 -63.767091658970458 233.82652646364295 0 0 0 0 -78.837990754496786 126.74132275991724 0 126.74132275991724 179.82349683038774 0 0 0 0 26.484033327482699 51.404966964535838 0 51.404966964535838 49.508189297874139 0 0 0 0 28.57016793739929 25.970922184982925 0 25.970922184982925 16.934657520928099 0 0 0 0 -4.7893002282677344 36.800873841627464 0 36.800873841627464 34.46920294063267 0 0 0 0 -3.2589952962916868 56.825704258342739 0 56.825704258342739 -3.0587428717699368 0 0 0 0 -298.65402317280132 300.49022319480719 0 300.49022319480719 -223.51866729756875 0 0 0 0 -325.75271911533264 496.97388961196793 0 496.97388961196793 -549.31655363491154 0 0 0 0 -448.41723138042653 504.85994327103981 0 504.85994327103981 -212.95053784223273 0 0 0 0 -326.41528116102006 345.9715244384679 0 345.9715244384679 -229.17396303371061 0 0 0 0 -436.13772608644285 471.04469323916419 0 471.04469323916419 -321.22891246857762 0 0 0 0 -951.06889288751245 861.27158106891147 0 861.27158106891147 -380.94229571966571 0 0 0 0 -418.80657924302068 586.76802214160853 0 586.76802214160853 -614.30836329642625 0 0 0 0 -438.79947678640019 759.8807432143949 0 759.8807432143949 -1099.895196128833 0 0 0 0 -634.4599263217533 697.23823415975494 0 697.23823415975494 -397.16396393784817 0 0 0 0 -712.78517603696218 609.0442331157974 0 609.0442331157974 -222.43572777856025 0 0 0 0 -860.98022624702935 761.81154748261906 0 761.81154748261906 -376.84419031712969 0 0 0 0 -857.8729159885313 701.7963441597085 0 701.7963441597085 -159.82980503847648 0 0 0 0 -707.73657152149281 556.63514873417444 0 556.63514873417444 -41.297597867218428 0 0 0 0 -727.37869733235675 521.91766150467447 0 521.91766150467447 -0.076356999314157292 0 0 0 0 -756.6361026321174 555.42456279502949 0 555.42456279502949 -37.470459071453661 0 0 0 0 -764.64903216979292 545.17952927709121 0 545.17952927709121 0.077405446994816884 0 0 0 0 -521.35267013206226 410.84683322603087 0 410.84683322603087 -163.97970374353463 0 0 0 0 -709.85967480841498 567.81736073216052 0 567.81736073216052 -92.079308057276648 0 0 0 0 -565.27394731438926 548.69272633134096 0 548.69272633134096 -223.27502404351981 0 0 0 0 -683.49583179470937 517.69368559306895 0 517.69368559306895 -79.970845080817526 0 0 0 0 -645.89089144704633 462.83448712363315 0 462.83448712363315 0.038108005581307225 0 0 0 0 -666.63367402577614 397.20558097146204 0 397.20558097146204 -125.20850557036465 0 0 0 0 -3.6252163749276622 -2.2495105706147882 0 -2.2495105706147882 3.8408476937492537 0 0 0 0 -677.62063267286817 381.06992869655005 0 381.06992869655005 -0.50738154444843531 0 0 0 0 -21.040175733461183 25.886780583881773 0 25.886780583881773 59.919045557071513 0 0 0 0 489.6812895304929 -92.944635633379221 0 -92.944635633379221 -83.540253481070977 0 0 0 0 184.05557437812058 211.63533907976307 0 211.63533907976307 0.18312622461235151 0 0 0 0 -25.178241740470185 79.113941921721562 0 79.113941921721562 -42.594787600799464 0 0 0 0 -46.335510059685475 172.1762563070879 0 172.1762563070879 -52.888496298357495 0 0 0 0 -99.255029047504649 159.40575135569816 0 159.40575135569816 0.0025196913193212822 0 0 0 0 -67.65745744402011 150.30494095686299 0 150.30494095686299 -66.76740475918632 0 0 0 0 23.011861119205207 42.329846459056341 0 42.329846459056341 28.480921668005038 0 0 0 0 127.52502849102166 257.92576430782356 0 257.92576430782356 -210.85572389380832 0 0 0 0 176.94903736596552 276.52740833829739 0 276.52740833829739 -273.68158485076856 0 0 0 0 43.744209913662431 51.254367080312619 0 51.254367080312619 38.394110706154294 0 0 0 0 -19.479356280477077 82.63136106156162 0 82.63136106156162 -18.260096248210175 0 0 0 0 89.771146640943698 3.0507175530183304 0 3.0507175530183304 -177.36249844971462 0 0 0 0 126.35840418358021 4.8023252226048498 0 4.8023252226048498 82.612383580562891 0 0 0 0 277.72629033890917 171.11267954124196 0 171.11267954124196 -0.14022921499417862 0 0 0 0 -149.95556310071333 36.327067927326425 0 36.327067927326425 107.00314627263288 0 0 0 0 122.40566588033107 125.7074457721319 0 125.7074457721319 136.03857549567329 0 0 0 0 50.190626523803076 55.771625383633364 0 55.771625383633364 47.150681721082947 0 0 0 0 38.554476581433846 285.59251685971685 0 285.59251685971685 -49.855403963141725 0 0 0 0 194.24408692571023 57.654541704825533 0 57.654541704825533 -180.68738344381563 0 0 0 0 54.984191497730507 61.349886596882072 0 61.349886596882072 45.462164639260408 0 0 0 0 10.337652518863402 7.6139071008727655 0 7.6139071008727655 -4.2190889575443862 0 0 0 0 193.7704429929654 404.18565983806911 0 404.18565983806911 45.569502233156527 0 0 0 0 256.36412067763376 351.80197165989375 0 351.80197165989375 30.976151346054394 0 0 0 0 157.199197652164 371.61530510519515 0 371.61530510519515 23.565826811653096 0 0 0 0 252.0825965857839 377.44235618791572 0 377.44235618791572 0.072569745549117215 0 0 0 0 126.95394063628555 395.35869786297553 0 395.35869786297553 63.734499917540234 0 0 0 0 388.06561058759689 259.74352660569275 0 259.74352660569275 59.305622849875363 0 0 0 0 418.14199071504845 292.21991260399227 0 292.21991260399227 44.889906724070897 0 0 0 0 237.2492339033488 360.51470277916815 0 360.51470277916815 108.87496546069451 0 0 0 0 271.28739181160563 349.48536264282302 0 349.48536264282302 2.548387477901997 0 0 0 0 206.0891941178561 304.40093613637146 0 304.40093613637146 54.440620253153611 0 0 0 0 4.8298220090536788 6.2252619679521217 0 6.2252619679521217 -75.922042982639312 0 0 0 0 509.12350335512019 51.686434963266947 0 51.686434963266947 -41.420595793810207 0 0 0 0 629.52046616388725 14.083143974508857 0 14.083143974508857 -70.84540974747506 0 0 0 0 470.93557635023899 344.4674322715 0 344.4674322715 82.318953051464632 0 0 0 0 660.14258864872681 396.80958142704912 0 396.80958142704912 96.262636705068871 0 0 0 0 379.61362238953552 278.69895131837984 0 278.69895131837984 194.92303475356312 0 0 0 0 727.03732038793532 227.43396612336801 0 227.43396612336801 0.030310283327708021 0 0 0 0 1098.2819883343909 26.395442090870347 0 26.395442090870347 -99.778598964621779 0 0 0 0 1.3222714071434325 2.7810883934513413 0 2.7810883934513413 -9.4592597560884997 0 0 0 0 -164.02629677352525 109.86177620495437 0 109.86177620495437 -37.862025060028827 0 0 0 0 354.93015258840023 321.16854491912818 0 321.16854491912818 246.03734713706945 0 0 0 0 3.8641883291143344 2.7231584269945728 0 2.7231584269945728 0.78955398362847973 0 0 0 0 35.216767653211718 50.491282274128025 0 50.491282274128025 -136.82001323188888 0 0 0 0 77.149136031584931 77.414468264803872 0 77.414468264803872 -210.28722400944389 0 0 0 0 57.473654463266939 -1.9989130215762998 0 -1.9989130215762998 -81.128764324297663 0 0 0 0 50.450721306362539 9.4975426599266939 0 9.4975426599266939 -40.049407793936552 0 0 0 0 41.443197753793356 13.974870968937466 0 13.974870968937466 -42.866543311873102 0 0 0 0 104.01715188290473 68.825600503521855 0 68.825600503521855 -39.608772425272036 0 0 0 0 74.187776024111372 -10.630266425920126 0 -10.630266425920126 -132.35139541278477 0 0 0 0 97.586899991103564 15.873336361692054 0 15.873336361692054 -102.9358919521037 0 0 0 0 2.7429836465276409 10.645241031310036 0 10.645241031310036 -92.813761079548556 0 0 0 0 217.4336919488851 316.47744019539095 0 316.47744019539095 -339.38969127045129 0 0 0 0 32.229281459780395 -7.4594891770102549 0 -7.4594891770102549 -75.092778843187261 0 0 0 0 -66.821320066688713 285.65509990404826 0 285.65509990404826 85.343677853350528 0 0 0 0 59.633791551343165 1.8615914011897985 0 1.8615914011897985 96.305587893235497 0 0 0 0 399.23863608448301 -29.050801554170903 0 -29.050801554170903 34.297719688096549 0 0 0 0 342.02599715715223 237.82789345335914 0 237.82789345335914 46.239526033750735 0 0 0 0 171.9372691467579 352.84693037146644 0 352.84693037146644 2.4710047830303665 0 0 0 0 130.51326766437705 431.2608188208178 0 431.2608188208178 -119.48303543002112 0 0 0 0 136.67043335732887 164.39723308153043 0 164.39723308153043 -34.35884489408636 0 0 0 0 201.26568281091022 303.96259963876219 0 303.96259963876219 -151.50640113193367 0 0 0 0 0.47305285105539951 19.769448223720246 0 19.769448223720246 73.960066749918042 0 0 0 0 3.0162560287738813 7.3989068701259839 0 7.3989068701259839 1.8526720768717837 0 0 0 0 176.66587630292634 313.0517189053644 0 313.0517189053644 79.353662263485603 0 0 0 0 194.03813935248763 277.55935659076204 0 277.55935659076204 12.981023894739337 0 0 0 0 136.80466414514376 156.93408760763123 0 156.93408760763123 232.72125280961336 0 0 0 0 193.21427379947636 291.64532069358393 0 291.64532069358393 93.807542661350453 0 0 0 0 151.5246823664711 362.81549074289796 0 362.81549074289796 79.754691880923929 0 0 0 0 206.39670595157077 377.66481364922947 0 377.66481364922947 -33.945917297089181 0 0 0 0 198.07846499587322 368.94871393413632 0 368.94871393413632 23.693076038180152 0 0 0 0 -110.24345869115336 -441.21204689983824 0 -441.21204689983824 -180.29851016108296 0 0 0 0 70.435543087936821 -107.10289641350391 0 -107.10289641350391 -349.71559303923277 0 0 0 0 -31.260977964282219 52.669358113333288 0 52.669358113333288 -51.33340279253656 0 0 0 0 34.334635853821325 6.2748465102585556 0 6.2748465102585556 -14.049798038638102 0 0 0 0 -1040.7248968548811 2485.1076768029889 0 2485.1076768029889 -1068.686486691935 0 0 0 0 103.48663342431973 246.4868334710045 0 246.4868334710045 383.81451321225904 0 0 0 0 -4410.9835034995776 2737.9152928548574 0 2737.9152928548574 566.77695863728877 0 0 0 0 394.53266110074037 166.4654298221285 0 166.4654298221285 -553.82728995017533 0 0 0 0 -143.47661065219745 -77.603005247929104 0 -77.603005247929104 -222.22844094148604 0 0 0 0 -794.29397753044032 198.36701495910529 0 198.36701495910529 -554.17318878564402 0 0 0 0 -2.2979589407462839 53.625412032772658 0 53.625412032772658 -33.504061321497517 0 0 0 0 51.044733284419635 -251.72709985536494 0 -251.72709985536494 190.27961253438843 0 0 0 0 753.0272463384772 -29.770318617000157 0 -29.770318617000157 -526.30841240909649 0 0 0 0 461.67918652134904 -390.54991680145031 0 -390.54991680145031 -114.81042251433246 0 0 0 0 -425.25777214696791 330.97101698833285 0 330.97101698833285 -68.391991154123389 0 0 0 0 -0.33376154075531872 2.5394967867382974 0 2.5394967867382974 -7.0107053880051353 0 0 0 0 119.56235823016686 611.13403038485558 0 611.13403038485558 -519.95588741026586 0 0 0 0 1266.4024323947524 -78.919480307202321 0 -78.919480307202321 -880.7514004537079 0 0 0 0 132.63162691379694 87.689084338213434 0 87.689084338213434 9.0788043314532842 0 0 0 0 122.41834022376497 322.16301107061497 0 322.16301107061497 -21.350137626403011 0 0 0 0 109.64225975530644 165.05863539744314 0 165.05863539744314 -104.7481364027044 0 0 0 0 0.87439458671443049 1.0447820386461899 0 1.0447820386461899 -22.242839440742898 0 0 0 0 227.55453624374059 400.77521219557821 0 400.77521219557821 -169.08958438236732 0 0 0 0 135.33712628950889 304.75558098260444 0 304.75558098260444 -201.23002084165637 0 0 0 0 125.54251114234285 368.9261845834917 0 368.9261845834917 107.23702491522999 0 0 0 0 54.200528234379817 132.66489370903855 0 132.66489370903855 168.71231821819674 0 0 0 0 51.003738368242921 147.05161679571029 0 147.05161679571029 136.70950980192447 0 0 0 0 146.54388897499302 485.73825578339165 0 485.73825578339165 1048.4373894187447 0 0 0 0 12.79659046319054 0.99003340121697647 0 0.99003340121697647 -0.38872813137398055 0 0 0 0 104.05974007212717 354.98565202550526 0 354.98565202550526 878.26321025573998 0 0 0 0 1018.2947703022073 -25.402403969899751 0 -25.402403969899751 -153.22541912761517 0 0 0 0 260.7711786548789 126.66399476688093 0 126.66399476688093 -40.359835518778709 0 0 0 0 -1.466282717253101 8.3995890126886223 0 8.3995890126886223 -14.681255541559551 0 0 0 0 183.53489362611799 90.303269712061592 0 90.303269712061592 19.028763641239493 0 0 0 0 797.25205500352968 291.65349971978867 0 291.65349971978867 -126.45137083574082 0 0 0 0 1431.6908973342724 7.4924053220129281 0 7.4924053220129281 -300.4699044279696 0 0 0 0 3776.5330518189585 1232.9475145685137 0 1232.9475145685137 -215.98508093002602 0 0 0 0 1045.6161272351019 1892.3725399034447 0 1892.3725399034447 1200.7850007493107 0 0 0 0 209.37822941548075 160.82569979436812 0 160.82569979436812 1078.6475291706447 0 0 0 0 622.51472477217612 952.84353753997129 0 952.84353753997129 327.75811575131956 0 0 0 0 583.1422844725239 -459.53428703905956 0 -459.53428703905956 521.93076682147512 0 0 0 0 -428.50961638319859 451.41648195036396 0 451.41648195036396 274.5450871224748 0 0 0 0 488.18751440035703 25.495833404522273 0 25.495833404522273 -151.69441378681222 0 0 0 0 178.06194836969371 349.51283527660416 0 349.51283527660416 74.370063907641452 0 0 0 0 -461.4418937895316 340.58101679387619 0 340.58101679387619 270.70244635117706 0 0 0 0 -670.20282691369357 267.2821790274902 0 267.2821790274902 268.48543737603177 0 0 0 0 -507.46023625492671 554.70475008588983 0 554.70475008588983 7.1510951283271424 0 0 0 0 -161.6513859413426 48.813975477311033 0 48.813975477311033 -623.71257726912154 0 0 0 0 -115.9204134383981 -129.63050572120119 0 -129.63050572120119 60.574716917792102 0 0 0 0 -644.76953382507781 -344.2139329656784 0 -344.2139329656784 -103.81800604502496 0 0 0 0 -126.64386637295866 611.63178619364044 0 611.63178619364044 -418.94818189222133 0 0 0 0 199.28117237306287 -262.16798781078251 0 -262.16798781078251 -591.87007879811244 0 0 0 0 -91.643101067229509 75.849802395154256 0 75.849802395154256 502.13328915390593 0 0 0 0 15.31107342042344 -2.2332728987049677 0 -2.2332728987049677 -0.38507363679873663 0 0 0 0 -670.95751723374997 -138.95623515578336 0 -138.95623515578336 563.41113546756969 0 0 0 0 8.4923078304673254 342.29737732736976 0 342.29737732736976 74.099237114749485 0 0 0 0 -0.20625660561199766 200.89099194277878 0 200.89099194277878 791.86832601364586 0 0 0 0 3.1193234901024596 2.2703023656844721 0 2.2703023656844721 1.0760539778207345 0 0 0 0 114.21953819764167 284.06439569705253 0 284.06439569705253 251.21481445652898 0 0 0 0 235.34656243392237 459.47275605366303 0 459.47275605366303 74.505190993724682 0 0 0 0 296.47998420715521 444.49142019316423 0 444.49142019316423 -383.32278970410698 0 0 0 0 146.22223741380731 52.066469217075792 0 52.066469217075792 -842.45918953896398 0 0 0 0 -12.478860315826779 6.861211292298492 0 6.861211292298492 -5.0137439734864415 0 0 0 0 107.31497210642192 113.35147706077987 0 113.35147706077987 -269.65503666103905 0 0 0 0 152.87163478818002 231.23932567801603 0 231.23932567801603 9.4358305462956196 0 0 0 0 -19.328597799690904 26.52019976513219 0 26.52019976513219 -17.873358279979243 0 0 0 0 55.179653313025938 137.84726287343074 0 137.84726287343074 -71.977492333193368 0 0 0 0 52.274153259655577 112.04587967428961 0 112.04587967428961 -24.531009108826765 0 0 0 0 -87.728629878805805 21.007858458488045 0 21.007858458488045 101.18427975011582 0 0 0 0 -224.49169387269649 135.72593823056377 0 135.72593823056377 6.4090917273624655 0 0 0 0 -261.95750361954924 211.51576637005928 0 211.51576637005928 42.996226627350552 0 0 0 0 -530.38967221813687 537.71821812141388 0 537.71821812141388 -77.102153576095589 0 0 0 0 -571.66915207320926 42.213149780967797 0 42.213149780967797 105.00913653199677 0 0 0 0 305.76431673053776 90.674182004575414 0 90.674182004575414 -114.18647838088509 0 0 0 0 -34.662816065247171 555.25492574952659 0 555.25492574952659 251.35568009610142 0 0 0 0 49.870038839697372 490.46001083533338 0 490.46001083533338 -628.57090508227429 0 0 0 0 -174.21683672110157 262.41924523991474 0 262.41924523991474 105.60557178339513 0 0 0 0 -62.343088568006351 418.44528672215529 0 418.44528672215529 154.027274919099 0 0 0 0 64.465859545151034 341.05897005536099 0 341.05897005536099 -9.826847102958709 0 0 0 0 250.48186913882091 466.34014575264882 0 466.34014575264882 -12.494663888760897 0 0 0 0 360.6509558052021 437.84255428049801 0 437.84255428049801 -229.6039471863769 0 0 0 0 395.19486058792972 401.97076614643447 0 401.97076614643447 -203.26655213324557 0 0 0 0 60.980297978854651 245.0742326612235 0 245.0742326612235 -160.54541056658491 0 0 0 0 16.206254364140477 114.28348509767602 0 114.28348509767602 -381.21628415363375 0 0 0 0 405.9883213400135 435.67592173180492 0 435.67592173180492 -149.82772381589166 0 0 0 0 412.82251427444862 541.42592527685338 0 541.42592527685338 -113.82769235954038 0 0 0 0 -194.97779577977053 180.57977490688791 0 180.57977490688791 -59.486346229561605 0 0 0 0 -159.44175922704017 131.83767232077662 0 131.83767232077662 6.6276649761930457 0 0 0 0 -141.23823695562896 276.17080810802872 0 276.17080810802872 64.989692247625499 0 0 0 0 8.6364080194107373 325.17117440469156 0 325.17117440469156 -57.146375675598392 0 0 0 0 43.39564427032019 265.36511468639947 0 265.36511468639947 -390.65701878926484 0 0 0 0 -211.22850001051847 297.59067265066551 0 297.59067265066551 -193.47815864550648 0 0 0 0 -179.48610068624839 253.78101049788529 0 253.78101049788529 -231.76252368942369 0 0 0 0 -83.877459523522703 223.96328436076874 0 223.96328436076874 -167.54677531833295 0 0 0 0 -102.47461868410755 238.96337207464967 0 238.96337207464967 -50.595041932050663 0 0 0 0 276.59647544200834 653.91209093070756 0 653.91209093070756 868.43533655774081 0 0 0 0 -34.464442693333751 24.598508521731901 0 24.598508521731901 -11.412669012011321 0 0 0 0 -16.820538842333917 213.21419512269495 0 213.21419512269495 -306.8962328110938 0 0 0 0 30.852350905450294 155.90213896869682 0 155.90213896869682 -656.1300972760655 0 0 0 0 69.293216965947067 226.08943444180477 0 226.08943444180477 -1392.2259946250124 0 0 0 0 -665.34236269147368 714.74052716873121 0 714.74052716873121 -918.31221581425052 0 0 0 0 -515.49330402421765 164.07080439751735 0 164.07080439751735 -379.33340769191273 0 0 0 0 -239.95751472694246 431.8009691357438 0 431.8009691357438 -754.93092216353398 0 0 0 0 80.808143434725935 -76.798211552959401 0 -76.798211552959401 -900.61805269052275 0 0 0 0 208.38639799166413 310.55911895688041 0 310.55911895688041 -744.04419232712826 0 0 0 0 -0.59240702585996985 6.2071009721907444 0 6.2071009721907444 -2.2946080695482749 0 0 0 0 5.2740866621368383 2.3099098570619958 0 2.3099098570619958 -4.5318139617964448 0 0 0 0 211.77474792665453 633.00508006309974 0 633.00508006309974 1466.9615221197673 0 0 0 0 192.43604352885995 466.77854503236085 0 466.77854503236085 201.58740580719314 0 0 0 0 211.68117473335587 491.83693825364753 0 491.83693825364753 223.75046670147276 0 0 0 0 703.71174017814337 1022.1704941664357 0 1022.1704941664357 151.98421045902069 0 0 0 0 211.60647014246206 452.0701795850473 0 452.0701795850473 883.08602926264575 0 0 0 0 204.93876855981216 362.00019809824153 0 362.00019809824153 -343.56169157027034 0 0 0 0 813.04627029132098 603.07973133146879 0 603.07973133146879 -879.6169296122971 0 0 0 0 598.91029715676268 344.45044293698447 0 344.45044293698447 455.51324510655832 0 0 0 0 9.6744497793042683 137.69050141294429 0 137.69050141294429 483.31366051633086 0 0 0 0 9.0467106098149088 161.04569895096938 0 161.04569895096938 164.74426769204729 0 0 0 0 214.95732791809496 63.922125181845331 0 63.922125181845331 209.80661824595882 0 0 0 0 181.80031137496917 370.45999226951244 0 370.45999226951244 528.13460377109004 0 0 0 0 -10.077272337719478 60.052010038351 0 60.052010038351 399.86275826995552 0 0 0 0 7.5107358956720418 497.80534273465128 0 497.80534273465128 911.9923893288651 0 0 0 0 32.346833966078236 342.38269986158656 0 342.38269986158656 27.595777424998232 0 0 0 0 38.795960177011011 -92.241597241433112 0 -92.241597241433112 -174.11795399955008 0 0 0 0 35.210304247015301 -124.3061441502141 0 -124.3061441502141 130.65377245813579 0 0 0 0 601.36274778661027 1118.1412362901101 0 1118.1412362901101 -35.841963479688275 0 0 0 0 331.57992757811007 1012.3742865383829 0 1012.3742865383829 773.91251792763069 0 0 0 0 -35.979096570555129 24.891997615604396 0 24.891997615604396 -14.421112135289405 0 0 0 0 165.22258628738928 196.85666796629084 0 196.85666796629084 48.98365881479549 0 0 0 0 77.291838127159281 102.82609887868603 0 102.82609887868603 -61.217168940915144 0 0 0 0 36.015214833205391 20.362533390558383 0 20.362533390558383 -56.201569966426177 0 0 0 0 51.173700905837535 0.42785445902805463 0 0.42785445902805463 -7.0624187519875221 0 0 0 0 -20.40308526823901 196.02740484196693 0 196.02740484196693 -307.16976351232734 0 0 0 0 28.251560624252306 67.750225986390433 0 67.750225986390433 -175.09172858791135 0 0 0 0 99.039088693534723 51.580208264451358 0 51.580208264451358 -146.82962510128709 0 0 0 0 -6.4577623246627809 94.490621941291465 0 94.490621941291465 -47.843434633789002 0 0 0 0 60.040775723343387 5.4598028451946732 0 5.4598028451946732 -10.099068371560008 0 0 0 0 -64.863419751884066 103.93393539112731 0 103.93393539112731 -37.386492851648654 0 0 0 0 29.062646093323806 14.622615172008125 0 14.622615172008125 -6.5988388469495618 0 0 0 0 -1.24430015554546 14.381095900960304 0 14.381095900960304 -5.1202440719727065 0 0 0 0 738.53561319234723 -23.980378138949163 0 -23.980378138949163 -203.90886408271035 0 0 0 0 -119.63063198550662 -51.888315301723196 0 -51.888315301723196 88.415642545172886 0 0 0 0 288.03611546150933 160.36548910873535 0 160.36548910873535 93.693611373106251 0 0 0 0 19.126992060013436 -55.112134318318567 0 -55.112134318318567 -536.99436808231985 0 0 0 0 -29.46036250868201 -90.667363897977339 0 -90.667363897977339 13.886921229117434 0 0 0 0 -8.0371024410056577 2.2125473888158922 0 2.2125473888158922 2.0273125499313664 0 0 0 0 28.765885115124547 70.937731410915148 0 70.937731410915148 -92.919416500197258 0 0 0 0 41.612496313880911 -45.699689685134217 0 -45.699689685134217 -191.03120043556555 0 0 0 0 -253.990075800044 709.15051648150256 0 709.15051648150256 -1759.1986199111852 0 0 0 0 -2767.7794789003128 500.96663290007564 0 500.96663290007564 -215.72771239088615 0 0 0 0 -1335.3961959843891 -55.860327146958298 0 -55.860327146958298 -409.13549478066852 0 0 0 0 -236.56344556198746 547.5742856808065 0 547.5742856808065 -644.66898720798781 0 0 0 0 547.26454713968269 456.38698963429488 0 456.38698963429488 -860.6448810887814 0 0 0 0 1181.8036459569594 36.479430372222851 0 36.479430372222851 -1058.6803960500547 0 0 0 0 -4.503188210147762 16.54495448407198 0 16.54495448407198 -18.010836390118186 0 0 0 0 1374.7988881434467 829.78911832583253 0 829.78911832583253 -892.51389820344048 0 0 0 0 444.83357434684694 709.8146244120544 0 709.8146244120544 250.59470752745983 0 0 0 0 1305.3832490286441 377.65238551101356 0 377.65238551101356 -174.94763668300584 0 0 0 0 311.94137356148713 172.96868141363666 0 172.96868141363666 -154.14757018870478 0 0 0 0 660.03166726782911 594.28606657374257 0 594.28606657374257 138.51279372845602 0 0 0 0 1080.9650011956983 -93.484813323695562 0 -93.484813323695562 -600.08763444444048 0 0 0 0 86.434235000028821 375.28567189669229 0 375.28567189669229 359.34985191305168 0 0 0 0 -1231.985085893044 -94.934477524482645 0 -94.934477524482645 704.6649127327255 0 0 0 0 -1858.5185212491197 530.21888345642947 0 530.21888345642947 1032.0752573837526 0 0 0 0 -1916.4929403837523 694.51394264772534 0 694.51394264772534 661.00831779626606 0 0 0 0 -6.1106450268576253 11.022113069230812 0 11.022113069230812 -2.7436227258671124 0 0 0 0 -1784.3160035403207 1141.7220058438888 0 1141.7220058438888 -11.437991143815452 0 0 0 0 -136.30712685888284 -119.64247414140846 0 -119.64247414140846 290.94133597594919 0 0 0 0 -1289.2455021361329 505.90267226323431 0 505.90267226323431 -416.30370102138841 0 0 0 0 -1676.1867072391287 527.95618053957151 0 527.95618053957151 499.3760285837343 0 0 0 0 -4.5642074161108539 11.992257338064718 0 11.992257338064718 -9.6676809584391208 0 0 0 0 -1415.034471289257 1478.1161543226281 0 1478.1161543226281 -105.66201182996156 0 0 0 0 -2326.7297134607134 1912.4597969665829 0 1912.4597969665829 1916.733824565541 0 0 0 0 -20.213035683009366 -52.627750645842752 0 -52.627750645842752 -352.91795650079439 0 0 0 0 1496.2421704546578 527.32753046320795 0 527.32753046320795 -796.56946665234864 0 0 0 0 683.12680586278475 700.43196907027959 0 700.43196907027959 -381.47276598210738 0 0 0 0 -419.07227765805146 966.87155127908045 0 966.87155127908045 -378.84709143827331 0 0 0 0 -142.95477941067475 431.00678686534229 0 431.00678686534229 116.55193190477439 0 0 0 0 -247.36259861838971 774.52461991317614 0 774.52461991317614 -186.41124790484901 0 0 0 0 -1040.1528617350632 29.950347571433667 0 29.950347571433667 -281.8387591073988 0 0 0 0 317.63916927702667 477.74824508569145 0 477.74824508569145 -134.53727408226405 0 0 0 0 296.85641721398497 347.37768292895635 0 347.37768292895635 -1051.2098631228728 0 0 0 0 103.52618122636613 17.464875237751585 0 17.464875237751585 -55.168713600418414 0 0 0 0 -240.68249304396704 179.71229469163882 0 179.71229469163882 -26.430710236221785 0 0 0 0 -274.28878991386591 272.19867710836115 0 272.19867710836115 -74.958742655020615 0 0 0 0 -3.5048989463684848 -26.369158388297365 0 -26.369158388297365 183.1853241083154 0 0 0 0 188.96979768961319 380.62596561531973 0 380.62596561531973 138.8492505454451 0 0 0 0 -26.193102350227505 21.307182137408319 0 21.307182137408319 -14.767141673051469 0 0 0 0 356.25668707811928 -155.5628891647757 0 -155.5628891647757 -502.56621271146287 0 0 0 0 -709.09605799558631 369.46836455824814 0 369.46836455824814 371.11269072385403 0 0 0 0 -10.44580945295705 8.3176137901740788 0 8.3176137901740788 -6.4352644325527137 0 0 0 0 598.97006072662134 155.03821888483071 0 155.03821888483071 -1437.3423916706088 0 0 0 0 -273.93526028435735 453.87590535481286 0 453.87590535481286 273.11333225204726 0 0 0 0 -40.77292363132031 39.856828539247459 0 39.856828539247459 -8.9152217712484259 0 0 0 0 -1411.5663864263806 301.37872308152873 0 301.37872308152873 267.95176801804337 0 0 0 0 332.9391703644651 433.69128331726097 0 433.69128331726097 -1416.5784078320139 0 0 0 0 -38.958570358026918 135.64953352366138 0 135.64953352366138 522.16770875681686 0 0 0 0 566.02179426001385 195.04055083106141 0 195.04055083106141 -1244.2585578024737 0 0 0 0 -30.02260668072816 16.251346436867209 0 16.251346436867209 -9.202591114272991 0 0 0 0 53.385791052550935 3.8608041194484315 0 3.8608041194484315 0.32089019213930214 0 0 0 0 353.19473531310359 213.67308767955183 0 213.67308767955183 -206.26092468513525 0 0 0 0 -325.51951342949542 232.62039185678441 0 232.62039185678441 180.09567472356866 0 0 0 0 430.86997194829019 -253.78103783962433 0 -253.78103783962433 -52.926912461240136 0 0 0 0 -862.28765641843347 873.92057254402607 0 873.92057254402607 -77.824015923313709 0 0 0 0 -290.09044372757489 1052.4613776402912 0 1052.4613776402912 -689.86520835504052 0 0 0 0 191.39360107539687 -180.69968816633627 0 -180.69968816633627 -1291.0659690040848 0 0 0 0 -73.916909804276656 745.07395863202692 0 745.07395863202692 -256.14942831156077 0 0 0 0 284.1846955570727 -710.39100645801227 0 -710.39100645801227 31.962999164157736 0 0 0 0 44.585842240795031 43.284974978354278 0 43.284974978354278 -4.9678915706450084 0 0 0 0 220.50277277775967 287.76824321945605 0 287.76824321945605 -103.23566704441328 0 0 0 0 42.64380435709846 71.473624221951439 0 71.473624221951439 -17.680453784720783 0 0 0 0 65.772717829393514 46.768054296539049 0 46.768054296539049 -28.332042184847523 0 0 0 0 27.797877278651868 137.98177123541427 0 137.98177123541427 -16.237783931428567 0 0 0 0 32.43007160484585 45.942216142806828 0 45.942216142806828 10.347376331731823 0 0 0 0 42.32658375265504 47.655289297241325 0 47.655289297241325 -21.035589520740729 0 0 0 0 35.24697490784456 87.903048994030542 0 87.903048994030542 -20.568618072895333 0 0 0 0 -66.039582382916706 76.02281598476111 0 76.02281598476111 -46.092262133141048 0 0 0 0 -7.8578513171523809 93.611959183996078 0 93.611959183996078 -21.603386666160077 0 0 0 0 -88.00868337583961 98.912168365088291 0 98.912168365088291 -30.117006615531864 0 0 0 0 18.148480711288357 24.890756719598414 0 24.890756719598414 -16.438308731677495 0 0 0 0 -11.418238027050393 102.09339406232903 0 102.09339406232903 -38.770394770544954 0 0 0 0 -36.056966667529196 109.0194779735466 0 109.0194779735466 -40.104449278180255 0 0 0 0 -43.288061208208092 99.67399207528797 0 99.67399207528797 -32.645769091395778 0 0 0 0 -31.127321119827684 107.25967807785491 0 107.25967807785491 -40.283039702917449 0 0 0 0 82.484266460145591 86.40887156095414 0 86.40887156095414 -46.902777006718679 0 0 0 0 94.161808587723499 60.453612565070216 0 60.453612565070216 -37.949372307382873 0 0 0 0 99.647757848592477 63.914205248213719 0 63.914205248213719 -10.101184803070623 0 0 0 0 80.993367742652481 68.42419458889708 0 68.42419458889708 -53.704960745613789 0 0 0 0 94.921387595517444 86.771978761229548 0 86.771978761229548 -39.931448896139045 0 0 0 0 31.570505142713955 80.073861660057446 0 80.073861660057446 -32.487318887375295 0 0 0 0 18.786531650664983 87.49571264028782 0 87.49571264028782 -66.725511297408957 0 0 0 0 20.738101758100392 64.10691869286606 0 64.10691869286606 -49.095304409497032 0 0 0 0 -59.347882115864195 43.98154848399281 0 43.98154848399281 -71.283449794223998 0 0 0 0 7.1949127759871772 76.44091216524248 0 76.44091216524248 -62.625985818944173 0 0 0 0 -528.97356554706857 50.671949521289207 0 50.671949521289207 525.40520962977462 0 0 0 0 2.6797139130503638 422.98785949426383 0 422.98785949426383 -167.11168502198416 0 0 0 0 -82.186049356772855 -285.59859587710525 0 -285.59859587710525 196.08636519146967 0 0 0 0 7.8238498755818 363.08329812470765 0 363.08329812470765 136.32103717128484 0 0 0 0 82.376584770539921 86.730663722148165 0 86.730663722148165 -21.652187727486307 0 0 0 0 137.86541929738451 63.768372135167738 0 63.768372135167738 -29.032172930354136 0 0 0 0 85.559445126829814 94.689832978951017 0 94.689832978951017 -39.837106934224721 0 0 0 0 93.600754610667266 63.037162812596215 0 63.037162812596215 -11.899496671296447 0 0 0 0 28.495351797639778 14.097742685089386 0 14.097742685089386 -3.464803569136734 0 0 0 0 -388.90022186739952 128.3533011129548 0 128.3533011129548 51.812986133256345 0 0 0 0 147.80988122461713 87.839979998738272 0 87.839979998738272 -350.72839215414569 0 0 0 0 9.8042775222054459 4.1346881843048635 0 4.1346881843048635 -2.7870108926489934 0 0 0 0 511.35663070796181 622.3184709335801 0 622.3184709335801 -360.93837765220087 0 0 0 0 992.34067719432551 -360.69563463197301 0 -360.69563463197301 41.431892470747698 0 0 0 0 481.40576446409978 407.04768161596439 0 407.04768161596439 -122.83802098934939 0 0 0 0 -282.57849330901445 438.21285314942361 0 438.21285314942361 -122.85836252015997 0 0 0 0 -103.20157082674814 233.96659037678546 0 233.96659037678546 -322.1540855695348 0 0 0 0 -59.982206908229273 245.51835974074493 0 245.51835974074493 -322.63021889773904 0 0 0 0 -89.123165675275231 284.51430031059135 0 284.51430031059135 -325.13815079933556 0 0 0 0 -77.823123731857777 332.89004984908388 0 332.89004984908388 -344.01698360906448 0 0 0 0 -140.52334359418819 371.528534285153 0 371.528534285153 -368.39793719285808 0 0 0 0 -169.83622884126089 400.64203119069862 0 400.64203119069862 -373.58204441159614 0 0 0 0 -154.88410343173746 350.55527334193175 0 350.55527334193175 -282.74523546760611 0 0 0 0 -98.21003874440612 251.869154855136 0 251.869154855136 -267.44729942268168 0 0 0 0 -173.80390397367592 359.29521515754459 0 359.29521515754459 -139.82279666962859 0 0 0 0 -156.98557962371342 637.14607770898874 0 637.14607770898874 -406.27555526918877 0 0 0 0 18.04200427109572 472.52876649032078 0 472.52876649032078 -915.07516037856112 0 0 0 0 41.136521368189278 349.96197813897743 0 349.96197813897743 -424.70931620096781 0 0 0 0 -129.46010213457339 388.86331531769247 0 388.86331531769247 -432.37406823899073 0 0 0 0 48.273457839928597 49.394961211335612 0 49.394961211335612 -369.72195106436266 0 0 0 0 7.6223841836690553 134.111387854231 0 134.111387854231 -332.71016990346834 0 0 0 0 64.207442781702412 -62.959812141234579 0 -62.959812141234579 -870.30103577827686 0 0 0 0 -446.60163150661538 -48.62961227267806 0 -48.62961227267806 -216.15520570496301 0 0 0 0 -181.23150049041351 949.37042020613535 0 949.37042020613535 -1173.5752318780142 0 0 0 0 377.58709280893527 -628.65747160766477 0 -628.65747160766477 -2619.0148962979292 0 0 0 0 -73.190684806468198 390.0018646530516 0 390.0018646530516 -993.97109991621983 0 0 0 0 462.81013116788381 -83.09274883888429 0 -83.09274883888429 224.44789052906708 0 0 0 0 -8.287382155109583 5.4482826054362761 0 5.4482826054362761 -3.9661817301631856 0 0 0 0 -153.74044546253253 580.92178189223978 0 580.92178189223978 567.51993781489728 0 0 0 0 -1051.1158271407621 481.62560849398142 0 481.62560849398142 502.26306090684011 0 0 0 0 -1941.6437382528602 1606.9068002195054 0 1606.9068002195054 126.50220350932796 0 0 0 0 -2703.3978558753588 1527.6998585065958 0 1527.6998585065958 185.75129071144329 0 0 0 0 -1384.7728723753316 2360.7835199256333 0 2360.7835199256333 -1910.8826117574936 0 0 0 0 -13.854264556634746 15.873157614664962 0 15.873157614664962 -14.485021900383401 0 0 0 0 1406.9220557190347 834.35924976486785 0 834.35924976486785 -2312.8972423315281 0 0 0 0 -954.98662119448272 15.458620626246557 0 15.458620626246557 -851.37258483566984 0 0 0 0 9.9533627484197496 -730.76820723180208 0 -730.76820723180208 -490.16638408065774 0 0 0 0 -909.52065631942241 402.13525711628608 0 402.13525711628608 -135.03645348460122 0 0 0 0 -27.006990725178582 4.8126173530172309 0 4.8126173530172309 -0.54885273596082129 0 0 0 0 -2225.124775942757 512.9377361737279 0 512.9377361737279 -32.451414263923652 0 0 0 0 -465.4257788900868 779.1248213710569 0 779.1248213710569 -311.45356954427552 0 0 0 0 1063.8319030802668 2125.2719270238667 0 2125.2719270238667 -670.57567933567952 0 0 0 0 -1187.6566994871246 -728.81675501915743 0 -728.81675501915743 -29.822926604974782 0 0 0 0 -27.170413338335322 32.709486697268716 0 32.709486697268716 -28.768187178681615 0 0 0 0 -1975.6907028651221 -410.58742581700426 0 -410.58742581700426 1335.1727881124389 0 0 0 0 -870.48043601235258 -955.63674692231143 0 -955.63674692231143 -784.27917345956666 0 0 0 0 -27.748107312917597 26.897372609480385 0 26.897372609480385 -16.364142252737906 0 0 0 0 -161.52646649320377 593.60323006920953 0 593.60323006920953 561.02510960640211 0 0 0 0 -722.0811290812635 -64.988762030705402 0 -64.988762030705402 188.02929430601944 0 0 0 0 605.47476393585021 142.32176104682731 0 142.32176104682731 490.7358307462855 0 0 0 0 905.83920415699686 225.42233453593508 0 225.42233453593508 60.03955791043154 0 0 0 0 626.31262476048141 1050.8323198821454 0 1050.8323198821454 -294.84314465371426 0 0 0 0 493.38238323068799 426.97995881685529 0 426.97995881685529 14.119448717392515 0 0 0 0 691.73222926366725 823.6133614923383 0 823.6133614923383 -55.951476593181724 0 0 0 0 -887.52678332249343 1016.3418034873648 0 1016.3418034873648 136.56260632471822 0 0 0 0 -966.22881026829418 932.36350635097915 0 932.36350635097915 97.249415370053612 0 0 0 0 -108.69642052068957 572.64321865077363 0 572.64321865077363 -33.162590308667859 0 0 0 0 -889.64648575655883 1136.09466621506 0 1136.09466621506 17.875295507939882 0 0 0 0 -1498.1663766536876 1037.6864603562863 0 1037.6864603562863 -170.17382323300262 0 0 0 0 -1020.1050334951178 896.45108826898104 0 896.45108826898104 -349.25922900794831 0 0 0 0 -1483.922733553838 1218.7614039512773 0 1218.7614039512773 -525.35599702080799 0 0 0 0 0.41415784681521473 5.8455422864514262 0 5.8455422864514262 6.0793740373860601 0 0 0 0 -1846.2184246978431 2152.9433153135251 0 2152.9433153135251 -1224.8821059843904 0 0 0 0 -1706.0484045782796 1564.8857741838219 0 1564.8857741838219 38.059501734780497 0 0 0 0 -1537.2919292018196 1572.9503766480339 0 1572.9503766480339 -265.38930882181739 0 0 0 0 0.080854420802978666 11.752914917487466 0 11.752914917487466 20.446564435704857 0 0 0 0 -109.74508147022425 102.13728184015054 0 102.13728184015054 -15.189822471700609 0 0 0 0 -1667.5456552602118 1012.5474323490344 0 1012.5474323490344 -738.15891703408124 0 0 0 0 -1763.9511313449766 1290.3283386406329 0 1290.3283386406329 -517.54201923815526 0 0 0 0 -160.24985550441488 116.52143778408208 0 116.52143778408208 10.433618055098123 0 0 0 0 -93.49176178027119 148.91655130063009 0 148.91655130063009 8.0205347031005658 0 0 0 0 -34.926614724769024 134.3634324017039 0 134.3634324017039 -18.406886873184703 0 0 0 0 -48.221940843461198 134.44724838325055 0 134.44724838325055 -8.1318262087588664 0 0 0 0 -71.963568479317473 121.22987477235438 0 121.22987477235438 -21.608464353368618 0 0 0 0 4.8675226927298354 183.69562139531627 0 183.69562139531627 29.399524452688638 0 0 0 0 -72.314256457164447 206.92402554941145 0 206.92402554941145 86.572169760067482 0 0 0 0 21.199215437329258 209.40397885344282 0 209.40397885344282 -70.142719188355841 0 0 0 0 32.604242548317416 276.98636351041205 0 276.98636351041205 96.513663301304405 0 0 0 0 -556.52906093293859 900.89859004745813 0 900.89859004745813 932.411762828051 0 0 0 0 -96.492752374286283 -113.65366351175908 0 -113.65366351175908 794.45140595336852 0 0 0 0 69.138279424863867 514.29034885739384 0 514.29034885739384 -433.90533696490456 0 0 0 0 70.939609230777705 414.55033548924507 0 414.55033548924507 -177.79575688854675 0 0 0 0 180.77462127801846 104.52156971699878 0 104.52156971699878 -162.40227740685805 0 0 0 0 148.46817757827193 146.55633904837805 0 146.55633904837805 -108.07947206392419 0 0 0 0 156.53698806275497 239.44266784081992 0 239.44266784081992 -438.40157984456164 0 0 0 0 289.92286122226506 35.210847733729679 0 35.210847733729679 196.95676377823111 0 0 0 0 158.02942772815004 120.39712306298316 0 120.39712306298316 -72.967367238816223 0 0 0 0 141.12236031705854 96.900469219735498 0 96.900469219735498 -8.3001906117955855 0 0 0 0 147.59329819661798 183.58565844356781 0 183.58565844356781 -174.75175947739626 0 0 0 0 141.68327981155016 166.13940866616031 0 166.13940866616031 -91.213567969629366 0 0 0 0 108.75400717792218 152.80811827527941 0 152.80811827527941 -46.368333448743215 0 0 0 0 -1520.3423351091769 1502.3730118628446 0 1502.3730118628446 -598.64063882830669 0 0 0 0 -1510.9308721556299 1402.937382142105 0 1402.937382142105 164.72541163198184 0 0 0 0 -1003.9133742793783 1980.4825989860983 0 1980.4825989860983 -592.85368926505907 0 0 0 0 -1315.6280055073439 674.21117011363094 0 674.21117011363094 -556.60754796852416 0 0 0 0 -8.7766143094728193 6.921084745090468 0 6.921084745090468 -4.3821192970986544 0 0 0 0 187.50317089380405 87.000086250111053 0 87.000086250111053 -1568.552220469046 0 0 0 0 -672.2663208337508 985.27064752870137 0 985.27064752870137 -118.70545209976262 0 0 0 0 -535.38413287341245 1423.4576574715611 0 1423.4576574715611 -1639.459608743884 0 0 0 0 -585.8774617320596 1237.6300279762654 0 1237.6300279762654 -2538.0843349526549 0 0 0 0 -1033.4179221273225 1281.7493506962928 0 1281.7493506962928 -1678.8135991231102 0 0 0 0 -978.78453091929259 1543.8308941827709 0 1543.8308941827709 -601.15048687137187 0 0 0 0 -768.76112000070862 604.90422505282186 0 604.90422505282186 -528.26125984975079 0 0 0 0 -190.01426513370825 309.66435211131466 0 309.66435211131466 -994.32686656399164 0 0 0 0 -568.23700803960855 899.66059886725543 0 899.66059886725543 -558.86653218237916 0 0 0 0 316.24437990262231 -254.27521381367114 0 -254.27521381367114 18.512500209606515 0 0 0 0 -290.84320365950407 173.9373418507239 0 173.9373418507239 -41.407025925465859 0 0 0 0 311.44427418829582 -48.917531121565844 0 -48.917531121565844 -137.24446798419376 0 0 0 0 -233.89141871052561 -183.31037215193646 0 -183.31037215193646 262.76072715733608 0 0 0 0 12.937468124604379 10.968296548367903 0 10.968296548367903 2.5887905938642248 0 0 0 0 320.60680556004081 46.70234427612013 0 46.70234427612013 -565.76723453582963 0 0 0 0 305.24101838721276 89.286874916862871 0 89.286874916862871 -108.26411981295678 0 0 0 0 138.71673421411103 111.23441050024036 0 111.23441050024036 -3.077959703466604 0 0 0 0 311.10989065295871 130.42015002395783 0 130.42015002395783 -406.35452360195632 0 0 0 0 70.685577622964047 288.09874503816536 0 288.09874503816536 -161.97934255050495 0 0 0 0 -31.988216909028779 -193.60237729421351 0 -193.60237729421351 83.92605212944909 0 0 0 0 557.02558181105633 218.13711369433804 0 218.13711369433804 -122.72686939232517 0 0 0 0 164.30935038073221 53.830086592322914 0 53.830086592322914 -15.511698189809977 0 0 0 0 29.004912325304844 28.419724089306015 0 28.419724089306015 -17.822184055512821 0 0 0 0 171.20865826890804 103.03371662723657 0 103.03371662723657 -58.401805306984897 0 0 0 0 113.43636032560607 99.884098872280447 0 99.884098872280447 2.6389448401605478 0 0 0 0 119.62344430139638 158.13171947297815 0 158.13171947297815 -78.156147845322266 0 0 0 0 252.35820152963424 -6.2912055375418277 0 -6.2912055375418277 33.864380816143239 0 0 0 0 47.907255154126545 54.131073046601728 0 54.131073046601728 -2.7374370065961671 0 0 0 0 23.611999483044031 70.250825942980441 0 70.250825942980441 -5.0959404131301262 0 0 0 0 5.4009547193727201 95.056248751512612 0 95.056248751512612 -16.665158486853045 0 0 0 0 338.40459653110884 235.03623414348112 0 235.03623414348112 -0.89463546366096125 0 0 0 0 43.325150132382987 76.409589595459693 0 76.409589595459693 -25.41096948646009 0 0 0 0 -15.246118438997655 390.68027109070681 0 390.68027109070681 -369.20684300277208 0 0 0 0 -428.05205337361258 400.86213378024695 0 400.86213378024695 887.65195165814657 0 0 0 0 -8.8294985289019934 14.084472280324519 0 14.084472280324519 -3.119978692477229 0 0 0 0 283.56447833855054 215.58658864986501 0 215.58658864986501 3.027150852343766 0 0 0 0 202.03349116115351 142.33405674240203 0 142.33405674240203 -5.6592011491011363 0 0 0 0 298.22514914593739 173.63815302588773 0 173.63815302588773 1.1002566089737229 0 0 0 0 -10.532217162872257 99.161594527649868 0 99.161594527649868 -32.094565527921077 0 0 0 0 39.196883560129208 32.021886321679631 0 32.021886321679631 -193.29104472012841 0 0 0 0 -44.855993953414156 59.656095999253466 0 59.656095999253466 -23.063121279791574 0 0 0 0 3.987404551327927 123.96519213818829 0 123.96519213818829 6.120734398091372 0 0 0 0 -5.2529774318463751 127.90189939941047 0 127.90189939941047 -34.454841383519124 0 0 0 0 1.9050066405056896 88.126195147900944 0 88.126195147900944 -30.648474092551623 0 0 0 0 -495.97301070095273 251.30635428189271 0 251.30635428189271 452.73847648326773 0 0 0 0 -338.25302630424267 1123.9023230530001 0 1123.9023230530001 -1034.1429894959438 0 0 0 0 47.509227414919323 38.555605991848182 0 38.555605991848182 -1.48408118772943 0 0 0 0 -1590.3329707677458 860.34031474433687 0 860.34031474433687 181.27470965767861 0 0 0 0 5.15918507307304 8.4169172637150211 0 8.4169172637150211 -3.0426730075299702 0 0 0 0 19.560188730480149 30.218922164316609 0 30.218922164316609 264.64974463809631 0 0 0 0 41.095383700579987 41.921554642452975 0 41.921554642452975 -28.522421188186854 0 0 0 0 57.61579998430534 84.777330322514899 0 84.777330322514899 -34.581681070994819 0 0 0 0 -77.059060481566121 104.0414101497372 0 104.0414101497372 94.027943036173383 0 0 0 0 76.152386629439277 50.502674740751871 0 50.502674740751871 17.839244316728696 0 0 0 0 -22.733280672502588 256.64544615089835 0 256.64544615089835 -30.114153856825737 0 0 0 0 63.71616217846659 45.91107453563464 0 45.91107453563464 18.608296376244027 0 0 0 0 -34.735407847590977 120.26028077908995 0 120.26028077908995 5.7642614566793782 0 0 0 0 86.463248133164598 64.984063884985517 0 64.984063884985517 -47.606592725374867 0 0 0 0 253.60243716914556 68.660626784490887 0 68.660626784490887 -49.486037058755755 0 0 0 0 160.48349458194571 157.69659371832677 0 157.69659371832677 3.937575844101957 0 0 0 0 6.7865441777566815 7.6617001876481297 0 7.6617001876481297 -20.692276358708796 0 0 0 0 47.362673735944554 32.378697485786688 0 32.378697485786688 -6.9630839856399689 0 0 0 0 107.54111326861312 -2.4487865120900096 0 -2.4487865120900096 -53.813184465689119 0 0 0 0 102.9222156151227 -45.368736522177642 0 -45.368736522177642 50.152437455573818 0 0 0 0 556.48036669964495 -33.881355369871017 0 -33.881355369871017 -48.92533366792486 0 0 0 0 -2905.1213111088582 1291.7231290873387 0 1291.7231290873387 -753.01029082431342 0 0 0 0 40.843499133945443 176.03156387670606 0 176.03156387670606 485.84269787061203 0 0 0 0 3.0736834718712771 -3.1178689932811778 0 -3.1178689932811778 -0.18625920172046051 0 0 0 0 348.76366364472779 277.07884350382665 0 277.07884350382665 167.75506071545533 0 0 0 0 132.42637071676654 93.886195980463526 0 93.886195980463526 108.08661252632737 0 0 0 0 -530.61098995833891 407.16007974692911 0 407.16007974692911 -35.484507340337586 0 0 0 0 865.2951844069612 471.17636054824106 0 471.17636054824106 -957.13173761536018 0 0 0 0 830.39561510767089 89.538803739473224 0 89.538803739473224 -57.487047308997717 0 0 0 0 -3382.0219813375734 2107.0569650514917 0 2107.0569650514917 -804.92384410768864 0 0 0 0 2.3683388228526496 5.3764963977773164 0 5.3764963977773164 -8.00079442181584 0 0 0 0 -2712.5595903671056 2123.5193123233184 0 2123.5193123233184 -1363.6249346564291 0 0 0 0 -1298.3572320444655 1789.5831160819798 0 1789.5831160819798 -1640.7076099195983 0 0 0 0 -1090.0946556764684 1807.8208136514586 0 1807.8208136514586 -2090.7739535904875 0 0 0 0 -1552.7172205254756 1886.2203635867809 0 1886.2203635867809 -1597.9242087820021 0 0 0 0 -1972.893203618667 1238.72832037236 0 1238.72832037236 -838.16334035184991 0 0 0 0 -945.96870857579052 159.63934365513705 0 159.63934365513705 -1351.7426896520337 0 0 0 0 -796.17427654040239 556.09610161537466 0 556.09610161537466 -469.93147615366615 0 0 0 0 -785.23985692870338 653.32704747662501 0 653.32704747662501 -1103.2855580707255 0 0 0 0 -873.85069341286726 613.67738163277681 0 613.67738163277681 -908.44047646740546 0 0 0 0 -296.91713629966398 982.48453436711861 0 982.48453436711861 -1502.5055690453737 0 0 0 0 -1008.2693670517037 1035.8980208118446 0 1035.8980208118446 -1332.7259296910488 0 0 0 0 -1650.8830198329815 1437.2408254815964 0 1437.2408254815964 -1355.7617857968944 0 0 0 0 -1602.9177428966505 1386.3314782960369 0 1386.3314782960369 -1093.660513412513 0 0 0 0 -1591.3275312906771 1382.4631923815614 0 1382.4631923815614 -1220.1678026114532 0 0 0 0 -879.01218662406609 950.8244646305684 0 950.8244646305684 -1060.0328550719714 0 0 0 0 -1079.5616632735837 947.52838515449548 0 947.52838515449548 -879.70938041765476 0 0 0 0 -902.14181712889513 868.92833202877409 0 868.92833202877409 -630.30818403942976 0 0 0 0 -950.46041942122974 1044.2405543660207 0 1044.2405543660207 -782.43989832990337 0 0 0 0 -1153.6570486616911 1264.5662311364395 0 1264.5662311364395 -715.63136631675297 0 0 0 0 -1147.7123908002686 1217.3021457014256 0 1217.3021457014256 -898.33755878651573 0 0 0 0 -1155.2857470663512 1175.8741596381369 0 1175.8741596381369 -1080.200453220401 0 0 0 0 -1465.2281530000764 1410.9991386075708 0 1410.9991386075708 -842.0143928463367 0 0 0 0 -1693.4554712784302 1056.0234730219527 0 1056.0234730219527 -737.54349955477664 0 0 0 0 -1651.8312527457165 1182.8926827610121 0 1182.8926827610121 -596.67089366780419 0 0 0 0 -1373.1049292397947 861.6734683786417 0 861.6734683786417 -227.35155083975405 0 0 0 0 -1197.8828904567345 1210.5016730615171 0 1210.5016730615171 -701.76277038257103 0 0 0 0 -1141.898808152182 1205.6681077989633 0 1205.6681077989633 -716.63443704650854 0 0 0 0 -1228.9583380601744 1118.3222078222716 0 1118.3222078222716 -779.19478472045739 0 0 0 0 -1203.4659859096628 1257.6178598653551 0 1257.6178598653551 -760.38635324442293 0 0 0 0 -578.023038200874 959.96390958347183 0 959.96390958347183 -1484.5065966996553 0 0 0 0 -5.9601998424331555 1.4644112372903351 0 1.4644112372903351 -4.1133483774633817 0 0 0 0 2.7325236722535919 28.002504711686925 0 28.002504711686925 0.45552120538195595 0 0 0 0 -739.37188638529187 709.13396128443128 0 709.13396128443128 -129.18578748946311 0 0 0 0 2.0549600498270593 30.101561759202013 0 30.101561759202013 -1.4889389924937859 0 0 0 0 2.3574107961981383 16.132769215907992 0 16.132769215907992 5.8645873313709558 0 0 0 0 3.3958126328412419 11.082457179284219 0 11.082457179284219 -34.350358690887845 0 0 0 0 -281.60082657311432 434.55826548239565 0 434.55826548239565 -844.64338645036332 0 0 0 0 48.426439566886984 49.505735951664974 0 49.505735951664974 -52.392791142017813 0 0 0 0 11.721851637623331 31.026006951113231 0 31.026006951113231 -61.680788437544834 0 0 0 0 25.874691314933443 103.23818037364981 0 103.23818037364981 -99.385129352114745 0 0 0 0 55.604679880869725 50.411594307669915 0 50.411594307669915 -1.644486703727182 0 0 0 0 105.83220100677863 62.039342827054497 0 62.039342827054497 -96.339831067118212 0 0 0 0 -13.815180497282427 65.76979085229118 0 65.76979085229118 -12.684073628984805 0 0 0 0 -15.92086911934166 41.668577954354447 0 41.668577954354447 -16.545062936581559 0 0 0 0 -77.671058042556979 83.347470095875906 0 83.347470095875906 -19.604115313355578 0 0 0 0 10.607402937403094 48.860799458132533 0 48.860799458132533 -3.0886197452346096 0 0 0 0 48.75220371388815 45.832708749104526 0 45.832708749104526 6.2856649602428547 0 0 0 0 -113.26142015741789 109.78063584085612 0 109.78063584085612 -5.8700136335901334 0 0 0 0 -24.696095796543887 119.78412220635437 0 119.78412220635437 1.5234500492515508 0 0 0 0 22.823943988592958 26.260990025217481 0 26.260990025217481 36.01469116071388 0 0 0 0 -10.105650956829777 99.113494974088098 0 99.113494974088098 -31.362971541118895 0 0 0 0 45.106974935984283 30.351212517318103 0 30.351212517318103 9.713304067755189 0 0 0 0 12.677118418985629 40.984863654113724 0 40.984863654113724 -14.484063231007895 0 0 0 0 246.83620229442022 369.78756010071083 0 369.78756010071083 10.037888369365874 0 0 0 0 178.61051207520359 -120.14292541090981 0 -120.14292541090981 10.471686819441402 0 0 0 0 490.2527046824398 -49.010813317945576 0 -49.010813317945576 -290.55952488398179 0 0 0 0 -123.73353122614208 726.8580642473753 0 726.8580642473753 45.322545323899249 0 0 0 0 963.62184077048732 -50.956176681385841 0 -50.956176681385841 -81.385009191870267 0 0 0 0 1.7496673283305597 2.863066323143407 0 2.863066323143407 3.1301105115699102 0 0 0 0 -113.47531060458277 61.910046934470301 0 61.910046934470301 7.3326465092977742 0 0 0 0 -50.661053425748833 26.04027551235049 0 26.04027551235049 21.271835754145286 0 0 0 0 -17.730229150996394 15.425573166019234 0 15.425573166019234 -17.614284429493978 0 0 0 0 -375.91325723985756 214.38886440931674 0 214.38886440931674 -1656.0962446914054 0 0 0 0 -616.0022043680874 -479.31626785718254 0 -479.31626785718254 -1030.4042795373098 0 0 0 0 -361.74142054576805 -23.641490348585648 0 -23.641490348585648 -507.72332887211815 0 0 0 0 -529.73604504427931 1008.9084783416765 0 1008.9084783416765 -384.98797666761129 0 0 0 0 -786.93675940706635 833.72313790385488 0 833.72313790385488 173.5623648337496 0 0 0 0 -530.70900537708565 1042.2467933371017 0 1042.2467933371017 -1524.9952768666262 0 0 0 0 -628.65669878828589 -1696.6099499484194 0 -1696.6099499484194 -954.11161917992285 0 0 0 0 73.666558498636419 41.199948160783677 0 41.199948160783677 10.252487212875963 0 0 0 0 -692.99842288697255 1676.3096121194976 0 1676.3096121194976 -287.88019900841755 0 0 0 0 -1450.3268045565892 644.335837647468 0 644.335837647468 723.79501781641738 0 0 0 0 -376.66466839575696 1372.7737621495253 0 1372.7737621495253 -478.09753507637652 0 0 0 0 524.13454366408405 529.18700417742366 0 529.18700417742366 146.32321889152809 0 0 0 0 79.855198635143495 75.895831657702914 0 75.895831657702914 16.513717129628844 0 0 0 0 27.466291051729058 111.70157120293879 0 111.70157120293879 -61.261301194390398 0 0 0 0 25.902667416134136 113.05610160006836 0 113.05610160006836 -54.070135043511982 0 0 0 0 22.578208168815763 91.93598392738204 0 91.93598392738204 -36.02548201749596 0 0 0 0 -5.634537103389448 131.44109109033525 0 131.44109109033525 -26.921389523951802 0 0 0 0 15.635183677492336 46.146913911876013 0 46.146913911876013 27.362493898398725 0 0 0 0 -350.74737651819305 341.79406014725828 0 341.79406014725828 -194.62450232238916 0 0 0 0 -338.2579724178795 423.07982263187296 0 423.07982263187296 -183.16698026855192 0 0 0 0 -346.81766541601974 256.63274206579081 0 256.63274206579081 34.9824651361414 0 0 0 0 -398.92089806994773 394.8162706508374 0 394.8162706508374 163.31819021518459 0 0 0 0 -183.05280859736376 370.3285557844647 0 370.3285557844647 -166.08730722467226 0 0 0 0 -78.473760280869783 48.924985117313042 0 48.924985117313042 -4.818128203452261 0 0 0 0 -108.18740271025672 272.47484758593782 0 272.47484758593782 -925.00272855225194 0 0 0 0 -583.58346959258051 770.65952107764315 0 770.65952107764315 284.56560388034995 0 0 0 0 -219.30835137282338 130.20464701437231 0 130.20464701437231 932.498489236561 0 0 0 0 6.5941270575440569 2.2900022149524943 0 2.2900022149524943 0.022484933239724114 0 0 0 0 -163.91241899839952 399.03916365021723 0 399.03916365021723 1028.3746982961602 0 0 0 0 -1205.546165650665 -533.62176587083013 0 -533.62176587083013 -1493.7691599805112 0 0 0 0 -71.613639603194315 1013.583123026503 0 1013.583123026503 -324.31732705113245 0 0 0 0 -89.837810044751677 609.49304371186008 0 609.49304371186008 434.40921306790551 0 0 0 0 2199.0539481942105 -1033.6787267112522 0 -1033.6787267112522 -2835.4150609388453 0 0 0 0 136.25761535251513 111.65378390287515 0 111.65378390287515 562.63298703177134 0 0 0 0 189.17009791354212 222.85157677765528 0 222.85157677765528 294.04087788620382 0 0 0 0 994.92677959324647 209.04234770701441 0 209.04234770701441 889.97155069350265 0 0 0 0 -27.905994446291118 6.8584507311453535 0 6.8584507311453535 -6.2429085886017504 0 0 0 0 -5.9840807915170444 321.17007889671368 0 321.17007889671368 161.29585725779179 0 0 0 0 156.88607938674249 358.66273403010564 0 358.66273403010564 65.973046965045796 0 0 0 0 128.11300161143299 326.98817928164499 0 326.98817928164499 280.46758604963543 0 0 0 0 29.508500226402248 363.54602419379808 0 363.54602419379808 382.6837670072855 0 0 0 0 163.69995993169869 271.20771280303597 0 271.20771280303597 175.61930945151835 0 0 0 0 -279.42851529404288 338.88997022033436 0 338.88997022033436 244.11374341268674 0 0 0 0 13.010142840927529 214.40039621377491 0 214.40039621377491 275.05746633361559 0 0 0 0 -71.676202430251578 272.16002197859052 0 272.16002197859052 88.175442360814486 0 0 0 0 1.7488906935450359 309.63868098904459 0 309.63868098904459 78.957365941620083 0 0 0 0 -329.15192431582363 225.60558977516121 0 225.60558977516121 158.76318956687464 0 0 0 0 -390.15968176681781 246.41929708326643 0 246.41929708326643 32.589604009895993 0 0 0 0 -409.34647494106684 292.25162493768585 0 292.25162493768585 182.65324596631399 0 0 0 0 -637.9149143790346 200.05877397213771 0 200.05877397213771 178.91987121322018 0 0 0 0 -497.51094314396687 457.01476794287009 0 457.01476794287009 -0.43312918333685957 0 0 0 0 -267.67587591911797 296.71026997945955 0 296.71026997945955 45.379437059906195 0 0 0 0 -288.34413559817403 404.71168078647315 0 404.71168078647315 55.846977347187931 0 0 0 0 -58.377097624204907 424.13999353143663 0 424.13999353143663 0.096929407780407928 0 0 0 0 68.037568369396467 323.70844576728268 0 323.70844576728268 13.127353394012289 0 0 0 0 135.55283344981399 403.80493615432715 0 403.80493615432715 15.796815722365864 0 0 0 0 -20.34617240796797 376.85245177637262 0 376.85245177637262 64.124639209785528 0 0 0 0 14.830103151532654 23.528532323939856 0 23.528532323939856 24.922093935653947 0 0 0 0 4.8271038882128892 63.226735901890208 0 63.226735901890208 -19.534486421733163 0 0 0 0 5.0609609245730098 45.318020073784282 0 45.318020073784282 -13.989002921123756 0 0 0 0 40.803556268045213 38.018827284802683 0 38.018827284802683 33.835572950774804 0 0 0 0 25.494065987906652 55.218576366256457 0 55.218576366256457 24.114972371171461 0 0 0 0 27.365049022540916 46.359574559202883 0 46.359574559202883 39.548937982181087 0 0 0 0 7.2970656690013129 37.871051415568218 0 37.871051415568218 14.011243166794884 0 0 0 0 48.701874496531673 57.822940679703606 0 57.822940679703606 -0.59315748784865718 0 0 0 0 25.666928476619432 39.90991027242076 0 39.90991027242076 20.975268589631071 0 0 0 0 13.860724283907302 22.837768288498751 0 22.837768288498751 -22.631598407933666 0 0 0 0 37.33614781399956 71.23502901539905 0 71.23502901539905 27.560557912627701 0 0 0 0 590.63458990177605 -228.45110597223538 0 -228.45110597223538 -212.51612297735119 0 0 0 0 29.236898340590415 37.905494796679704 0 37.905494796679704 -16.26530948234722 0 0 0 0 648.1601844194156 -369.52881951256859 0 -369.52881951256859 127.51495088457887 0 0 0 0 46.598623791854692 24.327065823964475 0 24.327065823964475 -4.3933353833776323 0 0 0 0 16.860612980424776 57.262708626745734 0 57.262708626745734 -23.86817846474878 0 0 0 0 -335.47098579091107 235.84386667490617 0 235.84386667490617 -17.887539926217869 0 0 0 0 -226.93207397206425 187.86807344862609 0 187.86807344862609 -27.709079827342066 0 0 0 0 -382.38411154362143 140.63173884731759 0 140.63173884731759 66.114126650529215 0 0 0 0 -160.39244997312198 18.200029557323433 0 18.200029557323433 15.420354117028182 0 0 0 0 -415.82351093801117 69.244676832502591 0 69.244676832502591 116.83240402757656 0 0 0 0 -297.77851669248048 22.675774894203641 0 22.675774894203641 16.145670283449363 0 0 0 0 -1269.1564888223074 -74.754162206590991 0 -74.754162206590991 103.52267678811768 0 0 0 0 -287.44098276500154 110.62292877600703 0 110.62292877600703 55.821992020079051 0 0 0 0 0.17863292996108271 2.318006255996977 0 2.318006255996977 -5.8761830760489602 0 0 0 0 31.92479812932288 26.571208273271623 0 26.571208273271623 0.050631441554287449 0 0 0 0 32.908264776200667 30.831648571223923 0 30.831648571223923 16.647329845669447 0 0 0 0 38.526230593000946 36.289274157796171 0 36.289274157796171 -0.010731171263614669 0 0 0 0 29.378297259507235 35.997410229683737 0 35.997410229683737 10.615665874334809 0 0 0 0 -3.0750354017259838 8.9901225452363178 0 8.9901225452363178 -5.011707322831171 0 0 0 0 47.830925852264045 56.94022639610921 0 56.94022639610921 20.389325550757349 0 0 0 0 34.525871458215988 48.667697437587776 0 48.667697437587776 28.607762720748724 0 0 0 0 41.169918454696017 42.198772335752437 0 42.198772335752437 4.4623730510938913 0 0 0 0 32.513929799519246 39.355742237748927 0 39.355742237748927 14.07416663733602 0 0 0 0 50.981229954886658 39.457206551622221 0 39.457206551622221 17.76463893824257 0 0 0 0 46.707403871318093 44.686337399674812 0 44.686337399674812 11.50799519958673 0 0 0 0 12.050967218863661 39.459908039629227 0 39.459908039629227 14.913860425920575 0 0 0 0 29.54054187622387 41.641478866396938 0 41.641478866396938 12.249012262851465 0 0 0 0 32.608985575468978 48.099209763255203 0 48.099209763255203 21.441506444651168 0 0 0 0 30.856660995214042 44.183993541664677 0 44.183993541664677 0.13197428951389156 0 0 0 0 28.747646708492539 30.03339758956281 0 30.03339758956281 0.92112715804069012 0 0 0 0 13.996903875769931 41.102946370090649 0 41.102946370090649 0.0095432134548900649 0 0 0 0 -9.130654572029016 24.960921502046403 0 24.960921502046403 -1.2245234284200706 0 0 0 0 7.5004615138316524 5.4844647736239835 0 5.4844647736239835 8.0721609298989847 0 0 0 0 -20.097426568183437 40.438741108555405 0 40.438741108555405 -0.031355050945421681 0 0 0 0 3078.3073746163427 -515.28100035007083 0 -515.28100035007083 -13.773065429857525 0 0 0 0 320.99642213545667 498.81474402129243 0 498.81474402129243 -161.79227669679676 0 0 0 0 12.459647220028728 42.898935367899867 0 42.898935367899867 -8.9532258633407764 0 0 0 0 -3.6873932906055416 56.760380969197286 0 56.760380969197286 6.9182603336812463 0 0 0 0 21.481024800816158 21.493269481875132 0 21.493269481875132 19.098727067337222 0 0 0 0 1216.9623222430309 -347.51590493412004 0 -347.51590493412004 11.610210931074107 0 0 0 0 161.09678260317014 252.600810982025 0 252.600810982025 -87.165156929710065 0 0 0 0 -124.10589462881035 180.3343780212308 0 180.3343780212308 -63.850189222488552 0 0 0 0 138.91776055017181 444.27171024923155 0 444.27171024923155 -576.97113817677018 0 0 0 0 555.61380063749675 171.3333634453229 0 171.3333634453229 -298.16684303220245 0 0 0 0 210.65421685122419 -25.432328961542225 0 -25.432328961542225 -326.49512383138062 0 0 0 0 -516.1076107224726 1270.4339906715977 0 1270.4339906715977 -444.52057984912244 0 0 0 0 -681.79609795281431 1155.3577237739737 0 1155.3577237739737 -421.11217042091266 0 0 0 0 637.90314105000289 632.70565698452265 0 632.70565698452265 -322.15673037572924 0 0 0 0 -248.19661500136863 1707.39496854971 0 1707.39496854971 -362.57764826803759 0 0 0 0 -526.11828086098831 824.07901610054978 0 824.07901610054978 -120.87028639389609 0 0 0 0 700.81483273281265 1588.3376806316664 0 1588.3376806316664 1.23367257505015 0 0 0 0 -770.49041664332617 1234.1861655344983 0 1234.1861655344983 -522.63082643327652 0 0 0 0 -2011.9096086637583 1184.6238590576904 0 1184.6238590576904 0.71003858176845824 0 0 0 0 -1896.1298200244346 612.75722312508151 0 612.75722312508151 -855.04240331677283 0 0 0 0 -1226.3427222539976 1205.3730767434135 0 1205.3730767434135 -180.7381179179356 0 0 0 0 -1325.4256576958433 1392.9255934807879 0 1392.9255934807879 -457.52249250558089 0 0 0 0 -3341.4204590573208 1997.4686848095007 0 1997.4686848095007 -617.50000976165757 0 0 0 0 -11.318398098798582 12.34912691130188 0 12.34912691130188 -13.289109461731186 0 0 0 0 -34.825808353940374 1030.2073990941644 0 1030.2073990941644 -1835.8272213617165 0 0 0 0 -327.31774975237204 341.6405176557455 0 341.6405176557455 60.321336280394462 0 0 0 0 -2981.9406188618304 674.44617167649267 0 674.44617167649267 473.0390646897431 0 0 0 0 -53.484290065349342 477.89490998890142 0 477.89490998890142 80.5972362208704 0 0 0 0 -55.248338212106319 508.44295827261431 0 508.44295827261431 20.080000057205325 0 0 0 0 -818.7238418693305 1387.5349328342127 0 1387.5349328342127 -432.4061465329869 0 0 0 0 -867.04202201889711 1684.2833176167478 0 1684.2833176167478 -1529.970885714727 0 0 0 0 -1766.399679248505 2215.4856684491242 0 2215.4856684491242 -683.89074954920216 0 0 0 0 -1007.3672106857848 1621.6360868819174 0 1621.6360868819174 -268.08517782230047 0 0 0 0 -1036.246378380265 1739.1633759600481 0 1739.1633759600481 -591.2338020914176 0 0 0 0 -892.80130549278692 1873.6421204829167 0 1873.6421204829167 -529.55389659468892 0 0 0 0 -825.78474541647302 1520.2277979048631 0 1520.2277979048631 -758.06436930008931 0 0 0 0 -767.10638180961541 1407.9112205598649 0 1407.9112205598649 -549.03126101383532 0 0 0 0 -417.76211255244561 975.27979070886795 0 975.27979070886795 -830.26354984371574 0 0 0 0 -369.60943865402078 537.39424710372987 0 537.39424710372987 -239.07110736137838 0 0 0 0 -239.67308760462765 1191.9714337835612 0 1191.9714337835612 -583.13035336487519 0 0 0 0 -157.10143895146575 585.76910396858693 0 585.76910396858693 328.02250835159793 0 0 0 0 -495.75263531479868 546.72243556079047 0 546.72243556079047 144.9517187072197 0 0 0 0 -197.1564676904818 392.67202686205565 0 392.67202686205565 -94.597429721878143 0 0 0 0 -1212.464540823159 835.95599804629819 0 835.95599804629819 -12.256905251939315 0 0 0 0 -614.18681375560118 286.6333356750838 0 286.6333356750838 153.51494425002602 0 0 0 0 -408.32850544014218 389.95740411524457 0 389.95740411524457 -117.36771475098794 0 0 0 0 -331.17630908108549 481.89388968666026 0 481.89388968666026 -169.52715565923791 0 0 0 0 -327.98227634213981 246.17924779273744 0 246.17924779273744 73.575537149663433 0 0 0 0 -236.17273944641056 199.18400357554492 0 199.18400357554492 -142.58762518831645 0 0 0 0 -286.31617925744649 216.22986632156244 0 216.22986632156244 191.2599845706718 0 0 0 0 178.5312060963895 114.88854607068085 0 114.88854607068085 70.797618626134636 0 0 0 0 377.50409214832325 134.40625936759898 0 134.40625936759898 -740.39819364942377 0 0 0 0 -108.71683392421983 218.36296055068669 0 218.36296055068669 -134.51708881178638 0 0 0 0 41.990743142692565 7.369149628498171 0 7.369149628498171 -13.347003648277564 0 0 0 0 -192.83530597976642 190.59335230382567 0 190.59335230382567 -142.36628775167628 0 0 0 0 -126.40508858452085 204.06225163913041 0 204.06225163913041 -45.80893005291 0 0 0 0 -111.75450648576953 308.12749850985711 0 308.12749850985711 -84.336952431855025 0 0 0 0 -149.51746130143874 281.44445310164883 0 281.44445310164883 -179.30895691352634 0 0 0 0 -204.06773480417905 265.14218955485558 0 265.14218955485558 -103.95856784307398 0 0 0 0 -157.44045280694627 329.98428434335074 0 329.98428434335074 -389.53258957108483 0 0 0 0 -236.14761354819348 315.1328597786196 0 315.1328597786196 72.528238792554475 0 0 0 0 118.70270156552027 125.60930639599869 0 125.60930639599869 110.22107501394868 0 0 0 0 -302.01383843774965 227.82821809343295 0 227.82821809343295 109.69619502034038 0 0 0 0 -244.26666836420554 216.2274626918952 0 216.2274626918952 86.177908898418536 0 0 0 0 -460.93965054991713 537.12248900384657 0 537.12248900384657 320.49685362265154 0 0 0 0 -43.973788257773549 27.631446529264565 0 27.631446529264565 48.033253623374208 0 0 0 0 236.19877921743318 19.916073726624745 0 19.916073726624745 -17.316033262977726 0 0 0 0 33.483310804702342 391.04397382838943 0 391.04397382838943 -668.56269453390996 0 0 0 0 -204.44371292325377 166.58872467406036 0 166.58872467406036 -56.926280706655234 0 0 0 0 -42.501583136458066 200.80257234290184 0 200.80257234290184 31.406340440211352 0 0 0 0 -227.65135867229037 266.06344562619597 0 266.06344562619597 19.266316528606694 0 0 0 0 -45.249763642321341 391.45347665835288 0 391.45347665835288 305.59097874209692 0 0 0 0 -6.6423432079611757 14.020180654638324 0 14.020180654638324 -23.209290576942294 0 0 0 0 1206.7731187358768 646.80535903585769 0 646.80535903585769 -1453.1028335045266 0 0 0 0 -3459.20524611773 1621.2205111982621 0 1621.2205111982621 -438.81780914833507 0 0 0 0 -825.78220338778192 1635.5369554940389 0 1635.5369554940389 -2179.2593963192921 0 0 0 0 -1190.6685179408232 666.45838182552689 0 666.45838182552689 -46.773453081004845 0 0 0 0 -1587.665694722913 1482.0216651927913 0 1482.0216651927913 -532.38482198992278 0 0 0 0 -1016.9984288208434 1690.735525578224 0 1690.735525578224 -1137.7106191904459 0 0 0 0 -696.10125400223478 1385.8198706493058 0 1385.8198706493058 -848.92748111454421 0 0 0 0 -809.89634379275958 1112.5215252757771 0 1112.5215252757771 -1116.3984299346412 0 0 0 0 -446.58705488300257 1321.8771290015757 0 1321.8771290015757 -1021.7090592389868 0 0 0 0 -634.09744340770703 1155.6517620965897 0 1155.6517620965897 -424.99567529870546 0 0 0 0 -645.49401789234253 1081.242887804241 0 1081.242887804241 -796.44198883890931 0 0 0 0 -559.34142384635015 1378.8056376060058 0 1378.8056376060058 -1243.5890067109285 0 0 0 0 -433.79677324963268 1074.0821455792029 0 1074.0821455792029 -933.99959633637627 0 0 0 0 -74.16560311143985 617.91069561362383 0 617.91069561362383 -547.00315122503889 0 0 0 0 -94.84533599192946 403.06609777167614 0 403.06609777167614 -373.72248932925868 0 0 0 0 -245.20642008715367 198.15436038718326 0 198.15436038718326 -639.34711833147594 0 0 0 0 -708.97799816802217 899.8044665038251 0 899.8044665038251 -575.51328709922382 0 0 0 0 -2059.0492058355667 1546.2059335654849 0 1546.2059335654849 -493.10444382761125 0 0 0 0 -794.19225780415218 2217.4278802418994 0 2217.4278802418994 -1767.0347549108556 0 0 0 0 -1221.6847444159503 317.32485315502709 0 317.32485315502709 -1233.6777456018172 0 0 0 0 1558.5754349850249 2096.2161160703472 0 2096.2161160703472 3.6593920555278601 0 0 0 0 -27.725548271002481 701.7101510924258 0 701.7101510924258 6014.2381438098309 0 0 0 0 95.679574755544309 -361.23170464675786 0 -361.23170464675786 -990.02810175523337 0 0 0 0 -2.3745675465720524 7.3184886124838044 0 7.3184886124838044 11.953457756201033 0 0 0 0 32.259073447683477 52.456749626795883 0 52.456749626795883 50.652329609187291 0 0 0 0 398.06874366334523 813.41652197667281 0 813.41652197667281 -216.02553149874439 0 0 0 0 17.125602350809913 12.492182407570652 0 12.492182407570652 17.128817305583283 0 0 0 0 0.025315857827081345 49.09393999488384 0 49.09393999488384 54.570074520881462 0 0 0 0 -4.9322044970662926 4518.3058077025407 0 4518.3058077025407 3441.9876081515686 0 0 0 0 1090.6031995491649 679.24833657393901 0 679.24833657393901 1342.1917820930539 0 0 0 0 142.91432689400972 1065.0399263959989 0 1065.0399263959989 1307.8077375295734 0 0 0 0 -78.52679734218691 465.44995392392593 0 465.44995392392593 1784.8259020491096 0 0 0 0 91.023854470608057 -176.99123130785665 0 -176.99123130785665 432.41952128140838 0 0 0 0 14.720574524413678 30.996101265278412 0 30.996101265278412 104.88844270382833 0 0 0 0 12.444802157159984 0.29031878304976999 0 0.29031878304976999 19.779580619886985 0 0 0 0 -270.01809715910349 1567.0250110302004 0 1567.0250110302004 3845.0247789437417 0 0 0 0 96.478784505059593 216.30159309769806 0 216.30159309769806 61.511658708637697 0 0 0 0 52.413892336830145 69.923992536927415 0 69.923992536927415 60.650022047182574 0 0 0 0 4.1052623816867708 73.769402784237172 0 73.769402784237172 490.07541921788652 0 0 0 0 178.87207141451654 -64.492282725914265 0 -64.492282725914265 99.95375524868723 0 0 0 0 22.230497173513868 113.8902664252164 0 113.8902664252164 153.61931141465902 0 0 0 0 20.81603246225859 83.087325881322613 0 83.087325881322613 163.79389450373128 0 0 0 0 43.662043620526674 333.94424833624362 0 333.94424833624362 396.77539870037072 0 0 0 0 214.80198874668713 1290.1985190200066 0 1290.1985190200066 468.79639420344029 0 0 0 0 2.9181434876882122 284.87799351815192 0 284.87799351815192 337.70592752247467 0 0 0 0 -318.01762779153069 786.68239802506287 0 786.68239802506287 -0.61825541703687992 0 0 0 0 77.502855217870092 351.73101286319434 0 351.73101286319434 -536.51927795719894 0 0 0 0 -47.309594058450671 28.497815635610095 0 28.497815635610095 26.476542858785251 0 0 0 0 18.327764186658897 329.7996708355422 0 329.7996708355422 218.23184843562194 0 0 0 0 5.3423780758748762 97.662601420539431 0 97.662601420539431 146.90712402379722 0 0 0 0 -28.060906334663741 108.92815072130179 0 108.92815072130179 153.80504941410618 0 0 0 0 2.777205427235458 100.75575712660793 0 100.75575712660793 151.07778847253212 0 0 0 0 -30.639033384712633 30.542573925989132 0 30.542573925989132 -32.50736861723334 0 0 0 0 -36.173411569325253 123.87796505144433 0 123.87796505144433 154.95993367122719 0 0 0 0 55.797682979056844 264.69408003022545 0 264.69408003022545 120.76741933021549 0 0 0 0 555.98485728606465 408.85534485308744 0 408.85534485308744 14.212324416941556 0 0 0 0 229.63298763986677 -33.547113256165176 0 -33.547113256165176 -2.788344241460436 0 0 0 0 -17.22336858289782 122.43156316276873 0 122.43156316276873 143.45259881258244 0 0 0 0 -36.657269367244936 53.878837122934215 0 53.878837122934215 -30.313126454898452 0 0 0 0 11.277812969201477 137.05434838739166 0 137.05434838739166 142.34900743013714 0 0 0 0 13.162317007445381 100.39060329133645 0 100.39060329133645 126.61080794571899 0 0 0 0 15.120380619220668 127.88395201699313 0 127.88395201699313 111.50766948540695 0 0 0 0 179.43655189797067 114.52322133185012 0 114.52322133185012 55.479667271571259 0 0 0 0 148.22901547624497 265.8710920958838 0 265.8710920958838 -105.74398212142114 0 0 0 0 53.544181185162245 124.49244731856356 0 124.49244731856356 74.126041864492834 0 0 0 0 792.19675240814104 101.68330942216562 0 101.68330942216562 -29.431583658413729 0 0 0 0 1.5073032784950442 17.777370895614524 0 17.777370895614524 2.7717731175138454 0 0 0 0 -280.50978662166744 609.28364614440943 0 609.28364614440943 853.07049608372472 0 0 0 0 754.42729340371443 239.59625483420677 0 239.59625483420677 1338.5905493581668 0 0 0 0 -2.8299518427013766 -1.248341884514673 0 -1.248341884514673 6.0904483042885431 0 0 0 0 1660.1405506924639 -152.24490421926021 0 -152.24490421926021 -676.36093904744484 0 0 0 0 -51.761379717754608 392.51780382550351 0 392.51780382550351 -445.55451950378483 0 0 0 0 101.5626094367326 777.72613446486503 0 777.72613446486503 -519.86080047104042 0 0 0 0 535.39135827755672 1430.0378724061884 0 1430.0378724061884 715.61392972404428 0 0 0 0 485.98229804635048 625.45688307796081 0 625.45688307796081 -818.43585170368169 0 0 0 0 211.2337806894102 -434.3038411173884 0 -434.3038411173884 -1386.3020018200768 0 0 0 0 -486.9330449756817 879.24711468357418 0 879.24711468357418 -717.76361326999904 0 0 0 0 621.64556343463482 -395.64280648896238 0 -395.64280648896238 513.68946917490393 0 0 0 0 -228.62327832673873 -272.09852796174982 0 -272.09852796174982 -709.50091022434935 0 0 0 0 -1.0849959933693754 658.88254006770148 0 658.88254006770148 -897.55267299206753 0 0 0 0 -201.22466885339236 474.46287579312047 0 474.46287579312047 -332.39299373915128 0 0 0 0 -288.75100066637151 704.10175499845855 0 704.10175499845855 -585.27461563047837 0 0 0 0 40.375938705753924 78.603558810880855 0 78.603558810880855 38.796876131413853 0 0 0 0 -248.60727537094499 162.30063470406458 0 162.30063470406458 94.011456374457339 0 0 0 0 41.039611630971194 64.527903482972761 0 64.527903482972761 -23.293804198561702 0 0 0 0 21.038198074130776 30.834571180831688 0 30.834571180831688 15.455541220155681 0 0 0 0 73.90979863528662 61.667351869226998 0 61.667351869226998 28.106375674294895 0 0 0 0 115.95242421734736 62.545515884868337 0 62.545515884868337 78.75605026964331 0 0 0 0 66.298453973926371 136.38898467464605 0 136.38898467464605 4.2082117599638877 0 0 0 0 -234.95421168580651 -19.157848008471774 0 -19.157848008471774 358.84923849566258 0 0 0 0 116.18943965287167 139.54813847688831 0 139.54813847688831 -31.207349642238114 0 0 0 0 81.261292152995225 74.620844949171826 0 74.620844949171826 48.102100289392439 0 0 0 0 23.51278983349016 17.928311212250065 0 17.928311212250065 22.249307009733428 0 0 0 0 577.47923931083642 306.85251887398772 0 306.85251887398772 -98.191505686700111 0 0 0 0 -73.174785101087764 272.89964070728456 0 272.89964070728456 -923.59465341105533 0 0 0 0 171.20571361019392 508.40088917313551 0 508.40088917313551 -1203.5714457800277 0 0 0 0 9.7243750761323895 1.1053339744910033 0 1.1053339744910033 -2.8041031308437141 0 0 0 0 -565.73632081702817 -103.76255780691281 0 -103.76255780691281 802.87461070496647 0 0 0 0 42.428996497525077 436.57746120688898 0 436.57746120688898 -776.41923513959046 0 0 0 0 71.766434274497442 531.85922061713063 0 531.85922061713063 -690.74958985340709 0 0 0 0 -7.0203092354786349 395.01610390892893 0 395.01610390892893 -732.66124354622298 0 0 0 0 -126.09706917841686 413.49515963703743 0 413.49515963703743 -723.74293547039269 0 0 0 0 -130.00370711868163 417.90193123668723 0 417.90193123668723 354.99544377558777 0 0 0 0 -50.850910305482103 215.66896447553154 0 215.66896447553154 123.03688405429421 0 0 0 0 78.060428550621509 340.51060491997123 0 340.51060491997123 234.31972842529649 0 0 0 0 -1.1731374499904632 -2.038965025280163 0 -2.038965025280163 0.4842258439014131 0 0 0 0 75.089437995833578 421.20466712325288 0 421.20466712325288 -741.98792105153552 0 0 0 0 21.315526527178008 107.82784686579907 0 107.82784686579907 19.462143374214065 0 0 0 0 189.36332078045234 213.72151803594898 0 213.72151803594898 -566.66958653659458 0 0 0 0 -1.4120686328539591 -2.6684703776526817 0 -2.6684703776526817 0.80417795144379056 0 0 0 0 0.10815027041826397 520.6136738106361 0 520.6136738106361 112.49346003438222 0 0 0 0 178.39020300201082 329.94334016405992 0 329.94334016405992 -768.8370757974626 0 0 0 0 122.32359078073932 254.71890705544502 0 254.71890705544502 -408.58291133894818 0 0 0 0 18.178711909084086 339.75116332534799 0 339.75116332534799 -706.62384460406611 0 0 0 0 134.09922878129873 634.26440645955154 0 634.26440645955154 -838.17034750719176 0 0 0 0 -0.33258177057093913 586.77796983154678 0 586.77796983154678 -574.79131379304454 0 0 0 0 125.41373844233749 635.5032465837794 0 635.5032465837794 -613.52214476345398 0 0 0 0 -0.044980261503951624 394.6044273983498 0 394.6044273983498 684.66557550941798 0 0 0 0 199.13946524146013 465.69367145725846 0 465.69367145725846 483.47502738557523 0 0 0 0 208.64665547685581 276.1858590161246 0 276.1858590161246 201.38677496706805 0 0 0 0 87.355588820904813 605.41491931675955 0 605.41491931675955 1007.4220482425662 0 0 0 0 11.821460671344539 377.21436589142832 0 377.21436589142832 660.99794432781346 0 0 0 0 -0.056786257715430111 402.70995475180825 0 402.70995475180825 626.67420589740505 0 0 0 0 14.45089181818912 222.39586577615773 0 222.39586577615773 315.08958473145321 0 0 0 0 -0.14255873576621525 413.65472825524193 0 413.65472825524193 15.100825296482071 0 0 0 0 33.700328055006139 438.3130727051348 0 438.3130727051348 337.87756205447658 0 0 0 0 98.889205439932994 190.64275021394496 0 190.64275021394496 738.49460432240448 0 0 0 0 398.56249308682163 385.55233912711265 0 385.55233912711265 314.94895063304284 0 0 0 0 91.048265681485645 288.07519133059395 0 288.07519133059395 285.19947751579457 0 0 0 0 14.177242335066694 573.75940386686489 0 573.75940386686489 485.8367266280984 0 0 0 0 110.43548148321133 730.35815420478866 0 730.35815420478866 741.31728806167666 0 0 0 0 -216.9492020192265 462.59196197847632 0 462.59196197847632 529.64970768766943 0 0 0 0 -218.60895556841569 320.04088919054993 0 320.04088919054993 760.98252307146322 0 0 0 0 -1.1128045430305349 4.4420385644719431 0 4.4420385644719431 9.625983968531898 0 0 0 0 954.36122335103573 763.7529341692134 0 763.7529341692134 511.46142047132889 0 0 0 0 -396.29717664516647 -53.588085275917365 0 -53.588085275917365 93.115769413328962 0 0 0 0 -185.91624463167682 191.34600614392548 0 191.34600614392548 157.80933164855378 0 0 0 0 -84.602056633826578 293.51121534546837 0 293.51121534546837 19.32929188413982 0 0 0 0 12.891002803450647 249.51931085567594 0 249.51931085567594 80.674947717096074 0 0 0 0 -1.4701739401498344 543.35994312168623 0 543.35994312168623 549.95641727684415 0 0 0 0 -209.58675011347805 587.67590003758073 0 587.67590003758073 567.14280684111873 0 0 0 0 -208.69783331546932 400.70849105103844 0 400.70849105103844 362.28377408705273 0 0 0 0 -458.12741850914608 554.67036946791632 0 554.67036946791632 571.79894590181357 0 0 0 0 -66.814652838977054 1130.1385528156097 0 1130.1385528156097 1202.1549405955739 0 0 0 0 -151.12390528997639 163.10530406112957 0 163.10530406112957 50.840376339236172 0 0 0 0 734.99228250647866 568.81953333905039 0 568.81953333905039 0.83459509949898347 0 0 0 0 8.2986774796250984 9.3459569014864883 0 9.3459569014864883 11.798341331742051 0 0 0 0 26.314507234390476 -358.45242963936471 0 -358.45242963936471 1234.0741015943349 0 0 0 0 -203.98904789223889 181.38856790195496 0 181.38856790195496 248.48005914308305 0 0 0 0 21.162368804243101 27.574700172741942 0 27.574700172741942 34.709902535519859 0 0 0 0 -128.89174102568359 118.00638052603608 0 118.00638052603608 142.27738775968464 0 0 0 0 -279.4895218125821 105.67511272702268 0 105.67511272702268 141.26992847025394 0 0 0 0 -224.70191604387946 270.20344450460834 0 270.20344450460834 134.83962310745846 0 0 0 0 -102.53396012360463 175.58395067171659 0 175.58395067171659 46.536051605718967 0 0 0 0 -77.96131286516902 59.360922298641526 0 59.360922298641526 95.819741584506119 0 0 0 0 -593.4681579390126 26.255144259258486 0 26.255144259258486 93.72875870403368 0 0 0 0 -486.79474914315688 435.57649040175875 0 435.57649040175875 -128.26936537881556 0 0 0 0 34.811472559667891 262.92649734359293 0 262.92649734359293 -430.25851771144517 0 0 0 0 133.8059325315262 -1.8692446145760186 0 -1.8692446145760186 -279.72120708187867 0 0 0 0 -7.1432135324142223 6.3561558763905737 0 6.3561558763905737 -2.4218616153717107 0 0 0 0 -964.49806307799736 -333.66929917913149 0 -333.66929917913149 -78.623566914116964 0 0 0 0 -654.08461296310998 510.53199828730158 0 510.53199828730158 -82.591452737135114 0 0 0 0 -127.80845944950124 88.226679959865578 0 88.226679959865578 340.17309070161718 0 0 0 0 -348.96049632319773 245.82902586162527 0 245.82902586162527 780.21684095680394 0 0 0 0 -315.88186725525884 -163.86449761776021 0 -163.86449761776021 592.64716088679415 0 0 0 0 -375.41749498905847 238.83085054947878 0 238.83085054947878 249.16597244505829 0 0 0 0 -518.5883165179257 -41.024651338859258 0 -41.024651338859258 520.42457202584774 0 0 0 0 -13.790733885231589 15.195457886078259 0 15.195457886078259 -15.278212866907324 0 0 0 0 12.331911596789723 104.34648434515839 0 104.34648434515839 30.479644014749283 0 0 0 0 25.58922072846326 52.336555081812548 0 52.336555081812548 -118.0897834829957 0 0 0 0 -27.338324947369983 36.903956897382159 0 36.903956897382159 22.166155988587889 0 0 0 0 10.585148209327599 55.227382205812319 0 55.227382205812319 23.655890352805727 0 0 0 0 104.12535741651664 101.51924684386904 0 101.51924684386904 6.8392190510930959 0 0 0 0 -13.453996737778652 46.449951050555683 0 46.449951050555683 4.8641941119567491 0 0 0 0 -1.3839591708674561 64.384312448710261 0 64.384312448710261 20.07132586440639 0 0 0 0 -12.329626248199929 49.85279836060181 0 49.85279836060181 -5.8177744613203686 0 0 0 0 -15.808188013674226 63.116509021790989 0 63.116509021790989 -23.014821342701907 0 0 0 0 4.8115941189480509 33.823299092403886 0 33.823299092403886 4.3917856549815042 0 0 0 0 14.6221287168446 130.32337947115593 0 130.32337947115593 -103.80854224835639 0 0 0 0 -5.31888656852243 147.58178255827806 0 147.58178255827806 -118.62336533894995 0 0 0 0 -125.68240645574406 182.99519717712246 0 182.99519717712246 120.17964588624818 0 0 0 0 -20.252325822955754 132.1772353361157 0 132.1772353361157 -21.812974122585729 0 0 0 0 -270.02183761101696 59.902251412299847 0 59.902251412299847 52.332564890588401 0 0 0 0 -1.885412880560736 4.6407838647681388 0 4.6407838647681388 23.672972400328888 0 0 0 0 -44.588776132761268 62.455023053029436 0 62.455023053029436 28.38956442898052 0 0 0 0 -49.279349643256865 98.846465855174756 0 98.846465855174756 -50.523374254764349 0 0 0 0 -23.042407385044498 53.132745198552584 0 53.132745198552584 3.3800466713728383 0 0 0 0 -30.119825198373292 27.700270570152497 0 27.700270570152497 29.906778697812115 0 0 0 0 7.7400227666117871 17.282157028687969 0 17.282157028687969 23.919636874945127 0 0 0 0 -55.549007057647032 122.054450881089 0 122.054450881089 -156.89168929128209 0 0 0 0 -317.46704505501839 88.789890630638183 0 88.789890630638183 -108.95286311862583 0 0 0 0 -51.237723586629727 51.14464316491285 0 51.14464316491285 12.977692966502218 0 0 0 0 -2.9781500530578739 5.1229110156625097 0 5.1229110156625097 34.362887827709812 0 0 0 0 -2.3813545101838827 20.373164162167996 0 20.373164162167996 97.970874440099578 0 0 0 0 0.66333240430719798 -2.7478845682606234 0 -2.7478845682606234 3.5777569379358169 0 0 0 0 -285.9096423133451 136.21168664919242 0 136.21168664919242 -175.99875879865795 0 0 0 0 -61.895668529286922 205.54338057318637 0 205.54338057318637 -249.08709946970339 0 0 0 0 -1.9052938982490275 8.4471527969693057 0 8.4471527969693057 2.7927440245171056 0 0 0 0 -60.337904261832591 337.24040191538734 0 337.24040191538734 -266.6840332233578 0 0 0 0 5.5292186223841782 1.5132823728855129 0 1.5132823728855129 -3.7421232348692968 0 0 0 0 -287.51484653216903 301.47787401584719 0 301.47787401584719 -260.77483217689587 0 0 0 0 -1.1119370978703955 327.57787475068108 0 327.57787475068108 -358.06592345618992 0 0 0 0 4.8463291745481456 0.8536343928906831 0 0.8536343928906831 -4.2243581909680188 0 0 0 0 -236.97969148079574 219.11286737386217 0 219.11286737386217 -276.96457863131945 0 0 0 0 3.6605426202758622 -0.99003202501956622 0 -0.99003202501956622 -4.2541421212814612 0 0 0 0 -3.1502980336081237 527.47637953184312 0 527.47637953184312 -189.80017192757805 0 0 0 0 25.361790026843664 167.19650183861086 0 167.19650183861086 468.64630742974987 0 0 0 0 63.097935823796433 33.330786064816493 0 33.330786064816493 47.45471890240151 0 0 0 0 175.96932260831818 230.59573641214956 0 230.59573641214956 273.19482145473012 0 0 0 0 0.23427809183199921 268.74985792529668 0 268.74985792529668 327.10359294922091 0 0 0 0 -440.32673934438208 598.72792084598041 0 598.72792084598041 -240.55542996030999 0 0 0 0 -235.77166575763113 303.61642325338471 0 303.61642325338471 -44.709781047291472 0 0 0 0 -238.47090661106631 321.33115034723596 0 321.33115034723596 -106.6630588152475 0 0 0 0 263.54342476961028 344.24649379892799 0 344.24649379892799 -209.57663050080009 0 0 0 0 -3.5292679020494688 221.41933152319689 0 221.41933152319689 -35.462616298987996 0 0 0 0 213.17082668830699 232.37778902350055 0 232.37778902350055 -114.03166033304296 0 0 0 0 33.083362645076704 100.9485730452725 0 100.9485730452725 7.8800467675318941 0 0 0 0 42.452622220604098 180.67779120799969 0 180.67779120799969 -195.37210514186154 0 0 0 0 -31.130244584910542 329.17887717319172 0 329.17887717319172 -250.65832308775862 0 0 0 0 -200.59043961716816 287.42533354049374 0 287.42533354049374 -105.5299581673753 0 0 0 0 -357.46696309027902 340.10831797412538 0 340.10831797412538 -198.59945392410737 0 0 0 0 -342.03957606428594 502.39021871825389 0 502.39021871825389 -544.97962533058308 0 0 0 0 -175.11570164051227 304.67939002422281 0 304.67939002422281 -333.12636893900344 0 0 0 0 -615.67507729452336 544.32794448582717 0 544.32794448582717 -363.24985588926938 0 0 0 0 -634.65188266482437 723.50594924633333 0 723.50594924633333 -849.80183476576349 0 0 0 0 -575.78067196712072 783.38728608796373 0 783.38728608796373 -686.9171496815834 0 0 0 0 -537.24785613964195 540.30054015815404 0 540.30054015815404 -278.23026468363241 0 0 0 0 -417.37623830197845 575.26553876635808 0 575.26553876635808 -344.7012169775262 0 0 0 0 -807.29278854410677 791.97503175472229 0 791.97503175472229 -287.73578535739216 0 0 0 0 -389.2239717131888 605.8208265343128 0 605.8208265343128 -449.18453354202211 0 0 0 0 -875.06550545012578 1075.1884074083282 0 1075.1884074083282 -841.93875929070055 0 0 0 0 -775.45071699201071 1034.7437440441354 0 1034.7437440441354 -669.87012288192636 0 0 0 0 -808.41215318684408 856.72369385794445 0 856.72369385794445 -467.85988422368246 0 0 0 0 -1001.361227214853 1134.5463406539238 0 1134.5463406539238 -542.92082474252675 0 0 0 0 -973.30116135337448 1183.2187370448955 0 1183.2187370448955 -768.49702093523229 0 0 0 0 -1017.5089952715352 1335.1930286330753 0 1335.1930286330753 -838.14414897633105 0 0 0 0 -1046.1113862834063 1021.5040957037181 0 1021.5040957037181 -205.56328133304487 0 0 0 0 -694.87834569928236 525.94026470165181 0 525.94026470165181 -108.31682803673903 0 0 0 0 -724.32353328941099 889.7819394859398 0 889.7819394859398 -447.50283977128129 0 0 0 0 -43.081503326979146 106.72305709305147 0 106.72305709305147 156.03279057881446 0 0 0 0 -222.04171407678223 510.26209841547825 0 510.26209841547825 -280.57767274005164 0 0 0 0 -302.48969858136843 500.39744738423906 0 500.39744738423906 -335.97222383037297 0 0 0 0 -296.16880356648835 534.05318163310221 0 534.05318163310221 -188.46788604950416 0 0 0 0 -15.969667560657385 31.556014795964529 0 31.556014795964529 -61.118922220240734 0 0 0 0 726.2583166931654 541.22967146597512 0 541.22967146597512 28.948634153719468 0 0 0 0 -228.75074873413541 152.31639382433787 0 152.31639382433787 108.97796683921479 0 0 0 0 -220.24816683714744 468.42364546015597 0 468.42364546015597 80.581968736252747 0 0 0 0 -48.318440399405517 138.98596448288663 0 138.98596448288663 110.76235526561504 0 0 0 0 -144.31418555605342 169.34796832533175 0 169.34796832533175 90.838913706007588 0 0 0 0 -381.68969811247371 235.63565155047763 0 235.63565155047763 164.91413995818584 0 0 0 0 -123.88393872758024 142.23195512436359 0 142.23195512436359 71.007032678073301 0 0 0 0 103.92299707182227 119.8420332549281 0 119.8420332549281 109.54662367903444 0 0 0 0 -49.846990152291255 -78.614785744844994 0 -78.614785744844994 290.71877291817691 0 0 0 0 -101.06775112921605 130.98467141725996 0 130.98467141725996 76.288203589316254 0 0 0 0 42.21308898698544 43.698884779028752 0 43.698884779028752 52.267483423710758 0 0 0 0 -15.099034942162689 -148.98428051626252 0 -148.98428051626252 137.41426017918275 0 0 0 0 153.2574179762596 414.63556934791995 0 414.63556934791995 -48.95320650695794 0 0 0 0 0.66113030363821679 48.465300338814899 0 48.465300338814899 -79.512762207296191 0 0 0 0 291.76313090562326 271.20780053181079 0 271.20780053181079 -70.186693176015979 0 0 0 0 606.70725041157857 230.17357625509248 0 230.17357625509248 -240.59440135119803 0 0 0 0 68.049767910549491 128.59126890532812 0 128.59126890532812 91.963680552351491 0 0 0 0 -122.84320109075634 165.05160872259148 0 165.05160872259148 34.943257704158896 0 0 0 0 -47.519700462609762 187.9685433802515 0 187.9685433802515 9.9212342947539582 0 0 0 0 885.06619586360466 143.62673657160485 0 143.62673657160485 -43.699810727441218 0 0 0 0 196.92389444690343 355.78939361563243 0 355.78939361563243 163.13605452701449 0 0 0 0 -38.102503941282748 15.627665472537721 0 15.627665472537721 -3.3792758500353557 0 0 0 0 222.86062627317824 311.98819649200505 0 311.98819649200505 217.56948353690677 0 0 0 0 267.60672007327958 -7.7583609913708642 0 -7.7583609913708642 116.17908479153994 0 0 0 0 38.815985833347 28.403787484102565 0 28.403787484102565 18.972539852473005 0 0 0 0 237.33685826364672 141.89834106566559 0 141.89834106566559 29.151014603514341 0 0 0 0 480.90659304416113 233.72813891535043 0 233.72813891535043 -136.55773882610083 0 0 0 0 214.17146132588459 112.52274672847125 0 112.52274672847125 -61.217177069978788 0 0 0 0 27.332587658911677 76.656513516764932 0 76.656513516764932 73.123656348565618 0 0 0 0 -27.885143208699404 143.32012346886793 0 143.32012346886793 -2.7107546750178813 0 0 0 0 82.614559344299778 130.35961537953335 0 130.35961537953335 40.287952463862894 0 0 0 0 24.98898036935509 158.64726783033174 0 158.64726783033174 30.341906412326864 0 0 0 0 243.60328037262661 256.1818735120105 0 256.1818735120105 -88.848528951737535 0 0 0 0 -43.38723103852476 93.806155027050067 0 93.806155027050067 25.903888396157242 0 0 0 0 100.30284050035544 122.13354879590122 0 122.13354879590122 116.33013210557687 0 0 0 0 154.49982314844965 88.516250065818895 0 88.516250065818895 114.10644492861684 0 0 0 0 232.94478127190087 176.35106452426044 0 176.35106452426044 81.787271694745868 0 0 0 0 -87.361258850170998 50.130303614605509 0 50.130303614605509 151.24900577163953 0 0 0 0 -169.83099350334669 -164.21466152363428 0 -164.21466152363428 -343.88461132642988 0 0 0 0 178.38307461010118 35.317362056433922 0 35.317362056433922 100.32233334559714 0 0 0 0 175.21160922518175 73.319316598921432 0 73.319316598921432 -260.48120516259223 0 0 0 0 11.406940784596372 167.02262832511042 0 167.02262832511042 -43.992239371349569 0 0 0 0 3.0727835713187233 238.04865614631126 0 238.04865614631126 -644.97279206976236 0 0 0 0 -138.3943606739922 163.34473405109748 0 163.34473405109748 116.41028850400471 0 0 0 0 -34.512557124748128 449.77049755647022 0 449.77049755647022 48.148100407452148 0 0 0 0 167.06504082641914 264.1931134266415 0 264.1931134266415 -228.2335978281626 0 0 0 0 165.79953812214808 238.74674739588409 0 238.74674739588409 60.558112318482017 0 0 0 0 141.38696688942582 362.2194064211053 0 362.2194064211053 79.437771402430371 0 0 0 0 -11.730609193353047 2.9709525146254521 0 2.9709525146254521 3.3021605776436616 0 0 0 0 -257.58487006244832 -35.068814723908872 0 -35.068814723908872 53.162731553133199 0 0 0 0 25.547113086184254 91.743395235134813 0 91.743395235134813 9.6500047956797061 0 0 0 0 -60.126706680143855 66.590428578242324 0 66.590428578242324 -23.583319045341 0 0 0 0 -29.835851407649386 76.705502180547199 0 76.705502180547199 -43.777152998317774 0 0 0 0 80.355982588022016 279.83668776859486 0 279.83668776859486 249.65901769818447 0 0 0 0 -31.819238115567714 445.81260629943426 0 445.81260629943426 442.94600582269777 0 0 0 0 -48.358929683906524 34.410876661450573 0 34.410876661450573 -14.509874403301311 0 0 0 0 -2.7317613990162499 114.46592280080222 0 114.46592280080222 -71.502693261674722 0 0 0 0 169.43316787426011 311.05962043687032 0 311.05962043687032 130.39633165119812 0 0 0 0 162.99476522093755 351.91341054531586 0 351.91341054531586 -31.113042567849334 0 0 0 0 -120.55530237258063 261.96402640194719 0 261.96402640194719 150.44550790979702 0 0 0 0 23.45982929814312 76.245553035129547 0 76.245553035129547 -49.684037054599401 0 0 0 0 92.44061313047132 55.239841125994644 0 55.239841125994644 -181.31668566212466 0 0 0 0 184.68784192965541 179.05976455823475 0 179.05976455823475 -74.4707087224524 0 0 0 0 -72.718724509061204 53.221328729313598 0 53.221328729313598 -18.717930407955862 0 0 0 0 276.31186953824363 434.37402544585348 0 434.37402544585348 435.45746223234164 0 0 0 0 409.91104916666518 385.33139641973685 0 385.33139641973685 62.767550791846588 0 0 0 0 7.0678757008765842 7.1770313877784702 0 7.1770313877784702 -4.8147969575736198 0 0 0 0 328.31586767162662 241.21688262657699 0 241.21688262657699 233.03224822693301 0 0 0 0 213.7170243843866 87.844128047036065 0 87.844128047036065 -0.58080021384739666 0 0 0 0 183.17108007417119 178.85984501544226 0 178.85984501544226 75.963020311988657 0 0 0 0 -99.892774305655621 389.61765933694551 0 389.61765933694551 -73.461697016289691 0 0 0 0 -282.78152802932891 212.80275827322839 0 212.80275827322839 124.34762997856888 0 0 0 0 -112.11670611305817 235.70654149968141 0 235.70654149968141 126.58581157684239 0 0 0 0 21.050128007914452 31.876141353863517 0 31.876141353863517 26.754380480734355 0 0 0 0 73.693100322212558 170.3573776745834 0 170.3573776745834 -562.64153679374431 0 0 0 0 23.715639072965132 110.55882796687365 0 110.55882796687365 26.86711650097277 0 0 0 0 49.230258900585682 67.332140949746361 0 67.332140949746361 -12.598652385469848 0 0 0 0 71.622284478624351 172.19478539428383 0 172.19478539428383 283.91086274586269 0 0 0 0 131.74001522784238 137.4456558329839 0 137.4456558329839 211.87743649611366 0 0 0 0 30.427848614635877 89.053708738501882 0 89.053708738501882 293.33680430728418 0 0 0 0 76.836708642891608 242.28386665825383 0 242.28386665825383 374.09990802282118 0 0 0 0 59.22884058317868 74.983961483245366 0 74.983961483245366 183.43292630428186 0 0 0 0 77.165681487094844 116.98893995625258 0 116.98893995625258 208.14815572934458 0 0 0 0 121.56560562677623 92.324026442598552 0 92.324026442598552 163.41127097074059 0 0 0 0 105.55319310815685 119.44934654130282 0 119.44934654130282 116.23980887360824 0 0 0 0 106.13378578215634 77.255728898642701 0 77.255728898642701 121.50201113239746 0 0 0 0 102.66857815724507 75.485552438825835 0 75.485552438825835 162.29039030897729 0 0 0 0 153.90600982037904 78.439066741592342 0 78.439066741592342 82.988506299850997 0 0 0 0 127.55189841851825 57.469024934383924 0 57.469024934383924 66.532337143828045 0 0 0 0 125.41335448781319 73.504122872531298 0 73.504122872531298 -6.8994589144131169 0 0 0 0 67.677484207582893 39.848884906852618 0 39.848884906852618 96.476880519097904 0 0 0 0 67.915316868413356 80.071439421910327 0 80.071439421910327 42.280563134467229 0 0 0 0 31.767847995870397 120.25437091380809 0 120.25437091380809 125.04205040412489 0 0 0 0 18.648049248949974 38.016596069632214 0 38.016596069632214 157.80898216518108 0 0 0 0 5.3765099879092304 29.332990368726314 0 29.332990368726314 5.1091985690436559 0 0 0 0 76.897230901755393 106.02983329947165 0 106.02983329947165 -125.83784062885388 0 0 0 0 -62.830800738262042 118.69549312289155 0 118.69549312289155 -78.026851355069084 0 0 0 0 200.77978683295078 86.890661331999581 0 86.890661331999581 -88.085980048606871 0 0 0 0 203.66112952101685 106.45706354173308 0 106.45706354173308 -63.688117685145698 0 0 0 0 182.43823526255437 120.02303905972803 0 120.02303905972803 6.9033963472757023 0 0 0 0 62.872104468136968 83.768694045065786 0 83.768694045065786 7.4400968163390644 0 0 0 0 127.59442154655699 57.181153080004151 0 57.181153080004151 -63.410834462411003 0 0 0 0 -889.50907611451839 404.77940828200735 0 404.77940828200735 -285.96292186787468 0 0 0 0 -495.91292106236324 377.95785946673277 0 377.95785946673277 -276.48634152251179 0 0 0 0 -532.43433517005178 537.05472507938975 0 537.05472507938975 -542.74000068727764 0 0 0 0 -74.897269007887189 274.34221919251195 0 274.34221919251195 -347.95875151222572 0 0 0 0 -86.068586237626732 104.37413458489755 0 104.37413458489755 -131.04428869881667 0 0 0 0 -170.16717689069628 388.32601648155833 0 388.32601648155833 -417.02495116122009 0 0 0 0 24.619042566089774 91.676028555710218 0 91.676028555710218 -183.71800122705463 0 0 0 0 -10.582693750882754 22.557918896520277 0 22.557918896520277 25.554087007709313 0 0 0 0 -16.655009862701263 147.19147237601828 0 147.19147237601828 -105.68932700305595 0 0 0 0 27.531830249528866 85.459149153117323 0 85.459149153117323 111.29666404561431 0 0 0 0 -99.949459947565629 136.36569949350815 0 136.36569949350815 97.000448596547358 0 0 0 0 -256.38231488986639 525.57027031972393 0 525.57027031972393 -419.25881104543805 0 0 0 0 224.30479766982899 52.427388104915735 0 52.427388104915735 -93.275511065134197 0 0 0 0 -481.40213287404185 -279.85023878905122 0 -279.85023878905122 388.5673499120021 0 0 0 0 -183.01199207392347 43.159709215149633 0 43.159709215149633 490.0866267332749 0 0 0 0 -504.06814249893068 -159.16176083199389 0 -159.16176083199389 13.438420796243008 0 0 0 0 -65.226283164207473 26.106921449074378 0 26.106921449074378 3.8117422862158037 0 0 0 0 -71.45932701638958 291.71395963372197 0 291.71395963372197 534.26489291738835 0 0 0 0 128.29180577788793 168.99536675887066 0 168.99536675887066 262.76888997181595 0 0 0 0 -57.017205716460012 87.319747841669596 0 87.319747841669596 277.95714940893231 0 0 0 0 -62.489137612333963 66.770465889716718 0 66.770465889716718 26.738610954591508 0 0 0 0 -35.929506478380063 128.85789836618642 0 128.85789836618642 -54.626727916271193 0 0 0 0 36.341477563004929 78.958497158651483 0 78.958497158651483 46.408652654707225 0 0 0 0 27.418696277045456 93.696876724971844 0 93.696876724971844 22.602816131475265 0 0 0 0 -152.4365312953596 121.3998952441616 0 121.3998952441616 113.39421385468449 0 0 0 0 -19.843313236662652 170.61696747638052 0 170.61696747638052 130.03705211821944 0 0 0 0 -126.52171860988165 34.655036728043342 0 34.655036728043342 111.06651035818504 0 0 0 0 -186.87788603766239 20.354009511022014 0 20.354009511022014 110.50744883179141 0 0 0 0 -590.15070967230531 180.5093706809148 0 180.5093706809148 82.887123881228035 0 0 0 0 -907.47530684812227 -22.675142474385211 0 -22.675142474385211 364.08532570567513 0 0 0 0 -578.68956564017026 122.27360187533486 0 122.27360187533486 267.84212698004558 0 0 0 0 -1013.6854416798014 -227.42319842565666 0 -227.42319842565666 123.20981395315903 0 0 0 0 -1887.3283894744818 -350.05816509085162 0 -350.05816509085162 400.74001123246853 0 0 0 0 -1246.2364902978152 167.31313762087666 0 167.31313762087666 283.20511603176419 0 0 0 0 -66.234994008649664 141.50403558966718 0 141.50403558966718 -16.945481647446286 0 0 0 0 -189.075214736833 -21.981344364088727 0 -21.981344364088727 -200.30260358358828 0 0 0 0 2.5618710674461909 82.888149740836525 0 82.888149740836525 22.995110134594142 0 0 0 0 -657.35762610292295 562.56062993681553 0 562.56062993681553 40.890029803151265 0 0 0 0 -23.166555399569916 279.742357266412 0 279.742357266412 -28.289935816923389 0 0 0 0 -391.1482246540545 552.0232575410264 0 552.0232575410264 38.350286161227814 0 0 0 0 39.854343592381554 63.770044413461001 0 63.770044413461001 42.232574693925869 0 0 0 0 59.547078576134822 67.60121850453254 0 67.60121850453254 16.980313302309753 0 0 0 0 -744.40025329207856 1156.5280756551001 0 1156.5280756551001 -1270.1686786650389 0 0 0 0 -1731.390647991022 310.06532368102489 0 310.06532368102489 634.13299757186905 0 0 0 0 -999.75437158367276 1079.6459273963264 0 1079.6459273963264 68.74136311939219 0 0 0 0 -653.18989341837005 173.47510537492781 0 173.47510537492781 449.69005277663018 0 0 0 0 -186.02021871613397 151.05046650406803 0 151.05046650406803 -50.286431612592423 0 0 0 0 5.7248589729472315 42.515005679102671 0 42.515005679102671 38.378644661438301 0 0 0 0 73.46095230730765 75.81983819548951 0 75.81983819548951 -14.554376576250036 0 0 0 0 89.252483017990016 -11.312245271266875 0 -11.312245271266875 -63.818497969390592 0 0 0 0 -285.17996043451421 209.3181734428963 0 209.3181734428963 57.15585467472556 0 0 0 0 -21.852437505353009 89.848255036906266 0 89.848255036906266 -337.51853702291555 0 0 0 0 -157.94327666989557 -25.965074277442909 0 -25.965074277442909 83.852785525930813 0 0 0 0 -167.4687483216112 58.921699045466084 0 58.921699045466084 19.725565720455052 0 0 0 0 58.496871736556614 67.397239454280822 0 67.397239454280822 -20.472346741659607 0 0 0 0 -174.28117168572498 181.35771280690824 0 181.35771280690824 -35.898278496460989 0 0 0 0 0.44620841072128314 33.408005682073153 0 33.408005682073153 16.388866678654068 0 0 0 0 293.87521132852999 868.83672631538138 0 868.83672631538138 -1117.0719481022097 0 0 0 0 -230.77644769349718 -968.49719533861207 0 -968.49719533861207 -90.453567482909421 0 0 0 0 -1140.9286226443164 412.11969710966923 0 412.11969710966923 -185.09155019895115 0 0 0 0 8.6952672746328119 9.9122300126444713 0 9.9122300126444713 -2.6849879669129564 0 0 0 0 -45.052310758299427 219.79876931997569 0 219.79876931997569 -137.64511837076134 0 0 0 0 -129.87857006461127 -165.82521976311546 0 -165.82521976311546 553.40518206506385 0 0 0 0 11.163791286663411 3.5879768098932914 0 3.5879768098932914 4.0749105483556036 0 0 0 0 -448.05768969310157 316.87643018856579 0 316.87643018856579 -30.844401703048788 0 0 0 0 66.063934346675524 -272.52513284035376 0 -272.52513284035376 -351.84670717622794 0 0 0 0 229.18891229195287 325.8789152627287 0 325.8789152627287 -196.24018190114293 0 0 0 0 4.2326024166181639 3.4151092670875869 0 3.4151092670875869 -1.3735963898032537 0 0 0 0 942.24583137009176 -754.26284988039333 0 -754.26284988039333 -334.77548859854141 0 0 0 0 -323.22543327501626 1053.6807725370891 0 1053.6807725370891 344.48121394161717 0 0 0 0 -376.2961200447171 826.771322962255 0 826.771322962255 360.40175752650248 0 0 0 0 4.5245947048041728 4.0954733665693936 0 4.0954733665693936 -3.6403029656950423 0 0 0 0 93.433141882997006 132.45083031398826 0 132.45083031398826 -556.79188929505472 0 0 0 0 55.04276101704454 190.22950137023872 0 190.22950137023872 1037.6946422479086 0 0 0 0 275.19725609046873 582.63123040973733 0 582.63123040973733 97.713785568797903 0 0 0 0 920.99708913863287 34.681679634857574 0 34.681679634857574 -112.39057010620309 0 0 0 0 -58.847373731128755 -17.151215855345072 0 -17.151215855345072 202.01446744534769 0 0 0 0 -407.71388078737073 204.32948393162587 0 204.32948393162587 470.83786163430341 0 0 0 0 -205.42680452647619 444.46662721979374 0 444.46662721979374 739.59977608455665 0 0 0 0 572.53108792638523 672.1807523771422 0 672.1807523771422 354.92145140236244 0 0 0 0 -25.197115058195777 99.79349596027896 0 99.79349596027896 -155.89561988192145 0 0 0 0 12.403177244254039 417.44478808852 0 417.44478808852 -415.80978777859127 0 0 0 0 83.471838995802329 65.390222006848774 0 65.390222006848774 37.479252803676616 0 0 0 0 9.1183082845527679 108.42528110113926 0 108.42528110113926 27.451054140481574 0 0 0 0 429.16113543781103 329.48148058231163 0 329.48148058231163 -462.00413044929155 0 0 0 0 -69.288898642334971 -98.979595793931367 0 -98.979595793931367 131.40985776705202 0 0 0 0 109.089651946706 52.429860515178007 0 52.429860515178007 -175.32173943518137 0 0 0 0 63.110828556877095 89.826652236377413 0 89.826652236377413 -114.41768259338642 0 0 0 0 -104.98981650515634 288.71881680416845 0 288.71881680416845 -254.24093475133122 0 0 0 0 26.261907876032637 -65.609096480860899 0 -65.609096480860899 -238.1897118924735 0 0 0 0 -212.2285658527253 111.04736801680338 0 111.04736801680338 9.3810053700435674 0 0 0 0 88.816427230834961 38.305022028049279 0 38.305022028049279 20.659554134719656 0 0 0 0 107.39976673897036 106.87204241346262 0 106.87204241346262 81.967349978483981 0 0 0 0 310.50313572891173 282.97227034497337 0 282.97227034497337 162.49494616125594 0 0 0 0 170.21620590813109 152.18050908454461 0 152.18050908454461 89.584778780408669 0 0 0 0 147.71082164216205 155.19679470059054 0 155.19679470059054 102.25972598156659 0 0 0 0 -41.760662687156582 128.71463087225857 0 128.71463087225857 101.86891866246515 0 0 0 0 -192.89858407810971 165.19506323602036 0 165.19506323602036 -13.046839137869028 0 0 0 0 69.470082051149802 206.88230555507471 0 206.88230555507471 -7.7508378546335734 0 0 0 0 24.506249184720218 367.60957596938533 0 367.60957596938533 43.871753149083816 0 0 0 0 28.935945137869567 463.94683869543223 0 463.94683869543223 561.80354954413269 0 0 0 0 -64.467881180840777 13.778554197404446 0 13.778554197404446 352.49863913547597 0 0 0 0 0.98902830570295919 49.220132888465741 0 49.220132888465741 224.84895601471362 0 0 0 0 -8.4382290265348274 -19.696915715394425 0 -19.696915715394425 77.853973658318864 0 0 0 0 93.018614629138028 305.0879041017979 0 305.0879041017979 -173.70780663695223 0 0 0 0 -68.313890408666339 62.342889830764761 0 62.342889830764761 -91.72017142365803 0 0 0 0 -251.2728459257487 282.88603600190254 0 282.88603600190254 113.35925549510284 0 0 0 0 433.75614564007992 370.2597014264993 0 370.2597014264993 140.02866230410291 0 0 0 0 -89.460672536698041 55.879901332086661 0 55.879901332086661 -18.241246724432131 0 0 0 0 23.926072773043416 287.0701095368895 0 287.0701095368895 112.27697118360174 0 0 0 0 209.24882281138525 394.34906632690172 0 394.34906632690172 212.97127036300662 0 0 0 0 -54.59930594440084 266.23655224355753 0 266.23655224355753 160.91665477034621 0 0 0 0 -247.44723936790251 401.8243139986298 0 401.8243139986298 4.0366283964567629 0 0 0 0 9.861157143721357 324.36899843414722 0 324.36899843414722 18.172844361237367 0 0 0 0 136.28000426786457 455.27878455937389 0 455.27878455937389 -14.79611458756699 0 0 0 0 -70.895976748462544 58.710826462423398 0 58.710826462423398 -29.348449965952994 0 0 0 0 90.424194267121493 320.98867215665086 0 320.98867215665086 -11.974495689391915 0 0 0 0 142.28727739957685 73.104758844227035 0 73.104758844227035 -544.128210947958 0 0 0 0 148.97059630932199 126.94794734661218 0 126.94794734661218 -126.47052124815673 0 0 0 0 22.91898223489261 491.65519109319757 0 491.65519109319757 -393.89389188331552 0 0 0 0 25.013337965490905 20.210846893028815 0 20.210846893028815 6.3620134417536178 0 0 0 0 -41.846250265967683 138.27909962961712 0 138.27909962961712 53.558397496730322 0 0 0 0 824.76328153482791 263.45341459705332 0 263.45341459705332 -93.873217874177499 0 0 0 0 -774.71290838730056 159.14478819590295 0 159.14478819590295 27.311671742070757 0 0 0 0 51.082214218258741 209.2095433367831 0 209.2095433367831 -341.02866031112353 0 0 0 0 120.19410967752628 439.99954161759888 0 439.99954161759888 -394.00895219796257 0 0 0 0 -40.985830495410482 389.51393610390733 0 389.51393610390733 -345.03179137099141 0 0 0 0 -30.101828690763796 736.19958637080708 0 736.19958637080708 -971.70319524184015 0 0 0 0 226.85657990284381 12.995112947770394 0 12.995112947770394 -708.46791162415138 0 0 0 0 -6.7907961258527791 7.0930251069577537 0 7.0930251069577537 -6.0587970395542072 0 0 0 0 -1206.498042578125 -262.71991405141489 0 -262.71991405141489 -8.2772524555330165 0 0 0 0 -366.07141023874283 -149.96174684933067 0 -149.96174684933067 -187.39727956419665 0 0 0 0 -599.46643218809913 -20.067138948401407 0 -20.067138948401407 560.63421207110514 0 0 0 0 -357.99990998393332 -66.296481092438626 0 -66.296481092438626 199.06309894815786 0 0 0 0 -9.9434360320447013 170.28052946798198 0 170.28052946798198 74.356843825560645 0 0 0 0 57.633902566922188 108.80504665650733 0 108.80504665650733 77.073362721246667 0 0 0 0 91.040554056889619 95.618437179171963 0 95.618437179171963 66.606205665112427 0 0 0 0 19.939393317581562 110.02816885720313 0 110.02816885720313 77.068729139660718 0 0 0 0 -1.7471334977411459 35.197835433395284 0 35.197835433395284 -6.408298248521362 0 0 0 0 81.638875180797186 162.29838347197801 0 162.29838347197801 74.566383804669385 0 0 0 0 -4.6963455013901694 170.78231931565824 0 170.78231931565824 181.72233574109123 0 0 0 0 -25.485729759799142 10.717587919155932 0 10.717587919155932 19.415915691285392 0 0 0 0 -103.83754446633975 104.03955400599807 0 104.03955400599807 381.80903348144784 0 0 0 0 -134.26564590010094 252.68575247982517 0 252.68575247982517 181.38761114428053 0 0 0 0 -132.75906341642258 304.74358700608718 0 304.74358700608718 273.20178358414887 0 0 0 0 -96.097105478387675 433.51349239284264 0 433.51349239284264 359.64412415421975 0 0 0 0 -137.87942273370572 350.16716273608472 0 350.16716273608472 365.57134111877167 0 0 0 0 -267.78274854029587 313.23074263386843 0 313.23074263386843 398.31524479982909 0 0 0 0 -301.20461083480041 180.45010649894539 0 180.45010649894539 300.04859324450445 0 0 0 0 -218.72920806295588 222.89944322502561 0 222.89944322502561 14.46035777607176 0 0 0 0 52.38323615138593 52.404620901214599 0 52.404620901214599 -196.74710613275602 0 0 0 0 -13.197608269448381 66.49707814682327 0 66.49707814682327 -50.595906349970448 0 0 0 0 52.495727510514286 371.79820274464714 0 371.79820274464714 -199.69823448920943 0 0 0 0 106.12810714245023 88.874542274919946 0 88.874542274919946 48.834305713780317 0 0 0 0 9.5875567132607102 197.21934850693651 0 197.21934850693651 -55.92577428768891 0 0 0 0 -94.502871410892112 305.04802671890138 0 305.04802671890138 85.63643042869262 0 0 0 0 -58.807328570066602 93.163530404861376 0 93.163530404861376 139.41501131642008 0 0 0 0 86.302471330651315 464.96230053324871 0 464.96230053324871 307.74139050499798 0 0 0 0 558.08170220561442 237.87392981694848 0 237.87392981694848 -270.88343406290733 0 0 0 0 145.24613825270353 277.90414808329524 0 277.90414808329524 -95.416074102809944 0 0 0 0 10.360480072442442 80.280942250534281 0 80.280942250534281 -14.582897771451826 0 0 0 0 -5.4815324506551519 12.674514909649218 0 12.674514909649218 2.682984415355989 0 0 0 0 -97.513381149910856 64.836702325661463 0 64.836702325661463 542.52773757794421 0 0 0 0 53.845950628776336 287.99505391520165 0 287.99505391520165 92.038949709080271 0 0 0 0 -10.161507033728185 42.045086541069566 0 42.045086541069566 -31.811883831032304 0 0 0 0 -249.46999980244436 112.42489541288614 0 112.42489541288614 -18.412790845713062 0 0 0 0 -175.71332070091739 328.62292154459874 0 328.62292154459874 -102.91855330121075 0 0 0 0 78.661384509585332 286.13489176689473 0 286.13489176689473 7.0430616537360038 0 0 0 0 7.5300298398942687 282.86498520033638 0 282.86498520033638 10.815856337729201 0 0 0 0 43.391247327395831 336.86175547767198 0 336.86175547767198 73.038416006500483 0 0 0 0 -29.555091225236538 279.28134508670701 0 279.28134508670701 176.78687885745603 0 0 0 0 -34.712688405590598 248.32646260667389 0 248.32646260667389 52.184203472796071 0 0 0 0 -73.450385733200051 72.547827083432281 0 72.547827083432281 64.232129980853429 0 0 0 0 -8.8135253505170112 201.75294280049638 0 201.75294280049638 81.09775923746929 0 0 0 0 -18.892691512199235 213.64361846456814 0 213.64361846456814 36.93761592134706 0 0 0 0 -21.301368163200095 67.411734229606907 0 67.411734229606907 146.92500477685576 0 0 0 0 -14.222942241569399 227.4780691481501 0 227.4780691481501 66.537351650639721 0 0 0 0 90.767435731482408 96.614811212146449 0 96.614811212146449 57.453030618407588 0 0 0 0 36.197047966779792 194.33476187110045 0 194.33476187110045 -106.64541994544197 0 0 0 0 44.481827432435239 223.24573477359263 0 223.24573477359263 -126.75213203425756 0 0 0 0 135.77574364661996 218.47093453957677 0 218.47093453957677 -160.11231346984641 0 0 0 0 41.613242720864946 141.5404566510424 0 141.5404566510424 -175.07031450335762 0 0 0 0 189.8467660008464 328.27623381347803 0 328.27623381347803 -48.562390216146014 0 0 0 0 60.534821337263566 232.30149202354096 0 232.30149202354096 -93.675440277671441 0 0 0 0 243.89905447480851 242.95636833403842 0 242.95636833403842 -171.7219545601547 0 0 0 0 51.178408812265843 181.61251829209868 0 181.61251829209868 -143.04570942864666 0 0 0 0 155.21788129763445 299.34086733905133 0 299.34086733905133 -30.885982850697474 0 0 0 0 405.38094375876244 276.56760487197607 0 276.56760487197607 -129.94690773510956 0 0 0 0 152.11825031001354 448.38569178525358 0 448.38569178525358 150.9601067508047 0 0 0 0 255.09052356181201 350.85924742911448 0 350.85924742911448 -44.454022874551811 0 0 0 0 191.90187017200515 41.33537103162962 0 41.33537103162962 -146.79081132988176 0 0 0 0 -141.41389782197075 -21.639502446188999 0 -21.639502446188999 -124.49000848946343 0 0 0 0 128.74604475183878 143.43654365157272 0 143.43654365157272 -177.14137251640204 0 0 0 0 41.486969387042336 87.446645034044195 0 87.446645034044195 -196.64799489442157 0 0 0 0 99.978488180087879 169.36861405998206 0 169.36861405998206 -170.74168002253282 0 0 0 0 -328.15585143701173 121.06281996258258 0 121.06281996258258 -52.954053911431402 0 0 0 0 -96.075376854190836 143.17030257663646 0 143.17030257663646 -170.6311675791876 0 0 0 0 -75.119793298159493 181.53465248950124 0 181.53465248950124 -197.26902535229237 0 0 0 0 39.805779844784411 151.37755746839139 0 151.37755746839139 -214.60200186525981 0 0 0 0 -134.39580777852825 235.71324244766902 0 235.71324244766902 -262.12703161293393 0 0 0 0 -90.583379268762656 149.67552585321937 0 149.67552585321937 -226.04150694374948 0 0 0 0 -289.89518845978819 291.32770862251618 0 291.32770862251618 -166.48625680655095 0 0 0 0 -5.3365341856518285 32.216773553755843 0 32.216773553755843 13.345717067408657 0 0 0 0 -52.273409460263792 -8.4061116282500734 0 -8.4061116282500734 -65.446617292283918 0 0 0 0 -144.2602635549847 98.787184305016126 0 98.787184305016126 76.298956810586787 0 0 0 0 -324.6823516719287 -22.48551263197669 0 -22.48551263197669 94.432287602176075 0 0 0 0 -684.15882627910469 -130.63707316538785 0 -130.63707316538785 72.787792933542732 0 0 0 0 -220.56724040771951 224.20133975934004 0 224.20133975934004 58.164645481272601 0 0 0 0 -198.42318115674425 238.97990328259584 0 238.97990328259584 -88.941486354786321 0 0 0 0 -156.66585953056347 356.21674637886463 0 356.21674637886463 -194.31671775074938 0 0 0 0 -5.0306126168813989 5.0903030384127135 0 5.0903030384127135 -2.3781607742225503 0 0 0 0 489.64255527406931 -544.69064523337875 0 -544.69064523337875 524.27410912601044 0 0 0 0 -4.3204489976051264 206.03821599060029 0 206.03821599060029 65.775021618101164 0 0 0 0 21.696636435512687 38.518249756577688 0 38.518249756577688 23.947867489021377 0 0 0 0 -112.19805255846586 209.26572286656301 0 209.26572286656301 -32.120542083464898 0 0 0 0 -53.802223025355488 146.53068562203407 0 146.53068562203407 28.693601698076236 0 0 0 0 -200.2606157126138 354.7073578367781 0 354.7073578367781 364.42089892235526 0 0 0 0 -201.09163825155701 382.31736335843743 0 382.31736335843743 -35.247428078022494 0 0 0 0 57.583069013460772 452.13395517163735 0 452.13395517163735 55.804932504863245 0 0 0 0 171.03121556161204 719.92941800037079 0 719.92941800037079 524.85975124830657 0 0 0 0 551.62286492949352 273.03316882863874 0 273.03316882863874 -37.464836279395968 0 0 0 0 -60.540396509746643 182.19967420973398 0 182.19967420973398 505.49053324815759 0 0 0 0 -528.25861611678556 470.71896584689966 0 470.71896584689966 240.8739578446839 0 0 0 0 656.42368973276461 543.63942936695821 0 543.63942936695821 -87.963004841731163 0 0 0 0 -106.64999276024173 -200.02610165734586 0 -200.02610165734586 -192.42875201924471 0 0 0 0 -446.89481369985151 485.62645846406667 0 485.62645846406667 305.22550565303391 0 0 0 0 4.5889182172094536 4.6581006958758167 0 4.6581006958758167 0.090971464721860684 0 0 0 0 891.08700660421164 524.13653172342129 0 524.13653172342129 -994.49922937145311 0 0 0 0 -450.60408794791147 727.08927166999638 0 727.08927166999638 26.747157107736712 0 0 0 0 157.5901457999571 46.56940591865532 0 46.56940591865532 -84.341539751301752 0 0 0 0 -309.10931248270208 202.95030682732613 0 202.95030682732613 76.269037465036604 0 0 0 0 -83.373607257235562 404.35210218310385 0 404.35210218310385 -173.88865777642059 0 0 0 0 -310.5560349796142 322.97213790402384 0 322.97213790402384 -43.586740644026577 0 0 0 0 7.1680169248813002 7.0484093007108868 0 7.0484093007108868 0.63312379589817169 0 0 0 0 110.79603688503266 303.25254014291568 0 303.25254014291568 -414.60811893232312 0 0 0 0 210.34036622171698 -127.34858340823666 0 -127.34858340823666 -519.68070849517244 0 0 0 0 22.946143832377857 260.39167996629476 0 260.39167996629476 -121.670487731295 0 0 0 0 134.41921997646568 -228.80650344988135 0 -228.80650344988135 75.554973870122922 0 0 0 0 -39.836603731237119 255.5205277525456 0 255.5205277525456 90.99388418730814 0 0 0 0 278.09230570311774 822.90778309032248 0 822.90778309032248 -597.91588488845446 0 0 0 0 -48.784200259222416 406.99092885598657 0 406.99092885598657 -199.45394565331117 0 0 0 0 1722.4259320555429 1105.6644771639258 0 1105.6644771639258 -722.29147261356411 0 0 0 0 320.34812983917072 -218.07237092076321 0 -218.07237092076321 730.62530178873567 0 0 0 0 664.68514945975039 689.20331531079864 0 689.20331531079864 290.26051921494945 0 0 0 0 52.066168727702461 692.74205628406344 0 692.74205628406344 1150.4246092708527 0 0 0 0 -148.91775975006749 344.16308440763169 0 344.16308440763169 547.51177139407082 0 0 0 0 -0.66822652658447623 409.96698890506377 0 409.96698890506377 188.61860456630529 0 0 0 0 297.38528564904118 679.27679397989414 0 679.27679397989414 431.64555245356678 0 0 0 0 267.31762076722225 395.40686357187224 0 395.40686357187224 52.30907492514234 0 0 0 0 364.28126006910679 421.46593077380567 0 421.46593077380567 51.637946607297636 0 0 0 0 709.11217313999168 -249.62401260147612 0 -249.62401260147612 -282.37871874269331 0 0 0 0 -949.71148121787701 641.40458117302478 0 641.40458117302478 -21.359608643230899 0 0 0 0 515.31504554796265 237.25594715100306 0 237.25594715100306 -28.130636953923386 0 0 0 0 4.2182134045736746 5.6029196615565695 0 5.6029196615565695 1.1365604116668919 0 0 0 0 11.208773195028471 10.18149165995456 0 10.18149165995456 10.543792300347718 0 0 0 0 -1362.0761701700758 -402.27944572702381 0 -402.27944572702381 899.51705080522515 0 0 0 0 54.911919308127835 318.45541762105859 0 318.45541762105859 -486.07061017036904 0 0 0 0 -44.701982968050288 498.34155052253118 0 498.34155052253118 -632.76777738682904 0 0 0 0 -211.497099946253 572.88628515689561 0 572.88628515689561 -578.29542198275158 0 0 0 0 -77.634220518244547 466.32728526883511 0 466.32728526883511 -506.39715178021288 0 0 0 0 -311.00348057108931 405.75645241273742 0 405.75645241273742 -520.28888177908811 0 0 0 0 0.033432650394388475 372.95387185714935 0 372.95387185714935 -582.12211546469916 0 0 0 0 -98.19847392878728 427.82737909659409 0 427.82737909659409 -543.58880694322579 0 0 0 0 -168.76306657664827 368.96645133617494 0 368.96645133617494 -565.3709728347676 0 0 0 0 4.7213131083038888 0.01322169327866618 0 0.01322169327866618 -4.856277443895209 0 0 0 0 -0.3987146010775392 254.03933932210123 0 254.03933932210123 -512.88469900848577 0 0 0 0 -282.6940295921886 290.42394435575625 0 290.42394435575625 -310.02307569039112 0 0 0 0 -347.39378548129753 382.38121146857156 0 382.38121146857156 -345.13742290273512 0 0 0 0 -164.82177915887587 406.36427276938025 0 406.36427276938025 -592.94838211892056 0 0 0 0 5.5027259291189807 0.9481297947974241 0 0.9481297947974241 -4.4826567620644084 0 0 0 0 -286.2598492828547 599.95966239050176 0 599.95966239050176 -499.4956676478314 0 0 0 0 -215.5026542750129 241.35922578374448 0 241.35922578374448 -434.80517702716133 0 0 0 0 4.4340088082028615 0.44246134309935314 0 0.44246134309935314 -4.2076523593793809 0 0 0 0 4.8649202763655239 0.53201013682853215 0 0.53201013682853215 -4.3774165412506534 0 0 0 0 -53.849528891136288 361.0189608446708 0 361.0189608446708 -270.50861266848005 0 0 0 0 -271.3483880503336 200.26052122409783 0 200.26052122409783 -158.81900392609532 0 0 0 0 -332.89756464143284 559.74667830356339 0 559.74667830356339 -89.792162092339822 0 0 0 0 -400.27944344385469 640.98839323721768 0 640.98839323721768 -187.53868715331191 0 0 0 0 -216.35349220190255 753.69925350169615 0 753.69925350169615 -982.12099186499108 0 0 0 0 -1060.844430447527 809.47635656002967 0 809.47635656002967 -195.3802560886329 0 0 0 0 -204.02342540997779 610.10320816765307 0 610.10320816765307 -444.51154466998014 0 0 0 0 -306.24152738405974 539.8415827468707 0 539.8415827468707 -414.339867314804 0 0 0 0 -644.35736206642468 274.71555075660945 0 274.71555075660945 -739.15814751009202 0 0 0 0 -461.99308464297792 766.95592752053744 0 766.95592752053744 -831.7824199027018 0 0 0 0 -913.5737282349728 542.37662697830092 0 542.37662697830092 -409.0603040442802 0 0 0 0 -16.605348852899624 365.75836976306346 0 365.75836976306346 -585.4282388499123 0 0 0 0 -126.38518016951275 426.367371130018 0 426.367371130018 -331.14262999017865 0 0 0 0 -154.17312999469868 108.21541561681261 0 108.21541561681261 34.367951702210121 0 0 0 0 49.359685244708089 93.541406557276787 0 93.541406557276787 -257.52491725157597 0 0 0 0 233.93845687431167 14.451568022428546 0 14.451568022428546 -741.86651042974245 0 0 0 0 -5.0441175411082781 5.0643986120146565 0 5.0643986120146565 -3.3572730578002563 0 0 0 0 -1287.0819105086703 216.7750308112154 0 216.7750308112154 54.082719946789439 0 0 0 0 -544.96280278696577 -5.4972496496702661 0 -5.4972496496702661 103.56996975334187 0 0 0 0 -51.225390627572779 120.84258611646146 0 120.84258611646146 -40.75402748225315 0 0 0 0 -4.142369448672639 20.649457700951871 0 20.649457700951871 -2.8582699373592959 0 0 0 0 14.169571521662021 27.615271453297552 0 27.615271453297552 22.099119266515117 0 0 0 0 -149.54163255518506 62.008119520357923 0 62.008119520357923 -10.164664119118243 0 0 0 0 7.4517505008552689 68.754409344357555 0 68.754409344357555 1.9477023588151496 0 0 0 0 -10.13244043157141 28.717029104130859 0 28.717029104130859 -20.534535902645615 0 0 0 0 -252.13997630827362 1209.5370071179022 0 1209.5370071179022 -1709.6595912468329 0 0 0 0 12.018253134243423 78.973271785362158 0 78.973271785362158 19.115912583512909 0 0 0 0 28.329786695896644 30.669945833022261 0 30.669945833022261 15.537261536422932 0 0 0 0 22.67373260637396 67.011553974796698 0 67.011553974796698 42.015202987990051 0 0 0 0 -963.00319124836824 -346.19414144341863 0 -346.19414144341863 1282.7317716492253 0 0 0 0 -129.72543896148272 153.4401224231442 0 153.4401224231442 294.86222571200051 0 0 0 0 -65.27105052267143 667.72064771359692 0 667.72064771359692 -506.5635346242052 0 0 0 0 134.0508583218616 -393.14286786100365 0 -393.14286786100365 401.1998210222082 0 0 0 0 -13.138102908149335 2.9303988533373513 0 2.9303988533373513 -1.1002557462217766 0 0 0 0 44.043815750716021 -15.819774397394212 0 -15.819774397394212 -1224.9793687893907 0 0 0 0 -38.207450182839693 9.9664091260780481 0 9.9664091260780481 -2.340707569886149 0 0 0 0 33.757131034283702 238.57758932759521 0 238.57758932759521 -294.32937105676683 0 0 0 0 77.958053976617521 39.922875823598588 0 39.922875823598588 -504.5863315111128 0 0 0 0 -52.852986534169759 372.07273456241091 0 372.07273456241091 -62.101668132268969 0 0 0 0 48.58786820442765 165.20405280987325 0 165.20405280987325 -195.68916106918914 0 0 0 0 -47.549532658232863 71.430123235924754 0 71.430123235924754 -23.27169389583608 0 0 0 0 203.17720281251241 345.5069984135298 0 345.5069984135298 -192.24439946608618 0 0 0 0 26.944777713396832 37.408191426418064 0 37.408191426418064 23.25299323479851 0 0 0 0 19.900396966782864 -103.79250446796505 0 -103.79250446796505 107.45522187616734 0 0 0 0 -129.70453755190829 224.45751167347771 0 224.45751167347771 -34.199830246143392 0 0 0 0 88.737436337629333 -43.446918827608897 0 -43.446918827608897 -378.99008881713962 0 0 0 0 14.781663779821599 12.945413551835543 0 12.945413551835543 5.3462195911010042 0 0 0 0 131.31533125025453 107.18086419656174 0 107.18086419656174 -107.2383173349881 0 0 0 0 127.41793096113793 70.473080670970035 0 70.473080670970035 6.4572113768249011 0 0 0 0 258.79536214479594 415.19635974118864 0 415.19635974118864 -175.78027311379628 0 0 0 0 172.08093712994014 128.99453886161064 0 128.99453886161064 -45.006835956053692 0 0 0 0 -166.60075339209288 480.56146433195681 0 480.56146433195681 -409.86363033662178 0 0 0 0 -205.6260007295059 712.26993125809167 0 712.26993125809167 19.138820688062196 0 0 0 0 -44.14214642037723 47.643540077309325 0 47.643540077309325 -59.481954094062964 0 0 0 0 -242.79821138623811 239.62836561997938 0 239.62836561997938 380.4907645683852 0 0 0 0 -167.60498053218907 711.66188448130015 0 711.66188448130015 24.797676489535661 0 0 0 0 -386.97667986491433 298.19844368276108 0 298.19844368276108 35.2736844734236 0 0 0 0 -745.57923172043229 646.27843512830623 0 646.27843512830623 121.86891319143206 0 0 0 0 -298.93187281225255 1161.6742486495796 0 1161.6742486495796 -52.66866970457977 0 0 0 0 -391.42010923617636 579.73612282167232 0 579.73612282167232 -288.01853101501183 0 0 0 0 -38.740039877857498 49.666525414261201 0 49.666525414261201 -60.211934974593419 0 0 0 0 -252.57638397320989 744.98339514487452 0 744.98339514487452 -406.45439911534049 0 0 0 0 -333.50758037541527 540.58435024155915 0 540.58435024155915 -230.80610935198138 0 0 0 0 -491.53832285906537 766.06222795731992 0 766.06222795731992 -546.3126623617427 0 0 0 0 -694.44314012129325 498.47061339503853 0 498.47061339503853 -294.72394063242245 0 0 0 0 -389.60533103931812 433.92387129082999 0 433.92387129082999 -531.09237050291017 0 0 0 0 -460.31156135219499 527.75114778032366 0 527.75114778032366 -349.55032971085893 0 0 0 0 -578.31259723575204 486.36513967579594 0 486.36513967579594 -295.18994591296359 0 0 0 0 -212.50420138243817 569.53887660421401 0 569.53887660421401 -329.16808710195619 0 0 0 0 -475.28109811805189 535.86634636612871 0 535.86634636612871 -186.094945475852 0 0 0 0 -345.51683495091856 473.34169594220657 0 473.34169594220657 -585.3101321540837 0 0 0 0 -219.91471034205097 268.49278358733545 0 268.49278358733545 -313.38006093247532 0 0 0 0 -530.29573565392639 471.38315838184826 0 471.38315838184826 -330.40922688874707 0 0 0 0 -553.76544957519945 520.08420596664291 0 520.08420596664291 -411.77828784853773 0 0 0 0 -622.06784722072189 505.22501847965395 0 505.22501847965395 -341.80099772464746 0 0 0 0 -644.10285419601132 556.22233546043208 0 556.22233546043208 -436.6673437182726 0 0 0 0 -133.77250026042748 573.74836203454106 0 573.74836203454106 -569.54895324349491 0 0 0 0 618.22529412437143 44.917231016221194 0 44.917231016221194 -113.17047312428622 0 0 0 0 -766.83861174917547 652.8455475501105 0 652.8455475501105 -368.44717496641897 0 0 0 0 4.5121365516711478 3.9340678081224496 0 3.9340678081224496 -2.0854350572538465 0 0 0 0 -711.56479871268675 570.03009047981686 0 570.03009047981686 -264.20022869752574 0 0 0 0 -642.24500789307058 568.92544646151146 0 568.92544646151146 -365.33737308786658 0 0 0 0 1.8198728703142706 14.999072031445024 0 14.999072031445024 -5.5116426295422087 0 0 0 0 -146.99010762978287 302.87550984483096 0 302.87550984483096 -559.83937573139701 0 0 0 0 -683.46178510907339 526.52296090269283 0 526.52296090269283 -235.19216118522309 0 0 0 0 -699.93472102652595 250.11557237839406 0 250.11557237839406 82.444607750294381 0 0 0 0 -9.6249254914622497 6.1694749166481415 0 6.1694749166481415 13.002834758296018 0 0 0 0 18.962462524155853 158.18884151414022 0 158.18884151414022 -45.833499893784392 0 0 0 0 92.634755006467458 143.29876003092431 0 143.29876003092431 -71.662094893385074 0 0 0 0 27.214114892398356 101.20544635688202 0 101.20544635688202 -96.576818040643047 0 0 0 0 81.403111854291637 163.69023237738838 0 163.69023237738838 -88.808411676356627 0 0 0 0 101.64504171522276 181.57553490919781 0 181.57553490919781 -73.810614987531153 0 0 0 0 106.02400587098691 269.87108379533515 0 269.87108379533515 -25.072859523228544 0 0 0 0 -3.271325263514882 229.27733547283424 0 229.27733547283424 -34.096645241632359 0 0 0 0 -0.042082948421011679 329.08956815250713 0 329.08956815250713 -45.21172725634824 0 0 0 0 84.982398732929141 247.18190320148278 0 247.18190320148278 -137.96494418208567 0 0 0 0 168.25868928089767 510.08072926034765 0 510.08072926034765 -289.78833108972321 0 0 0 0 -9.72105048798403 326.02843482257958 0 326.02843482257958 -458.13311030715704 0 0 0 0 0.10207462820108049 401.17596102872449 0 401.17596102872449 -389.76693088219326 0 0 0 0 62.439684654062148 4.1486418454869636 0 4.1486418454869636 -49.395209498979966 0 0 0 0 -38.148685318999924 -42.895428564031818 0 -42.895428564031818 -8.8154972810680192 0 0 0 0 2.7556089946122686 5.112054381595442 0 5.112054381595442 -50.098682968392609 0 0 0 0 371.76882771690725 72.696881192446654 0 72.696881192446654 -298.4612509118997 0 0 0 0 0.83712002899858362 -10.384017783458319 0 -10.384017783458319 -20.597396371836915 0 0 0 0 -457.56986544906977 -546.36503553345847 0 -546.36503553345847 -438.42782977619902 0 0 0 0 -46.18304855345923 -62.014209166597766 0 -62.014209166597766 -152.4296232898796 0 0 0 0 84.348050140019041 -23.290925664665792 0 -23.290925664665792 -357.33703583971487 0 0 0 0 150.55146244289017 -14.365672991751845 0 -14.365672991751845 -200.70871308154983 0 0 0 0 0.11738023765225797 -16.676881601952729 0 -16.676881601952729 -8.7621936614741571 0 0 0 0 -1.8911877692414194 11.097082663797522 0 11.097082663797522 1.2918856039752882 0 0 0 0 152.62103728108923 215.35023155078306 0 215.35023155078306 -0.84735962716108304 0 0 0 0 -7.9874746118148323 10.347930029842246 0 10.347930029842246 -20.69638478716297 0 0 0 0 -7.2711499040693184 24.205926699179741 0 24.205926699179741 -53.798242584434504 0 0 0 0 -30.868037741875014 85.477544330114199 0 85.477544330114199 16.097308606891602 0 0 0 0 -0.15678226263003125 3.4908879052451027 0 3.4908879052451027 0.56287220395600457 0 0 0 0 -59.546721702325158 13.469592106959681 0 13.469592106959681 -6.2421062240609899 0 0 0 0 113.80486762532382 99.107651426964367 0 99.107651426964367 38.413204717558983 0 0 0 0 -242.81725780580018 76.146716890245443 0 76.146716890245443 50.845728482967388 0 0 0 0 0.2402420071784194 274.66455371768956 0 274.66455371768956 126.0150082684122 0 0 0 0 0.50399687628669199 262.33134596153377 0 262.33134596153377 20.71359753091383 0 0 0 0 -46.16168071035645 183.41695309940769 0 183.41695309940769 52.863955362023262 0 0 0 0 -17.831147218195838 132.01655368765705 0 132.01655368765705 -60.800358004496957 0 0 0 0 48.102065442595631 183.13860204590674 0 183.13860204590674 -31.713580737265147 0 0 0 0 -17.130244794784176 38.873106572774759 0 38.873106572774759 -62.751344838965395 0 0 0 0 66.598001474980265 123.86702264684573 0 123.86702264684573 -61.313073666286073 0 0 0 0 199.37705329112941 300.2011352168488 0 300.2011352168488 -50.84214531350483 0 0 0 0 -4.9931587794708321 85.681813251744643 0 85.681813251744643 12.588970037266336 0 0 0 0 -29.744036786970923 54.427778648875574 0 54.427778648875574 -59.966474636001308 0 0 0 0 -213.75262060429668 345.20175632163227 0 345.20175632163227 96.908018033014741 0 0 0 0 -186.57768174735247 230.88130916511409 0 230.88130916511409 37.352356884089204 0 0 0 0 38.514733134623384 -58.753550637196895 0 -58.753550637196895 -8.8232683425289906 0 0 0 0 -17.678846726746968 20.621102640042722 0 20.621102640042722 79.79589733346549 0 0 0 0 -133.95628328606836 287.808501292654 0 287.808501292654 -301.57329427953391 0 0 0 0 -161.33106597405276 45.723299496710752 0 45.723299496710752 -175.01445804237869 0 0 0 0 -13.527171394363734 4.0960503594033923 0 4.0960503594033923 16.305536356564794 0 0 0 0 -415.00445502263028 514.06054650611793 0 514.06054650611793 34.444923515039591 0 0 0 0 -762.44036947435234 182.84741714625306 0 182.84741714625306 45.792054862183249 0 0 0 0 534.16294344112976 684.65540541756309 0 684.65540541756309 -192.04086835837552 0 0 0 0 207.38482392425067 120.52815433877709 0 120.52815433877709 -336.98629190881775 0 0 0 0 -21.431687669741223 66.573726314517444 0 66.573726314517444 30.491406785628897 0 0 0 0 25.438707024528412 72.502272858027936 0 72.502272858027936 -302.25785800954873 0 0 0 0 158.12052664419753 -115.0761978627703 0 -115.0761978627703 -754.17366261986581 0 0 0 0 189.62667507272818 269.96273388688041 0 269.96273388688041 -609.34317560517775 0 0 0 0 623.14740777242696 250.47827553071011 0 250.47827553071011 -1026.4656606393382 0 0 0 0 218.38022604696198 -33.993981164540145 0 -33.993981164540145 -795.95843876931553 0 0 0 0 -221.34175871059415 -37.961071377978271 0 -37.961071377978271 -736.2067666931473 0 0 0 0 -256.29270747043483 142.56833882562012 0 142.56833882562012 -366.58551758401973 0 0 0 0 913.42845837876666 16.142838788238805 0 16.142838788238805 -537.29317112412264 0 0 0 0 134.13226674732141 315.13878521600168 0 315.13878521600168 -646.34842679198937 0 0 0 0 459.51609024207573 672.57900208344699 0 672.57900208344699 151.96400328558275 0 0 0 0 -4.679909485060449 11.989765742323812 0 11.989765742323812 -2.5416514929268619 0 0 0 0 1550.8390410571737 100.02399381966256 0 100.02399381966256 -139.8116270292976 0 0 0 0 -369.87462801957736 359.34789177588664 0 359.34789177588664 -314.77814817120588 0 0 0 0 -37.785734026046839 52.030296245624129 0 52.030296245624129 -51.62692567544385 0 0 0 0 -144.3653539691586 390.65668686534809 0 390.65668686534809 -223.53501913615514 0 0 0 0 298.47097789493273 694.7551591694878 0 694.7551591694878 109.09927074575717 0 0 0 0 239.57214876167382 1047.8767824020113 0 1047.8767824020113 -312.98596759224438 0 0 0 0 320.98434681500294 150.04805879488589 0 150.04805879488589 -739.5281145296658 0 0 0 0 -162.41775204610894 710.53188796785253 0 710.53188796785253 -362.17930634227105 0 0 0 0 -2144.2459843007455 583.66101649412622 0 583.66101649412622 -1.9173431887447805 0 0 0 0 -631.28504548047204 1357.8610877864025 0 1357.8610877864025 -1255.0933836331658 0 0 0 0 -994.30615478607069 -381.65467639369967 0 -381.65467639369967 -1465.1803723771159 0 0 0 0 -254.08513595044496 263.71016117157194 0 263.71016117157194 -920.60196596870219 0 0 0 0 -240.07223296098527 66.422913049998158 0 66.422913049998158 -508.13293439745439 0 0 0 0 -676.54235201470146 -253.2942050846051 0 -253.2942050846051 -735.13080758711726 0 0 0 0 -706.42874804297799 541.20663626048736 0 541.20663626048736 -682.92584851631045 0 0 0 0 -233.30758574022911 112.09117766241008 0 112.09117766241008 -520.31712078214821 0 0 0 0 -517.17920391084044 240.37011228933017 0 240.37011228933017 -172.10035915941469 0 0 0 0 -160.32296945716371 497.92880579626092 0 497.92880579626092 -318.91569367356061 0 0 0 0 2.4350974864459545 1.8245400731305494 0 1.8245400731305494 -0.85006318302956485 0 0 0 0 -225.31141070261947 1101.6042283909353 0 1101.6042283909353 -176.967438332043 0 0 0 0 -442.24525939666091 916.0015699686569 0 916.0015699686569 -93.385178183179505 0 0 0 0 -323.23938481745608 539.89045629262512 0 539.89045629262512 -814.80423839930017 0 0 0 0 -284.48026219918393 904.5477926525457 0 904.5477926525457 -348.0654109701868 0 0 0 0 29.520658825116698 955.09596589404691 0 955.09596589404691 -508.22435786863684 0 0 0 0 32.240962729483726 944.0703823850406 0 944.0703823850406 -620.08199684475903 0 0 0 0 108.61848707806712 449.9978224919837 0 449.9978224919837 -1090.4488830186451 0 0 0 0 6.216654541254286 2.2927898690730899 0 2.2927898690730899 -2.6461579020385946 0 0 0 0 -23.200129483258934 733.37532246023329 0 733.37532246023329 -971.76342467882228 0 0 0 0 -228.17625253839287 118.42535829273184 0 118.42535829273184 -559.07140107425141 0 0 0 0 7.1935410575970309 139.0372969772227 0 139.0372969772227 -599.36885005182285 0 0 0 0 -64.638227635383373 571.80234784217066 0 571.80234784217066 -1080.3721982937036 0 0 0 0 3.9366880925128953 0.68483378445279186 0 0.68483378445279186 -2.7562706383236666 0 0 0 0 674.33912090143713 -134.28143522206517 0 -134.28143522206517 -756.32331285603573 0 0 0 0 725.30956411315128 171.37133938732873 0 171.37133938732873 -1675.0498530680561 0 0 0 0 254.38279482972575 -106.82922302962061 0 -106.82922302962061 -754.28768445666685 0 0 0 0 605.1805800350121 639.80332015753777 0 639.80332015753777 -1505.0079108763407 0 0 0 0 325.56772498109785 1046.5318584603642 0 1046.5318584603642 -1298.6335853076491 0 0 0 0 565.20100967722828 599.67615122060738 0 599.67615122060738 -1335.7501071237343 0 0 0 0 331.55425355810439 1228.0575642786166 0 1228.0575642786166 -778.7825826889607 0 0 0 0 141.46314649686974 1592.5195508551114 0 1592.5195508551114 -1765.6219477391674 0 0 0 0 373.93229205701209 1220.207784701558 0 1220.207784701558 -1376.3823689824992 0 0 0 0 -0.27604715836059768 1691.2859452426203 0 1691.2859452426203 -1231.6772297098892 0 0 0 0 -154.93880551308393 1107.8520754198462 0 1107.8520754198462 -2076.3835054640044 0 0 0 0 314.84679355292246 1170.5990754968764 0 1170.5990754968764 -2174.950088853835 0 0 0 0 -495.5408769932983 1976.2184577840726 0 1976.2184577840726 -3745.3342105039756 0 0 0 0 -1.3738373706000857 5.7481576217351176 0 5.7481576217351176 -5978.9060062569188 0 0 0 0 443.57018587217317 -651.29844553721887 0 -651.29844553721887 -5409.3194813037007 0 0 0 0 549.10654690182128 1090.5337019182832 0 1090.5337019182832 -3750.0033984810211 0 0 0 0 419.86298231119872 -540.01400287184151 0 -540.01400287184151 -2082.8760973070621 0 0 0 0 664.27114128453832 556.13835065556941 0 556.13835065556941 -2148.3950426177225 0 0 0 0 234.37380790579846 -249.38902959853237 0 -249.38902959853237 -1767.6607395211931 0 0 0 0 -304.98233267798787 112.93271734844438 0 112.93271734844438 76.038808521680949 0 0 0 0 -0.6697799598560632 -0.99242427965521074 0 -0.99242427965521074 -19.567473473871079 0 0 0 0 -1241.1823607088627 -1605.8974537915622 0 -1605.8974537915622 -1534.4333345891919 0 0 0 0 0.13112738809185542 -97.180374410063777 0 -97.180374410063777 742.60930421930971 0 0 0 0 -30.689991888808436 437.31689333251597 0 437.31689333251597 -3257.5132004249754 0 0 0 0 590.33649802899163 93.89736656806781 0 93.89736656806781 -1311.2972706492674 0 0 0 0 297.44856882142631 65.753218744067681 0 65.753218744067681 -503.21600641868463 0 0 0 0 372.63869079748838 313.10103056216371 0 313.10103056216371 -445.4845586990923 0 0 0 0 393.10301919572521 192.21035858287178 0 192.21035858287178 -130.51468668212442 0 0 0 0 -2.5568501756581554 5.9373757962167701 0 5.9373757962167701 -10.228782764571557 0 0 0 0 372.25899802483764 -160.52662072464136 0 -160.52662072464136 -2312.2506550703174 0 0 0 0 115.91444855529699 633.11960147785476 0 633.11960147785476 -995.02015028156939 0 0 0 0 -528.74398031755118 1446.2549098376755 0 1446.2549098376755 -2004.4824913392813 0 0 0 0 123.98431457036349 738.16295386418756 0 738.16295386418756 -746.36799191794034 0 0 0 0 243.18102341593476 455.12027074946764 0 455.12027074946764 -1382.1067193067768 0 0 0 0 -328.53334187420842 -143.45575894805597 0 -143.45575894805597 -1119.9964424368 0 0 0 0 244.85470726481981 408.69732358509481 0 408.69732358509481 -591.56947358539992 0 0 0 0 -125.78738498479652 348.25292171902265 0 348.25292171902265 -298.89144364898129 0 0 0 0 -985.68154349817632 776.44666104099497 0 776.44666104099497 -509.95724777693704 0 0 0 0 -565.98164326325059 -72.084256378910482 0 -72.084256378910482 51.246993569293409 0 0 0 0 -10.988660078541045 7.4926167213341941 0 7.4926167213341941 8.685996054344935 0 0 0 0 210.91429357315064 364.98201223784963 0 364.98201223784963 -1324.6582449709849 0 0 0 0 -461.90602494732593 747.43794951746077 0 747.43794951746077 -438.91870743564687 0 0 0 0 123.88295164162992 571.39910456902726 0 571.39910456902726 -218.35304918274414 0 0 0 0 -259.96246016959776 419.06733405598789 0 419.06733405598789 90.363772853501359 0 0 0 0 252.41471933215507 578.91302804452062 0 578.91302804452062 10.923353197240431 0 0 0 0 -772.25182483882236 446.19434375897163 0 446.19434375897163 89.049087871031588 0 0 0 0 -112.46001332638843 99.096296069865275 0 99.096296069865275 76.193626666625732 0 0 0 0 18.15065498005751 68.577076331860127 0 68.577076331860127 114.5189117372167 0 0 0 0 -283.9637592136678 435.53123739985625 0 435.53123739985625 54.092623077758617 0 0 0 0 -282.80919813562105 449.57834988242206 0 449.57834988242206 198.21397864390019 0 0 0 0 -0.23302718432256597 60.752217896692258 0 60.752217896692258 -67.719872972375967 0 0 0 0 -82.959414351185842 169.95621037649835 0 169.95621037649835 -173.73557936764701 0 0 0 0 65.415434790993459 126.45383951272743 0 126.45383951272743 -190.94268298918905 0 0 0 0 13.903299169398792 28.21231997685345 0 28.21231997685345 -69.030608235928341 0 0 0 0 251.42422201235922 673.2213923145822 0 673.2213923145822 269.66094411956692 0 0 0 0 1163.1719681967515 610.75254705567204 0 610.75254705567204 269.51776249897262 0 0 0 0 8.7987216377942445 0.42478284305272496 0 0.42478284305272496 -14.937030381100939 0 0 0 0 439.56794557045214 598.80340959097703 0 598.80340959097703 716.03734563641774 0 0 0 0 959.98436341132037 234.0358288215084 0 234.0358288215084 -440.17614707311441 0 0 0 0 503.86019950232003 52.164167062230263 0 52.164167062230263 62.274063907105301 0 0 0 0 187.23467109998455 369.25872745503511 0 369.25872745503511 415.23803515785949 0 0 0 0 408.31411331763957 294.39304546235508 0 294.39304546235508 -547.07093584030554 0 0 0 0 127.29425838708994 -45.557401369629815 0 -45.557401369629815 -24.844148539465507 0 0 0 0 111.13469929076382 160.89837861041553 0 160.89837861041553 -48.079509426879213 0 0 0 0 475.37435688060941 468.18173040007787 0 468.18173040007787 -245.38439332157623 0 0 0 0 -1.4347294822604795 23.732880374569447 0 23.732880374569447 -16.845737564712735 0 0 0 0 51.478868423250788 155.87616946272351 0 155.87616946272351 -155.06547305511049 0 0 0 0 43.513180513051338 74.937137066075593 0 74.937137066075593 -118.73314023631247 0 0 0 0 60.665334264115472 48.533110809896669 0 48.533110809896669 21.953469882090438 0 0 0 0 -21.586082344176248 -60.481084043034684 0 -60.481084043034684 103.30757158842471 0 0 0 0 87.730537439709281 60.870403574164513 0 60.870403574164513 45.818299250973837 0 0 0 0 74.034205607826152 238.13965268552175 0 238.13965268552175 -248.75800236752593 0 0 0 0 71.600505803944543 172.59747950014133 0 172.59747950014133 -312.99347812132646 0 0 0 0 -74.528056878305506 637.12282757986145 0 637.12282757986145 -1015.8936156933441 0 0 0 0 28.651771718985401 66.233690367087434 0 66.233690367087434 -146.57085542273217 0 0 0 0 -335.21502017811872 225.70293548610493 0 225.70293548610493 -73.846629369222683 0 0 0 0 131.41200076201881 185.96156665422856 0 185.96156665422856 -193.59333904941218 0 0 0 0 -10.717993668113138 9.7783341337213585 0 9.7783341337213585 -16.807885249580011 0 0 0 0 8.0311929584422614 -149.40154773857699 0 -149.40154773857699 -90.586979510400397 0 0 0 0 116.20586871201522 326.91083883601436 0 326.91083883601436 -1261.4604817875418 0 0 0 0 -204.90096161569818 1146.9064932012559 0 1146.9064932012559 -2034.5796063799839 0 0 0 0 219.51138825254748 14.058651676133991 0 14.058651676133991 -1601.9784537526639 0 0 0 0 -1698.95907355893 750.5362755835024 0 750.5362755835024 -704.18224890117745 0 0 0 0 -5.9065667921531713 545.74519480256947 0 545.74519480256947 -1048.1493003554344 0 0 0 0 102.850004924112 601.66572943434085 0 601.66572943434085 -1201.0083726277771 0 0 0 0 45.114461048800877 371.62874896160122 0 371.62874896160122 -565.68554795765669 0 0 0 0 -203.84622739205952 750.6174426116969 0 750.6174426116969 -1125.9868024634238 0 0 0 0 -438.30455597201944 300.57570553571259 0 300.57570553571259 -473.52588833287075 0 0 0 0 13.613035002854303 824.52341974810906 0 824.52341974810906 -2615.985537281389 0 0 0 0 -1022.6618023379997 809.33205819154455 0 809.33205819154455 -140.67696788314404 0 0 0 0 23.738093183696037 680.99330822577463 0 680.99330822577463 -1225.9009771232368 0 0 0 0 100.09389490501781 554.09375359856062 0 554.09375359856062 -1072.8892322274639 0 0 0 0 74.443516808009008 520.35574709324089 0 520.35574709324089 -1387.3233696845614 0 0 0 0 -842.43462282104883 123.97337715131778 0 123.97337715131778 -993.13724710622319 0 0 0 0 12.704324483347591 608.05799866712709 0 608.05799866712709 -727.42741269122916 0 0 0 0 -397.02278672205284 560.07881136992387 0 560.07881136992387 -71.35400282203841 0 0 0 0 -6.1122657741238982 87.121613214052417 0 87.121613214052417 -627.75881962159963 0 0 0 0 -114.54646048179711 491.57797883190329 0 491.57797883190329 15.066119888683119 0 0 0 0 537.48293815938814 71.81150564958125 0 71.81150564958125 284.9977598345273 0 0 0 0 546.02566433698155 1247.8853486271476 0 1247.8853486271476 955.24747599871307 0 0 0 0 168.74134651647182 532.84953628348569 0 532.84953628348569 -70.388422898837462 0 0 0 0 -215.96142845918075 387.60721360477874 0 387.60721360477874 -463.78105792494392 0 0 0 0 -1.4788318308419548 413.15245445642324 0 413.15245445642324 -571.22683378366128 0 0 0 0 -265.80022245612054 215.8968923790963 0 215.8968923790963 76.345181523869826 0 0 0 0 -251.1056308454572 771.41260070629585 0 771.41260070629585 287.26435346810035 0 0 0 0 -388.75267766232901 782.43256847672205 0 782.43256847672205 349.58728378884075 0 0 0 0 -333.69856903117034 1116.019873430542 0 1116.019873430542 498.20173503935871 0 0 0 0 -199.16934869083343 1044.3071177591689 0 1044.3071177591689 -52.418295986517649 0 0 0 0 -294.74938196217408 379.22466714547812 0 379.22466714547812 2724.5263735019944 0 0 0 0 -416.50223511072909 772.56388805543679 0 772.56388805543679 1838.2800465708362 0 0 0 0 -219.30435672904423 1154.7045000639164 0 1154.7045000639164 140.96996043151466 0 0 0 0 31.30925950143137 1785.0731664824634 0 1785.0731664824634 521.23285855976064 0 0 0 0 6.4764717700613801 11.930448128376383 0 11.930448128376383 15.607868331776491 0 0 0 0 -330.47931237326702 433.43209644212584 0 433.43209644212584 -823.72317207190645 0 0 0 0 235.06505877271411 -830.72223036488958 0 -830.72223036488958 2062.2010887725446 0 0 0 0 257.58739055838305 1283.5498245687559 0 1283.5498245687559 -673.75693290092158 0 0 0 0 -56.267137010407168 -135.80773027469877 0 -135.80773027469877 737.46108337808437 0 0 0 0 273.11741370789241 -181.82952689067861 0 -181.82952689067861 157.82245116658635 0 0 0 0 37.547995781089412 -455.27643379929941 0 -455.27643379929941 1185.2143963694707 0 0 0 0 -323.75975684609148 181.07464964625888 0 181.07464964625888 1746.0473860630318 0 0 0 0 321.66276795940939 -422.18945965375497 0 -422.18945965375497 704.51993647310792 0 0 0 0 -128.26661106169922 61.451220366336202 0 61.451220366336202 395.71925743710062 0 0 0 0 -237.66907202644506 155.50083515740243 0 155.50083515740243 619.62010225346057 0 0 0 0 -135.00916781934211 95.732967344434655 0 95.732967344434655 405.68591777353777 0 0 0 0 -53.527421936192695 -89.088524335289321 0 -89.088524335289321 591.66977804128328 0 0 0 0 -288.45060126850149 143.26537636437251 0 143.26537636437251 953.78476520751155 0 0 0 0 -315.1893039700517 255.92910989574193 0 255.92910989574193 786.59553243653318 0 0 0 0 -290.59735718439333 176.89392221336129 0 176.89392221336129 611.10855605339202 0 0 0 0 -335.24217135770596 460.00537475849023 0 460.00537475849023 737.35548199179175 0 0 0 0 -324.63826856050582 519.98846325898205 0 519.98846325898205 1106.8342475447507 0 0 0 0 -298.68586544133723 211.04365787378492 0 211.04365787378492 861.85785417892203 0 0 0 0 -321.05223013393697 466.919388841 0 466.919388841 681.1539547015127 0 0 0 0 -256.23920684182667 558.69851400781135 0 558.69851400781135 1166.0434240729064 0 0 0 0 -220.65425394682097 481.78873719484153 0 481.78873719484153 932.64709061718054 0 0 0 0 195.26237206338556 1080.4229341087887 0 1080.4229341087887 170.18333720435351 0 0 0 0 -200.70182471707813 906.12136591252442 0 906.12136591252442 1013.5247162501375 0 0 0 0 -190.15069539353135 773.26717511097388 0 773.26717511097388 297.65748689531324 0 0 0 0 -325.48565010543098 650.53815269861582 0 650.53815269861582 784.87145196806239 0 0 0 0 -135.73081959567935 680.37218185887536 0 680.37218185887536 -107.35308145879321 0 0 0 0 -149.38686524308287 720.16247955635652 0 720.16247955635652 264.01192255188573 0 0 0 0 45.36608298367355 929.40342935678018 0 929.40342935678018 -188.05535302444582 0 0 0 0 4.6203822340539773 620.15654769418734 0 620.15654769418734 -118.94069631171419 0 0 0 0 63.027356766287994 597.0510971620613 0 597.0510971620613 -624.42712228272421 0 0 0 0 -105.27367263662745 1027.3153425097776 0 1027.3153425097776 -599.55647882853839 0 0 0 0 6.2826450331012893 725.55053114265252 0 725.55053114265252 -148.37212921346236 0 0 0 0 -271.60168508539209 717.86667316526132 0 717.86667316526132 130.63993106236452 0 0 0 0 24.414584401936736 545.32779441194998 0 545.32779441194998 198.03535139349617 0 0 0 0 -70.453037748957286 409.47140567272618 0 409.47140567272618 -591.28209935096459 0 0 0 0 -388.27171341243957 410.8939318867881 0 410.8939318867881 58.253497617731739 0 0 0 0 -272.22334155454882 667.09317269947212 0 667.09317269947212 253.91787394933169 0 0 0 0 -309.03221441037022 570.47208382551742 0 570.47208382551742 346.52306635187438 0 0 0 0 -303.2588630758255 639.29842698829293 0 639.29842698829293 379.97686195809183 0 0 0 0 -207.10752352559939 569.43870982194494 0 569.43870982194494 345.64738714189161 0 0 0 0 -209.49585002115055 571.14302860250632 0 571.14302860250632 376.3510623566217 0 0 0 0 -38.097357348262449 678.82573609512224 0 678.82573609512224 228.79075843488158 0 0 0 0 -175.40211820162949 554.70651557489646 0 554.70651557489646 371.0448372739188 0 0 0 0 -144.81193928784342 386.28034250174187 0 386.28034250174187 318.29232051164399 0 0 0 0 -29.513990900537465 478.98388804547085 0 478.98388804547085 358.03534422592384 0 0 0 0 -32.951319120966218 448.97606775752439 0 448.97606775752439 230.67555177738541 0 0 0 0 -312.50926982445526 552.95303915668865 0 552.95303915668865 597.76774569435383 0 0 0 0 -306.40716604399495 460.43405720025294 0 460.43405720025294 553.14687807755399 0 0 0 0 -296.39664210897172 587.37891436212658 0 587.37891436212658 409.76223620527708 0 0 0 0 -219.81880802042724 503.63427883369332 0 503.63427883369332 497.56048155217559 0 0 0 0 -266.60680698859505 425.1930982875574 0 425.1930982875574 438.82005342651246 0 0 0 0 -279.93274504726287 428.25488060299062 0 428.25488060299062 592.22270345246943 0 0 0 0 -308.57342830477864 290.86615574048938 0 290.86615574048938 556.55749602517608 0 0 0 0 -274.58213147957576 316.41322175754431 0 316.41322175754431 533.63844768811305 0 0 0 0 -270.72040939930594 282.44365932213623 0 282.44365932213623 557.62391010920146 0 0 0 0 -242.49353951361263 305.18970830843136 0 305.18970830843136 534.86275246781588 0 0 0 0 -221.83944721608714 291.255285207425 0 291.255285207425 366.21467136929095 0 0 0 0 -200.12806148093659 168.94031590548911 0 168.94031590548911 271.00868131545576 0 0 0 0 -238.10532041289571 144.32234875741594 0 144.32234875741594 442.70158666930001 0 0 0 0 -198.87873557439889 190.98292311631667 0 190.98292311631667 360.75318385425089 0 0 0 0 -58.183020645883516 325.99778285282991 0 325.99778285282991 259.27300059781737 0 0 0 0 -155.29397947492544 373.2421879498288 0 373.2421879498288 454.10394396126685 0 0 0 0 -163.50340378386318 257.23485215242999 0 257.23485215242999 377.40568346057262 0 0 0 0 -112.23725014436059 231.71978452130315 0 231.71978452130315 217.43548712131587 0 0 0 0 -50.106245291077357 293.85961220448348 0 293.85961220448348 273.95234804159372 0 0 0 0 -24.779395963072602 231.23444528454934 0 231.23444528454934 144.64154362788577 0 0 0 0 139.02661630234797 314.37922137633768 0 314.37922137633768 186.73487364659559 0 0 0 0 120.88565917560481 245.14401797148139 0 245.14401797148139 52.217427859814961 0 0 0 0 203.56659651285736 115.29752777306066 0 115.29752777306066 15.08800444921053 0 0 0 0 228.11220289178891 180.74638506535484 0 180.74638506535484 86.857875886127658 0 0 0 0 83.720787829253823 101.8927187801919 0 101.8927187801919 37.021152179817818 0 0 0 0 97.745230416534469 181.61722184830069 0 181.61722184830069 14.324492196052233 0 0 0 0 407.95319665373609 74.97388573207752 0 74.97388573207752 -51.939373524295661 0 0 0 0 287.43482547302847 338.60875011759583 0 338.60875011759583 104.65798409787021 0 0 0 0 271.53489128089859 356.48261561663458 0 356.48261561663458 90.813653823235654 0 0 0 0 207.5000305987196 548.1037537031425 0 548.1037537031425 231.85439631843246 0 0 0 0 -4.0091381580277812 387.14899981585154 0 387.14899981585154 245.78426581071562 0 0 0 0 -638.70720711239846 1046.2067214648941 0 1046.2067214648941 -344.6056250591073 0 0 0 0 -109.85546768581844 995.49702121973633 0 995.49702121973633 -557.7434881846184 0 0 0 0 -593.20559669080831 646.37494827258524 0 646.37494827258524 -313.02078092787997 0 0 0 0 -867.51161498112197 906.64484715319122 0 906.64484715319122 -307.10145847823151 0 0 0 0 -894.79778983560391 607.72793569240093 0 607.72793569240093 -129.31428975478048 0 0 0 0 -1440.4620166833629 629.74322126965308 0 629.74322126965308 -113.86188975567347 0 0 0 0 -1390.0133385054942 805.3741230530477 0 805.3741230530477 -247.11022704023389 0 0 0 0 13.816493636724346 35.971411200701084 0 35.971411200701084 1.4122676907201246 0 0 0 0 69.683695142637589 122.08034349622494 0 122.08034349622494 49.944827091524076 0 0 0 0 -1804.6540430489986 801.5524767375598 0 801.5524767375598 -260.62890041374612 0 0 0 0 -1464.8373455288238 305.45538955451411 0 305.45538955451411 -14.140707586524513 0 0 0 0 71.275377918558661 105.87154885894051 0 105.87154885894051 20.659939041126563 0 0 0 0 -3337.8457102122193 877.26312983588309 0 877.26312983588309 -181.44397658141747 0 0 0 0 -1390.3105902936368 861.89244792480986 0 861.89244792480986 -872.43190432215852 0 0 0 0 716.72600579878781 1051.9843812255913 0 1051.9843812255913 -344.59742872506376 0 0 0 0 -1.6579754424718232 4.8634554655390332 0 4.8634554655390332 -4.255709969979673 0 0 0 0 1834.9865190251949 530.28722389039115 0 530.28722389039115 -441.92530332199783 0 0 0 0 722.96297903358936 8.9192137351979568 0 8.9192137351979568 307.35262875039746 0 0 0 0 10.813999483133273 28.405752680134214 0 28.405752680134214 6.0877120497139936 0 0 0 0 -3317.5325751411874 1454.7192986452562 0 1454.7192986452562 -64.771568266706709 0 0 0 0 -2982.6095469397842 672.38878110502765 0 672.38878110502765 -248.44265419589465 0 0 0 0 -853.82960544381058 -84.857717865956715 0 -84.857717865956715 -58.868297606903241 0 0 0 0 -2186.2955429183057 1507.7592358203517 0 1507.7592358203517 -733.24867662749261 0 0 0 0 -2070.5419574197294 -482.95633859986401 0 -482.95633859986401 -241.19767305778646 0 0 0 0 -246.23777360683016 332.20525092651508 0 332.20525092651508 38.795152955924095 0 0 0 0 647.13639612233237 505.85351812732227 0 505.85351812732227 259.21010767129985 0 0 0 0 976.98413651993906 374.46523833928495 0 374.46523833928495 -74.735641802282316 0 0 0 0 -2.8815134431390064 12.197292742623944 0 12.197292742623944 -4.1868541056633761 0 0 0 0 546.96956719827722 376.90652019371686 0 376.90652019371686 219.88257716078897 0 0 0 0 454.68817480084545 666.01974853514082 0 666.01974853514082 143.8790873772715 0 0 0 0 70.305384592458722 539.99149320471793 0 539.99149320471793 251.26835348230452 0 0 0 0 648.35021420751582 440.63746699609032 0 440.63746699609032 85.413088944435003 0 0 0 0 848.8208954307047 188.95580454314558 0 188.95580454314558 -23.544110838896117 0 0 0 0 570.8349480862671 438.98647567588148 0 438.98647567588148 344.07406060596304 0 0 0 0 655.15433960355585 470.75426856657134 0 470.75426856657134 207.9472703979676 0 0 0 0 935.26773031579796 50.046897327079932 0 50.046897327079932 402.02988365418486 0 0 0 0 2818.8115810976888 95.262591594556397 0 95.262591594556397 -398.73142187067242 0 0 0 0 44.453483090634109 721.67442061015447 0 721.67442061015447 238.96721004835456 0 0 0 0 930.42807345662732 678.51903243017682 0 678.51903243017682 -14.54334180348053 0 0 0 0 -119.07558494058321 387.16472667809649 0 387.16472667809649 -875.56125384325151 0 0 0 0 537.78587409454667 563.13942267232324 0 563.13942267232324 -1026.4333460551807 0 0 0 0 -228.05042076820973 907.74843940382198 0 907.74843940382198 151.44466290912078 0 0 0 0 577.62799114313202 1058.6491832129509 0 1058.6491832129509 6.5679365459254768 0 0 0 0 630.04493032133905 482.896316144107 0 482.896316144107 -918.37112999535202 0 0 0 0 152.26105450124305 517.60379908436335 0 517.60379908436335 -2182.572305157325 0 0 0 0 -11.312359144190651 8.6205049313116433 0 8.6205049313116433 -17.275949226048915 0 0 0 0 -56.780723599991688 1100.1040306356476 0 1100.1040306356476 -1471.6473161580543 0 0 0 0 -19.83729722906719 177.84367508930518 0 177.84367508930518 -21.202046880507623 0 0 0 0 -57.72956307640959 95.133844837317469 0 95.133844837317469 -11.302331741046531 0 0 0 0 -58.270853102148976 211.79018180564526 0 211.79018180564526 -51.096888761856462 0 0 0 0 87.242959966941271 -208.48468920476444 0 -208.48468920476444 -337.95939196031031 0 0 0 0 636.5010512706358 157.29041120743568 0 157.29041120743568 -1324.8974244923411 0 0 0 0 790.72152606013697 791.60228725279194 0 791.60228725279194 -789.19969413579565 0 0 0 0 -489.99945360183483 948.671214994607 0 948.671214994607 -250.30796004734748 0 0 0 0 -343.95892999373609 463.23185746295349 0 463.23185746295349 859.3914387494151 0 0 0 0 -151.8550518519769 2111.8194868820647 0 2111.8194868820647 -1736.7351585824999 0 0 0 0 -4141.6643329677245 2469.8994967218259 0 2469.8994967218259 6.1904752049413219 0 0 0 0 4027.5439620310644 829.26974265988406 0 829.26974265988406 -1257.5987874559469 0 0 0 0 1.568579651595897 7.3961858871464869 0 7.3961858871464869 6.7143331493198239 0 0 0 0 1261.7582721185172 3049.4686632365592 0 3049.4686632365592 452.24754487527343 0 0 0 0 -1231.5956287026856 425.862758586768 0 425.862758586768 -703.97373634728683 0 0 0 0 -3516.6547383419675 512.56644038146396 0 512.56644038146396 34.463008909353448 0 0 0 0 -393.4355187312176 -302.03377255800478 0 -302.03377255800478 118.1331050722423 0 0 0 0 -1041.1027967389418 -100.01977383212875 0 -100.01977383212875 108.63717520406863 0 0 0 0 -74.649659044313012 208.59670716088112 0 208.59670716088112 -113.96127254773819 0 0 0 0 -1355.4424756087683 1145.46164658461 0 1145.46164658461 -701.03509056578332 0 0 0 0 1.7163978773112092 -8.522347652106447 0 -8.522347652106447 5.7872950606190194 0 0 0 0 285.20858672510076 -77.470787293153307 0 -77.470787293153307 -326.69113624238344 0 0 0 0 791.44294170775538 127.83508997087949 0 127.83508997087949 -39.771148856946638 0 0 0 0 496.21481563593261 79.839183218942708 0 79.839183218942708 76.215606486402066 0 0 0 0 134.4917222536169 142.82223891155127 0 142.82223891155127 120.70997256678493 0 0 0 0 371.94123526453041 119.59911379554069 0 119.59911379554069 91.904320634176656 0 0 0 0 -163.792128486195 7.8019050892416999 0 7.8019050892416999 258.26791082143609 0 0 0 0 125.65976133008371 35.976967464074733 0 35.976967464074733 -19.310283345017524 0 0 0 0 28.219561305937532 141.91083465498946 0 141.91083465498946 236.35193328243304 0 0 0 0 107.48525110848641 159.60677613053224 0 159.60677613053224 131.21343556916872 0 0 0 0 1.6042232349481012 20.768737003242563 0 20.768737003242563 3.7116318143561067 0 0 0 0 8.841152518079511 5.5626944241064962 0 5.5626944241064962 36.000364125870064 0 0 0 0 -156.6353476459044 24.745825619611423 0 24.745825619611423 201.4565830655647 0 0 0 0 -978.22097129441681 1752.4486234699425 0 1752.4486234699425 34.294239919181564 0 0 0 0 -188.80035393712751 -37.734850373710287 0 -37.734850373710287 431.48798846736463 0 0 0 0 -668.17272245971253 45.926818580861436 0 45.926818580861436 796.29708841871616 0 0 0 0 -125.79696301140939 478.32438852114137 0 478.32438852114137 829.96941333375753 0 0 0 0 -266.96380695930566 92.502457365861119 0 92.502457365861119 228.94000504491851 0 0 0 0 112.98427966539748 -139.09725016063385 0 -139.09725016063385 433.01425381562512 0 0 0 0 400.79998454598535 415.7527257023994 0 415.7527257023994 117.5849267609774 0 0 0 0 11.740167034768774 39.941337181762634 0 39.941337181762634 -24.010135443725297 0 0 0 0 108.77159321386716 149.17228441761472 0 149.17228441761472 -64.626475185395975 0 0 0 0 63.96591213910142 200.49095835544722 0 200.49095835544722 -114.01591905768873 0 0 0 0 61.193019679075633 84.850078255385213 0 84.850078255385213 -49.843579113058965 0 0 0 0 110.51934864121722 137.62027898369161 0 137.62027898369161 -55.43558980857415 0 0 0 0 167.20357969299948 102.38359947474419 0 102.38359947474419 -169.13147039752221 0 0 0 0 203.67599350778619 144.16098453701125 0 144.16098453701125 -123.00160486515961 0 0 0 0 -3.5261312315993507 42.685154589523876 0 42.685154589523876 2.5901302273667284 0 0 0 0 4.1518761987266117 37.580165393241003 0 37.580165393241003 -49.888690212368203 0 0 0 0 107.1938299479516 57.10189468443059 0 57.10189468443059 6.1805744541261447 0 0 0 0 45.95274837986301 35.041609801270653 0 35.041609801270653 -31.302165130300668 0 0 0 0 155.70957457707846 103.01375184264907 0 103.01375184264907 -108.12590578769959 0 0 0 0 4.4868078013532795 76.752498470637875 0 76.752498470637875 -5.9286711310960527 0 0 0 0 171.84305386198685 -69.68441124317178 0 -69.68441124317178 8.6886508868228702 0 0 0 0 95.944543062585581 44.177968577972933 0 44.177968577972933 -90.891677222360158 0 0 0 0 210.95304833444243 -17.912578616023893 0 -17.912578616023893 -60.425917494110763 0 0 0 0 -41.173843341472093 45.457284926378634 0 45.457284926378634 -48.308525235275738 0 0 0 0 -3.2312472679705593 46.900325092073125 0 46.900325092073125 -20.57079309969545 0 0 0 0 11.017115001857107 44.201436417642441 0 44.201436417642441 -63.293732877288733 0 0 0 0 23.117502464039717 95.974051577274622 0 95.974051577274622 -144.48878120460722 0 0 0 0 82.257539936625108 271.02420649376472 0 271.02420649376472 -213.99273716873722 0 0 0 0 248.53455590124304 228.04171713740789 0 228.04171713740789 -279.94564433667256 0 0 0 0 175.66085782149457 53.027427979171989 0 53.027427979171989 -138.87157882918109 0 0 0 0 238.09900677605765 65.043482686516654 0 65.043482686516654 -158.51153382935991 0 0 0 0 366.22580452976399 -29.886986960256763 0 -29.886986960256763 -128.28718589319487 0 0 0 0 264.69844663731055 103.86121188576726 0 103.86121188576726 -206.54069242531114 0 0 0 0 417.26658005570062 143.8702268660345 0 143.8702268660345 -266.14854863355959 0 0 0 0 -147.62313856663422 204.8308762359502 0 204.8308762359502 1.5554308441896865 0 0 0 0 2.6958406579030907 44.476933660192287 0 44.476933660192287 88.592570356867242 0 0 0 0 -122.0007310200308 144.85231688747626 0 144.85231688747626 31.814794809492014 0 0 0 0 72.927741180195028 121.08203170507667 0 121.08203170507667 10.896290988781544 0 0 0 0 7.7090050971710298 270.10169688044334 0 270.10169688044334 -134.6847651036951 0 0 0 0 -150.3187261546409 184.53938945723712 0 184.53938945723712 2.7006776501712011 0 0 0 0 116.321593985655 805.54405897851757 0 805.54405897851757 595.26976895830899 0 0 0 0 -28.526792507720529 42.937470366689013 0 42.937470366689013 -17.531296326085339 0 0 0 0 -22.776279297119231 29.918799185564104 0 29.918799185564104 24.974760060573743 0 0 0 0 -26.380228610782069 46.478548880802919 0 46.478548880802919 -12.242796654169979 0 0 0 0 -8.4632065968180541 40.874279955052771 0 40.874279955052771 -21.649648616428749 0 0 0 0 -13.276878646874707 35.584905431364398 0 35.584905431364398 -7.6648506164828305 0 0 0 0 322.45321398071974 185.05318498957877 0 185.05318498957877 -63.797174188024655 0 0 0 0 0.17025828934171727 27.288103995461938 0 27.288103995461938 -12.872421394053362 0 0 0 0 71.954006513784407 210.86876525100433 0 210.86876525100433 327.79957458650188 0 0 0 0 806.29438889607263 415.5996350091782 0 415.5996350091782 -124.99170186754782 0 0 0 0 254.32991158743243 97.226863404034702 0 97.226863404034702 -124.82383246505196 0 0 0 0 2.0352581246962984 9.9436120935202013 0 9.9436120935202013 -6.7773875267921042 0 0 0 0 -129.63639275319292 42.301967460103697 0 42.301967460103697 28.576850482653754 0 0 0 0 -9.3162381493661819 41.22945632223238 0 41.22945632223238 -29.952640072625584 0 0 0 0 -837.46079238195671 810.56840687851582 0 810.56840687851582 -764.59394638611684 0 0 0 0 6.2769809943404766 8.0244703591143249 0 8.0244703591143249 -17.870296628945709 0 0 0 0 169.27880224952241 170.98070747449674 0 170.98070747449674 78.356233887974668 0 0 0 0 -48.251720668224152 81.228203908089199 0 81.228203908089199 -94.325975002397172 0 0 0 0 -41.273042474756494 52.860683437218086 0 52.860683437218086 -12.474699367788048 0 0 0 0 -47.99320936076947 85.287423005522669 0 85.287423005522669 -48.839948361965071 0 0 0 0 -36.571897466492373 75.153338997581159 0 75.153338997581159 -40.560120883499621 0 0 0 0 -24.011262179526966 61.598909310137969 0 61.598909310137969 -69.67532582450076 0 0 0 0 -10.155047021011114 23.980991203200038 0 23.980991203200038 -3.130378126417078 0 0 0 0 -4.4498136174551632 20.713056467737989 0 20.713056467737989 17.188520320092806 0 0 0 0 -40.346845436652075 37.829707755638083 0 37.829707755638083 6.4283147108872072 0 0 0 0 -13.249040198628791 53.678949476670823 0 53.678949476670823 -100.19757839767408 0 0 0 0 -2.2739903044421226 84.852901885282336 0 84.852901885282336 -47.753625144670877 0 0 0 0 5.9496046880199742 19.739672283657484 0 19.739672283657484 -9.9947850309609727 0 0 0 0 -47.417818931688089 32.188427742457861 0 32.188427742457861 -42.059116713668118 0 0 0 0 7.1244715602806536 51.369882657767448 0 51.369882657767448 -59.703619030791742 0 0 0 0 -15.685546385822818 67.727935875183903 0 67.727935875183903 35.466249104392773 0 0 0 0 -390.91808766052418 -34.705356239637695 0 -34.705356239637695 161.58036692270343 0 0 0 0 -83.297692278778413 -147.80978250424596 0 -147.80978250424596 -216.2572040623445 0 0 0 0 3.0761797327238014 36.357060294434604 0 36.357060294434604 -8.9169488147650551 0 0 0 0 -22.177022306082677 27.121054023488831 0 27.121054023488831 28.994352987377766 0 0 0 0 -24.620313998097458 40.278984448871235 0 40.278984448871235 -2.9507839765023061 0 0 0 0 150.36522078528651 -931.68199237057252 0 -931.68199237057252 -451.84904920098643 0 0 0 0 -336.68450987619872 342.15861735964654 0 342.15861735964654 1026.0364535621643 0 0 0 0 440.22915660927902 588.03525768715417 0 588.03525768715417 46.810262241351211 0 0 0 0 -0.56408291847613157 3.4281735417356742 0 3.4281735417356742 16.048615818653623 0 0 0 0 237.20829102871357 800.91713518349502 0 800.91713518349502 465.67921135307279 0 0 0 0 276.6777932306577 631.9360859704841 0 631.9360859704841 94.316216987705502 0 0 0 0 46.275628736970248 51.713743999654525 0 51.713743999654525 -29.947470283394523 0 0 0 0 -179.79059683758533 236.15909971456585 0 236.15909971456585 457.13881233872416 0 0 0 0 50.138280376428156 470.62519499430755 0 470.62519499430755 194.49932073451782 0 0 0 0 79.562059187330306 582.25500553527172 0 582.25500553527172 294.84831056517942 0 0 0 0 105.41388739371905 339.36642901098958 0 339.36642901098958 173.88032851119533 0 0 0 0 80.452409882767824 405.0566316419231 0 405.0566316419231 325.08454255313882 0 0 0 0 260.51698569449945 328.97580313900153 0 328.97580313900153 97.262555000154407 0 0 0 0 273.33157143276185 325.47172478390246 0 325.47172478390246 61.62815682303517 0 0 0 0 225.38928182108793 434.18314512565325 0 434.18314512565325 133.12666173028856 0 0 0 0 227.00056896855438 482.4469256284836 0 482.4469256284836 47.769445003953479 0 0 0 0 384.55771319713676 346.03901045385544 0 346.03901045385544 2.9418282605429908 0 0 0 0 377.97637366916751 328.96572141708907 0 328.96572141708907 85.216400144390491 0 0 0 0 535.15928722788885 296.3584364598928 0 296.3584364598928 40.00397428537417 0 0 0 0 -377.53105133881036 63.512908954472039 0 63.512908954472039 -30.173118029450052 0 0 0 0 290.87709727841229 394.4323185688587 0 394.4323185688587 -183.93905837278771 0 0 0 0 227.10974196326151 463.49778683373489 0 463.49778683373489 -33.202707701581858 0 0 0 0 148.05356842925539 287.00146920697807 0 287.00146920697807 -102.16652579262478 0 0 0 0 146.08367776373052 463.56543409350115 0 463.56543409350115 5.4535465408716846 0 0 0 0 85.322466347648515 172.62093623482968 0 172.62093623482968 -252.28836371487341 0 0 0 0 -914.31882400860923 1474.3415988294719 0 1474.3415988294719 699.75990098224111 0 0 0 0 -724.88206694025212 -1131.8200527286813 0 -1131.8200527286813 584.50635636471543 0 0 0 0 639.81274821795523 -595.12152872479169 0 -595.12152872479169 283.87455570543716 0 0 0 0 -632.60147470458469 -343.33207790018446 0 -343.33207790018446 404.07581213273397 0 0 0 0 -995.05259663205652 -250.80565344450284 0 -250.80565344450284 795.71229107665556 0 0 0 0 -5.0620628894570636 2.8343520201968886 0 2.8343520201968886 20.245170048974011 0 0 0 0 873.43090925060096 175.89336338602607 0 175.89336338602607 54.864255170890829 0 0 0 0 778.92891553939626 412.61636317214516 0 412.61636317214516 364.61783512429429 0 0 0 0 297.26444423515932 -90.753802915478445 0 -90.753802915478445 -157.50131784646919 0 0 0 0 1000.4293528708804 315.04715502808267 0 315.04715502808267 -229.62437745182615 0 0 0 0 -8.0127797984800964 4.2017311004454214 0 4.2017311004454214 9.3711136068273699 0 0 0 0 -175.64302689864417 140.46509044169534 0 140.46509044169534 1449.3783027511718 0 0 0 0 -19.493225599180732 -678.8383943022427 0 -678.8383943022427 1056.58737378558 0 0 0 0 78.458588076347951 292.99756109483815 0 292.99756109483815 -755.24921375887607 0 0 0 0 427.83689795254759 -406.48818515339144 0 -406.48818515339144 -99.353937361228418 0 0 0 0 -29.993345467364634 -159.26112570874716 0 -159.26112570874716 219.04531007892911 0 0 0 0 2.2388358056943503 11.722228669082497 0 11.722228669082497 28.11536615982952 0 0 0 0 -658.24151442362927 420.87727535987767 0 420.87727535987767 51.721154888936894 0 0 0 0 -702.97327718164161 262.8875684995719 0 262.8875684995719 83.118427369364781 0 0 0 0 -379.59286364947184 119.76412815139759 0 119.76412815139759 -152.18517144863279 0 0 0 0 -727.6655011333205 585.7542143433534 0 585.7542143433534 -250.25606647807263 0 0 0 0 3.1444051586730239 10.308306385069145 0 10.308306385069145 18.267878442729874 0 0 0 0 434.7277723873849 293.09659282417135 0 293.09659282417135 109.98404785105146 0 0 0 0 660.31895704122871 417.6951549143302 0 417.6951549143302 -1.045255534694661 0 0 0 0 188.53413389831258 423.02634169908191 0 423.02634169908191 96.77704266957835 0 0 0 0 432.60721408262907 320.13235272693942 0 320.13235272693942 -50.79377053113484 0 0 0 0 -53.659426878308295 145.66093339776319 0 145.66093339776319 -62.241209891711378 0 0 0 0 -85.770863096578978 415.12982872137928 0 415.12982872137928 37.157735731467596 0 0 0 0 -326.12643570520595 281.09458052896082 0 281.09458052896082 147.1128424369067 0 0 0 0 -34.341081415986991 266.3888641776166 0 266.3888641776166 -35.218503805257569 0 0 0 0 76.667891595687252 118.53515669234685 0 118.53515669234685 81.441825222862917 0 0 0 0 395.94873525412549 455.66127183771653 0 455.66127183771653 62.666878258146426 0 0 0 0 58.613387860285002 377.67501041095511 0 377.67501041095511 224.16060676003508 0 0 0 0 331.9148588278149 116.43469698565309 0 116.43469698565309 -50.091006970019407 0 0 0 0 40.035333508305484 360.90616818353465 0 360.90616818353465 -251.69107235182491 0 0 0 0 -335.40317684512411 162.95305651291756 0 162.95305651291756 30.168335084507589 0 0 0 0 59.587429319668445 262.86875502125758 0 262.86875502125758 -236.35986708888777 0 0 0 0 -278.15226739174977 457.78012078579195 0 457.78012078579195 -323.0191196139092 0 0 0 0 -230.98678131839551 404.09811273647529 0 404.09811273647529 -277.59879443703358 0 0 0 0 -23.560077730508056 293.09508248476232 0 293.09508248476232 -219.92335450665223 0 0 0 0 -84.609007541352184 405.98734171888736 0 405.98734171888736 -254.43715404665829 0 0 0 0 132.68139849003637 478.24040612094109 0 478.24040612094109 -399.22178097484175 0 0 0 0 -311.51807942918822 112.70256372424456 0 112.70256372424456 -196.77446205445904 0 0 0 0 -519.48507084483572 123.9814323021119 0 123.9814323021119 -30.647847099145565 0 0 0 0 -403.82974716283206 254.25342018224546 0 254.25342018224546 44.60339106668016 0 0 0 0 -794.88627994617855 433.50137425337971 0 433.50137425337971 42.482880574045339 0 0 0 0 -264.77910376078944 513.06570108431606 0 513.06570108431606 -298.6508590920173 0 0 0 0 -805.26846740279689 158.26568354773528 0 158.26568354773528 716.55324385695531 0 0 0 0 -414.16237980902224 -85.124615352428918 0 -85.124615352428918 268.1076280203124 0 0 0 0 1.7332492685327878 3.290669367470386 0 3.290669367470386 -1.2141281825195875 0 0 0 0 -348.87617485324881 280.66340582698513 0 280.66340582698513 -114.06899257364785 0 0 0 0 -253.44433763275447 125.45614498505847 0 125.45614498505847 -106.19599599214735 0 0 0 0 -110.35348698924645 105.0688907553299 0 105.0688907553299 -125.16750810848816 0 0 0 0 -41.758649787225295 122.2195402641737 0 122.2195402641737 -183.40119583705334 0 0 0 0 -227.65287739109772 240.02074890369158 0 240.02074890369158 -53.916160502913044 0 0 0 0 -79.444437487851246 189.63044665478037 0 189.63044665478037 -183.45988625552491 0 0 0 0 30.369248784758383 92.764969323447986 0 92.764969323447986 -132.94865620140627 0 0 0 0 3.0204555180971511 111.16010850729981 0 111.16010850729981 -117.33733023212062 0 0 0 0 11.904426183144096 90.650022443267517 0 90.650022443267517 -80.334876126284144 0 0 0 0 7.5747129175724695 159.10503471899301 0 159.10503471899301 -160.2578883125534 0 0 0 0 37.119958699622657 149.48336213191033 0 149.48336213191033 -181.91801113304427 0 0 0 0 33.613495367957512 134.02676781495211 0 134.02676781495211 -189.30029974806712 0 0 0 0 31.64449046520167 138.16047005913697 0 138.16047005913697 -101.25572900644693 0 0 0 0 4.0328278683737153 121.4554191535276 0 121.4554191535276 -180.34492933815272 0 0 0 0 -20.98856443859404 136.94089164361048 0 136.94089164361048 -183.86786209494517 0 0 0 0 -110.78627677502709 135.02343679932335 0 135.02343679932335 -112.86335702201359 0 0 0 0 46.537600040763209 82.960014753780797 0 82.960014753780797 -156.89354477161032 0 0 0 0 -93.870889682119014 121.6962567074188 0 121.6962567074188 -225.79707150749164 0 0 0 0 -345.97182581381639 404.98832592286908 0 404.98832592286908 -44.226587012172786 0 0 0 0 -24.696093056848035 10.669808570773469 0 10.669808570773469 -23.23581200239483 0 0 0 0 66.430213854127942 119.83681747549326 0 119.83681747549326 -203.5095609529908 0 0 0 0 -41.063832985376365 71.288365364451749 0 71.288365364451749 -62.145002733410465 0 0 0 0 -149.35598560518702 136.60342769169074 0 136.60342769169074 96.707883799958836 0 0 0 0 -90.574089075871598 115.27975583293573 0 115.27975583293573 -65.39450555955591 0 0 0 0 -145.20854738999333 100.19225294871103 0 100.19225294871103 57.088583928544494 0 0 0 0 -117.0704706935817 28.902572270185409 0 28.902572270185409 47.81598294822151 0 0 0 0 -196.22556857713789 -49.017088664154471 0 -49.017088664154471 153.49531094389386 0 0 0 0 -188.1247240473167 -75.30811679353792 0 -75.30811679353792 86.592128898453666 0 0 0 0 -99.280580150094465 101.34623955410757 0 101.34623955410757 -191.53674293161748 0 0 0 0 -167.87752350018127 36.316156108305222 0 36.316156108305222 99.331996066839565 0 0 0 0 -159.6821480862418 53.872755642178163 0 53.872755642178163 -97.626407654053764 0 0 0 0 24.969268972199643 62.184720669476519 0 62.184720669476519 -63.346902821789627 0 0 0 0 57.309519425092731 196.44289683059105 0 196.44289683059105 -234.86744528612417 0 0 0 0 41.94750789313548 135.72393170049418 0 135.72393170049418 -210.98635171976821 0 0 0 0 -127.58647687287885 63.79392957547816 0 63.79392957547816 43.072569889383885 0 0 0 0 -19.992535546734786 24.059114887899469 0 24.059114887899469 -2.4241739527879425 0 0 0 0 -62.123448051948799 55.750512747439643 0 55.750512747439643 -3.2328696414006117 0 0 0 0 -96.197289981987979 43.017112458003069 0 43.017112458003069 -20.220824579265141 0 0 0 0 -67.752821785474438 70.149143861027625 0 70.149143861027625 -2.4072727736328652 0 0 0 0 -66.995150877221022 40.646938899670204 0 40.646938899670204 90.754406809312059 0 0 0 0 120.90656736740493 -51.381594981376111 0 -51.381594981376111 71.483989392159856 0 0 0 0 -94.252622304865582 41.653095550874212 0 41.653095550874212 21.496854773851588 0 0 0 0 -105.65411217272049 -7.4921694240474608 0 -7.4921694240474608 64.127963361045659 0 0 0 0 -6.9715048272046261 109.83901027013599 0 109.83901027013599 34.034870523331847 0 0 0 0 -20.19796469531218 12.016239593803377 0 12.016239593803377 9.7119459549931904 0 0 0 0 -99.033952709047298 91.975127551432706 0 91.975127551432706 -14.267063236711692 0 0 0 0 -92.871640541256056 55.48550647097818 0 55.48550647097818 -61.572506385258748 0 0 0 0 -20.914736181118059 5.3170125850280954 0 5.3170125850280954 6.0336910741592007 0 0 0 0 -97.96165771438973 -6.0964113661448209 0 -6.0964113661448209 -10.033048502858605 0 0 0 0 -451.03590315138365 382.99432045538634 0 382.99432045538634 -160.7434175044491 0 0 0 0 -454.2180705525825 98.140394412597743 0 98.140394412597743 33.78299604003314 0 0 0 0 -238.10983737775678 -51.207435232714488 0 -51.207435232714488 41.807363982919924 0 0 0 0 -201.02983646762732 159.32595158240929 0 159.32595158240929 -58.441837520344052 0 0 0 0 -241.32001044604112 205.72805145816073 0 205.72805145816073 83.285047245599344 0 0 0 0 -330.89208058147051 432.09206565277054 0 432.09206565277054 -47.739101413711978 0 0 0 0 -80.413706167069904 -110.85269249567727 0 -110.85269249567727 330.45716283164802 0 0 0 0 -284.08333663846133 211.8737497834536 0 211.8737497834536 134.10304635037755 0 0 0 0 -140.67925085330353 23.354778573280782 0 23.354778573280782 224.80261806358249 0 0 0 0 -310.32350787916221 332.46747061119095 0 332.46747061119095 348.79532662442853 0 0 0 0 -267.71005726321891 514.45273829714279 0 514.45273829714279 582.92981761511282 0 0 0 0 -264.54512608296136 102.60734962652464 0 102.60734962652464 726.61170000210222 0 0 0 0 281.95154814547277 138.96442650090648 0 138.96442650090648 81.746200521318315 0 0 0 0 0.2645127434794432 1.0186846397202487 0 1.0186846397202487 4.7379011749523308 0 0 0 0 -94.068719053597306 140.19332645531722 0 140.19332645531722 796.82581657302217 0 0 0 0 -164.94894010336429 -76.021247877983569 0 -76.021247877983569 149.14381771937224 0 0 0 0 -173.60232164240733 -305.39398543341758 0 -305.39398543341758 671.25962449644067 0 0 0 0 -144.98834714073746 -278.51351890911428 0 -278.51351890911428 153.16396583754977 0 0 0 0 -18.243627317257051 43.11935779088617 0 43.11935779088617 -331.09485497018159 0 0 0 0 -52.151621207729477 58.259624270644736 0 58.259624270644736 255.81232526737949 0 0 0 0 100.57065186103864 65.27646899445881 0 65.27646899445881 -164.39066186672827 0 0 0 0 47.311525158118457 0.42096871377771095 0 0.42096871377771095 7.8232148140150457 0 0 0 0 23.619615993717161 69.056939701991269 0 69.056939701991269 -97.599107255346098 0 0 0 0 134.7531825692713 31.316703222262731 0 31.316703222262731 -633.01861212012818 0 0 0 0 -136.01779962773435 50.428496554178309 0 50.428496554178309 28.968279848448674 0 0 0 0 -30.125888766461969 24.637782883940318 0 24.637782883940318 -15.402966437077268 0 0 0 0 -114.35411032849515 23.233125327391917 0 23.233125327391917 -6.1324160674973882 0 0 0 0 -11.823091107567961 -35.035138917126005 0 -35.035138917126005 279.38656027416982 0 0 0 0 -114.4148988785746 257.90606859342188 0 257.90606859342188 74.124795922631165 0 0 0 0 -344.82915581528505 208.63352412672248 0 208.63352412672248 242.31892951491136 0 0 0 0 -464.76429362136696 -2.1813243737369703 0 -2.1813243737369703 -19.744289623473378 0 0 0 0 -313.79113309855165 335.86719116380027 0 335.86719116380027 49.829416041333616 0 0 0 0 -4.9514928479791251 -1.1928381960728416 0 -1.1928381960728416 9.089018309360867 0 0 0 0 105.43289338737395 -564.3953922642678 0 -564.3953922642678 11.618367924851555 0 0 0 0 -231.83920061531535 -156.22789019589618 0 -156.22789019589618 -500.54417821842708 0 0 0 0 -511.24087858908752 178.71461192768311 0 178.71461192768311 149.86150629788335 0 0 0 0 20.532114198882482 165.52701063245331 0 165.52701063245331 -157.69260889160614 0 0 0 0 -25.139930160162976 20.867002417585496 0 20.867002417585496 -1.045604261446563 0 0 0 0 -257.12533730777795 164.2076079562903 0 164.2076079562903 -25.942841455020243 0 0 0 0 -257.12533730782161 164.20760795631395 0 164.20760795631395 -25.942841455002053 0 0 0 0 -13.474457885618904 74.919966630645831 0 74.919966630645831 -239.87436784281817 0 0 0 0 -119.72099687059017 29.813603211778982 0 29.813603211778982 46.426293242569436 0 0 0 0 -209.16794063294219 107.58925670550707 0 107.58925670550707 156.06546889395031 0 0 0 0 -247.04203719471116 5.8784738139893307 0 5.8784738139893307 119.59022114248546 0 0 0 0 -327.54320926124637 165.68496238142416 0 165.68496238142416 63.807005804787423 0 0 0 0 -283.24462982747355 293.09175328164474 0 293.09175328164474 -107.58751500422659 0 0 0 0 -3.5544493928194356 -0.4127895602924383 0 -0.4127895602924383 2.6314271327320427 0 0 0 0 215.12675901506736 -290.10315683989029 0 -290.10315683989029 -24.331507864342711 0 0 0 0 146.74105651965692 282.17135552771322 0 282.17135552771322 -617.9633511888569 0 0 0 0 -330.48528535086371 271.2844127855019 0 271.2844127855019 -163.33752858790649 0 0 0 0 -310.950626883121 328.72464155724128 0 328.72464155724128 -59.428506940626903 0 0 0 0 -631.70960388855747 750.10655133884211 0 750.10655133884211 -314.06850152744664 0 0 0 0 -1061.7144865463815 283.39640700973382 0 283.39640700973382 -301.55746124902726 0 0 0 0 -2394.3121880113904 1250.2106104564537 0 1250.2106104564537 -239.61592146844077 0 0 0 0 -374.74539095046021 794.12700394266267 0 794.12700394266267 -1452.1289241500144 0 0 0 0 -0.039882927889934194 0.93003808072151628 0 0.93003808072151628 -8.9154694689324678 0 0 0 0 1883.1932308705618 -266.03904809495231 0 -266.03904809495231 -1001.0154524035652 0 0 0 0 -335.36096838554658 196.26892461846072 0 196.26892461846072 19.899623492379277 0 0 0 0 -376.57002924341941 1074.0205989473288 0 1074.0205989473288 -1251.6631962645861 0 0 0 0 -901.1811738703982 1137.4010276892523 0 1137.4010276892523 -884.06285871349303 0 0 0 0 -1037.2310198771866 866.52628695104113 0 866.52628695104113 -119.70063979608425 0 0 0 0 1028.5637194724331 527.68739540555771 0 527.68739540555771 -740.1645744556356 0 0 0 0 -633.82516038844187 1309.6732666237779 0 1309.6732666237779 -676.28667889422832 0 0 0 0 -65.741652895174411 783.94805929002325 0 783.94805929002325 -805.01737255494027 0 0 0 0 -52.421633534242574 636.6452016286662 0 636.6452016286662 -51.89374226977543 0 0 0 0 3.4463681824958243 10.993292249400156 0 10.993292249400156 -25.827535092267762 0 0 0 0 -973.00437614021939 654.3348936501402 0 654.3348936501402 -177.96563025262776 0 0 0 0 2.8375576855112925 7.8661350482407215 0 7.8661350482407215 -23.266590264177172 0 0 0 0 -686.98094715422485 432.18549070500057 0 432.18549070500057 -107.42035802970713 0 0 0 0 -371.18333292948955 586.41408961979869 0 586.41408961979869 -247.19461557448017 0 0 0 0 -336.57093257826637 483.32297921031659 0 483.32297921031659 -126.5056991384231 0 0 0 0 -405.76397551428818 553.97700239714936 0 553.97700239714936 -114.76448014751713 0 0 0 0 -499.32860039304978 255.02344001129288 0 255.02344001129288 -347.77114614529455 0 0 0 0 -515.84668584787505 423.60673006086404 0 423.60673006086404 401.68594482235858 0 0 0 0 -467.77477571432246 250.77657670239023 0 250.77657670239023 -347.20191191609774 0 0 0 0 -335.02744987094775 1103.7431829117477 0 1103.7431829117477 -1241.507034974753 0 0 0 0 -683.83548812483787 1852.4053824422062 0 1852.4053824422062 -2774.944737785208 0 0 0 0 -120.1196555034694 -64.446448852867434 0 -64.446448852867434 -2159.7925539866783 0 0 0 0 -3893.549856019461 3010.7438683563632 0 3010.7438683563632 -907.41041163401565 0 0 0 0 -0.055929071406211506 5.032622374165058 0 5.032622374165058 -11.78505305788377 0 0 0 0 2184.0839483495583 1057.5056099938906 0 1057.5056099938906 -1727.0940415752102 0 0 0 0 -2178.0055899421423 3513.7014444411006 0 3513.7014444411006 -2090.0009677934299 0 0 0 0 -115.25246645317384 -351.7002570404884 0 -351.7002570404884 -220.70148740709192 0 0 0 0 -2998.3232436727958 1722.66731563966 0 1722.66731563966 -1078.5917225688572 0 0 0 0 -1455.0343213049782 1399.1428504626301 0 1399.1428504626301 -475.2446060749902 0 0 0 0 -1126.1281948602118 742.29345312863029 0 742.29345312863029 -566.85985414478682 0 0 0 0 -1083.6155949225358 1583.3463975679879 0 1583.3463975679879 -1650.2151074105007 0 0 0 0 -580.67745166667737 1922.7537488637395 0 1922.7537488637395 -1827.308108620754 0 0 0 0 91.441467311364249 447.99965444683005 0 447.99965444683005 -1081.0769727977754 0 0 0 0 -571.20685147424342 641.96498828881545 0 641.96498828881545 67.797873215949949 0 0 0 0 243.01643776893616 98.603054816951953 0 98.603054816951953 -23.621492469854729 0 0 0 0 86.478548921295442 21.209946929167131 0 21.209946929167131 79.980513531637826 0 0 0 0 -283.70050822528719 312.89482892392584 0 312.89482892392584 444.30898215026673 0 0 0 0 245.96444448325201 -32.876343323957258 0 -32.876343323957258 76.353922413277985 0 0 0 0 334.47135168757814 30.26388069505623 0 30.26388069505623 60.947241103566739 0 0 0 0 9.2277015103725262 10.899004325436252 0 10.899004325436252 12.395778474592637 0 0 0 0 -9.9656176528009439 15.599270192515288 0 15.599270192515288 8.0964802714467918 0 0 0 0 -947.12035284034937 1535.8483154159783 0 1535.8483154159783 -1844.5166276054147 0 0 0 0 -691.42656062212336 718.89001505818533 0 718.89001505818533 49.155485511309962 0 0 0 0 -1070.4663232230159 109.4219348689212 0 109.4219348689212 605.58539424273658 0 0 0 0 -410.58045503671747 726.69586909285681 0 726.69586909285681 -49.756211229214387 0 0 0 0 -771.70370635733707 165.86317123535264 0 165.86317123535264 157.78945339696065 0 0 0 0 -653.86005734505306 -459.91907664170685 0 -459.91907664170685 -24.565985210303552 0 0 0 0 285.56569590749859 -26.569002435744551 0 -26.569002435744551 124.40419679378647 0 0 0 0 -503.11416189199372 12.16186026566993 0 12.16186026566993 697.4805427659312 0 0 0 0 -553.58780367817963 -141.85112737535292 0 -141.85112737535292 241.86471237032447 0 0 0 0 -266.46204545645742 -158.90487652355841 0 -158.90487652355841 511.44590488897848 0 0 0 0 -514.57212323450221 -184.00087785461983 0 -184.00087785461983 864.85248317495098 0 0 0 0 -372.78699353032789 -8.7784742170165373 0 -8.7784742170165373 464.06900306646276 0 0 0 0 -248.4480691793724 -133.6123184925882 0 -133.6123184925882 587.54960243006735 0 0 0 0 59.355592082698422 397.89194474708233 0 397.89194474708233 233.00303301210079 0 0 0 0 -249.95120602332463 480.02914915128054 0 480.02914915128054 109.37736248101646 0 0 0 0 -371.0370100922155 570.29745934313905 0 570.29745934313905 162.25424806274168 0 0 0 0 -247.89828425665473 626.20917090397393 0 626.20917090397393 -138.83116858521316 0 0 0 0 -410.44809292697755 455.650360329264 0 455.650360329264 295.76110573907044 0 0 0 0 -319.23029636664432 624.90129341819011 0 624.90129341819011 -145.74222442951395 0 0 0 0 -341.27292670476163 479.33899142312566 0 479.33899142312566 42.109332947098665 0 0 0 0 -318.58746536218678 612.02997668169792 0 612.02997668169792 -152.78454029963905 0 0 0 0 -243.87883722137485 638.91914793568117 0 638.91914793568117 -588.02499169063594 0 0 0 0 -415.90325985776144 751.75578414425399 0 751.75578414425399 -123.18274914266146 0 0 0 0 266.68346760996792 426.83807295231145 0 426.83807295231145 -564.52210598652334 0 0 0 0 -486.19734346221958 341.85897797261623 0 341.85897797261623 -152.24977458185026 0 0 0 0 -184.44547968833649 297.24442539944334 0 297.24442539944334 -530.16893945494667 0 0 0 0 -201.5719230484101 230.22279628894375 0 230.22279628894375 -465.46572669231864 0 0 0 0 -316.59246594216165 158.61062769009231 0 158.61062769009231 -1015.2279574287031 0 0 0 0 -283.35567852898384 365.26674426847057 0 365.26674426847057 -510.53496472790175 0 0 0 0 -276.59606380568584 293.39084560694664 0 293.39084560694664 -443.90054799390714 0 0 0 0 -410.98315914731938 1126.0411209258855 0 1126.0411209258855 -835.91013221445655 0 0 0 0 115.32592494710843 -557.14743627703854 0 -557.14743627703854 1111.3831103117109 0 0 0 0 -68.693648359316285 212.78731464870998 0 212.78731464870998 -443.85224520102292 0 0 0 0 -686.76145119637658 1048.2309641879892 0 1048.2309641879892 492.36548052699982 0 0 0 0 1875.8965820906742 246.49880714384517 0 246.49880714384517 -1064.9279087376049 0 0 0 0 -3396.6408759605401 1063.4998841061042 0 1063.4998841061042 223.56412021506731 0 0 0 0 -9.1335087939700372 16.548621303144145 0 16.548621303144145 -22.482538358379273 0 0 0 0 -58.460216099520039 1218.443344603266 0 1218.443344603266 -1412.0479830832755 0 0 0 0 -1885.5413643874635 1429.4052836802748 0 1429.4052836802748 -304.16438535064117 0 0 0 0 -123.03372016209323 1058.0401472980666 0 1058.0401472980666 -2381.3200709278472 0 0 0 0 -191.66161754759378 1243.2427771634193 0 1243.2427771634193 79.84143778600901 0 0 0 0 633.61969196065183 -629.23698501978083 0 -629.23698501978083 -973.40221755632956 0 0 0 0 -2347.3738555931268 -472.85070791400858 0 -472.85070791400858 119.75058932729189 0 0 0 0 -1505.1114046586299 538.99182887145616 0 538.99182887145616 473.46649299324781 0 0 0 0 -1185.3369069227265 671.55703248967166 0 671.55703248967166 395.92511948341416 0 0 0 0 -1047.6857253745693 559.74187898254604 0 559.74187898254604 193.40519801582923 0 0 0 0 -1288.7897112177889 912.42530432306376 0 912.42530432306376 647.75575675512664 0 0 0 0 -2242.7337852068449 1201.2173192069567 0 1201.2173192069567 480.23215671216167 0 0 0 0 -744.1086504462437 745.13361500207611 0 745.13361500207611 515.26491201440149 0 0 0 0 -825.40981466802623 957.01782058371873 0 957.01782058371873 1150.1842056069218 0 0 0 0 45.230591069732327 1274.2305377956854 0 1274.2305377956854 484.84359600820244 0 0 0 0 -389.11436309840064 701.53570696962015 0 701.53570696962015 216.83489855065636 0 0 0 0 -18.67209190446286 37.601939771017769 0 37.601939771017769 -47.996106172651096 0 0 0 0 1105.0767717892159 2615.2293631000794 0 2615.2293631000794 -4942.4479627713445 0 0 0 0 -1159.5415645707108 685.10381944891196 0 685.10381944891196 1851.9873224173552 0 0 0 0 -747.15695628254616 1176.7238457358922 0 1176.7238457358922 269.76961131176722 0 0 0 0 -380.07062885267078 2135.583268193287 0 2135.583268193287 -1440.7681344758603 0 0 0 0 -1350.6759286175366 2330.0789744834919 0 2330.0789744834919 25.481529925746372 0 0 0 0 -1328.4084303004638 1597.9453703376412 0 1597.9453703376412 1248.9144260491848 0 0 0 0 -488.54699595503916 1593.5490201426401 0 1593.5490201426401 -541.67079354625457 0 0 0 0 -502.19518379312649 1171.6349950297945 0 1171.6349950297945 -835.31180405412033 0 0 0 0 -41.867544439010089 1582.5008885454145 0 1582.5008885454145 -671.82358906360787 0 0 0 0 250.32365933523397 1304.0601789226839 0 1304.0601789226839 -1164.1886581990566 0 0 0 0 -341.18679861986311 1341.4501534570718 0 1341.4501534570718 -862.39524008737317 0 0 0 0 401.47838300891635 664.36732922830242 0 664.36732922830242 -475.28874832103975 0 0 0 0 -2357.8984242309998 -1833.7223995991499 0 -1833.7223995991499 2757.533530989469 0 0 0 0 -30.631646039984133 19.626632115489983 0 19.626632115489983 -10.913655471283548 0 0 0 0 -14.340469230451816 23.85037584989368 0 23.85037584989368 -22.800113567886697 0 0 0 0 1867.8547904672014 1256.9079663441298 0 1256.9079663441298 -2225.0829413197134 0 0 0 0 -3722.6424782717077 616.49424430206091 0 616.49424430206091 928.52627350939292 0 0 0 0 2274.054683415703 872.6896168266012 0 872.6896168266012 -1861.6569084096991 0 0 0 0 177.34274059415111 2361.4492647024808 0 2361.4492647024808 -2766.356212257655 0 0 0 0 246.90031988460032 1948.5948923858637 0 1948.5948923858637 -766.5448483213986 0 0 0 0 475.85035179335682 -217.95159881786458 0 -217.95159881786458 -2524.6444546916587 0 0 0 0 471.73909192993597 -508.06543897099618 0 -508.06543897099618 -344.12010095639107 0 0 0 0 -1775.4780177406628 281.66430069402668 0 281.66430069402668 143.66321617200447 0 0 0 0 427.5251843046135 1332.6043056284216 0 1332.6043056284216 -2173.800124614474 0 0 0 0 -1586.6717259403522 1420.4872952621845 0 1420.4872952621845 -584.04084952422272 0 0 0 0 526.61197212417028 1282.7324819892201 0 1282.7324819892201 -2950.3747198064211 0 0 0 0 -1675.4951660418956 205.76785371480673 0 205.76785371480673 466.05692525740596 0 0 0 0 -4119.826727260137 833.3781314587377 0 833.3781314587377 314.24390089417284 0 0 0 0 -2338.873804476425 2376.290199137984 0 2376.290199137984 -1689.5767777377114 0 0 0 0 -132.13821096684842 867.7254944765773 0 867.7254944765773 -707.47021970677815 0 0 0 0 -171.0296649489901 1060.6297416396046 0 1060.6297416396046 -850.92824393203045 0 0 0 0 1361.5666239445854 -157.69034664295759 0 -157.69034664295759 117.51485415124625 0 0 0 0 45.175607553428563 641.57980257591203 0 641.57980257591203 1044.5765784871405 0 0 0 0 212.65409999911208 124.8388951488937 0 124.8388951488937 176.96088030449084 0 0 0 0 -41.300520748972019 31.616781532858923 0 31.616781532858923 -23.774512923849517 0 0 0 0 34.035328557252797 -444.0267050669197 0 -444.0267050669197 958.03844578050189 0 0 0 0 6.728700383042451 -178.77437786794729 0 -178.77437786794729 -61.00655278180318 0 0 0 0 -21.031110231287329 -12.560216407932685 0 -12.560216407932685 8.3884165058512448 0 0 0 0 1281.0890491462342 -93.950196152326612 0 -93.950196152326612 -1284.0159206822054 0 0 0 0 685.88982720914646 -824.77803545625193 0 -824.77803545625193 1.9896286806470016 0 0 0 0 312.24047343049824 227.13991823667385 0 227.13991823667385 -37.132871307130699 0 0 0 0 339.36445761971845 88.306963069032463 0 88.306963069032463 -55.424778047219661 0 0 0 0 -441.75861030323722 -126.42735424121383 0 -126.42735424121383 202.48277841609797 0 0 0 0 -203.01596878886562 228.78452043144193 0 228.78452043144193 88.481414053163462 0 0 0 0 -204.61256309453165 153.00985613115699 0 153.00985613115699 241.68294113092111 0 0 0 0 -1158.6770187669754 311.94453439223616 0 311.94453439223616 274.97382506382382 0 0 0 0 -1908.9654499035823 415.08719552821913 0 415.08719552821913 35.69901464052964 0 0 0 0 -1429.4908513146511 2295.437853063017 0 2295.437853063017 -1562.9087067468126 0 0 0 0 -16.52811593955775 15.45673121465876 0 15.45673121465876 -13.123510779162576 0 0 0 0 423.25269104901963 1820.7637927494864 0 1820.7637927494864 -2538.2717348935771 0 0 0 0 -2102.503182001703 1905.2596468866877 0 1905.2596468866877 -884.82370156343677 0 0 0 0 -1078.7158971943718 1013.3141656911394 0 1013.3141656911394 -157.65040589743285 0 0 0 0 -1216.6022803546657 1072.9443250865224 0 1072.9443250865224 -111.70968933941185 0 0 0 0 -976.60273205190606 1754.7369086323106 0 1754.7369086323106 -1060.8580089971745 0 0 0 0 -581.61232598193237 1301.4388719205756 0 1301.4388719205756 -566.64834236698516 0 0 0 0 -857.53674277230311 776.22255734170085 0 776.22255734170085 78.35092504216118 0 0 0 0 -331.52122550303466 1264.7393692825553 0 1264.7393692825553 -581.07071179436753 0 0 0 0 -471.13068683145684 600.25433254783457 0 600.25433254783457 113.29714459480533 0 0 0 0 -355.06852337013697 869.41897567915294 0 869.41897567915294 356.59898048293235 0 0 0 0 -43.000623728540489 59.462269964861918 0 59.462269964861918 -38.759151217712116 0 0 0 0 -445.09325823609834 481.93779949094005 0 481.93779949094005 503.11628429636949 0 0 0 0 -604.67605725696194 526.4051245118435 0 526.4051245118435 304.81291333378977 0 0 0 0 -351.23453135171439 877.85808917047825 0 877.85808917047825 -496.56430646499211 0 0 0 0 -277.70640761755203 631.25608244247996 0 631.25608244247996 265.37257828938164 0 0 0 0 139.14167221137905 94.856628008444204 0 94.856628008444204 -48.305646826163866 0 0 0 0 94.517846445283311 59.759034047043336 0 59.759034047043336 -15.529973013820239 0 0 0 0 11.758649300471518 8.2359249998886241 0 8.2359249998886241 -28.759149352842641 0 0 0 0 25.853673610981787 99.296990152742183 0 99.296990152742183 -48.257702282709261 0 0 0 0 -69.235225098556839 343.89524688764686 0 343.89524688764686 -168.05208280117859 0 0 0 0 27.483073296554409 30.459741712653994 0 30.459741712653994 -76.841377543960732 0 0 0 0 -161.14269686449552 352.08148394754789 0 352.08148394754789 147.20381327687574 0 0 0 0 -19.012672618795477 212.27627143863947 0 212.27627143863947 111.92961689947333 0 0 0 0 -175.12278247848735 345.63042428478002 0 345.63042428478002 219.74734452195116 0 0 0 0 -331.78425865186728 519.24546810165521 0 519.24546810165521 41.047116583220486 0 0 0 0 -544.20828367563809 321.32899972517953 0 321.32899972517953 238.21439817889041 0 0 0 0 68.135265464981785 235.58217979898291 0 235.58217979898291 83.330297209944547 0 0 0 0 270.16652222145058 388.78143160853233 0 388.78143160853233 120.40193042891042 0 0 0 0 31.103931786259636 61.504275431327187 0 61.504275431327187 165.20679717992971 0 0 0 0 13.951110272951269 10.023012316285815 0 10.023012316285815 -13.379438993521134 0 0 0 0 34.550448872818379 295.3183111873941 0 295.3183111873941 239.96410002622724 0 0 0 0 396.47615447034696 -68.817821178441136 0 -68.817821178441136 -66.389926313360775 0 0 0 0 94.333475084946258 299.84752372355615 0 299.84752372355615 416.8998953500668 0 0 0 0 500.29774960107898 286.26800304813696 0 286.26800304813696 41.003895378842572 0 0 0 0 98.648488197519328 215.92598002534942 0 215.92598002534942 128.63806780406594 0 0 0 0 527.52979060799407 172.10783110671309 0 172.10783110671309 -31.688975495364502 0 0 0 0 -43.651098214948433 4.4069037036324517 0 4.4069037036324517 315.62241977336907 0 0 0 0 -35.611338224014617 70.103405859375926 0 70.103405859375926 432.70665926496065 0 0 0 0 77.627972591770202 52.953132843205566 0 52.953132843205566 21.232046691329629 0 0 0 0 86.576500062466948 47.298941256853141 0 47.298941256853141 -8.4808236239375674 0 0 0 0 81.243581863492039 63.375522708785269 0 63.375522708785269 21.624746015731159 0 0 0 0 85.965677167638205 95.799546547978025 0 95.799546547978025 -46.487108630895818 0 0 0 0 123.18022373656277 171.87556971049617 0 171.87556971049617 -68.924973880581092 0 0 0 0 174.05000115501025 228.39265284026078 0 228.39265284026078 -18.548768615637528 0 0 0 0 310.55567442501342 14.350851468664587 0 14.350851468664587 -221.48881884559523 0 0 0 0 89.524496617276952 36.744399377141178 0 36.744399377141178 -22.68259623382864 0 0 0 0 14.886216593411518 -41.974686731249676 0 -41.974686731249676 -25.442280323310115 0 0 0 0 46.293677744263874 15.048284152940298 0 15.048284152940298 -7.5315744388561257 0 0 0 0 85.11436857143417 60.338451526928111 0 60.338451526928111 20.688118244666157 0 0 0 0 135.18059298953267 44.106687227231305 0 44.106687227231305 -10.663855326929479 0 0 0 0 150.09867528521136 71.438811725678534 0 71.438811725678534 -51.813386607944267 0 0 0 0 149.02532433236047 66.289896232839965 0 66.289896232839965 3.2257281837814844 0 0 0 0 81.569988850577232 54.285139159024737 0 54.285139159024737 -30.125997216927715 0 0 0 0 83.483666238287697 68.877061842333205 0 68.877061842333205 -112.25931787323498 0 0 0 0 101.38367294433287 28.224227778085364 0 28.224227778085364 -31.425893479493286 0 0 0 0 62.067713195865508 38.653769556134648 0 38.653769556134648 -53.644265168928541 0 0 0 0 74.083504866874108 24.679406810126558 0 24.679406810126558 -82.20707829596013 0 0 0 0 28.552223311897251 13.060947754442168 0 13.060947754442168 -94.87592989042605 0 0 0 0 87.93641219348865 57.540675129846932 0 57.540675129846932 -150.84382046309474 0 0 0 0 3.1225324022738334 6.5072910654602936 0 6.5072910654602936 0.074156955051298823 0 0 0 0 97.025936080572137 26.308543070310407 0 26.308543070310407 -152.55076093925891 0 0 0 0 110.95183508313494 80.794015374605806 0 80.794015374605806 -185.63170459867979 0 0 0 0 126.72136578417849 34.906830959342187 0 34.906830959342187 -151.33205399132089 0 0 0 0 102.3333025504454 61.842943261932007 0 61.842943261932007 7.3885552550710827 0 0 0 0 4.3447162192278483 176.00162359634487 0 176.00162359634487 135.78111169760814 0 0 0 0 92.760539203382905 162.98249822041544 0 162.98249822041544 -105.24680009854637 0 0 0 0 90.363553592239185 61.165197764495659 0 61.165197764495659 13.583273465088666 0 0 0 0 177.94275485879371 47.071066952896217 0 47.071066952896217 -79.159989346342627 0 0 0 0 250.19971052568872 88.789349942206172 0 88.789349942206172 -81.905829324536171 0 0 0 0 18.378025286665462 11.15011658599402 0 11.15011658599402 1.6420471369826544 0 0 0 0 365.65861913069602 -114.72224953785189 0 -114.72224953785189 -2.9188353874051245 0 0 0 0 157.81412325828933 15.77412081273178 0 15.77412081273178 -36.65366558849928 0 0 0 0 187.25823587669402 39.492501690525387 0 39.492501690525387 -48.763926713014371 0 0 0 0 27.829345446933104 18.061291358892362 0 18.061291358892362 5.8627810561886804 0 0 0 0 148.453332683388 15.748870831324894 0 15.748870831324894 -1.2683310646898462 0 0 0 0 -60.420633897679295 258.86486224171244 0 258.86486224171244 -378.35567685174465 0 0 0 0 0.45530717119254405 20.96256528464437 0 20.96256528464437 -124.25780513331847 0 0 0 0 13.103119946026709 99.478335652900569 0 99.478335652900569 -497.41019873374171 0 0 0 0 85.884514677796687 78.909021608633338 0 78.909021608633338 -788.93022393116871 0 0 0 0 -110.92139809893706 335.37266762826766 0 335.37266762826766 -324.3207022024726 0 0 0 0 2.6035297069701926 9.3379785551034331 0 9.3379785551034331 4.1842696362748484 0 0 0 0 1399.4778050476525 640.87433911336893 0 640.87433911336893 -1028.1992986305559 0 0 0 0 0.085424984050689545 58.737251227638069 0 58.737251227638069 -65.639111073572337 0 0 0 0 15.23666485605645 760.39364283760005 0 760.39364283760005 24.417095656266611 0 0 0 0 -2452.1640876003657 -763.47846807217866 0 -763.47846807217866 -446.16605014145534 0 0 0 0 1377.5560543709435 475.30898632426397 0 475.30898632426397 -1576.2802419301952 0 0 0 0 -23.561063567531392 22.824268851167318 0 22.824268851167318 -23.756606151321108 0 0 0 0 -4323.6119458024987 2336.6032142890408 0 2336.6032142890408 -243.00287776028563 0 0 0 0 -2638.1768357093879 42.636037074519663 0 42.636037074519663 710.82979692015215 0 0 0 0 607.88479148926854 -40.224884608478533 0 -40.224884608478533 -1899.5199606696478 0 0 0 0 -347.25380405763281 751.88304446885741 0 751.88304446885741 69.515806376506589 0 0 0 0 -369.44647469284337 455.26845385780416 0 455.26845385780416 48.398515752502135 0 0 0 0 -350.84583687924896 636.6709258043411 0 636.6709258043411 -498.21174904802774 0 0 0 0 -521.08677809720393 -593.16082140872822 0 -593.16082140872822 450.53989673626165 0 0 0 0 -15.310496473513922 282.47602123612796 0 282.47602123612796 71.093553391874593 0 0 0 0 99.057980575621798 50.777784542712482 0 50.777784542712482 7.876240286783954 0 0 0 0 155.71349475691386 50.21386233298108 0 50.21386233298108 -168.94301908558555 0 0 0 0 122.20496787883894 34.465853300906019 0 34.465853300906019 -69.956883297039894 0 0 0 0 177.50124907290592 115.94457912547296 0 115.94457912547296 -74.772739417152479 0 0 0 0 -19.072803619943443 489.92266012358232 0 489.92266012358232 21.769296238267998 0 0 0 0 25.62072011725877 138.49444237980538 0 138.49444237980538 -65.223523461434525 0 0 0 0 30.399322449287865 61.057321343709191 0 61.057321343709191 -46.849967805232154 0 0 0 0 95.813607242444448 72.631357441984107 0 72.631357441984107 -4.5427761981766821 0 0 0 0 71.219449033211276 72.258380463063077 0 72.258380463063077 -17.154004531497776 0 0 0 0 117.14297772373902 108.58210872647942 0 108.58210872647942 -58.061106272376492 0 0 0 0 10.796780622499895 51.858270416335131 0 51.858270416335131 -54.131072260929841 0 0 0 0 78.936770837099175 115.88782696404087 0 115.88782696404087 -73.484646973149211 0 0 0 0 91.271144838734472 80.515817616862478 0 80.515817616862478 -42.851466328847891 0 0 0 0 -18.277628464611553 282.95102259726264 0 282.95102259726264 6.4073673689781572 0 0 0 0 87.334595144558051 64.178174818122827 0 64.178174818122827 4.7888897402700081 0 0 0 0 125.32805257716245 104.46959080836677 0 104.46959080836677 -40.197305117280166 0 0 0 0 118.62098286975743 84.444710257594124 0 84.444710257594124 -16.230112180812284 0 0 0 0 14.899561057445268 41.646452165347768 0 41.646452165347768 -39.764333260895796 0 0 0 0 87.690594439198321 93.698485397631885 0 93.698485397631885 -43.903996821161854 0 0 0 0 92.494700849161745 83.776041408043966 0 83.776041408043966 -28.319636585263652 0 0 0 0 84.672973003865224 69.728990104853253 0 69.728990104853253 -22.815318388047615 0 0 0 0 159.60611716617132 31.764915658801328 0 31.764915658801328 -22.503554455426638 0 0 0 0 117.48938179600373 110.53844853065311 0 110.53844853065311 -27.871507287985878 0 0 0 0 366.32459959335392 -120.2183885180275 0 -120.2183885180275 -884.24754485795711 0 0 0 0 16.073561282642544 11.025482879485054 0 11.025482879485054 2.4467640674607196 0 0 0 0 -1747.9152974454337 552.95379280339694 0 552.95379280339694 360.14965589984786 0 0 0 0 37.602707338682421 62.619514963742915 0 62.619514963742915 -49.944074493894504 0 0 0 0 -1165.1557378508878 -30.605946731069707 0 -30.605946731069707 269.50328727597662 0 0 0 0 -6.5664069542097536 21.100995422937842 0 21.100995422937842 27.258149193570318 0 0 0 0 -59.405988797632745 115.55647401625902 0 115.55647401625902 -75.571144174120946 0 0 0 0 -926.46459753955423 705.78441777116677 0 705.78441777116677 -240.77036220621085 0 0 0 0 -1512.1927389253688 1207.1640644203871 0 1207.1640644203871 -509.51366975975179 0 0 0 0 -2094.7120455270633 983.30965967822704 0 983.30965967822704 33.57985078101774 0 0 0 0 -1698.8414814495773 1233.1163950340633 0 1233.1163950340633 -252.23349852811953 0 0 0 0 -1178.9754604843183 1715.3265656896547 0 1715.3265656896547 -1279.2117327395099 0 0 0 0 -1882.2161554171471 1488.7295427381032 0 1488.7295427381032 -501.24276534478122 0 0 0 0 -1913.6851662836561 1552.2004735125665 0 1552.2004735125665 -474.80330470498302 0 0 0 0 -1572.0247693450947 792.58283550666602 0 792.58283550666602 -221.47979813176789 0 0 0 0 -2656.6247710046009 1579.1595670032402 0 1579.1595670032402 -236.69749599637908 0 0 0 0 -1788.2340833878989 1173.0556315957438 0 1173.0556315957438 -170.99285513424547 0 0 0 0 -1996.1122183087355 1730.6396891778058 0 1730.6396891778058 -764.81179039092967 0 0 0 0 -2667.284484903299 2011.2393538893375 0 2011.2393538893375 -830.59068843902423 0 0 0 0 -4076.7883183418016 1168.4633590134181 0 1168.4633590134181 -40.561940004707139 0 0 0 0 -2414.2540359980485 639.7484614346904 0 639.7484614346904 52.043926240017754 0 0 0 0 -2106.39922521888 78.034069905748765 0 78.034069905748765 -840.27093167920248 0 0 0 0 -6190.0988077978545 -188.238491289987 0 -188.238491289987 -570.25709919661313 0 0 0 0 -6146.415830242895 4737.51637073655 0 4737.51637073655 -3215.9688054418657 0 0 0 0 -2883.4091152520268 2342.3996740192815 0 2342.3996740192815 -1333.9218120007426 0 0 0 0 -2797.5770088427525 2229.7123622059735 0 2229.7123622059735 -1375.5247184562322 0 0 0 0 -1542.5574327177601 2050.8358584738889 0 2050.8358584738889 -1578.1791971429921 0 0 0 0 -1581.5716396468924 2247.0124991728298 0 2247.0124991728298 -1706.9335900104197 0 0 0 0 -71.664770167582901 1659.700168513984 0 1659.700168513984 -2776.7175927355129 0 0 0 0 -2877.9528032865019 3127.2540834140254 0 3127.2540834140254 -2304.5582173346484 0 0 0 0 -383.00283337764267 2041.2716279384003 0 2041.2716279384003 -2551.9369149173726 0 0 0 0 -297.62275813767337 2623.0442259338597 0 2623.0442259338597 -4362.7119291490235 0 0 0 0 -23.560502916836413 -94.593680920806946 0 -94.593680920806946 -2645.4515734688321 0 0 0 0 -9.1341279805198852 50.952508728186842 0 50.952508728186842 18.202382144328425 0 0 0 0 478.36935055977665 -1278.2911703168211 0 -1278.2911703168211 -95.176611315619084 0 0 0 0 -57.625066477299697 25.846448828623579 0 25.846448828623579 28.390782061571372 0 0 0 0 -730.83776120387483 1502.2735322043009 0 1502.2735322043009 -5334.1229717690512 0 0 0 0 -25.709670084736274 29.072663652411563 0 29.072663652411563 0.64587295682082413 0 0 0 0 -4442.3823272669979 348.18300041143084 0 348.18300041143084 1403.4878742334622 0 0 0 0 -5126.1533503690298 3028.7448216385492 0 3028.7448216385492 -257.6839755889232 0 0 0 0 -2982.2252750266562 1841.7473879063982 0 1841.7473879063982 -4608.383402983367 0 0 0 0 55.291249545840401 84.621707762717051 0 84.621707762717051 134.9169192060217 0 0 0 0 343.78370067598007 141.96457744498912 0 141.96457744498912 2.3165458222301822 0 0 0 0 -19.438258653186494 105.69751870301843 0 105.69751870301843 40.701669250716805 0 0 0 0 47.043894713802729 47.205188258114504 0 47.205188258114504 -6.1086853222732316 0 0 0 0 -15.155611789738145 20.343157237762995 0 20.343157237762995 -4.6022888726460423 0 0 0 0 65.075492036630749 74.711861853375012 0 74.711861853375012 5.9144229817466112 0 0 0 0 -51.428236855455907 120.21712504565949 0 120.21712504565949 36.39294795699243 0 0 0 0 -6.5332245965400944 148.1323107059834 0 148.1323107059834 -66.673018769528426 0 0 0 0 49.779551289122793 25.284133671135809 0 25.284133671135809 -0.75863441717535807 0 0 0 0 -612.70573503384367 1089.9316939370965 0 1089.9316939370965 -1494.1121582491469 0 0 0 0 292.81339704243874 8.4890314246877097 0 8.4890314246877097 -112.48762990927935 0 0 0 0 21.298763319697173 32.240150713274488 0 32.240150713274488 -25.620840090618003 0 0 0 0 34.869040180023035 13.677034067012777 0 13.677034067012777 1.1150741267525177 0 0 0 0 -935.20444127776409 892.80272426354304 0 892.80272426354304 -735.94376340464805 0 0 0 0 122.78927794215269 114.3129232706051 0 114.3129232706051 -116.92885631837271 0 0 0 0 -969.59928150293126 1158.3847951188582 0 1158.3847951188582 -906.51897604090482 0 0 0 0 -1207.5119399440864 1508.1413928442189 0 1508.1413928442189 -1341.2159277495375 0 0 0 0 -1684.3481738869432 1177.1534354603373 0 1177.1534354603373 -426.90511812012119 0 0 0 0 -741.04060377920541 798.08636938578275 0 798.08636938578275 -689.74619783311937 0 0 0 0 -401.3635923315087 777.41611409557663 0 777.41611409557663 325.35487693134201 0 0 0 0 -546.93764857097995 455.27747787589033 0 455.27747787589033 -217.73754598348569 0 0 0 0 15.06435536673834 3.7749478896024726 0 3.7749478896024726 -2.1372550950903246 0 0 0 0 960.32638910454261 -406.74007231022733 0 -406.74007231022733 61.746350730623817 0 0 0 0 1289.7548598641915 276.372461654375 0 276.372461654375 -145.03711774369003 0 0 0 0 529.88538194847933 142.56473043901497 0 142.56473043901497 -156.83490305936721 0 0 0 0 286.97076561767608 -151.45454726937896 0 -151.45454726937896 -34.074642259176471 0 0 0 0 -15.31187766605035 10.827280318166146 0 10.827280318166146 -0.55441640533894088 0 0 0 0 469.09370727235364 778.14023189715226 0 778.14023189715226 -126.20879372576019 0 0 0 0 447.40511385413993 270.18988198116131 0 270.18988198116131 103.10802687385876 0 0 0 0 522.77173233187932 511.12630237214034 0 511.12630237214034 536.54767743275079 0 0 0 0 587.47031665117538 168.22382222651868 0 168.22382222651868 -240.57123789255274 0 0 0 0 406.05847865100077 577.35659013932309 0 577.35659013932309 -126.2259295242693 0 0 0 0 136.50779631262412 522.0365073151479 0 522.0365073151479 102.86579577483072 0 0 0 0 248.23341921000974 565.98952462536545 0 565.98952462536545 -92.099129571608501 0 0 0 0 -255.36517191681196 1063.0828785814374 0 1063.0828785814374 -198.18464343923551 0 0 0 0 -172.15187612905902 509.58772687711371 0 509.58772687711371 -562.79656733979937 0 0 0 0 -537.02257877217198 447.85531662104768 0 447.85531662104768 -44.398480734198529 0 0 0 0 -285.10543320166471 700.0633636536586 0 700.0633636536586 149.94824513752246 0 0 0 0 -212.2741167673521 723.73628646697034 0 723.73628646697034 -86.275886481093039 0 0 0 0 81.561060404914315 364.26917000246976 0 364.26917000246976 -190.09277234932233 0 0 0 0 -203.95274071974563 376.40359206785797 0 376.40359206785797 -263.67266205270425 0 0 0 0 16.448442798588076 500.04174054788746 0 500.04174054788746 -232.51685614565577 0 0 0 0 137.5784065034386 151.98737128869834 0 151.98737128869834 -283.7230052267987 0 0 0 0 388.75650541494542 284.82163314810896 0 284.82163314810896 -279.26459461900231 0 0 0 0 133.34707822815835 282.6508849265665 0 282.6508849265665 -311.03318477064022 0 0 0 0 379.9717965947566 76.511416103658121 0 76.511416103658121 -398.7424072730937 0 0 0 0 418.90297921092133 392.35817825612321 0 392.35817825612321 -262.7674372220099 0 0 0 0 -604.94981786080461 174.93688419723185 0 174.93688419723185 -210.80171314737163 0 0 0 0 -124.5131382952386 118.59457506143372 0 118.59457506143372 -272.08922020653699 0 0 0 0 -446.03294827665377 718.23118407813308 0 718.23118407813308 -383.51724041975467 0 0 0 0 -107.57420057561467 100.61068010221879 0 100.61068010221879 -100.62960016827856 0 0 0 0 23.137826509806587 21.072283543987055 0 21.072283543987055 20.660140532546336 0 0 0 0 -243.44650997407007 551.12913258143089 0 551.12913258143089 -345.43727791699348 0 0 0 0 -658.66387511829089 530.41162832148257 0 530.41162832148257 -199.96035366642172 0 0 0 0 335.10092522960622 40.485287413448532 0 40.485287413448532 -152.7112302765745 0 0 0 0 683.18312720802351 117.93310186866074 0 117.93310186866074 -280.996790525096 0 0 0 0 622.23186071298551 -125.52656167525856 0 -125.52656167525856 -168.61708108979656 0 0 0 0 476.68642548974458 41.463798303022486 0 41.463798303022486 -258.65166398980364 0 0 0 0 451.8130249137248 187.28800109923213 0 187.28800109923213 -9.7255021043383749 0 0 0 0 497.77998257799482 208.89330885629897 0 208.89330885629897 -335.22256040967113 0 0 0 0 389.84543821298575 93.113266444503097 0 93.113266444503097 -142.47949298756066 0 0 0 0 205.92437844817482 185.89621814362428 0 185.89621814362428 622.84604291222058 0 0 0 0 339.88457765881321 939.57842775409517 0 939.57842775409517 740.78088619714799 0 0 0 0 -5.9626582569310926 0.75174689775982984 0 0.75174689775982984 0.70274697127942432 0 0 0 0 525.15513705799822 -125.37705479565193 0 -125.37705479565193 -1205.4729863801695 0 0 0 0 529.25350119583891 424.86291975456697 0 424.86291975456697 -79.006943310261704 0 0 0 0 489.38976606402139 458.5766624694952 0 458.5766624694952 215.60441976803122 0 0 0 0 555.50917663556174 308.46245914924839 0 308.46245914924839 -237.0546421771578 0 0 0 0 739.584299762726 812.80578622754911 0 812.80578622754911 -3.722325204173103 0 0 0 0 665.92773396978737 955.7141069672216 0 955.7141069672216 276.01024154614879 0 0 0 0 133.83525080716936 -79.929841294520884 0 -79.929841294520884 -407.20663835888263 0 0 0 0 896.16419339351705 572.98082959531166 0 572.98082959531166 -1077.1397061513562 0 0 0 0 326.79094441927737 1611.0995642927883 0 1611.0995642927883 390.09775060537504 0 0 0 0 944.67247645423049 -158.89253409847151 0 -158.89253409847151 43.825478938593733 0 0 0 0 863.51689824293135 123.02615290688118 0 123.02615290688118 -113.43721695909335 0 0 0 0 1688.0103387321578 194.45755849483248 0 194.45755849483248 -147.12973094487097 0 0 0 0 955.87185951691936 52.765817310828425 0 52.765817310828425 -179.36191807602881 0 0 0 0 399.89889409989701 -2.4571043477626517 0 -2.4571043477626517 79.47786841733614 0 0 0 0 761.69953098494443 -16.252885491579946 0 -16.252885491579946 -174.16788700937195 0 0 0 0 779.67952302581398 217.03177218679775 0 217.03177218679775 -145.91868242173223 0 0 0 0 289.86751444227411 -10.090368879595189 0 -10.090368879595189 -120.08622294478846 0 0 0 0 426.58712170203944 194.16238238322194 0 194.16238238322194 -183.69690888664627 0 0 0 0 -20.103477998972494 -111.2559126584635 0 -111.2559126584635 -528.11433940679126 0 0 0 0 -16.279533374915786 190.07655542964878 0 190.07655542964878 -243.75172491904232 0 0 0 0 212.15752803438227 180.61055477403715 0 180.61055477403715 -187.65147263946346 0 0 0 0 266.62577847091598 140.30260388713941 0 140.30260388713941 -195.63459813199916 0 0 0 0 -516.15945094863127 10.52078821941177 0 10.52078821941177 137.330459693796 0 0 0 0 -281.68881424350548 377.45923170652532 0 377.45923170652532 48.304984347705613 0 0 0 0 -31.065876544147301 16.695086662564744 0 16.695086662564744 0.40467903151242979 0 0 0 0 71.530436385035358 97.60478692336541 0 97.60478692336541 11.848971451401951 0 0 0 0 564.69517457732582 485.18850338676566 0 485.18850338676566 -314.60033509152709 0 0 0 0 43.510518871364184 -226.90568781230832 0 -226.90568781230832 343.79681067261845 0 0 0 0 9.9490287380459392 8.0462388600315151 0 8.0462388600315151 4.6937562771298076 0 0 0 0 244.61723874326981 363.56245049667132 0 363.56245049667132 -271.30898525720113 0 0 0 0 68.558314787100244 -287.7534434106019 0 -287.7534434106019 -267.16432700215955 0 0 0 0 124.2452162855916 -31.725811792377499 0 -31.725811792377499 -513.49837001317064 0 0 0 0 221.08101122861262 467.65898712882336 0 467.65898712882336 713.98816677344439 0 0 0 0 369.2595049803349 335.99138621646125 0 335.99138621646125 62.761771094854339 0 0 0 0 1082.8695860885782 750.57467145520059 0 750.57467145520059 365.11859230251866 0 0 0 0 405.92937248863745 437.42048856163456 0 437.42048856163456 234.13897505577188 0 0 0 0 1091.3721824208915 235.00780929339089 0 235.00780929339089 -154.62234699510736 0 0 0 0 -158.18611543194856 140.17083687818376 0 140.17083687818376 452.34485402462451 0 0 0 0 -208.39466771387379 284.88273419126563 0 284.88273419126563 107.96874716004822 0 0 0 0 -252.79684205891681 -4.6408236611314351 0 -4.6408236611314351 290.52117646353145 0 0 0 0 -247.43473717081906 7.203443783032526 0 7.203443783032526 -79.407283802400343 0 0 0 0 -174.86169711744878 243.8203256157467 0 243.8203256157467 -151.31588336134155 0 0 0 0 72.811833023031767 103.00475966508867 0 103.00475966508867 18.115766275153419 0 0 0 0 344.78644788203383 133.77323642632291 0 133.77323642632291 -868.65382280639824 0 0 0 0 -875.51703646992974 535.13308739323838 0 535.13308739323838 226.07092827518863 0 0 0 0 -671.00296318339997 206.01891800599032 0 206.01891800599032 181.70161298015591 0 0 0 0 -439.58942385130649 -122.88767029320297 0 -122.88767029320297 113.41349379670282 0 0 0 0 323.07117931119865 -175.20471417102817 0 -175.20471417102817 -184.34253374910986 0 0 0 0 175.10124606688623 400.57243563400698 0 400.57243563400698 79.654045861074337 0 0 0 0 468.69716734058602 24.197670196921536 0 24.197670196921536 -213.32691858695762 0 0 0 0 849.96830294276879 112.36101358221276 0 112.36101358221276 -278.9575137789343 0 0 0 0 76.023083137118988 105.74035920986171 0 105.74035920986171 23.284505343446313 0 0 0 0 -631.41132216092956 482.80511922139522 0 482.80511922139522 193.16914623667253 0 0 0 0 236.18414513031894 813.1426456410336 0 813.1426456410336 144.43894405718311 0 0 0 0 -125.04381123841449 284.38364744895443 0 284.38364744895443 80.33087739723851 0 0 0 0 -365.74931946561628 295.88062391448989 0 295.88062391448989 190.90230334736407 0 0 0 0 69.731887062815076 116.65994709364895 0 116.65994709364895 67.544917914885445 0 0 0 0 254.66590591410932 231.27216005632363 0 231.27216005632363 117.46478600054979 0 0 0 0 102.533854484529 142.56251265413448 0 142.56251265413448 122.37133389607834 0 0 0 0 16.670807775415597 57.523668682209973 0 57.523668682209973 47.937131689817761 0 0 0 0 80.961415370678878 90.145739287541801 0 90.145739287541801 12.955616130580893 0 0 0 0 562.60426151676802 106.92323424483766 0 106.92323424483766 -139.32993558880116 0 0 0 0 564.07552861599834 150.40768560924334 0 150.40768560924334 -185.30745692023629 0 0 0 0 562.8037460828491 149.52980957018008 0 149.52980957018008 -142.31344431790058 0 0 0 0 563.2786270700235 109.54020392124221 0 109.54020392124221 -178.48895030509448 0 0 0 0 842.39339837593434 320.47047721050694 0 320.47047721050694 -91.798287019904819 0 0 0 0 397.93229452242667 353.50392301602915 0 353.50392301602915 256.88713179774641 0 0 0 0 323.57182773016393 -218.35721663355071 0 -218.35721663355071 191.74162111866463 0 0 0 0 738.24462426244281 -163.29178314349247 0 -163.29178314349247 -153.18671468136017 0 0 0 0 -0.14971773831319979 1.0957054806111159 0 1.0957054806111159 -5.881347637442957 0 0 0 0 -65.983284641901264 -16.732558080664603 0 -16.732558080664603 -47.743530293577351 0 0 0 0 66.603440077917185 81.240716459789837 0 81.240716459789837 216.15599880034279 0 0 0 0 12.43824384055506 4.5661189995413629 0 4.5661189995413629 -6.0274839954333288 0 0 0 0 100.89557013934245 146.9530744912845 0 146.9530744912845 112.396723652113 0 0 0 0 -109.46274732373422 16.55561053659585 0 16.55561053659585 146.48696953906619 0 0 0 0 -65.731825450668111 86.460848263472144 0 86.460848263472144 184.20411319673076 0 0 0 0 -39.442495275579859 -89.892201907932758 0 -89.892201907932758 -59.760312870348571 0 0 0 0 0.11893631544096905 11.839233960210663 0 11.839233960210663 2.337382412793886 0 0 0 0 -0.74721758875244859 9.9024925404842463 0 9.9024925404842463 -1.4897392097889792 0 0 0 0 -58.879128276908887 47.722484702062502 0 47.722484702062502 -8.2152401978673879 0 0 0 0 -53.758494673496898 60.038186045336261 0 60.038186045336261 -9.1679716004291549 0 0 0 0 -61.387884370662505 62.422923831130902 0 62.422923831130902 -9.5688856755878078 0 0 0 0 7.5731605369219324 -2.5745597778877709 0 -2.5745597778877709 17.286577979786671 0 0 0 0 -39.923457054748724 61.345609241716375 0 61.345609241716375 -12.866081397769449 0 0 0 0 -244.46692677515966 79.385628158597683 0 79.385628158597683 -1.2181805194923072 0 0 0 0 -392.74238132193568 134.98974019673187 0 134.98974019673187 -1.3060625332509517 0 0 0 0 133.06657859402912 96.51375541593552 0 96.51375541593552 -194.53070922682673 0 0 0 0 -2.1907564364507266 3.9168982602058975 0 3.9168982602058975 -0.35185941614986405 0 0 0 0 -33.511095718538854 164.49953969450144 0 164.49953969450144 -133.60053628010792 0 0 0 0 -90.51683825138025 102.74908621444047 0 102.74908621444047 -27.249979105268721 0 0 0 0 -38.92110398029763 103.91996464803924 0 103.91996464803924 -61.683669737605669 0 0 0 0 -58.552699493673572 116.86134430013408 0 116.86134430013408 -61.82529374861042 0 0 0 0 5.9714419749348302 59.682936367341043 0 59.682936367341043 -79.198669110190764 0 0 0 0 -435.43323213499207 291.98806022339932 0 291.98806022339932 -102.49028069701308 0 0 0 0 -1268.2368881888833 326.96058165213253 0 326.96058165213253 394.71016145276189 0 0 0 0 -1710.0197386611835 188.78684554419669 0 188.78684554419669 491.26796590515551 0 0 0 0 13.078470863597818 57.27561878499813 0 57.27561878499813 -60.792506460901464 0 0 0 0 -14.801985994752613 99.510084965939313 0 99.510084965939313 -63.254941646959196 0 0 0 0 92.623802195401367 116.43184515857592 0 116.43184515857592 -156.14996843835252 0 0 0 0 22.542261761220288 -17.25126063134303 0 -17.25126063134303 -27.366250154547743 0 0 0 0 -2566.9091154588532 -921.51603516686373 0 -921.51603516686373 12.343278801943598 0 0 0 0 -323.57670998337107 -539.79344898640898 0 -539.79344898640898 -195.83527036632586 0 0 0 0 -4335.2893828778233 2329.7844815834424 0 2329.7844815834424 348.52019538718741 0 0 0 0 -1626.8687289761074 1937.763651560801 0 1937.763651560801 -2229.2626086256168 0 0 0 0 1.5088716214311653 67.554894886734587 0 67.554894886734587 -23.66825663008774 0 0 0 0 81.512251200278115 19.500076713595263 0 19.500076713595263 -34.256076200676034 0 0 0 0 583.38172195322113 -185.4826968984944 0 -185.4826968984944 -1253.3935232514268 0 0 0 0 -17.368260301736882 40.86198526874432 0 40.86198526874432 -2.0520391205463966 0 0 0 0 -138.7271822229086 176.0280898629062 0 176.0280898629062 -152.82413066218578 0 0 0 0 -15.589006648644158 4.733261711612073 0 4.733261711612073 -1.9533398142827281 0 0 0 0 205.7973424642696 169.57771825897362 0 169.57771825897362 163.20272134131119 0 0 0 0 -2.3575813985989953 20.571747127296476 0 20.571747127296476 -245.89775377780461 0 0 0 0 -230.00707038416294 254.94804538604512 0 254.94804538604512 -153.24983413989685 0 0 0 0 
</DataArray>
<DataArray type="Float64" Name="cross_section_updated" format="ascii">
1 1 1 1 1 1 1 1 1 1 1 1 1 1 1 1 1 1 0.008886390649772433 0.0085097272816701819 0.012481390677005724 0.010073891191508026 1 1 1 0.0099994092389045428 0.0082394787566571811 1 1 1 1 1 1 1 1 1 1 1 1 1 1 1 0.008480665919484022 1 1 1 0.0091732004136620832 1 1 1 0.0080588105535424233 1 1 1 0.01004075707908865 1 0.0099750627618585552 1 1 1 1 1 1 1 0.0019738541372676995 1 0.0097775456271358436 1 1 1 1 1 1 1 1 1 1 0.011592799065894485 1 1 0.0057581638148339678 1 1 0.0058377051710290801 1 1 0.0061493087451173038 1 1 1 1 0.0046447471512755713 0.0050958618986630191 1 0.012693785046034807 0.010089071138952077 1 1 1 1 1 1 1 0.0092134749853541587 1 1 1 0.014304967894640842 1 1 0.01115378932396794 1 0.013058096998543045 0.0023270974652378918 1 1 0.018637237627842168 0.004893222548928421 1 1 1 1 0.0098787403218420777 1 0.011374622059349235 1 1 1 0.0063001779821742834 0.0063562001673781888 1 0.0099998218753261092 1 0.0057256524894567697 1 1 0.014652855866985628 0.014575762895610696 1 1 1 0.0099936997888066762 1 0.013071482856292553 1 1 1 0.016542971372837431 1 0.015646599787744984 1 0.0092170888096000936 0.019779115636986914 1 1 1 1 1 0.013561553306478513 1 1 1 1 1 0.012903117705224024 0.0034484324609271172 1 0.010299834984848925 1 1 0.005541346839108759 1 1 1 1 0.010471159476015408 1 1 1 0.011315168092554242 1 1 1 1 1 0.0076354684387336252 0.012030774210304025 1 0.0083304134703594407 1 0.0087673848369779553 1 1 1 1 1 1 1 1 1 0.017885553141546454 1 0.010429697511926125 1 1 1 1 1 1 1 1 1 1 1 1 1 1 1 1 1 1 0.010347717383467486 1 1 1 1 1 1 1 1 0.010160419746102003 1 1 1 1 1 1 1 0.010353914019637062 1 1 1 1 0.011181353684285453 0.0078364686836707997 1 1 0.0094874188056155856 1 1 0.0093363965690550291 1 1 0.010015902601487915 0.00999904201858344 1 1 1 0.010001110493362581 0.0096508228037222588 1 1 1 0.0093859549132193354 1 1 0.0099950287971071819 1 1 0.0073200511220165229 1 1 1 0.010027424737560423 0.010024783190306669 1 1 0.0078422676259716495 1 1 0.0097657751960735506 1 1 1 1 0.0061616774828020873 0.014725168017637826 1 0.011873463352908918 0.0082806892412371352 0.0051041338622784937 1 1 1 1 0.0092477032151799671 0.0052792394367840133 1 1 1 1 0.0066305828450558182 0.012892181464534691 1 0.013960281741389982 1 0.0070406893300054372 1 1 0.013955881650374126 0.013226573422683421 1 1 1 1 0.010065028756155331 1 1 0.0075723731498939031 0.010331027944165141 0.010643989106986329 1 0.0072469389066555073 1 1 0.01169489004625828 0.010979812525293625 0.01137516117165243 0.0079283051600283622 1 1 1 1 1 1 1 0.0063340770739873913 0.010735052181936051 1 1 1 0.0074108203711127675 0.0087617270247424897 1 0.014773351923054873 0.0072465744382434888 1 1 0.010534436446641066 1 1 1 1 1 0.0093966937163575473 1 1 0.0074421647845369365 1 0.011595340036394376 1 0.017909109782963929 1 1 0.0050575397126460878 1 1 1 0.018064048479895192 1 0.010042141605999179 1 1 1 1 1 0.011838341835715013 0.011860194112745442 1 1 1 1 0.013426283843551129 1 1 1 0.0059840759736308098 1 1 1 0.015814181893372199 1 1 0.0024101314760491873 0.012928170886161189 1 1 1 1 1 1 1 1 1 1 1 1 1 0.010542802827956825 0.013036484536519934 1 1 1 0.011100530360316017 1 1 1 1 1 1 1 1 1 1 1 0.0022598028943702185 1 1 0.0099835553985540351 1 0.0065743723408252536 0.0027213370276889214 1 1 1 1 1 1 1 1 1 1 1 1 1 0.0058056063989533908 0.015937495627109839 1 1 1 0.0090012340561049925 1 1 1 1 0.0096097465976760256 1 1 1 1 1 1 1 1 0.010235558844061896 1 1 1 1 1 1 1 1 0.010002602748922942 0.0085867444957065924 0.010635025957213259 1 1 1 0.011580548098102439 0.0081649256233723363 0.014470705985342433 1 1 1 1 1 1 0.0075048516375449195 0.0080101375825688201 0.0099873549467264042 1 1 1 1 0.0085121291124907548 1 1 1 1 1 0.010621989518879193 1 1 1 0.0089540731926493651 1 0.0079124929756825765 1 1 1 1 1 0.010216817296753916 1 1 1 1 1 1 1 0.0030632814783994374 1 1 1 0.0045613618155628793 1 1 1 1 0.010302905693646017 1 1 0.0078993298680099938 1 1 0.0058668008207805149 1 1 0.007164095553963773 1 1 1 1 1 1 1 1 1 1 1 1 0.0093477930793656253 1 1 1 1 1 1 1 1 1 1 1 1 0.008242399721619182 1 1 1 1 1 1 1 0.0138695719985759 1 0.014677552046147943 1 1 1 1 1 0.011004314635250402 1 1 1 1 1 1 1 1 0.013185897779237267 1 0.015895717521350744 1 1 1 1 0.0099877267994549282 0.0065753827937506809 1 0.015307218957070878 1 1 0.0087443252102571457 1 1 1 1 1 0.011556651653501601 1 1 1 1 1 0.017463101661899433 1 0.006951726494562353 1 1 0.0010586951704417095 1 0.015312157210102109 1 1 1 1 1 1 1 1 1 1 1 1 0.0089431416650566989 1 1 1 1 0.011788036669212937 1 1 1 1 1 1 1 0.0076098483378988988 1 1 1 1 0.010346530016661137 0.012230094672939383 1 1 1 0.0144352812673708 0.016625036122497452 1 0.0087879466591678432 1 0.014719226947166354 1 1 1 1 0.0099305677820304347 0.0098784038232080165 1 1 1 1 1 1 0.010008894946788586 1 0.0068223827371917192 0.010341384802721159 1 1 1 1 0.0059781921730050272 1 1 1 1 1 1 0.007672870298255528 0.008944770010345604 1 1 1 1 0.0083186114906555614 0.0094207395432375288 1 1 0.0089368622651791532 1 1 1 1 1 1 0.0160396615702076 0.0099953273289203823 1 0.01128254496370977 1 0.010040766403571315 1 1 1 1 0.010537455977431784 1 1 1 1 1 1 1 1 1 0.0097623164080571003 1 1 1 0.0089425979288536 1 1 1 1 1 1 0.0081665585260749986 1 1 1 1 1 1 1 1 1 0.0098237169054426424 1 1 0.010964409763166094 1 1 1 1 1 0.012864305058157798 1 1 1 1 1 1 1 1 1 0.017495720391149876 1 0.0064819905974710899 1 1 1 1 1 1 0.0086252555959449775 1 1 1 1 1 1 1 1 1 1 0.011603857994644619 1 1 0.010467192487780053 1 1 1 1 0.018579636706307079 1 1 1 1 1 0.018984618580154863 1 1 1 1 1 0.010433139003428559 1 1 0.0092529381639762515 1 1 1 0.0067122567781733658 0.013940453456789625 1 1 1 1 0.0096602182327359711 1 1 0.00040754161696849103 1 1 1 0.017304148911626079 1 1 0.0098909242206347437 1 1 1 1 1 1 1 1 1 1 1 1 1 1 0.0099805136199596564 1 0.014387261034664638 0.011004924177593243 1 1 0.010763944440856568 1 1 1 1 1 0.0091327855414464667 1 1 0.0097074507958411303 1 0.010261513860657198 1 1 1 0.011729816668845445 1 0.014230621090044131 1 0.010738263077972758 1 1 0.01140398148995753 1 1 1 1 1 1 1 0.012036104783253223 1 1 1 1 1 1 1 1 1 0.0075891862819617677 1 1 1 0.0064121226831519995 1 0.0064708771758936676 1 1 1 1 1 1 1 1 1 1 0.010003045624315685 1 1 1 1 1 1 0.007316231491803403 1 1 1 1 1 1 0.0080106911129968691 1 1 1 1 1 1 1 0.0087915211475966051 1 1 1 1 1 1 1 0.0099581576112556247 1 1 1 0.0047155738199879532 1 1 1 1 1 0.0095452263403497297 0.0034477197319057271 1 1 0.0074551460746821105 1 0.0052299363921182312 1 1 1 1 1 0.0074728765740869202 1 0.0089552737520297854 1 1 0.0097460441884741414 1 1 0.0011084336504277644 1 1 1 1 2.2152000789255055e-09 1 1 1 1 1 0.010173181932684502 1 1 1 1 0.00378574775018891 1 1 1 1 0.0072599731137701767 1 1 1 1 1 1 1 1 1 1 0.0072535051427667935 1 1 1 1 0.0041049927065114761 1 1 1 1 1 1 1 1 1 1 1 1 1 1 1 1 1 1 1 1 1 1 1 1 1 1 0.00061966010901999546 1 1 1 1 0.00045092965112176683 1 1 1 1 1 0.013027718853624373 0.010458999437135859 0.0069816503357986656 1 1 1 1 0.0098989737705965086 1 0.0099923687684386892 0.0093176048963844876 0.012237264648762299 1 1 1 1 1 0.0017429080035791938 1 1 1 1 1 1 1 1 1 1 1 0.0063523105904816635 1 1 1 1 1 1 1 1 1 1 1 1 1 1 1 1 1 0.0027735073495623354 1 1 1 1 1 1 1 1 1 1 1 1 1 1 -9.4034998537884107e-11 0.0096375526312051096 1 1 0.016005533166766055 1 1 1 1 0.008574968898879938 1 1 0.0099438314935987315 1 1 1 1 1 0.010215688821535361 1 1 1 1 1 1 1 5.2148876784215235e-05 1 1 1 -5.5147308074265933e-10 0.012898723066096664 1 1 1 1 1 1 0.0096440424596081903 1 1 1 1 1 1 1 1 1 1 1 1 1 1 1 1 1 0.015380900104089573 1 0.01091076357481436 1 1 1 1 1 1 1 0.017051959574324246 1 1 1 0.010043918382845095 1 1 1 1 1 1 1 1 1 1 1 1 1 1 1 1 1 1 1 1 1 1 1 1 1 1 1 1 1 1 1 1 1 1 1 1 1 1 1 1 1 1 1 1 1 1 1 1 1 1 1 1 1 1 1 1 1 1 1 1 1 1 1 1 1 1 1 1 1 1 1 1 1 1 1 1 1 1 1 1 1 1 1 1 1 1 1 1 1 1 1 1 1 1 1 1 1 1 1 1 1 1 1 1 1 1 1 1 1 0.010255654993082709 1 0.010573044939426103 1 1 0.012923618991129655 1 0.010952298391321898 0.010317698327050311 1 1 1 1 1 1 1 1 1 1 1 1 1 0.010713729477579842 1 1 1 1 1 1 1 0.010354196548242225 1 1 1 1 1 0.0079905048659005551 1 1 1 1 1 0.0051817605453109289 0.010219104789139032 1 1 1 1 1 1 1 1 1 1 0.0058165124228409804 0.012233468389298119 1 1 1 1 1 1 1 1 1 1 1 0.013532524564712073 1 1 1 1 1 1 1 1 1 1 0.011277777451331305 1 1 0.0090578318059838948 1 1 1 1 0.019145462733724292 1 1 1 1 0.0098472766511087766 1 1 1 1 1 1 1 1 1 1 0.024545542203043648 1 1 1 1 1 0.028930225176342094 1 1 1 1 1 0.013140139315342393 1 0.007634569794536159 1 1 0.01108671710308223 1 1 1 1 1 1 1 1 1 1 1 1 1 1 1 1 1 1 1 1 1 1 1 1 1 1 1 1 1 1 1 1 1 1 1 0.009263518408096607 1 1 1 1 1 1 1 1 1 1 1 1 1 1 1 1 1 0.010929002831561853 0.0086121869357653012 1 1 0.0099663933809225648 1 1 1 1 1 1 1 1 1 1 1 1 0.0094736197982911476 1 1 1 1 0.002937174447621824 1 1 1 1 1 1 1 1 1 1 1 1 1 1 0.0095121334949143047 1 1 1 1 1 1 1 1 1 1 1 1 0.010389254647751815 1 0.0073964383761692138 1 1 1 1 0.016051938727033095 1 1 1 0.0019702435606729941 1 1 0.01050883132081813 1 1 1 1 1 1 1 0.00062510081951944836 0.0089184424110895066 1 1 1 0.0068286661547623806 1 1 1 1 1 1 1 1 1 1 1 1 1 1 1 1 1 1 1 1 1 1 1 1 0.016829452323086101 0.01136740113607038 0.013929498502201924 0.0082937650607044933 1 1 1 1 0.0077183550800249256 4.7978881353993863e-09 1 1 1 1 1 1 1 1 1 1 1 1 1 1 1 1 0.001869055692105822 1 1 1 1 1 1 1 1 1 1 1 1 1 1 1 0.010112220716659352 1 1 1 1 0.016238420139963263 1 1 0.0023844930987474908 1 1 1 0.0063036004213662001 1 1 1 1 1 1 1 1 1 1 1 1 1 1 1 1 1 0.013196120219679024 1 0.017560413792852857 0.010454607972351385 1 1 0.019146567697601188 1 1 1 1 1 1 1 0.0018683859088781622 1 0.0058108999322298979 1 1 0.01001985666578064 0.013291039999666659 1 1 1 1 1 0.0085802935475075941 1 1 1 1 1 1 1 1 1 1 1 1 1 1 0.017752437828537027 1 0.0080520399719886705 1 1 1 1 0.00092300170056736769 1 1 1 1 1 0.0093385137460713502 1 1 1 1 1 1 1 1 1 1 1 1 0.012081510679779341 1 0.010130273098618008 1 1 1 1 1 1 1 1 1 1 1 1 1 1 1 1 1 1 1 1 1 1 1 1 1 1 1 1 1 1 1 1 1 1 1 1 1 1 1 0.018831632222824073 1 1 0.017606870027789066 1 1 1 0.0067437905216857601 1 1 1 0.0030638689210103071 0.016938100832896291 0.0095483700704799418 1 0.0098219923888820237 1 1 1 0.0069006729644283463 1 1 1 0.0047402872885741968 1 0.022889109406128958 1 1 0.013536545328767087 1 1 1 1 1 1 1 1 1 1 1 1 1 1 1 1 1 1 0.011167788071737499 1 1 1 1 1 1 1 1 1 1 1 1 1 1 1 1 1 1 1 1 1 1 1 1 1 1 1 1 1 0.0075792180700926942 1 1 1 1 1 1 1 1 1 1 1 1 1 1 1 1 1 -1.694724248088586e-09 1 1 1 1 1 1 1 1 1 1 1 1 1 1 1 1 1 1 1 1 1 1 1 1 1 1 1 1 1 1 1 -6.6858466219940627e-09 1 1 1 1 1 1 1 4.0333507870388141e-09 1 1 0.0056145913006160394 1 1 1 0.019502229318130476 1 0.020809456590012692 1 1 1 1 1 1 0.0096280498328999535 1 1 1 0.018797563887917632 1 1 1 1 1 1 1 1 1 1 1 1 1 1 1 1 1 1 1 1 1 1 1 1 1 0.01329277153921133 1 1 1 1 1 1 1 1 0.011774709680742727 1 1 1 1 1 1 1 1 1 1 1 1 1 1 1 1 1 0.011155845922803116 1 1 1 1 1 1 1 1 1 1 1 1 1 1 1 1 1 1 1 1 1 1 1 1 1 1 1 1 1 1 1 1 1 1 1 1 1 1 1 1 1 1 1 1 1 1 1 1 1 1 1 1 1 1 1 1 1 1 1 1 1 1 1 1 1 1 1 1 1 1 1 1 1 1 1 1 1 1 1 1 1 1 1 1 1 1 1 1 1 1 1 1 1 1 1 1 0.010336100199842081 1 0.0044383900000787378 1 1 1 0.011048293075936882 1 1 1 0.0077885550926688786 1 1 1 1 1 1 1 1 1 1 0.012520764495669056 1 1 1 1 1 1 1 1 1 1 1 1 1 1 1 1 1 1 1 1 1 1 1 1 1 1 1 1 1 1 1 1 1 1 1 1 1 1 1 0.0099964380278160098 1 1 1 1 1 0.011402910435777331 1 1 1 1 1 1 1 0.030458150530774521 1 1 1 0.011674727474362129 1 1 1 1 0.0072675835959520839 0.0089679499391100807 1 1 1 1 1 1 1 1 1 1 1 1 1 0.011075025429918202 1 1 1 1 1 1 1 1 0.0099875761832312442 1 0.010515181584888721 1 1 1 1 1 1 1 1 0.03360802854162688 1 0.0062679121087373182 1 1 1 1 1 1 1 1 0.0090226622590455323 1 0.010199923758968225 0.010563057509959756 1 1 1 1 1 1 0.026206579765374289 1 1 1 1 0.003625891850097011 2.3851830378406741e-09 1 0.020250762095915371 1 0.010000210997402783 1 1 0.021458041558082508 1 1 0.021941752324851332 1 1 1 0.025020470315027708 1 1 1 1 0.0092862600327809474 1 1 1 0.00484613717338888 1 0.015838576575984233 1 1 1 1 1 1 1 1 0.017318661785459134 1 0.009996514805005156 0.00063204645686285726 0.010992352020342041 1 1 1 0.0099899889768672867 1 1 1 1 1 1 1 1 1 1 1 1 1 0.017530665957821566 1 0.0097646630480347357 1 1 0.0080473980545144805 1 1 1 1 1 1 0.009138788857566936 1 1 1 1 1 1 1 1 0.0061626682871966281 1 1 1 3.2680005819518687e-09 1 1 1 1 1 1 1 1 1 1 0.0066498349074098455 1 1 1 1 1 1 1 1 1 1 1 1 1 1 1 1 1 1 1 1 -5.3502468636001943e-09 1 1 1 1 1 1 1 1 1 0.0051393764343775419 1 1 1 1 1 1 1 1 0.0099494550120197631 1 1 1 1 1 1 1 1 1 0.014653652528230018 0.0059292631516337322 1 1 1 0.014397361682701344 1 1 1 1 1 1 1 1 1 1 1 1 1 1 1 1 1 1 1 1 0.002139263551505885 1 0.0071347939119758737 1 1 1 1 1 1 1 1 1 1 1 1 1 1 1 1 1 1 3.0025651548415411e-09 1 1 1 1 0.00073534457732185934 1 1 1 1 1 1 1 1 1 0.0095829660375949584 1 1 1 1 1 1 1 1 1 1 1 1 1 1 1 1 1 1 1 1 1 1 1 0.009524905248971989 1 1 1 1 1 1 1 1 1 1 1 1 1 1 0.0056852122930280309 1 1 1 1 1 1 1 1 1 1 0.0073700810396750971 1 1 1 1 0.012983551601769443 0.0086823075664771363 1 0.013085012647369068 1 1 1 1 1 1 0.0095440376818347987 1 1 1 1 1 1 1 0.0086896904636956564 1 1 1 1 0.012519224601270876 1 0.0084517503032079267 1 1 1 1 1 1 1 1 1 1 1 1 1 0.0094292425919644644 0.014862274144388565 1 1 0.0083090136049858779 1 1 1 0.011001413963111425 1 1 1 0.010494424709214457 1 1 0.011412723956248455 1 1 1 1 1 1 1 1 1 0.010713008083949579 1 1 1 1 0.010227223094361235 1 1 1 0.0052226338015470778 1 1 1 1 0.0099492521065765796 1 1 1 1 0.0098454966490793862 1 1 1 1 0.0047813272623403041 1 1 1 1 1 1 0.01058873599123563 0.0099201357583265544 1 1 1 1 1 1 0.0044893611752499021 1 1 0.0097752290274269651 1 1 1 0.0035667392243595962 1 0.0098789844849241533 1 1 1 1 1 1 1 1 1 1 1 1 1 1 1 1 1 0.01240323109267686 1 1 1 1 1 0.01088000367028253 1 1 1 1 1 1 1 1 1 1 1 1 1 1 1 1 1 1 0.0098203515626968524 1 1 0.0094875666779635562 1 0.005570444978258822 1 0.0035691122202243034 1 1 0.0015786240802406638 1 1 1 1 1 1 0.010179677759870324 1 1 1 1 1 -1.4052699073840991e-09 0.010437084008439047 1 1 1 0.012379492701736633 1 1 1 1 1 0.010811019888020447 1 1 1 1 1 1 1 1 1 1 1 1 1 1 1 1 1 1 1 1 1 1 1 1 1 1 1 1 1 0.0099768339846181588 1 1 0.011110463922497982 1 1 1 1 1 0.010410774533895863 1 1 1 1 1 1 1 1 1 1 1 0.0098974922413070168 1 1 1 1 1 1 1 1 1 1 1 1 0.010596929042197219 1 1 1 0.0099941617273514097 1 1 0.0094413566496812373 0.011032543312802109 0.0087614433380781911 1 0.012029578034892283 1 0.010546161015794477 1 0.0065333131398944977 1 0.002786152677562298 1 0.0087723634312782666 1 1 0.016038287934000445 0.0098164807116529387 1 1 1 1 1 1 0.0097818421378150534 1 1 0.0091490946937944576 0.01009310887338476 1 1 1 1 1 1 1 1 1 1 1 0.0098509212585039252 1 1 1 1 1 1 0.0096399222840313596 1 1 1 0.0090829064239877372 1 0.010640860465759338 1 1 1 1 1 1 1 1 1 1 1 1 1 1 1 1 1 1 1 1 1 1 1 1 1 1 1 1 1 1 1 1 1 1 1 1 1 1 1 1 1 1 0.0090105976350222799 1 -6.8840705531869606e-10 1 1 1 1 1 1 1 1 1 1 1 1 1 1 1 1 1 1 1 1 1 1 1 1 1 1 0.009290105061269675 1 1 1 1 1 1 1 1 1 1 1 1 1 1 1 1 1 1 1 1 1 1 1 0.010008554007431177 0.0084575806536593343 1 1 0.010167610578884252 1 1 1 1 1 1 1 1 1 1 1 1 1.0005886223740657e-09 0.013822760289954952 1 1 1 1 1 -1.2355542526598651e-09 1 0.014347734214185393 1 1 1 0.001907874854397848 1 0.011323419608344328 0.0080394873621377552 1 0.0088444570155468694 1 1 1 1 1 1 1 1 1 1 1 1 1 1 1 1 1 1 1 1 1 1 1 1 1 1 1 1 0.013852923174174955 1 1 1 1 1 0.012376001789796198 1 1 1 1 1 1 0.010660379465138696 1 1 1 1 1 1 0.0083460660880276469 1 1 1 1 1 1 0.010833021661905924 1 0.010783559087223608 1 0.0051081813182685416 1 1 1 1 1 1 1 1 1 1 1 1 0.0008789750370436257 1 1 1 0.0023110892352047607 1 1 1 1 0.010294481991457889 1 0.010008537933637693 1 1 1 1 1 1 1 1 1 1 1 1 1 1 0.008760560911431587 1 1 0.010008722037214084 1 1 1 1 1 1 1 1 0.0099452526537777974 1 1 1 1 1 1 1 1 5.4079676188589776e-09 1 1 1 1 1 1 6.6957765790243151e-09 1 1 1 1 1 1 1 1 1 1 1 1 1 1 1 1 1 1 1 1 1 1 1 1 1 1 1 1 1 1 1 1 1 1 1 1 1 1 1 1 1 1 1 1 1 1 1 0.011534566000521955 1 1 1 1 1 1 1 1 1 0.0073008315615174721 1 1 0.0065932185580093658 1 1 1 0.00048791712640774282 1 0.0099050240248395038 0.0042058619175083037 1 1 0.0096841153058897841 1 1 1 1 1 1 1 1 1 1 0.0080904723072687985 1 1 0.010367800336016121 1 1 1 0.0094235934311238841 1 1 1 1 1 1 1 1 1 1 1 0.010902402332423441 1 1 1 1 1 1 0.0097682837448693771 1 1 1 1 1 0.009696935090620952 1 1 1 1 1 1 0.009929625415559612 1 1 1 1 1 0.010629579768083937 1 1 1 1 1 1 1 1 0.0093473593525238013 1 1 1 1 1 1 1 1 1 0.013471671954620006 1 1 0.011964140232296805 1 1 1 1 0.010185928589402642 1 1 0.010003180918387665 1 1 1 1 1 1 1 1 1 1 1 1 1 1 0.0086298674822221505 1 1 1 1 1 1 1 1 0.0060067793969772673 1 1 0.0034407153348011144 1 1 1 1 1 1 1 0.0092777033221074934 1 1 1 1 1 1 0.0095296356074230995 1 1 1 1 1 1 1 0.0099094968600594024 1 1 1 0.010265739381447519 1 1 1 1 1.544902802907977e-09 1 1 1 1 1 1 1 1 1 1 1 0.013205038305113579 1 1 1 1 1 1 0.016612812171011807 1 1 0.0046307795756358461 1 1 1 1 1 1 1 1 1 0.0080364779704119385 1 1 1 1 0.0032750731205732908 1 0.010297016776279755 1 1 1 1 1 0.0095782634203441172 1 1 1 0.012988316828247054 1 1 1 1 1 1 1 1 0.022055452331680374 1 1 1 1 1 0.018777659530131427 1 1 1 1 0.013604736708963842 1 1 1 0.0081621417589730974 1 1 1 1 1 1 1 1 1 0.010877346949711805 1 1 1 1 1 1 1 1 1 0.0071692291199855693 1 1 0.010194870924181358 1 1 1 1 1 1 1 1 1 1 1 1 1 1 1 1 -4.9475090135864264e-09 1 1 0.025254318715299678 1 1 1 0.012752564368559531 1 1 1 0.0010765566400907853 1 1 1 1 1 1 0.010860657328313143 1 1 1 1 1 1 1 1 1 1 1 -5.2700929037419186e-10 1 1 0.009673585190754036 0.00032648919984430008 1 1 1 1 1 1 0.0013191810413598973 1 1 1 1 1 1 0.012139213028465101 1 1 1 1 1 1 1 1 1 1 1 1 1 0.0023029537043174064 1 1 1 1 1 1 1 1 0.0099974599676786111 0.006677968922375363 1 1 1 1 0.0047990360348461394 1 1 1 1 1 1 1 1 1 1 1 1 0.010178794993382829 1 1 1 1 -1.5144716820902904e-08 1 0.010944892849744564 0.0016884011613494329 1 1 1 1 0.0092164557006150262 1 1 1 1 1 1 0.007826864825188011 1 1 1 1 1 1 1 1 1 1 1 1 1 1 1 1 0.0070619912181585131 0.00057774809512816348 1 1 1 0.014917423802885826 1 1 1 1 1 0.014759524121203627 1 1 1 1 1 1 0.0098203758942411387 1 1 1 1 0.009887935120303365 1 1 1 1 1 1 1 0.014276719077160001 1 1 1 0.010013743709456874 0.0079915278257409322 1 1 0.007080640388142663 1 1 1 1 1 1 1 1 0.014831201483869662 1 1 1 0.011526630107669689 1 1 1 0.011148315315546884 1 1 0.0015275505897963497 1 1 1 1 0.0027886786179998173 1 0.0068511581470688688 0.014229881263359972 1 1 1 1 1 1 1 1 1 1 1 1 1 1 1 1 1 1 1 1 1 1 1 1 1 1 1 0.020467431532163627 1 1 1 -5.7843188711048654e-09 1 1 1 1 1 -6.2277682941203061e-09 0.012689495909999994 1 0.011380717374018296 1 1 1 0.0047942421476076177 1 1 1 0.0099643677543527834 1 1 1 1 1 1 1 1 1 1 1 1 1 1 1 1 1 0.0093620918485695093 1 0.013832384640756505 1 1 1 1 1 1 1 1 0.010072762221401868 1 1 1 1 1 1 1 1 1 0.0047950003266476818 0.0034564746121579087 1 1 1 0.0077391403373438181 1 1 1 1 0.0090817314886121395 1 1 1 1 1 1 1 0.011964961588783553 0.0012918912120195858 1 1 1 0.010007334764323673 1 1 1 1 1 1 1 1 1 1 0.010161621922379252 1 1 1 0.010455784972368494 1 0.025587896899786258 1 1 1 1 1 1 1 0.013196549526639029 1 1 1 1 0.01945522541144612 1 1 1 1 1 1 0.0083999509969604411 1 1 1 1 1 1 1 1 1 1 1 0.0099899730182639868 1 1 1 1 0.0099908927291347607 1 1 0.010001019293199458 1 1 1 1 1 1 1 1 1 1 0.0057357197292848133 1 1 1 0.027522371620138909 1 1 1 1 0.0083913889031090802 1 1 0.023065211789782731 1 0.0083127767535729688 0.010063561724621965 1 1 1 1 1 1 1 1 1 1 1 1 1 1 1 1 1 1 0.019699473515009745 1 0.0085559148655677958 1 1 0.013198289265680473 1 0.01073640707159957 1 1 1 1 1 1 1 1 1 1 1 1 1 1 1 1 1 1 1 1 1 1 1 1 1 1 1 1 1 1 1 1 1 1 1 1 1 1 0.010185109913605515 1 1 1 0.021571467589786723 1 1 1 0.020965055319607975 1 0.010785040304544777 1 1 1 1 1 1 1 0.014934472123020464 1 1 1 1 1 1 0.024405350971836708 1 1 1 0.011662387254256607 1 1 1 1 0.033429729630476059 1 1 1 0.0010124818197506345 1 0.043907777628154954 1 1 1 0.042210847643298952 1 1 1 1 1 1 1 1 0.011043567447201828 1 1 0.006428876235029489 1 1 1 1 1 1 0.015270381491639881 1 1 1 1 1 1 1 1 1 1 1 1 1 1 1 1 1 1 1 1 1 1 1 1 1 1 1 1 1 1 1 1 1 1 1 1 1 1 1 1 1 1 1 1 0.013593952728518668 1 1 1 1 1 1 1 0.013758545985570872 1 1 1 1 1 1 0.01001018391680302 1 1 1 1 1 0.01297076612256654 1 1 0.0099954634434068768 1 1 1 1 1 1 0.007996581518642229 1 1 1 0.015022056782039404 1 1 1 0.011591973722269895 1 1 1 1 1 1 0.0095074391514675116 1 1 1 1 1 1 1 1 1 1 1 1 1 1 1 0.016883882895646823 1 0.014904114240847886 1 0.0086460281789756677 1 0.0073665577825245548 0.011830023041057729 1 0.0094308637689154776 1 1 0.019699069713993371 1 1 1 1 0.024115497702450348 1 1 0.009930150186183824 0.0078275814185274004 1 1 1 1 1 1 1 0.010303968401083503 1 0.0099651102610905616 1 1 1 1 0.010194615356630944 0.014832683498133518 1 1 0.0070350241955762643 1 1 1 1 1 1 1 1 0.0066630688412205596 1 0.017097798433408175 1 1 1 1 0.0056492357780031852 1 1 1 0.019582184272471197 0.0074443933391820719 1 1 1 1 1 1 1 1 1 1 1 1 0.007993335354403934 1 1 1 1 1 1 0.013420343676180731 1 1 1 1 0.015373529115697469 1 1 1 1 1 1 1 1 1 1 1 1 1 1 1 1 0.009490146820118936 1 0.010457743972845567 1 1 1 1 0.0021820552610987767 0.016862132645266474 1 0.0056837531598756957 1 1 0.0096346104348446274 1 1 1 0.0066977337340965101 1 1 1 0.0100368605508903 1 0.010001373381839582 1 1 1 1 1 0.0069970726635392999 1 0.018171955070287356 1 0.010808145661279571 1 1 1 0.01688560826563059 1 1 0.01272668614667654 1 1 1 1 1 1 1 1 1 1 1 0.0089853873079120336 1 1 1 1 0.0089870023550595868 1 1 1 1 1 1 0.0091091054195498247 0.019928971611371422 1 1 1 0.0097904023234469603 1 0.010014186005121085 0.011686068441401555 1 1 1 0.0101366850957849 1 1 1 1 1 0.0069542242184163286 1 1 1 1 1 1 1 1 1 0.0094724832993845001 1 1 0.0090837416727685 1 1 1 1 1 1 1 0.008986634130327735 1 1 0.010494617089743943 0.010001615287479962 1 1 1 0.0099858603981259342 1 0.010465870868900128 1 1 0.010437324757141174 1 1 0.0079984340766823675 0.0075746350037193752 1 1 1 -6.3347902097554698e-10 1 0.0065408610747241039 1 0.0017244912029956289 1 1 1 1 1 1 1 0.010321032074047134 0.011086771346737676 1 1 1 1 1 1 1 1 0.010300108380397036 1 1 1 1 1 1 1 1 1 1 1 1 1 1 1 0.007578246096832178 1 1 1 1 1 1 1 1 0.0091146263247339834 1 1 1 1 1 1 1 0.012677368108011931 1 1 1 1 1 1 1 1 1 1 1 1 1 1 0.0086047731448529174 1 1 1 1 1 1 1 1 0.011641514063539783 1 1 1 1 0.01137032581679312 1 1 1 1 1 1 1 1 1 1 1 1 1 1 1 0.0099936274872340775 1 1 1 1 0.012780888543972007 1 0.011840369953012915 1 1 1 1 0.018526906638977478 1 1 1 1 0.00349421742272156 1 0.0099308766294084472 1 1 1 1 1 1 1 1 0.022106616542169461 1 1 0.013777412105990487 0.010025725621636068 1 1 1 0.01076021088671715 0.011028795552887528 1 0.01119503599862192 0.010646811351066675 1 1 1 1 0.010045950463229911 1 0.0096488655619775682 1 1 1 0.010577054876419668 1 1 0.0058845752141310215 1 1 0.0092339931136420431 1 0.013941809820249866 1 0.011238962555927039 1 1 1 1 1 1 0.0056290485199421095 0.014871606074871237 1 1 0.011124257025526113 0.011168210425058438 0.0077829107404406433 0.010018556323005193 1 0.010517094155161583 0.012936000605705517 1 0.0078240857697007976 1 1 1 0.010022182573895387 0.014459526990822168 1 1 0.0030643958194751381 1 1 1 0.010668058433150857 1 1 1 0.010160288350637099 1 0.010726458534271274 1 1 0.011346381396607257 1 1 1 1 1 0.0085911642346155892 1 1 1 1 1 1 1 1 1 1 1 1 1 0.010763841127243778 1 1 0.0082500719072371095 1 1 1 1 1 1 1 1 1 1 1 1 1 1 1 1 1 1 1 1 1 1 1 1 0.0045302998719356988 1 1 1 1 1 0.0093100641122630477 1 1 1 1 1 1 1 1 1 1 1 1 1 1 1 1 0.0015872030155288999 1 1 1 1 1 1 0.00022104736747342174 1 1 1 1 1 3.5277286300483546e-09 1 1 0.010319880018870999 0.0099014716047079315 1 1 1 1 1 1 1 1 1 1 1 1 1 1 1 1 1 1 1 1 0.0096053701995695764 1 1 1 1 1 0.0077127525408233061 1 1 3.5072025787036276e-09 1 0.0095907664785412766 1 1 0.012617785192160426 0.0073883122146714102 0.0099615145063937077 1 1 0.01035779247588562 1 1 1 1 1 0.0089502410475599189 1 1 1 1 1 1 1 1 1 1 1 1 1 0.01298202511541805 1 1 1 1 1 1 1 0.0055187636994624978 1 1 1 1 0.010056737083149914 1 1 0.011104970410709484 1 1 1 1 1 1 1 1 1 1 1 1 0.0083085667541133931 1 1 1 1 0.0071506480376386829 1 1 1 1 1 1 1 1 0.0084960014688449173 1 0.008337409624292122 1 0.0090317338652315792 1 1 1 1 1 1 1 1 1 1 1 1 1 1 1 1 1 1 1 1 1 1 1 1 0.009360677495345103 1 1 1 0.0090598798776892753 1 1 1 1 1 1 0.014104669296032712 1 1 0.0032720026831218885 1 0.011861771765345704 1 0.0071889620916155555 1 1 1 1 1 1 1 1 1 1 1 1 1 1 1 0.0053464725637767177 1 1 1 1 1 1 1 1 1 1 1 1 0.012232641503483702 1 1 1 1 1 1 1 1 0.0092605021801721553 1 1 1 1 0.0081593830826929732 1 1 1 1 0.012967066392528682 1 1 1 0.013606932041304941 1 1 1 1 0.0082326023443699443 1 1 0.0091920208239247483 1 1 1 1 0.010409573539989191 1 1 1 1 1 1 1 1 1 1 0.0088409527783050237 1 1 1 1 0.01025151231643967 0.010796956706468713 1 1 1 1 1 1 1 1 1 1 1 1 1 1 1 1 1 1 1 1 1 1 1 1 1 1 1 1 1 1 1 0.011093342704934096 1 1 1 1 1 1 1 1 1 1 1 1 1 1 1 1 1 1 1 0.0081888068863676944 1 1 1 1 1 1 1 1 1 1 1 1 1 1 1 1 1 1 1 1 1 1 1 1 1 1 1 1 1 1 0.006654032025143761 1 1 1 0.0018562496002371594 1 1 1 1 1 1 1 7.5054770997196388e-05 1 1 1 1 1 1 1 1 1.4432225831084722e-09 1 1 0.0085010070468864093 1 1 1 1 1 1 1 0.011047092085847497 1 1 1 1 0.012312359070631079 1 0.01081545645590113 0.0030832649115609401 0.0080548403548701686 1 1 1 0.0013043235522201789 1 1 1 1 1 0.0078865657814675555 0.0097323870474351343 1 1 1 0.0099460408261812377 1 1 1 1 0.010996638535095939 1 1 1 1 1 1 1 1 1 1 1 1 1 1 1 1 1 1 0.010001431518366582 1 1 0.001048944149082208 0.0023036933998868206 1 0.029547887582805601 1 0.020461765713757015 1 1 0.0096558949410302727 1 0.0056000668898116869 0.0059721177892751408 1 1 1 0.012925819782195055 1 1 1 1 0.0091919275588923498 1 1 1 1 1 0.0053328322145677984 1 1 1 1 0.0099958742024832282 1 0.0098532006759737469 1 1 1 1 1 1 1 1 1 -1.2697246335943713e-09 1 1 0.0022582880067120014 1 1 1 1 1 1 1 1 1 0.010246165877622532 1 1 1 0.0093662891676455605 1 1 1 1 1 1 1 1 1 1 1 1 1 0.010530469286812547 1 1 1 1 0.01023188977769536 1 1 1 1 1 1 1 1 1 1 1 1 1 1 1 1 1 1 0.0035541931200038126 1 1 1 0.0093202731715194866 0.011469169685544057 1 1 1 1 0.0025160089807654603 1 1 0.010056377529796687 1 1 1 0.0058005473785121692 1 0.0078683265349596444 1 1 0.017292312561061923 1 1 1 0.00048309797958895513 0.013586631812681127 1 0.0052544893323538157 1 1 0.010064210305693337 1 1 1 0.0067252958413039649 0.010355235156539355 1 1 1 1 1 0.0076638384849518869 0.0092682366685609193 1 1 0.0047450694420873695 0.0099889828100185162 0.0012390056132567375 1 1 0.0028873746548111106 1 1 1 1 1 1 1 1 1 1 1 0.018043948090303581 1 1 1 1 1 3.4930979688624353e-09 0.0089654246247885226 1 0.0080745533092547069 1 1 1 1 1 1 1 0.019454447714955751 0.005510487962553906 1 1 0.019595355931907803 1 1 1 1 1 1 1 0.0098867051680061966 1 1 1 1 1 1 1 1 1 1.122019567534327e-09 1.0401219260880445e-09 1 1 0.019036222138038881 1 1 1 1 1 1 0.0030193674090687635 1 0.0038961248002106208 1 1 1 1 0.0020611979577951321 0.021974424605842088 1 0.021073836003676096 1 1 1 0.009964239433523224 1 1 1 1 1 1 1 1 1 0.010553824560081767 1 0.010385818239401878 1 1 1 1 1 1 1 1 0.011278555700151974 1 1 1 1 1 0.0024653472063885726 1 1 1 1 1 1 1 1 1 1 1 1 1 1 0.011492976727122302 1 1 1 1 0.012787050928026079 1 1 1 1 1 1 1 1 1 1 1 1 1 1 1 1 0.016998012955909893 1 1 1 1 1 1 1 0.012170907492898396 1 1 1 -8.9694536797857438e-09 1 1 1 1 1 0.010708109481199012 0.010390735656881376 1 1 1 1 1 1 0.0035974392148420201 1 1 0.021065844439881118 1 -3.1018660036352674e-10 1 0.018619123120500312 1 0.003775595079619453 0.0044441164163789466 1 0.01256899315486765 1 1 0.010494410844184567 1 0.0059665799020667369 1 1 1 1 0.010155015718780865 1 1 1 1 0.0077486290088003545 1 1 0.0033083878698941804 1 0.0096027342274807789 1 1 0.0032193285032923111 1 1 1 -2.0972483732312197e-09 1 1 0.0099087967371733181 0.011281277993415554 1 1 1 0.003565529526650851 1 1 1 1 1 1 1 1 0.034217465978312218 1 1 1 1 1 1 1 0.011455209800417008 1 1 1 1 1 0.013512654684698047 1 1 1 1 0.013194948155807969 1 1 1 0.0118141125511909 0.017115066136749908 1 1 1 1 1 1 1 1 0.016150047846895131 1 1 1 1 1 1 1 1 0.016459756587314398 1 1 1 0.01255615702215993 1 1 1 1 1 1 1 1 1 1 1 1 1 1 0.026721970986974444 1 1 1 1 1 1 1 1 1 1 0.0098065795939121722 1 1 1 1 1 1 1 1 1 1 1 1 1 1 1 0.0084145890244456036 1 1 0.0097321551887318627 0.021588879337057873 1 1 1 1 1 0.0089007862854948612 0.022699095930033934 1 1 1 1 1 1 1 1 1 1 1 1 1 1 1 1 1 0.0077637756023849619 1 1 1 1 0.012121905329608464 1 1 0.010069534260222571 0.0044365234294957631 0.010686613893440531 0.011065374126819648 1 0.0074217664976289691 1 1 1 1 0.014221289852132991 1 1 0.0082027587788703615 1 1 1 1 1 1 1 1 1 1 0.0066275342619795397 1 1 1 1 1 1 1 0.027121127540148504 1 1 0.00075666014689896449 1 1 1 1 1 1 1 1 1 1 1 0.0093531315295264164 1 1 1 1 1 1 1 1 1 1 1 1 1 1 1 1 1 1 0.012782855926838831 1 1 1 1 1 1 1 0.007936814168969417 1 1 1 0.017949858595868305 1 1 0.010080468066301716 1 1 1 0.0046091761230217226 1 1 1 1 1 1 1 1 1 1 1 1 1 1 1 1 1 1 1 1 1 1 1 1 1 1 1 1 0.01461887919460832 1 1 1 1 1 1 1 1 1 1 1 1 1 1 1 1 1 1 1 1 0.023073095272152108 1 1 1 1 1 1 1 1 1 1 1 0.0064621615130796978 0.012786393301895412 1 1 1 1 1 0.010047825700163019 1 0.0057467118103529651 1 1 1 1 1 1 1 1 1 1 0.010958859046276652 1 1 0.01067645747791616 1 1 1 1 1 1 1 1 0.0069111563856860845 1 0.0099510517129183136 1 1 1 1 1 1 1 1 1 1 1 1 1 1 1 1 1 1 0.0057287703796268952 1 1 1 1 1 0.0055488172510141549 1 1 1 1 0.0066539546343902956 1 1 1 0.0092263927744338243 1 0.0085174917316774394 1 1 1 1 1 1 1 1 1 1 1 1 1 0.012476365560064501 1 1 1 1 1 0.016754799450214207 1 1 1 0.010702568839131633 0.0096523367735934298 1 1 1 1 1 0.010964749841959574 1 0.0056207281833948628 1 0.014623413917963042 0.0092612360883827863 1 1 2.8095153460638844e-10 1 0.0052532535554791898 1 0.0080189233805404228 1 1 0.01009344826356905 1 1 0.012939382677624038 1 1 1 1 1 0.0083209570798230392 1 1 0.0099331313370720278 1 1 1 1 1 1 1 1 1 1 1 0.0096695961464215944 0.0097833419442441456 1 1 1 0.010271238081059675 1 1 1 1 1 1 -9.1349046573568904e-09 1 1 1 0.0013844914519491667 1 1 1 1 1 1 1 1 1 1 1 1 1 1 1 1 1 1 1 1 0.008118294845377131 1 1 1 1 1 1 1 1 1 1 0.010389863190465662 1 1 1 1 1 1 1 1 0.0091050280122641665 1 1 1 1 1 1 1 0.015401226323116033 1 1 1 1 0.0097892378946649906 1 1 1 0.022562003015706236 1 0.007230854192825216 1 0.019379031703598445 0.0095217117510782712 1 0.0076981087686227422 1 1 0.0015059254427604906 1 0.011538614866219255 1 1 0.0017820609778870424 1 1 1 1 0.0098542836061530203 1 1 1 0.011474295173474779 1 1 1 1 1 1 1 1 1 0.0064173571626924952 0.0035919349672297101 1 0.011265330103289332 1 1 1 0.01002235493103943 1 0.0072364070233450276 1 0.0020668657813150294 1 1 0.0025927014532523239 1 1 0.016680456305138175 1 0.026306534383707128 1 1 1 0.0099936039179511806 1 1 1 1 0.0077589672850225371 0.015199979596344098 1 1 1 1 1 1 1 1 0.0046496269617264975 1 0.022287178896975915 0.0097532970649264437 1 1 0.010856234208309549 1 1 1 1 1 -5.5926846409190545e-09 1 1 0.0013143429134670533 1 0.01612667353372416 1 1 1 1 1 1 1 1 1 0.019287501317870846 1 0.016589663169178197 1 1 1 0.010150598910503258 1 1 1 1 0.0238468142284253 1 1 0.018170542357885011 1 1 1 1 1 1 1 1 1 1 1 1 1 1 1 1 1 1 1 1 1 1 1 1 1 1 1 1 1 1 1 1 1 1 1 1 1 1 1 1 1 1 1 1 1 1 1 1 1 1 0.010514219147951989 1 0.0034081601503313918 1 1 1 1 1 1 1 1 1 1 1 0.010232637997589049 1 1 1 1 1 1 0.010238825217254305 1 0.0013497496896048523 1 1 0.0093393487843607768 1 1 1 0.0035054409778012647 1 0.0022206099574580279 1 1 1 1 0.00025727961680394301 1 0.012342508458646683 1 1 0.009885606555615465 1 1 0.0059171092026285288 1 1 -4.0137679586244035e-09 1 1 1 1 -4.2493977369002789e-09 1 1 1 1 1 1 1 1 -1.1888197509746234e-09 1 1 1 1 0.011900018527205618 1 1 0.015600749010353503 1 1 1 1 0.017277640130580356 1 0.0078084517280877057 1 1 1 1 1 1 1 1 1 1 1 1 1 1 1 1 1 1 1 1 1 1 1 1 1 1 1 1 1 1 1 1 1 1 1.2585733011327704e-09 1 1 1 0.009787354720566804 1 1 1 0.0097584977335181365 -1.7046732627909456e-09 1 1 1 1 0.0021139088033385531 1 1 1 1 1 1 1 0.0075515690465977146 1 1 0.0090439026682543333 1 1 1 1 1 1 1 1 1 1 1 1 1 1 1 1 1 1 1 1 1 1 1 1 1 1 1 1 0.0098971410212895742 1 1 0.013993813104982133 1 1 0.010198775983002213 1 1 1 1 1 0.016471167839522328 0.011533901458275148 1 1 0.0077990619159924671 1 1 0.00062613494445473272 0.015820577541140957 1 0.013374481821996569 1 1 1 1 1 1 1 -3.6293256247543759e-10 1 1 1 1 3.4765915146728332e-09 1 1 1 1 1 1 1 1 1 1 0.010051589677914724 1 1 1 1 1 1 1 1 1 1 0.010308120546994037 1 0.015294102678046279 1 1 1 1 1 1 1 1 1 1 1 1 0.023277945015253983 1 1 0.016836261971237429 1 1 0.024653087814754553 1 1 1 1 1 1 1 1 1 1 1 1 1 1 0.00030231157080372328 1 1 1 0.0010921346016659252 1 1 1 0.010404569114841413 1 1 1 1 1 0.010238060512310295 1 1 0.016399714575891192 0.0048792954636577585 1 1 0.0099965755179233767 1 0.030350642557946655 1 1 1 1 0.0026758385005614827 1 1 1 1 0.010188929010419887 1 1 1 0.0096304322899937404 1 1 1 1 1 0.0094709623687083272 1 1 1 1 1 1 0.0096817244740433281 1 1 1 1 0.012067242843480657 1 1 1 1 1 1 0.0092175676274287334 1 1 1 1 1 1 1 0.0041325528647940136 1 1 1 0.0094211766599938823 0.0036393746022707497 1 1 1 0.0091425620767721458 0.0099971092470212131 1 1 1 1 1 0.0099996140001296849 1 1 1 1 0.010055234940733959 1 1 1.5967753785872674e-09 1 1 1 1 1 1 1 1 0.0081254256893524713 1 1 1 1 0.010314697206685966 1 0.011536977333438692 1 1 1 1 0.0067455086913624923 0.0080256981974403015 1 1 1 1 1 0.01015162711827939 0.0099904049290932551 1 1 1 1 1 1 1 1 1 1 1 1 1 1 0.010091864456235562 1 0.010325117079742201 1 1 1 1 1 1 1 1 1 1 1 0.0093363444515797336 1 1 1 0.0082188346902288892 0.0089445217740170557 1 1 1 0.0065514202691376866 1 1 0.0071712338405057682 1 1 1 1 1 0.013432862875949303 1 1 0.0098706884541096204 1 1 1 0.011339847930483985 1 1 1 0.0093629721257686462 1 1 1 1 1 1 1 1 0.0088136313107321784 1 1 1 1 1 0.008584094490709647 1 1 1 1 1 1 1 1 1 0.0038331112053158409 1 0.0040361723242756456 1 1 1 1 1 1 1 1 1 1 0.0074974690224908873 1 1 1 1 1 1 1 1 1 1 1 1 1 1 1 1 1 1 1 1 1 1 1 1 1 1 1 1 1 1 1 1 1 1 1 1 1 1 1 0.007294407903531086 1 1 1 1 1 1 1 1 1 1 1 1 1 1 1 0.0086903906659083086 1 1 1 0.0081078537990718659 1 1 1 1 1 0.0091945396849736089 1 1 1 1 1 1 1 1 1 1 1 1 0.0096142707320680549 1 1 1 1 1 1 1 1 1 1 1 1 1 1 1 1 1 1 1 1 0.0090331612677321416 1 1 1 1 1 1 1 1 1 1 1 1 1 1 1 1 1 1 1 1 0.0048868646974953994 0.0093666178751580925 1 1 1 1 1 0.0075240110345619754 1 1 1 1 1 1 1 1 1 1 1 1 1 1 1 1 1 1 1 1 1 1 1 1 1 1 1 1 0.011523990202108723 1 0.011102414684583062 1 1 1 0.0098785176010518783 1 1 1 1 1 1 1 1 1 1 1 1 0.0093049290227174564 1 1 1 1 1 1 1 1 0.0082588515843754571 1 1 1 0.0079870838293901528 1 1 1 1 1 1 1 0.010177037196969654 1 0.011179443137450614 1 1 1 1 1 1 1 1 1 1 1 1 1 1 1 1 1 1 0.019845692478303791 1 1 1 1 1 1 1 0.013425117874609108 1 1 1 0.011883981340354321 1 1 1 1 1 1 0.010881575399873354 1 1 1 1 1 1 1 1 1 0.010697056969467399 1 1 1 1 1 1 1 1 1 1 1 1 1 1 1 1 0.01541807019675466 1 0.020856520610872044 1 1 1 1 1 1 1 1 1 1 0.0091946532377619669 1 1 1 0.022771462153135261 1 1 1 1 1 1 1 1 1 1 1 1 1 1 1 1 1 1 1 1 1 0.014760596566911047 1 1 1 1 1 1 1 0.009558789042898766 1 1 1 1 1 1 1 1 1 1 0.0093652168315508221 1 1 1 1 1 1 1 1 1 1 0.026930678989337493 1 1 3.8210320324472136e-12 1 0.011337536040227244 1 1 1 1 1 0.024916684363692272 1 1 1 1 1 1 1 1 1 1 1 1 1 1 0.010183550340119828 1 1 1 1 1 1 1 1 1 1 1 1 1 1 1 1 1 1 1 1 1 1 1 1 1 1 1 1 1 0.0098048972382031117 1 1 1 1 1 1 1 1 1 1 1 1 1 1 1 1 1 1 1 1 1 0.0073770442689970114 1 1 1 1 1 1 1 1 1 1 1 0.0059736681356400978 1 0.012890794880022087 0.0097149454925895828 1 1 1 0.025305698841367526 1 1 0.023312213528707507 1 1 0.009993477050743986 1 1 1 1 1 1 1 1 1 1 1 1 1 1 1 0.011831085043702859 1 1 1 0.0090449399632989078 1 1 1 1 1 1 1 1 1 1 1 1 1 1 1 1 1 1 1 1 1 0.0148692422496172 1 1 1 1 1 1 1 0.003724435930997954 1 1 1 1 1 1 1 1 1 1 1 0.0017893540165428434 1 1 1 1.8653296997295232e-09 1 1 1 0.014619182702989744 1 1 1 1 1 1 1 1 1 1 1 1 0.0088962137011689771 1 1 0.0069195032418952335 1 1 1 0.026556509476532396 1 1 1 0.0091996704221280444 1 1 1 1 1 1 0.0099416225332746126 1 1 0.010394327080413449 1 1 1 1 0.010313664480329339 1 1 1 0.0058757810629053026 1 0.010083059398544682 0.034281734621707444 1 1 1 1 1 0.021939300675532403 1 1 0.018319417633448382 1 1 0.010980285406594355 1 1 1 1 1 1 0.010028475003432628 1 1 1 0.010453074753798444 1 0.018193708651397925 1 1 0.012134577649705096 1 1 1 0.010396302113779484 1 1 1 1 1 1 0.015881543951440258 0.010465390255818222 1 1 1 0.021978388422714393 1 1 0.0093338965916641981 1 1 0.0053472361972729133 1 1 1 1 1 1 1 1 0.0016303338227752501 0.0024174634000035163 0.022316961541759259 1 1 1 0.0045924075274674653 1 0.0065116189384623584 1 1 0.0088505713161950803 1 1 0.010134705079429795 1 1 0.011369918316725944 1 1 1 1 1 0.010780735166915523 1 1 1 0.0055799976302328431 0.011969095246133108 1 0.010018135073678588 1 1 1 1 1 1 1 1 1 1 1 0.010272688393725263 1 1 1 1 0.0024377021240149996 1 1 1 1 1 1 1 1 1 1 1 2.1437861798256908e-09 1 1 1 1 0.007399446738004899 1 0.004935052643127177 1 1 1 1 1 1 1 1 1 1 1 1 1 1 1 1 1 1 1 1 0.0098326313922498538 1 1 1 1 1 0.010142511996274937 0.006820306310342774 1 1 1 1 1 0.0094123082852692573 1 1 1 1 1 1 1 1 1 1 1 0.009579676893019376 1 1 1 1 0.0089735965880483812 1 -3.2106270628218248e-09 1 1 1 -1.2624482709222562e-10 1 1 1 0.0083032918861153035 1 1 1 1 1 1 0.0045629403717911375 0.0021164773574100584 1 1 1 0.015689997410066513 1.0823486204514232e-11 1 1 1 0.010011749301789115 0.008595171262308729 1 1 1 1 1 1 1 0.0097615134836618947 1 1 1 0.0099717809612390809 1 1 1 1 1 1 1 1 0.012193685494363678 1 1 1 1 1 1 1 0.010039017269449405 0.0069852998582970519 1 1 1 0.010874063586823662 1 1 1 1 1 1 0.013935028310122485 1 0.0080117756260758011 1 1 1 1 0.010556878271925384 1 1 1 1 1 1 1 1 1 1 1 0.010622051728728592 1 1 1 1 1 1 1 1 1 1 1 0.0090221157702327845 1 1 1 1 1 0.01200732209666279 1 1 0.0046041577884370303 1 1 1 1 -4.0661063457209101e-09 1 1 1 0.0049792838379176391 1 1 0.015786246286577939 0.017510451436185313 0.0031129970625781832 1 1 1 0.011048909033741762 1 1 1 1 1 1 1 1 1 1 0.0014209808560854478 1 1 0.010010924143206555 1 1 0.0099660460583121807 1 1 1 1 1 1 0.0058836917563974134 1 1 1 1 1 1 1 1 1 0.01114898049395182 1 1 1 1 1 1 1 1 1 1 1 1 1 1 1 1 1 1 2.5836058153982933e-09 1 1 1 1 1 0.0043410422138117841 0.0094013163511550476 1 0.0062288800610966876 1 1 1 0.0069152342661923868 1 0.0075892408277528425 1 1 1 1 1 1 1 1 1 1 1 1 1 0.008690214313495738 0.0034725947309200006 1 1 1 1 0.0098027708390650697 1 1 1 0.008137564220572116 1 1 1 1 1 1 1 1 1 1 1 1 1 1 1 1 1 1 1 1 1 1 1 1 1 1 1 1 1 1 1 1 1 -5.5430967853958846e-09 1 1 1 1 1 1 1 1 1 1 1 1 1 -3.3524560085450295e-09 1 1 1 -4.9193443121126057e-09 1 1 1 1 1 0.031380972299913115 1 1 1 1 1 1 0.011181580561866057 1 1 1 1 1 1 0.010760454239594555 1 1 1 1 1 0.032753265536967856 0.010011269214765889 1 1 1 1 1 0.0026827531137144991 1 1 1 1 1 0.010194967040213193 1 1 1 1 1 1 1 1 1 1 1 1 1 1 1 1 1 1 1 1 1 1 1 1 1 1 0.0068540124705188266 0.0054216182438448189 1 1 1 1 1 1 1 0.004150561804691302 1 1 1 1 1 1 1 1 1 1 1 1 1 1 1 1 1 1 1 1 1 1 1 1 1 1 1 1 1 1 1 1 1 1 1 1 1 1 1 1 1 0.028361040870740352 1 1 1 0.0089232839044718348 0.0097376352238566968 1 1 1 1 1 1 1 1 1 1 -3.6962717175209603e-10 1 1 1 0.0016207159920757323 1 1 1 1 1 1 1 1 0.0092141942847338322 1 1 0.028409224200481278 1 1 1 1 1 1 0.02854492974107747 1 1 0.0077639823968908128 1 1 1 1 0.022859794514559578 1 0.0042479599635860295 1 0.0029113508466455523 1 1 0.010471343183720928 1 1 1 1 1 1 1 1 1 1 1 1 0.0050968010226170729 1 1 1 1 1 1 1 1 1 1 1 1 1 1 1 1 0.021564466316051502 0.010142462548403217 1 0.0087743328916361236 1 1 1 0.027758173275060555 1 1 1 1 1 9.9013823449221362e-05 1 1 1 0.030501410836617105 1 1 -1.0329442197420935e-09 1 1 0.017320139450040781 1 1 0.012606866091840779 1 1 1 0.005538157749586747 1 1 1 1 1 1 0.011158669059088376 1 1 0.01279405543096411 1 1 1 1 1 0.0027504900055602306 1 1 0.00090111890103244593 1 1 0.010482323179009517 0.0013851639560548655 1 0.010609422901059913 1 1 1 1 1 1 1 1 0.010172406508028663 1 1 1 1 1 0.01000501601938291 1 1 1 1 1 1 1 1 1 1 1 1 1 0.01363311445459537 0.0073395987965575865 1 1 1 0.013422540322393872 1 1 1 1 1 1 1 1 1 1 1 1 0.0097284037563864015 1 1 1 0.010827511751067435 1 1 1 0.010268566615735567 1 1 1 1 1 1 0.010051026233808234 1 1 1 1 1 1 1 0.0097200761773084399 1 1 1 1 1 1 1 1 0.0081385576771683954 1 0.0093177411875247501 1 1 1 1 1 1 1 1 1 1 0.0096692784371206 1 1 1 0.0074189247077370291 0.010299878851271496 1 1 1 1 1 1 1 1 1 1 1 1 1 1 1 1 1 1 1 1 1 1 1 1 1 1 1 0.03050377269935526 1 1 0.010616093362484688 1 1 1 1 1 1 1 1 1 1 1 1 1 1 1 1 1 0.0077499130419852388 0.0066495861071947156 1 1 0.010354875141363518 1 0.0004770409946408781 1 1 0.02960832104802745 1 1 1 0.018391975271693499 0.013352565247687659 0.013064834989458653 1 1 1 1 1 1 1 1 1 1 1 1 1 1 1 1 1 1 1 1 1 1 1 0.010093080389468954 1 1 1 1 1 1 1 1 0.015659264282035477 1 1 0.018223868544433496 1 1 1 1 1 1 1 1 1 0.020049669475610737 0.010385515497341853 1 1 1 1 1 1 1 1 1 1 0.0024869518884047814 1 1 1 1 1 1 1 0.010151273211008704 1 1 0.0099845042108562196 1 1 1 1 1 1 1 1 0.00068375772239263194 1 1 1 1 1 1 1 1 1 1 1 0.0095052066223714274 1 1 1 1 1 1 1 1 1 0.00050870124249959708 0.013152641958671938 1 1 1 1 1 1 0.0081700077048913449 1 1 1 1 0.0092211337215346439 1 1 1 1 1 0.010009174917255101 1 1 1 1 1 1 0.011224210107232872 1 1 1 0.0082290547996696911 1 1 1 1 1 1 1 1 1 1 1 1 1 1 1 1 1 1 1 1 0.011472449389616605 1 1 1 0.010354265669204235 1 1 1 1 0.0084109334486218573 1 1 0.0054908555310505675 1 1 1 1 1 1 1 1 1 1 1 1 1 1 1 1 1 1 1 1 1 1 1 1 1 1 1 1 1 1 0.005032273947265388 1 1 1 1 1 1 1 1 0.01027018001188066 0.0099403612849817205 1 1 1 1 1 1 1 1 1 1 1 1 1 1 1 1 1 1 1 0.004797022061639282 1 1 1 0.014654059602585702 1 1 1 1 0.015719815555884621 1 0.013417625225150741 0.0082644162335910876 1 1 1 1 1 0.0094377079016602639 1 1 1 1 1 1 1 1 0.0075381981968093495 1 1 1 1 1 1 1 1 1 1 0.010669532597275273 1 1 1 1 0.0085302771186743023 1 1 1 1 1 1 1 1 1 1 1 1 1 1 1 1 0.005746010683584192 1 1 0.0083006052170237349 1 1 0.0038672903754881308 1 1 1 1 0.0062361484893543248 0.010201922003917917 1 1 1 1 1 1 1 1 0.01570839813038595 1 0.010032650210548541 1 1 0.01640847654383977 0.010784009619591858 1 1 1 1 0.0099990131494583634 1 1 1 1 1 1 0.019605777302396696 1 1 1 1 0.006728482227404721 1 1 1 1 1 1 1 1 1 0.019171296951713053 0.009208554681866335 1 1 0.010685731407995816 1 1 1 1 1 1 1 1 1 1 1 1 1 1 1 1 1 1 1 1 1 1 1 1 1 0.0088899652375091526 1 1 1 1 1 0.0070752753608608124 1 1 1 1 0.0074174363745839744 1 1 1 1 0.004091113217197552 1 1 0.0054461660401624382 1 1 1 1 1 1 1 1 1 1 1 1 1 1 0.010909111270557315 1 1 1 0.012201232742138416 1 1 1 1 1 1 1 1 1 1 1 1 1 1 1 1 1 1 1 1 1 0.024590569922659934 1 1 1 1 1 1 1 0.0087920232576959648 1 1 1 1 1 1 1 1 1 1 1 1 1 0.011412639142661715 1 1 0.026212564668629521 1 1 1 1 1 0.0070256187691012245 1 1 1 1 0.017036288876466105 0.01313437207569031 0.00026256641533643071 1 1 1 1 0.0092756257374864946 1 1 1 1 1 0.0015468677052616481 1 1 1 1 1 0.015945023448224689 1 0.0091706883882060886 1 1 1 1 0.019043540346326868 1 0.018146382750905472 1 1 1 1 0.0087986305604933757 1 1 1 1 1 1 0.010271644183258304 1 1 1 1 1 1 0.0096939928906042173 1 1 1 1 1 1 1 1 1 1 1 1 1 1 1 1 1 1 1 1 1 1 1 1 1 1 1 1 1 1 0.0093362446722402986 1 1 1 0.011622569181392914 0.0077944947354289841 1 1 1 1 0.01704397820040212 1 0.0048209310253257004 0.0059895873981205341 1 1 0.016801501837793761 1 1 0.015612937526104197 1 0.015348078140671847 1 1 1 1 1 1 0.01048711438328568 1 1 0.0067165981957473947 1 1 1 1 1 1 1 0.018044690859770719 1 1 1 1 0.022125595109400688 1 1 1 1 0.016796961049198221 1 1 1 1 1 2.0557901943274448e-09 1 1 1 0.010580118712780957 1 1 1 1 1 1 1 1 0.0070123240584290883 1 1 1 1 1 1 1 1 1 1 1 1 1 1 1 1 1 1 1 1 0.01437368401093307 1 1 1 1 1 1 1 0.016189889083268058 0.0075651824393457162 1 1 1 1 0.013967604999357444 1 1 1 1 1 1 1 1 1 0.0095293331962641101 1 1 1 1 0.0087199649446668068 1 1 1 1 1 1 1 1 1 1 1 1 1 0.011321260444545619 1 1 1 1 1 0.014108056273822205 1 1 1 1 1 1 1 1 1 1 1 1 1 1 1 1 1 1 0.0075399460256765291 1 1 1 1 1 1 1 1 1 1 1 1 1 1 1 1 1 1 1 1 1 1 1 1 1 1 0.035041872354054995 1 1 0.010667094017877521 1 1 1 1 1 1 1 0.032064214462587712 1 1 1 0.010034402818900664 1 1 1 1 1 1 0.0070271875051780147 1 1 1 1 1 1 1 1 1 1 1 1 1 1 1 1 1 1 1 1 1 1 1 0.0095051442121914381 0.018057307323399396 1 0.012762794927020786 1 1 1 1 1 1 1 0.011422411605911398 1 1 0.021308365236544051 1 1 1 1 1 1 1 1 1 1 1 1 1 1 0.0037950497949603285 1 1 1 1 1 0.0012550244382566883 1 1 1 0.034729834830314499 1 0.0039020096808774357 1 0.010973326461302063 1 1 0.010281144693551153 1 1 1 1 1 1 1 1 1 1 1 1 0.017634794307902654 1 1 0.0087556903391008134 0.021525194641461437 1 1 1 1 0.023639108943458043 0.013166714045063053 1 1 1 0.010953337753027016 1 1 1 1 1 1 1 1 0.0099594027818403347 1 1 1 0.0099593446128576624 1 1 1 1 1 1 1 1 1 1 1 1 1 1 1 1 1 1 1 1 1 1 1 0.010800389834392708 1 1 1 1 1 1 1 1 1 1 1 1 0.011953076180033426 1 1 0.015609137386163464 1 1 1 1 1 1 1 1 1 0.0090998234090588423 1 1 1 1 1 1 1 0.0072075391020272606 1 1 1 1 1 1 1 1 1 1 1 1 1 1 1 0.012163243109720646 1 1 1 1 0.012965990889930145 1 1 1 0.013189018993224194 1 0.0099052588733405597 1 1 0.010008739093028719 1 0.010287989934745808 1 1 0.01016308380607215 1 0.010001755894512673 1 1 1 1 1 1 1 1 1 1 1 1 1 1 1 1 1 1 1 1 1 1 1 1 1 1 1 1 1 1 1 1 1 1 1 1 1 1 0.0024911363131376388 1 1 1 1 1 1 1 0.031151138850830932 1 1 0.019122710943868013 1 1 -7.399790363793457e-09 1 1 0.029695808308165868 1 1 1 1 0.010152516583994551 1 1 0.0098824985396478715 1 1 1 0.022894864974235776 0.0013264753000649318 1 0.028563328116757672 1 0.0066187705502495434 0.033058625530361693 1 1 1 1 1 1 1 1 1 1 1 1 1 0.010026344352364353 1 1 -6.6088003125575057e-11 0.0025072077986429617 1 1 0.0035010271410197275 1 1 1 1 0.00032162540434011594 1 1 0.0046089059038328453 1 1 0.010189973451196613 1 1 1 1 1 1 0.0097291520011919194 1 1 0.0085282238424332635 1 1 1 1 1 1 1 0.033020285643436398 1 1 1 1 1 1 1 1 1 1 1 1 1 1 1 1 1 1 1 1 1 1 1 1 1 1 1 1 1 1 1 1 1 0.0027305791043710018 1 1 1 0.00021402421920753423 1 0.019686395441731043 1 1 1 1 1 1 1 1 1 1 1 1 1 1 1 1 1 0.020455294417325971 0.016636685547706236 1 1 1 1 1 0.016611334198012036 0.014573827263506693 1 1 1 1 1 0.013321157745760169 1 0.013955244310306387 1 1 1 0.010657599350109102 1 1 0.011184445660979094 1 1 1 0.010325524162870817 1 1 1 0.010076040211968774 1 1 1 1 1 1 1 1 1 1 0.022291687420237179 1 1 1 1 1 1 1 1 1 1 1 1 1 1 1 1 1 1 1 1 1 1 1 1 1 0.00033857201553143951 1 1 1 1 1 1 -1.4051513771984325e-09 1 1 1 1 0.0094603041005591748 1 1 1 1 1 1 1 1 0.00873164109966066 1 1 1 1 1 1 0.027338846929632336 1 0.0063094830872863425 1 1 0.010001998033597671 1 1 1 1 1 1 1 1 1 9.4797875591079439e-09 1 0.027085343888594057 1 1 1 1 1 1 1 0.010945021192574365 1 1 0.0036368709620704723 1 1 1 1 1 1 1 0.0059151436873003185 1 1 1 1 0.027124370587070117 1 1 1 1 1 1 1 1 1 1 1 1 1 1 1 1 1 1 1 1 1 1 1 1 0.0074126004918025276 1 1 1 1 1 1 1 0.009154653313950864 1 1 0.015962549823505024 1 1 1 1 1 1 1 1 1 1 1 1 0.010552560607294198 1 1 1 1 1 1 0.010878084770165017 1 1 1 1 1 1 1 1 1 1 1 1 1 1 1 1 1 1 1 0.010581559138140347 0.012040022162661158 1 1 1 1 1 1 1 1 1 0.01010454902667165 1 1 1 1 0.010257975157514775 1 1 0.010153640755033715 0.010125262776924564 1 1 1 1 1 1 1 1 1 1 1 1 1 1 1 1 0.009190098179463424 1 1 1 0.0079158267912580391 0.014307206956497821 1 1 0.0057398326079399278 1 1 0.015305032919014031 1 1 1 1 1 0.0086267023987072408 1 0.005931409156485011 1 1 1 1 -1.374799739328747e-09 1 0.016116576693070206 1 1 1 0.0096301246819784428 1 0.025293843309140293 1 1 1 1 1.3098252288346046e-08 1 1 1 1 1 1 -5.0308155766232154e-09 1 1 1 1 1 1 1 1 1 1 1 1 1 1 1 1 1 1 0.010189409249896385 1 1 0.010675839930171193 1 1 1 0.0096120767180799677 1 1 1 1 1 1 1 1 1 1 1 1 1 1 0.0049714639179965761 1 0.0099928063948554816 1 1 1 1 1 0.010083749206406754 1 1 0.0044073689230995083 1 0.010042004783514471 1 1 1 1 1 1 1 1 0.0020044294168473781 1 1 1 -5.0543520618839821e-09 1 1 1 0.017915006919813386 1 1 0.0098895486186454246 1 1 1 1 1 1 1 1 1 1 1 1 1 1 1 0.010596402438895829 1 1 0.00028230891964278748 1 1 1 1 1 1 1 1 1 1 1 1 1 1 1 0.0103085469909358 1 1 1 1 1 1 1 0.01055174084742086 1 1 1 1 0.010243193856485103 1 1 1 1 1 1 1 1 1 1 1 1 1 1 1 1 1 1 1 1 0.0080480923130342684 1 1 1 1 1 1 1 0.0087053193935850634 1 1 1 1 1 1 1 1 1 1 0.0086682394440463079 1 1 1 1 1 1 1 0.024682818951267234 1 1 1.6654937706750417e-09 1 1 0.0036913631177399597 1 1 0.010092045453070686 1 1 1 1 1 1 1 1 0.0066099885726204795 1 1 0.01934220832069717 1 0.023113148441660306 1 1 1 1 1 1 0.0076094288972299584 1 1 1 1 1 1 1 1 1 1 1 1 1 1 1 1 1 1 1 1 1 1 1 1 1 1 1 1 1 1 1 1 1 1 0.01223509256491008 1 1 1 1 1 1 1 1 1 1 1 1 1 1 1 1 1 1 1 1 1 1 1 1 1 1 1 1 1 1 1 1 1 1 1 1 1 1 1 1 1 1 1 1 1 1 1 1 1 1 1 1 1 1 1 1 1 1 1 1 1 1 1 1 1 1 1 1 1 1 1 1 1 1 1 1 1 1 1 1 1 1 1 1 0.011891484293350133 1 1 1 1 1 1 1 0.0094698757428911835 1 1 0.011961619514105275 1 1 1 1 1 1 1 1 0.0093126231819750938 1 1 1 1 1 1 1 1 1 1 1 1 1 1 1 1 1 0.0092894291763533227 1 1 0.00016250349687793597 1 1 1 1 1 1 1 1 1 0.010986841819189243 1 1 1 1 1 1 1 0.010932180467583152 1 1 1 1 1 1 1 1 1 0.0099082696942585126 0.013218012179321647 1 1 1 1 1 1 1 1 0.010645951030912728 1 1 0.011664021375720861 1 1 1 0.0093054272277093477 0.0036357097549600433 1 0.01258434599734529 1 1 1 1 1 1 0.013306671546353257 0.0027834344279485407 1 1 1 1 1 1 1 1 1 0.020164159311995181 1 0.019762392801432126 1 1 1 1 0.011510767712137993 1 1 0.010943860633843765 1 0.0092180818330655639 1 1 1 0.010725945424764495 1 0.0077689975792629724 1 0.010132043756391615 1 1 0.0036305954541234059 1 1 1 0.010550400173350915 0.011076021696634583 1 1 1 0.011906153060630831 1 1 1 1 1 0.0085923611270414466 0.0068301372589307865 0.0058280306275701049 1 1 1 0.011619566421800074 1 1 1 1 1 1 1 1 1 1 1 1 1 1 1 1 1 1 1 1 1 1 1 1 1 1 0.0120549302094846 1 1 1 1 0.0099981662478595638 1 1 1 1 1 0.013263587611137809 1 1 1 1 0.012323452519701045 1 1 1 1 1 1 1 1 1 1 1 1 1 1 1 1 1 1 1 1 1 1 1 1 1 1 1 0.01013813617783962 1 1 1 1 1 1 1 1 1 1 1 1 1 1 1 1 1 1 1 0.0082615909807015938 1 -8.7000529610387067e-09 1 1 1 0.0029245132757500999 1 1 1 1 1 1 1 1 1 0.010009808465223292 1 0.0046599023481772063 0.0053076651897995108 1 1 0.01348971026255676 1 1 0.011387650178116972 1 1 0.010080314984741897 1 1 1 1 1 1 1 1 1 1 1 1 1 1 0.010492466508984709 1 1 1 1 1 1 1 1 1 1 1 0.00528451292330279 1 1 1 1 1 1 0.010157847367921153 1 1 1 1 0.010902700212204451 1 1 1 0.0027447243353408077 1 1 1 1 0.0099434667306500905 1 1 1 1 1 1 1 1 0.0091628257586236078 1 1 1 1 1 1 1 1 1 0.0078543486075769858 1 0.008000123871895002 1 1 1 1 1 1 1 1 1 1 1 0.0090170504943056003 1 1 1 1 1 1 1 1 1 1 1 1 1 1 1 0.010027774769408589 0.0094166341069606609 1 1 1 1 1 1 1 1 1 1 1 1 1 1 1 1 1 1 1 1 1 1 1 1 1 1 1 1 1 1 1 1 1 1 1 1 0.0068375319597461619 1 1 1 1 1 1 1 1 1 1 1 1 1 1 1 0.0031110543539635046 1 1 1 1 1 1 1 1 1 1 1 1 1 0.0060422023134188291 0.0062735223942173499 1 1 1 1 1 1 1 1 1 1 1 1 1 1 1 1 1 1 1 0.0035333393464478252 1 1 0.0098124308545851843 1 1 1 1 1 1 1 1 1 1 0.0069638511952538704 1 1 1 1 1 1 1 1 1 1 -2.202338075796284e-09 1 1 1 1 1 0.01992761785839902 0.0099744220937149752 1 1 0.004091800329377792 1 1 1 1 1 1 1 1 0.010728927684819879 1 1 1 1 1 1 1 1 0.019861341999045518 1 0.017600257560871364 1 1 1 1 0.018635779906494246 1 0.010229636105781786 1 1 1 1 0.0067280054848426751 1 0.019887438574282001 1 0.010404557517709162 1 1 0.010258946217435939 1 1 1 0.020563821753392147 1 1 0.020395232152300682 1 1 0.012007448935206607 1 1 1 0.013345758378058193 1 1 1 1 1 1 0.0094145021010823421 1 5.2699343708328961e-09 1 1 1 0.00569451820776367 1 1 1 1 1 1 1 1 0.020426412404327455 1 1 1 1 1 1 0.021828793535899442 1 1 0.0017151266883896552 1 1 1 0.020039749570774659 1 1 0.0037764619692161362 1 1 0.020068048444799272 1 1 1 0.010528746449815597 1 0.0066337679839942806 1 0.013143972981993695 1 1 1 1 1 1 1 1 1 1 1 1 1 1 1 1 1 1 1 1 1 1 1 1 1 1 1 0.013122509671719421 1 1 1 0.00579225429347726 1 1 1 1 1 1 1 0.007231382795552653 1 1 1 0.015733876276380968 1 1 1 0.013693465220129923 1 1 1 1 1 1 1 1 0.011314774989435528 1 1 1 1 0.0084303281838256916 1 1 1 1 1 1 1 1 1 1 1 1 1 1 1 1 1 1 1 1 1 1 1 1 0.01427044592912885 1 1 1 1 1 1 1 1 1 1 1 0.0094431415666269281 1 1 1 1 1 1 1 1 1 1 1 1 1 1 1 1 1 1 1 1 1 1 1 1 0.0097875133989839928 0.018293844507855324 1 1 0.011502714667132315 1 1 1 1 1 1 1 1 1 1 1 1 1 0.019212956174644018 1 1 1 1 1 1 1 1 0.019884889346665678 1 1 1 1 1 1 1 1 1 1 1 1 1 1 1 1 1 0.0099974920797713668 1 1 0.011177044937894925 1 1 1 1 0.0099686008581248153 0.0093827318061822911 1 1 1 1 1 1 1 1 0.0097835388776193709 1 1 1 1 0.0032322438963831562 1 1 1 0.0050198791605618066 1 1 1 1 1 1 1 0.008878275260843416 1 1 1 1 0.0083022528954296917 1 1 1 
</DataArray>
</CellData>
</Piece>
</UnstructuredGrid>
</VTKFile>
